11
 energy: -38.949320077440 gnorm: 0.000059907395 xtb: 6.7.1 (edcfbbe)
Mo           1.52706045132738       -0.00002972362262       -0.31474722207545
O            2.65451204006725        0.00012798347879       -1.48184892359723
O            0.93047554637484        1.49302484326757        0.25224355831082
Mo          -0.91680733045042        1.55028238725546       -0.05109007648678
O           -1.45905781176266        1.91408289952868        1.44576709750301
O           -1.21034174941384        2.70690993045933       -1.16790823558754
O           -1.71701968211345       -0.00000152808129       -0.50989798251334
Mo          -0.91684945049768       -1.55029180001176       -0.05112609418168
O           -1.45894518316986       -1.91397485285978        1.44581850236307
O           -1.21055777365405       -2.70697077174559       -1.16784293772178
O            0.93045194329248       -1.49315936766875        0.25202331398691
