13
 energy: -23.963491226545 gnorm: 0.000516213205 xtb: 6.7.1 (edcfbbe)
C           -1.42298179179618        0.83231917264435        0.07736767058253
C           -1.54194132083505       -0.57274953641131        0.13413844765289
C           -0.44929905507005       -1.39198533278807        0.08087387794470
C            0.81662621781851       -0.79369392859971       -0.03362101760292
N            2.00413838314488       -1.39923946945396       -0.10122416268023
S            3.14467548583313       -0.27530685733327       -0.22434379994830
N            2.20983642042065        1.03031950261458       -0.19938030664067
C            0.93801607315740        0.64008040039683       -0.09155165465747
C           -0.20871799424579        1.44959248746016       -0.03393604426280
H           -2.32286170906883        1.42766301059300        0.12395003575371
H           -2.52864692927908       -1.00292824899540        0.22215196879065
H           -0.53058546912066       -2.46615640082019        0.12355517354993
H           -0.10825731095892        2.52208520069297       -0.07797818848201
