14
 energy: -17.360576287222 gnorm: 0.000161613626 xtb: 6.7.1 (edcfbbe)
Al           0.00003311171963        0.05092977279210        0.01929492326772
Al           0.00062965699283       -1.59826200580440       -1.96716627877203
Al          -1.36017761256985       -2.13100944046320        0.32677318019972
Al          -2.20440266516134       -0.13859024965919       -1.30472693200485
Al          -0.00043302696718       -1.04693625003576        2.38024236798552
Al          -1.36081255505065        2.23116406814920       -0.29643482835598
Al           2.20494156010216       -0.13787551322763       -1.30373455449899
Al           0.00031268843083        1.07759929707145       -2.34902513818415
Al           1.36060309724892       -2.13054247486376        0.32725621379867
Al          -2.19765296031839        0.24968833128823        1.41360816107341
Al          -0.00076880877533        1.76608809175938        1.97851232484790
Al           1.36015195424517        2.23147503603038       -0.29584595118752
Al           2.19691947125703        0.25034540180430        1.41468595985430
Ag           0.00079408884617        0.68533493515889        4.45592955197631
