%NProcShared=4
%Mem=32GB
#P PBE1PBE/Def2SVP EmpiricalDispersion=GD3BJ SP SCF=(XQC,MaxCycle=128,VShift=300) Pop=(NBO,Hirshfeld) NoSymm

HATCN Ag4 charges, Def2SVP, package G geometry

0 1
 N     -2.61128000     5.40001900    -1.15560400
 C     -1.91031200     4.49865200    -0.94815600
 C     -1.02077700     3.40544100    -0.69165700
 N     -1.60253000     2.19208300    -0.50217600
 C     -0.81620200     1.11066700    -0.25356300
 C     -1.39338100    -0.14086600    -0.05262800
 N     -2.74477800    -0.28406500    -0.10001300
 C     -3.28896000    -1.51366600     0.09570500
 C     -4.71795000    -1.58934800     0.03028000
 N     -5.87422800    -1.67540200    -0.01937800
 C     -2.49407100    -2.60351900     0.34540800
 C     -3.01919500    -3.91859500     0.56141300
 N     -3.46773400    -4.97503500     0.73346900
 N     -1.14053900    -2.48239400     0.39936900
 C     -0.57674700    -1.26103800     0.20307100
 C      0.80853000    -1.11610800     0.25422400
 N      1.59673000    -2.19598500     0.50060700
 C      2.94631800    -2.03432000     0.54655600
 C      3.71472200    -3.21402400     0.81055800
 N      4.35815500    -4.15618900     1.02309800
 C      3.51485000    -0.80162800     0.34810600
 C      4.92951900    -0.58015300     0.38637900
 N      6.07908500    -0.42499200     0.42211800
 N      2.74370400     0.29089000     0.10037200
 C      1.39248600     0.15003900     0.05051900
 C      0.58477900     1.25751800    -0.20182400
 N      1.14769200     2.47923400    -0.39839800
 C      0.34277900     3.54772600    -0.64352600
 C      1.00321200     4.80344100    -0.84058300
 N      1.51612400     5.83162000    -1.00374300
 Ag    -3.77801600     1.65436800    -0.52665700
 Ag    -6.06264900     2.54963500     0.64396100
 Ag    -5.88423000     2.02225800    -2.20136200
 Ag    -4.64773300     4.21469300    -1.05308300

