73
 energy: -118.804057220069 gnorm: 0.000270424177 xtb: 6.7.1 (edcfbbe)
C           -7.43229654141098        4.51691872317685        0.36642495395981
C           -7.78701970313311        3.46709849141282       -0.46446500684132
C           -6.98014854143852        2.34392444679362       -0.56060587475584
C           -5.78044927988796        2.25726213492014        0.17805062229141
C           -4.97899894150843        1.04753542095438        0.13622474619503
C           -3.58624796839359        1.04403634585611        0.22073225984353
C           -2.86656187995405       -0.13112442456479        0.12357411367577
C           -1.40951496441401       -0.08337727759758        0.07285202498518
C           -0.69626161560199        0.73643966160603        0.95240105645598
C            0.67850227499737        0.81046136043700        0.89869006493094
C            1.39557977550580        0.07088235850483       -0.04225363858551
C            2.86198314623621        0.10601279351472       -0.07630192071537
C            3.56891598855725       -1.08044086336973       -0.05084749830710
C            4.97231418663577       -1.06558406387681       -0.00751624387402
C            5.77673320720740       -2.29425793445080        0.03581665678413
C            5.24318444414281       -3.53573103560364        0.37665555999647
C            6.04618336625367       -4.66137387781066        0.39645728783538
C            7.39072331221832       -4.56796189395843        0.07910965678387
C            7.93382718368735       -3.33579080711686       -0.24961477363684
C            7.13632266774754       -2.20928778489584       -0.26951826399134
N            5.65121152654860        0.06839731189529       -0.00385352545630
C            5.00334630665956        1.22797681035878       -0.06590481646715
C            3.58989771879382        1.32215032734148       -0.11684659859981
C            2.97504940937278        2.59509400879200       -0.25978354590218
C            3.71446440851616        3.73155352378967       -0.29086008638426
C            5.13035202935968        3.68641158412782       -0.18593106085936
C            5.92948203713311        4.84227368579809       -0.19772252621718
C            7.29340583870156        4.71705246886185       -0.11404204002821
C            7.83707346010944        3.42886545541006       -0.02575405774876
N            7.12034912366829        2.33553928597227       -0.01316231890381
C            5.78882751413276        2.43686392296277       -0.08520515717854
C            0.68737480273057       -0.74435012105381       -0.92544876388640
C           -0.68747224486731       -0.81585318754064       -0.87436343795892
C           -3.59741143188505       -1.37101033285614        0.04550100776316
C           -2.98906868991816       -2.63274330990513        0.09753512377542
C           -3.72969846756299       -3.78996956571202        0.00455265775579
C           -5.12350061110045       -3.74473026686020       -0.12374913725147
C           -5.92326621737071       -4.91006092540348       -0.23330421408956
C           -7.28241843148036       -4.78721451992484       -0.32321699134372
C           -7.85386961659543       -3.51081478774383       -0.28891153748205
N           -7.13628563005864       -2.39858696256092       -0.18688996372351
C           -5.79501959883895       -2.48934434651073       -0.12029488367497
C           -5.01023361849275       -1.28024642676702       -0.02864511164136
N           -5.66335798131139       -0.11500874610849       -0.00843580584290
C           -5.42272030104218        3.34769566186991        0.98062496826342
C           -6.23755299485232        4.45512377722819        1.07488588134637
H           -8.06764561821217        5.38574002031191        0.44742029399762
H           -8.68428591119362        3.53692902266277       -1.06425223829801
H           -7.17903302758192        1.60525902504141       -1.34487604749615
H           -3.06071889007799        1.98612291906114        0.26988745523066
H           -1.23268095136221        1.29504952294485        1.70591481274545
H            1.21325101662930        1.42043117567601        1.61314638071916
H            3.02688501477474       -2.01344489450767       -0.04426014818986
H            4.20233245922359       -3.63109550278662        0.64794956176712
H            5.62024150349145       -5.61783586351148        0.66473713368512
H            8.01288749033395       -5.45115976034333        0.09375371951687
H            8.98412891317086       -3.25671054272043       -0.49041550136927
H            7.54057319205103       -1.23983493346775       -0.51488815281029
H            1.90104374829513        2.64120692427189       -0.36590986116335
H            3.23961108929774        4.69628763547296       -0.40529132559004
H            5.45799669889095        5.81328424878914       -0.27257676845998
H            7.93856101919682        5.58254528448574       -0.11784066093795
H            8.90899962727359        3.28849921739841        0.03745419229804
H            1.22775103374832       -1.30436621206788       -1.67565430065112
H           -1.22006343003992       -1.41846487359053       -1.59571821551809
H           -1.92043592316547       -2.69576074423123        0.23140372889831
H           -3.24090586147568       -4.75234171369607        0.03702665243482
H           -5.44301595198299       -5.87761279864222       -0.24248213969983
H           -7.92079685952833       -5.65300138693366       -0.41072879809976
H           -8.92785351803837       -3.39301403149953       -0.34177683187090
H           -4.50743763747177        3.30467878039008        1.55179594908566
H           -5.94888661234694        5.28105480684283        1.70862973711212
Ag          -7.94018207169038       -0.16068642474380        0.03411253137422
