15
 energy: -28.787073742626 gnorm: 0.000433089330 xtb: 6.7.1 (edcfbbe)
N            3.97757052631022        0.11646221192121       -0.41084069799678
C            2.80831492829075        0.08072751866509       -0.21072974907292
C            1.44880120247797        0.04686131889438       -0.11022508249934
C            0.74620222190508       -1.18847135653728       -0.17715732762294
C           -0.61609848234765       -1.21256812704763       -0.08806210512808
C           -1.34638582056335       -0.01936546868156        0.07157767869909
C           -2.74362689357198       -0.05320979871727        0.17047359681512
N           -3.89109840318033       -0.08183487395274        0.25499258915600
C           -0.65900542272777        1.20789956438307        0.13368860565771
C            0.70296635112367        1.24828519774407        0.04632909340399
H            1.31040510995636       -2.10068858266171       -0.29911315647054
H           -1.14957242382378       -2.15081752719556       -0.13670126638746
H           -1.22530721066038        2.12003634711699        0.25430616544205
H            1.23448042379372        2.18663617035859        0.09404366799389
Ag           5.62689989301776        0.02825040571076        0.84333198800996
