10
 energy: -17.652009860659 gnorm: 0.000158161868 xtb: 6.7.1 (edcfbbe)
C            0.57544500295642       -0.73335470386194        0.28209398828534
C           -0.81016484650653       -0.52542837161956        0.12681455902494
C           -1.10905649741308        0.73747153591111       -0.28292279285226
S            0.30754153646900        1.69870146912375       -0.46965758228351
C            1.30898263118951        0.37461727276099       -0.01194285294280
H            1.01060667672625       -1.66547548851878        0.59466795935577
H           -1.55378600596160       -1.28065895718088        0.30728901257752
H           -2.07004552038526        1.17894311632697       -0.45691863361560
H            2.37052043905762        0.51258596904020        0.04071581136991
Ag           0.68271958386765        2.07276015801776       -3.31658746891922
