%Chk=Bphen_6atop.chk
%NProcShared=8
%Mem=48GB
#P PBE1PBE/Def2SVP EmpiricalDispersion=GD3BJ Opt=(MaxCycles=80) SCF=(XQC,MaxCycle=128,VShift=300) NoSymm

Bphen Ag at the atop site nearest C4, substrate frozen

0 2
 C  -1    -5.07510400     2.59605700    -0.84858200
 C  -1    -4.71571600     2.43416300     0.47885700
 C  -1    -3.98564800     1.32625400     0.87075400
 C  -1    -3.60881400     0.37048200    -0.06520000
 C  -1    -2.84989300    -0.82781600     0.35639200
 C  -1    -3.51290400    -1.97083200     0.74931000
 C  -1    -2.76401100    -3.08484200     1.14162000
 N  -1    -1.45664000    -3.11312900     1.16011500
 C  -1    -0.78741600    -2.01840900     0.78420700
 C  -1    -1.43729700    -0.83223700     0.36727600
 C  -1    -0.66728700     0.30029800    -0.02101800
 C  -1     0.68582400     0.26342600     0.00090800
 C  -1     1.38005600    -0.90900400     0.41294200
 C  -1     2.79040800    -0.98148200     0.44787000
 C  -1     3.62669400     0.17332600     0.05206600
 C  -1     4.02532800     1.10750000     1.00070700
 C  -1     4.82691800     2.17366100     0.63355500
 C  -1     5.23657100     2.31502900    -0.68161100
 C  -1     4.84107900     1.38739700    -1.63058400
 C  -1     4.03948600     0.32006200    -1.26686800
 C  -1     3.37713400    -2.15851000     0.86116500
 C  -1     2.55639300    -3.22975100     1.22803200
 N  -1     1.24951000    -3.18683600     1.20406400
 C  -1     0.65340200    -2.05766300     0.80757500
 C  -1    -3.97094100     0.53789100    -1.39649600
 C  -1    -4.70102000     1.64700000    -1.78496600
 H  -1    -5.64659900     3.46042300    -1.15284400
 H  -1    -5.00581700     3.17228700     1.21221300
 H  -1    -3.70334100     1.19590800     1.90579800
 H  -1    -4.59224300    -2.00367300     0.75332400
 H  -1    -3.25874100    -3.99554600     1.45445800
 H  -1    -1.19165500     1.19194300    -0.33447900
 H  -1     1.26783200     1.12492600    -0.29461700
 H  -1     3.70361400     0.99327400     2.02611200
 H  -1     5.13349300     2.89518000     1.37666900
 H  -1     5.86382500     3.14671300    -0.96650600
 H  -1     5.15874500     1.49424000    -2.65745800
 H  -1     3.72879300    -0.40634000    -2.00430500
 H  -1     4.45238900    -2.25004100     0.90015300
 H  -1     2.99041900    -4.16575200     1.55595000
 H  -1    -3.67719800    -0.20533800    -2.12404600
 H  -1    -4.97962600     1.76976200    -2.82135600
 Ag  0    -2.16790933    -2.49054018    -1.04914067

