72
Lattice="11.8884 0.0 0.0 0.0 11.0892 0.0 0.0 0.0 26.134994000000003" Properties=species:S:1:pos:R:3 pbc="T T T"
Mo       0.34353513       0.92410000       6.47571920
Mo       3.61926487       2.77230000       3.65927480
O        3.96042232       2.77230000       5.96627085
O        0.00237768       0.92410000       4.16872315
O        2.06541136       0.92410000       6.26692435
O        1.89738864       2.77230000       3.86806965
O        0.14781244       0.92410000       8.13499400
O        3.81498756       2.77230000       2.00000000
Mo       0.34353513       4.62050000       6.47571920
Mo       3.61926487       6.46870000       3.65927480
O        3.96042232       6.46870000       5.96627085
O        0.00237768       4.62050000       4.16872315
O        2.06541136       4.62050000       6.26692435
O        1.89738864       6.46870000       3.86806965
O        0.14781244       4.62050000       8.13499400
O        3.81498756       6.46870000       2.00000000
Mo       0.34353513       8.31690000       6.47571920
Mo       3.61926487      10.16510000       3.65927480
O        3.96042232      10.16510000       5.96627085
O        0.00237768       8.31690000       4.16872315
O        2.06541136       8.31690000       6.26692435
O        1.89738864      10.16510000       3.86806965
O        0.14781244       8.31690000       8.13499400
O        3.81498756      10.16510000       2.00000000
Mo       4.30633513       0.92410000       6.47571920
Mo       7.58206487       2.77230000       3.65927480
O        7.92322232       2.77230000       5.96627085
O        3.96517768       0.92410000       4.16872315
O        6.02821136       0.92410000       6.26692435
O        5.86018864       2.77230000       3.86806965
O        4.11061244       0.92410000       8.13499400
O        7.77778756       2.77230000       2.00000000
Mo       4.30633513       4.62050000       6.47571920
Mo       7.58206487       6.46870000       3.65927480
O        7.92322232       6.46870000       5.96627085
O        3.96517768       4.62050000       4.16872315
O        6.02821136       4.62050000       6.26692435
O        5.86018864       6.46870000       3.86806965
O        4.11061244       4.62050000       8.13499400
O        7.77778756       6.46870000       2.00000000
Mo       4.30633513       8.31690000       6.47571920
Mo       7.58206487      10.16510000       3.65927480
O        7.92322232      10.16510000       5.96627085
O        3.96517768       8.31690000       4.16872315
O        6.02821136       8.31690000       6.26692435
O        5.86018864      10.16510000       3.86806965
O        4.11061244       8.31690000       8.13499400
O        7.77778756      10.16510000       2.00000000
Mo       8.26913513       0.92410000       6.47571920
Mo      11.54486487       2.77230000       3.65927480
O       11.88602232       2.77230000       5.96627085
O        7.92797768       0.92410000       4.16872315
O        9.99101136       0.92410000       6.26692435
O        9.82298864       2.77230000       3.86806965
O        8.07341244       0.92410000       8.13499400
O       11.74058756       2.77230000       2.00000000
Mo       8.26913513       4.62050000       6.47571920
Mo      11.54486487       6.46870000       3.65927480
O       11.88602232       6.46870000       5.96627085
O        7.92797768       4.62050000       4.16872315
O        9.99101136       4.62050000       6.26692435
O        9.82298864       6.46870000       3.86806965
O        8.07341244       4.62050000       8.13499400
O       11.74058756       6.46870000       2.00000000
Mo       8.26913513       8.31690000       6.47571920
Mo      11.54486487      10.16510000       3.65927480
O       11.88602232      10.16510000       5.96627085
O        7.92797768       8.31690000       4.16872315
O        9.99101136       8.31690000       6.26692435
O        9.82298864      10.16510000       3.86806965
O        8.07341244       8.31690000       8.13499400
O       11.74058756      10.16510000       2.00000000
