76
Lattice="11.8884 0.0 0.0 0.0 11.0892 0.0 0.0 0.0 26.134994000000003" Properties=species:S:1:pos:R:3:move_mask:L:1:energies:R:1:forces:R:3:charge:R:1 energy=-7507.2552124817985 free_energy=-7507.2552124817985 dipole="7.58519224547609 1.1526658211072616 -3.9019283371223357" stress="0.035122929328703104 -8.825186189139159e-06 0.000758591999529323 -8.825186189139159e-06 0.024974991063964738 -4.91852952816643e-05 0.000758591999529323 -4.91852952816643e-05 0.020383225654896482" pbc="T T T"
Mo       0.34353513       0.92410000       6.47571920  F     -60.31238051      -0.70451853      -0.02450398       2.47556063       1.62170434
Mo       3.61926487       2.77230000       3.65927480  F     -61.18360201       0.39942308      -0.26427438      -2.24225716       1.67501494
O        3.96042232       2.77230000       5.96627085  F    -112.51287848       0.69445786       0.01018201       1.00043641      -0.70776080
O        0.00237768       0.92410000       4.16872315  F    -111.62522183      -0.62941511       0.00059487      -0.88892645      -0.65420483
O        2.06541136       0.92410000       6.26692435  F    -111.95402065      -0.13178321       0.00375908      -0.70242184      -0.64943738
O        1.89738864       2.77230000       3.86806965  F    -111.40573241       0.28510532       0.08003765       0.65068493      -0.64902842
O        0.14781244       0.92410000       8.13499400  F    -108.63185844       0.10976817       0.00565545      -2.22235252      -0.36419674
O        3.81498756       2.77230000       2.00000000  F    -108.62118825      -0.12244848       0.09684566       2.31343807      -0.42507184
Mo       0.34353513       4.62050000       6.47571920  F     -60.72586378      -1.15263240      -0.21144605       1.88662962       1.60475928
Mo       3.61926487       6.46870000       3.65927480  F     -61.57068851       0.32135833      -0.00345952      -3.10359786       1.65777826
O        3.96042232       6.46870000       5.96627085  F    -112.12374819      -1.44990636       0.00385338       1.38968698      -0.66818718
O        0.00237768       4.62050000       4.16872315  F    -111.46016482      -0.57903020       0.04997084      -0.79735046      -0.64543289
O        2.06541136       4.62050000       6.26692435  F    -113.08967382       0.59499043       0.47311827      -0.36273385      -0.71874010
O        1.89738864       6.46870000       3.86806965  F    -111.53272518       0.31097727       0.00070181       0.84333402      -0.66177043
O        0.14781244       4.62050000       8.13499400  F    -108.83526154       0.25834018       0.51054303      -1.64340866      -0.35364264
O        3.81498756       6.46870000       2.00000000  F    -108.95164155      -0.06555010      -0.00018272       2.39654105      -0.44936591
Mo       0.34353513       8.31690000       6.47571920  F     -60.72113453      -1.14637628       0.20919567       1.86981612       1.60491007
Mo       3.61926487      10.16510000       3.65927480  F     -61.18079576       0.40088156       0.26747237      -2.24467569       1.67496290
O        3.96042232      10.16510000       5.96627085  F    -112.51463923       0.69375743      -0.02172442       1.00010877      -0.70767578
O        0.00237768       8.31690000       4.16872315  F    -111.46204794      -0.57832746      -0.04957709      -0.79382023      -0.64547087
O        2.06541136       8.31690000       6.26692435  F    -113.08216617       0.59098570      -0.46932814      -0.36032909      -0.71782422
O        1.89738864      10.16510000       3.86806965  F    -111.40534259       0.28529034      -0.07984366       0.65065212      -0.64889783
O        0.14781244       8.31690000       8.13499400  F    -108.86870092       0.25382762      -0.50002421      -1.64947320      -0.35483699
O        3.81498756      10.16510000       2.00000000  F    -108.61773585      -0.12315612      -0.09492619       2.31271016      -0.42478814
Mo       4.30633513       0.92410000       6.47571920  F     -60.87248006      -0.53553831      -0.01090950       2.19415110       1.64678805
Mo       7.58206487       2.77230000       3.65927480  F     -61.35847820       0.60640586      -0.19405617      -2.25349290       1.68397378
O        7.92322232       2.77230000       5.96627085  F    -112.49638343       0.39546777       0.01766888       0.97679022      -0.72184536
O        3.96517768       0.92410000       4.16872315  F    -111.74602230      -0.57709533      -0.00071546      -0.86539241      -0.67781326
O        6.02821136       0.92410000       6.26692435  F    -111.71398463      -0.20459763       0.00420660      -0.65153006      -0.65512331
O        5.86018864       2.77230000       3.86806965  F    -111.01459658       0.26546196       0.11256379       0.69868811      -0.64245708
O        4.11061244       0.92410000       8.13499400  F    -108.94048061       0.13486360       0.00515666      -2.23539115      -0.39341975
O        7.77778756       2.77230000       2.00000000  F    -108.78173250      -0.18416484       0.12229231       2.35923861      -0.44038717
Mo       4.30633513       4.62050000       6.47571920  F     -62.32297307       1.71334825       1.99307667       0.79415872       1.57976580
Mo       7.58206487       6.46870000       3.65927480  F     -62.45882201      -0.25795554      -0.00729062      -1.25917363       1.64446807
O        7.92322232       6.46870000       5.96627085  F    -112.01544509       0.43825317       0.00037994       2.93831865      -0.67604144
O        3.96517768       4.62050000       4.16872315  F    -111.56022988      -0.54994820       0.02211174      -0.78661578      -0.67468079
O        6.02821136       4.62050000       6.26692435  F    -113.65454090       0.57277473      -0.45249810      -1.49359036      -0.79807599
O        5.86018864       6.46870000       3.86806965  F    -110.76287743       0.16832874       0.00188265       1.24535224      -0.63868350
O        4.11061244       4.62050000       8.13499400  F    -109.62046972      -0.89168282      -0.48208686      -1.40395245      -0.42176927
O        7.77778756       6.46870000       2.00000000  F    -109.66466310      -0.27360877      -0.00020706       2.62822446      -0.50778237
Mo       4.30633513       8.31690000       6.47571920  F     -62.31035442       1.68493372      -2.02037516       0.79651420       1.57954357
Mo       7.58206487      10.16510000       3.65927480  F     -61.35719986       0.60598413       0.19788110      -2.25693150       1.68394622
O        7.92322232      10.16510000       5.96627085  F    -112.50008034       0.39458700      -0.02794593       0.97667354      -0.72194734
O        3.96517768       8.31690000       4.16872315  F    -111.56286357      -0.54840311      -0.02274885      -0.78351775      -0.67483186
O        6.02821136       8.31690000       6.26692435  F    -113.66283696       0.57209699       0.46497197      -1.50608575      -0.79930317
O        5.86018864      10.16510000       3.86806965  F    -111.01687718       0.26543925      -0.11273006       0.69894226      -0.64258782
O        4.11061244       8.31690000       8.13499400  F    -109.63444809      -0.89450551       0.50076673      -1.40065662      -0.42265763
O        7.77778756      10.16510000       2.00000000  F    -108.77820422      -0.18413896      -0.12039005       2.35875847      -0.44010880
Mo       8.26913513       0.92410000       6.47571920  F     -60.84614435      -0.38882337      -0.02257187       2.28457939       1.66255078
Mo      11.54486487       2.77230000       3.65927480  F     -60.78172061       0.49102806      -0.12516412      -2.19579727       1.65847275
O       11.88602232       2.77230000       5.96627085  F    -111.73324306       0.61197475       0.17179099       0.74980448      -0.63667082
O        7.92797768       0.92410000       4.16872315  F    -111.82774831      -0.60596642      -0.00003116      -0.88879674      -0.69012858
O        9.99101136       0.92410000       6.26692435  F    -111.94462832      -0.09029940       0.00664311      -0.70769185      -0.65855195
O        9.82298864       2.77230000       3.86806965  F    -111.16610416       0.37838280       0.03886927       0.59935551      -0.63787977
O        8.07341244       0.92410000       8.13499400  F    -108.96121258       0.00147402       0.00657023      -2.30169275      -0.40243705
O       11.74058756       2.77230000       2.00000000  F    -108.22705842      -0.25451627       0.04066645       2.15642667      -0.39126941
Mo       8.26913513       4.62050000       6.47571920  F     -62.16732307      -1.25626353       1.67290831       1.27512247       1.63323928
Mo      11.54486487       6.46870000       3.65927480  F     -60.68590217       0.43275153      -0.00233244      -2.26698677       1.66606657
O       11.88602232       6.46870000       5.96627085  F    -112.13509883       0.79914703       0.00506602       0.97219390      -0.65757191
O        7.92797768       4.62050000       4.16872315  F    -111.48496947      -0.67114160      -0.13177163      -0.90407106      -0.68309108
O        9.99101136       4.62050000       6.26692435  F    -112.82808763       0.40888631       0.26302700      -0.64497541      -0.72646945
O        9.82298864       6.46870000       3.86806965  F    -111.14568572       0.54532161       0.00068699       0.62342386      -0.64469544
O        8.07341244       4.62050000       8.13499400  F    -109.74706668      -0.51140753       0.65178330      -2.77918721      -0.44929388
O       11.74058756       6.46870000       2.00000000  F    -108.30145597      -0.30771600       0.00016697       2.19533446      -0.39755310
Mo       8.26913513       8.31690000       6.47571920  F     -62.17507726      -1.24726619      -1.69784513       1.28172381       1.63282182
Mo      11.54486487      10.16510000       3.65927480  F     -60.78021157       0.49074166       0.12760033      -2.19647504       1.65841172
O       11.88602232      10.16510000       5.96627085  F    -111.73776432       0.61200764      -0.17788302       0.75049288      -0.63680036
O        7.92797768       8.31690000       4.16872315  F    -111.48797002      -0.67184383       0.13076699      -0.90104256      -0.68333107
O        9.99101136       8.31690000       6.26692435  F    -112.82298016       0.40316111      -0.26205434      -0.64132022      -0.72579362
O        9.82298864      10.16510000       3.86806965  F    -111.16654804       0.37791993      -0.03915790       0.59947887      -0.63784026
O        8.07341244       8.31690000       8.13499400  F    -109.75665868      -0.50625404      -0.63888207      -2.75162135      -0.44946138
O       11.74058756      10.16510000       2.00000000  F    -108.22613956      -0.25431788      -0.03994726       2.15638964      -0.39117708
Ag       6.06443834       6.46726268       7.61732698  T    -114.80284199       0.00948855       0.00322210      -0.04635653       0.12243258
Ag       0.82691014       6.48961669      10.16286333  T     -93.25557374       0.00448829      -0.00584946      -0.01289138       1.00836856
Ag       5.94884054       6.51236578      10.16257878  T     -97.56986562      -0.02448623       0.00689985       0.04285093       0.69218385
Ag       3.11555217       6.46687971       8.71699957  T    -107.29387508      -0.00879619       0.03317759       0.00399720       0.50370190
