74
Lattice="11.8884 0.0 0.0 0.0 11.0892 0.0 0.0 0.0 26.134994000000003" Properties=species:S:1:pos:R:3:move_mask:L:1:energies:R:1:forces:R:3:charge:R:1 energy=-7279.327035981803 free_energy=-7279.327035981803 dipole="3.486525357492323 1.0330245242250773 -4.037423600630304" stress="0.032561299251534385 0.0004300561051238049 -0.00035452186027573883 0.0004300561051238049 0.022609824095414965 3.232534576484817e-05 -0.00035452186027573883 3.232534576484817e-05 0.018103046790582823" pbc="T T T"
Mo       0.34353513       0.92410000       6.47571920  F     -59.94704114      -0.69395296      -0.11007417       2.46887720       1.62180619
Mo       3.61926487       2.77230000       3.65927480  F     -60.41057674       0.39425987       0.08869086      -2.32706908       1.64992089
O        3.96042232       2.77230000       5.96627085  F    -112.49508090       0.68258018       0.69600218       1.38727396      -0.66527618
O        0.00237768       0.92410000       4.16872315  F    -111.84198554      -0.59811339       0.01417010      -0.85205073      -0.65293160
O        2.06541136       0.92410000       6.26692435  F    -111.93950580      -0.07566449       0.02208882      -0.69542677      -0.63808891
O        1.89738864       2.77230000       3.86806965  F    -111.56893867       0.29098175       0.03809719       0.66230426      -0.63556583
O        0.14781244       0.92410000       8.13499400  F    -108.52919760       0.12964244       0.00422182      -2.23828848      -0.36017074
O        3.81498756       2.77230000       2.00000000  F    -108.51527345      -0.11390605      -0.00131014       2.19936361      -0.39946535
Mo       0.34353513       4.62050000       6.47571920  F     -60.16475579      -1.23637975      -0.08912637       2.26469578       1.60638193
Mo       3.61926487       6.46870000       3.65927480  F     -60.70754739       0.35606518      -0.22504647      -2.78651110       1.64702698
O        3.96042232       6.46870000       5.96627085  F    -112.68037181       0.31228027      -0.29620144       2.00675402      -0.67114955
O        0.00237768       4.62050000       4.16872315  F    -111.73809626      -0.59021113       0.01766693      -0.83602594      -0.64735640
O        2.06541136       4.62050000       6.26692435  F    -112.63642572       0.97719732       0.22215960      -0.02749191      -0.66808206
O        1.89738864       6.46870000       3.86806965  F    -111.69074672       0.30022767       0.00657765       0.77754149      -0.64867804
O        0.14781244       4.62050000       8.13499400  F    -108.38274038       0.21507136       0.06110885      -2.26736130      -0.33986938
O        3.81498756       6.46870000       2.00000000  F    -108.82811029      -0.04554626       0.05778823       2.28405672      -0.42239183
Mo       0.34353513       8.31690000       6.47571920  F     -60.30536683      -0.76509371       0.18674233       2.45381087       1.61676269
Mo       3.61926487      10.16510000       3.65927480  F     -60.57715633       0.30887570       0.15978358      -2.34481490       1.65730658
O        3.96042232      10.16510000       5.96627085  F    -112.56187735       0.76004466      -0.03988674       0.93071910      -0.69241607
O        0.00237768       8.31690000       4.16872315  F    -111.73023746      -0.60093109      -0.01990137      -0.87328967      -0.64960162
O        2.06541136       8.31690000       6.26692435  F    -112.66210556       0.37937439      -0.32022390      -0.43273290      -0.68955865
O        1.89738864      10.16510000       3.86806965  F    -111.55844441       0.30195180      -0.04770818       0.64558636      -0.63982304
O        0.14781244       8.31690000       8.13499400  F    -108.38627994       0.18969887      -0.09273916      -2.24859081      -0.34386088
O        3.81498756      10.16510000       2.00000000  F    -108.63421944      -0.10053987      -0.08377705       2.28186570      -0.41021745
Mo       4.30633513       0.92410000       6.47571920  F     -60.21400362      -0.66132818      -0.31150962       2.24596175       1.62528240
Mo       7.58206487       2.77230000       3.65927480  F     -60.62720140       0.61913629      -0.22185042      -2.41559292       1.65979809
O        7.92322232       2.77230000       5.96627085  F    -112.63823445       0.36746389       0.18867972       0.99606742      -0.70273343
O        3.96517768       0.92410000       4.16872315  F    -111.92899844      -0.52553524      -0.01387061      -0.78618000      -0.66467883
O        6.02821136       0.92410000       6.26692435  F    -111.86653578      -0.21127388      -0.00733942      -0.65685085      -0.64141520
O        5.86018864       2.77230000       3.86806965  F    -111.32519159       0.24579203       0.09075756       0.74245442      -0.63046093
O        4.11061244       0.92410000       8.13499400  F    -108.83746514       0.18475122      -0.05311903      -2.21386517      -0.38029670
O        7.77778756       2.77230000       2.00000000  F    -108.68226157      -0.16070027       0.08418850       2.29686733      -0.41437123
Mo       4.30633513       4.62050000       6.47571920  F     -56.25081265       1.59777841       1.52575308      -0.05461903       1.41834518
Mo       7.58206487       6.46870000       3.65927480  F     -61.56966941      -0.03669680       0.01210499      -2.04871614       1.63482946
O        7.92322232       6.46870000       5.96627085  F    -112.62363431       0.20657828      -0.08939540       2.56658672      -0.69297214
O        3.96517768       4.62050000       4.16872315  F    -111.60107718      -1.05842497       0.00408038      -2.61480906      -0.64534894
O        6.02821136       4.62050000       6.26692435  F    -113.59282888      -0.38300565       0.18906497      -0.28077106      -0.72506210
O        5.86018864       6.46870000       3.86806965  F    -111.15709340       0.15080624      -0.00895225       1.18245622      -0.63387837
O        7.77778756       6.46870000       2.00000000  F    -109.43883051      -0.24954714      -0.00308213       2.52852030      -0.46876945
Mo       4.30633513       8.31690000       6.47571920  F     -61.88755564       0.66368400      -0.97335097       0.88008561       1.60068852
Mo       7.58206487      10.16510000       3.65927480  F     -60.65244410       0.62507506       0.19811621      -2.39807232       1.66635403
O        7.92322232      10.16510000       5.96627085  F    -112.58850596       0.38565057      -0.04913103       0.97733180      -0.70363319
O        3.96517768       8.31690000       4.16872315  F    -111.81502597      -0.47251758       0.01946700      -0.75653182      -0.66808105
O        6.02821136       8.31690000       6.26692435  F    -113.79287192      -0.01990639      -0.66756156      -0.52244941      -0.78009836
O        5.86018864      10.16510000       3.86806965  F    -111.33877713       0.26277477      -0.09637005       0.72781150      -0.63838527
O        4.11061244       8.31690000       8.13499400  F    -110.15360601       0.03907464       0.27621422      -2.16819708      -0.44587554
O        7.77778756      10.16510000       2.00000000  F    -108.72758213      -0.16805976      -0.10069944       2.31072326      -0.41894397
Mo       8.26913513       0.92410000       6.47571920  F     -60.25724924      -0.25106221      -0.06614989       2.22852396       1.64549944
Mo      11.54486487       2.77230000       3.65927480  F     -60.36032143       0.51055564      -0.09743143      -2.28196764       1.64545847
O       11.88602232       2.77230000       5.96627085  F    -112.03226478       0.58075614       0.05599677       0.72345579      -0.64639740
O        7.92797768       0.92410000       4.16872315  F    -111.99213770      -0.61110863       0.01329118      -0.81005382      -0.67461295
O        9.99101136       0.92410000       6.26692435  F    -111.91302285      -0.26979400      -0.00193720      -0.67245378      -0.64165727
O        9.82298864       2.77230000       3.86806965  F    -111.42649878       0.25346715       0.03893499       0.63953883      -0.63447209
O        8.07341244       0.92410000       8.13499400  F    -108.87573386       0.03527595      -0.01258792      -2.26981115      -0.38926300
O       11.74058756       2.77230000       2.00000000  F    -108.36073670      -0.20110428       0.03032291       2.16708508      -0.38818574
Mo       8.26913513       4.62050000       6.47571920  F     -61.62666777      -0.98684253       1.03354752       0.90585134       1.62457471
Mo      11.54486487       6.46870000       3.65927480  F     -60.31910505       0.52309538       0.04234625      -2.36574653       1.65415818
O       11.88602232       6.46870000       5.96627085  F    -112.08179544       0.67396426      -0.03506359       0.78020179      -0.65075408
O        7.92797768       4.62050000       4.16872315  F    -111.75243861      -0.66978819      -0.07590939      -0.71682616      -0.67022213
O        9.99101136       4.62050000       6.26692435  F    -112.59079481      -0.24155428       0.19984186      -0.59125733      -0.68966486
O        9.82298864       6.46870000       3.86806965  F    -111.41898739       0.34742292      -0.01067257       0.67587918      -0.64252079
O        8.07341244       4.62050000       8.13499400  F    -109.86024331      -0.13415701       0.26890241      -2.36081396      -0.44324022
O       11.74058756       6.46870000       2.00000000  F    -108.44985117      -0.23155104      -0.00140065       2.19916520      -0.39598663
Mo       8.26913513       8.31690000       6.47571920  F     -61.59642508      -1.47364731      -1.01319859       1.21080281       1.63282051
Mo      11.54486487      10.16510000       3.65927480  F     -60.42715094       0.52181408       0.05678881      -2.23490057       1.64832921
O       11.88602232      10.16510000       5.96627085  F    -111.99695732       0.56265871       0.01252346       0.71667850      -0.64789245
O        7.92797768       8.31690000       4.16872315  F    -111.72654334      -0.67451881       0.09297421      -0.79520625      -0.67163325
O        9.99101136       8.31690000       6.26692435  F    -112.68245737      -0.19991168      -0.22169256      -0.60062885      -0.69924507
O        9.82298864      10.16510000       3.86806965  F    -111.41583426       0.25249264      -0.03509547       0.63115727      -0.63582120
O        8.07341244       8.31690000       8.13499400  F    -109.47374703      -0.25915570      -0.39378638      -2.27318519      -0.41902271
O       11.74058756      10.16510000       2.00000000  F    -108.37974705      -0.19939939      -0.03939294       2.17130190      -0.39053696
Ag       6.11451153       6.40714173       7.82149053  T    -110.46371061      -0.02394878      -0.01625319       0.00542767       0.15475070
Ag       6.73985741       6.43610301      10.42401412  T     -96.00404732       0.00151650      -0.05323439      -0.04076423       0.81856639
Ag       3.41371831       6.44595358       9.14399485  T    -100.04027805      -0.01495785      -0.01296205      -0.01286084       0.53197655
