%NProcShared=4
%Mem=32GB
#P PBE1PBE/Def2SVP EmpiricalDispersion=GD3BJ SP SCF=(XQC,MaxCycle=128,VShift=300) Pop=(NBO,Hirshfeld) NoSymm

Mo3O9 Ag4 charges, Def2SVP, package G geometry

0 1
 Mo     1.99997400    -0.00001100    -0.00002900
 O      3.01997800    -0.00000900     1.36001600
 O      3.02003400     0.00001500    -1.35997400
 O      1.15001200     1.99187900    -0.00006900
 Mo    -0.99999700     1.73202200     0.00013200
 O     -1.51000400     2.61543100     1.35997600
 O     -1.50999800     2.61537600    -1.36001400
 O     -2.30000000     0.00000000    -0.00001200
 Mo    -1.00000000    -1.73205100     0.00000000
 O     -1.51000000    -2.61539700     1.36000000
 O     -1.51000000    -2.61539700    -1.36000000
 O      1.15000000    -1.99185800    -0.00002500
 Ag     2.59749700     3.55249700     0.01962200
 Ag     4.36308700     1.76784100     1.40831900
 Ag     5.33467300     3.93336600     0.01003700
 Ag     4.35225000     1.77696000    -1.39926200

