%Chk=Mo3O9_Ag4.chk
%NProcShared=3
%Mem=24GB
#P PBE1PBE/Def2SVP EmpiricalDispersion=GD3BJ Opt=(Loose,MaxCycles=80) SCF=(XQC,MaxCycle=128,VShift=300) NoSymm

Mo3O9 Ag4 on the deepest site, substrate frozen

0 1
 Mo -1     2.00000000     0.00000000     0.00000000
 O  -1     3.02000000     0.00000000     1.36000000
 O  -1     3.02000000     0.00000000    -1.36000000
 O  -1     1.15000000     1.99185800     0.00000000
 Mo -1    -1.00000000     1.73205100     0.00000000
 O  -1    -1.51000000     2.61539700     1.36000000
 O  -1    -1.51000000     2.61539700    -1.36000000
 O  -1    -2.30000000     0.00000000     0.00000000
 Mo -1    -1.00000000    -1.73205100     0.00000000
 O  -1    -1.51000000    -2.61539700     1.36000000
 O  -1    -1.51000000    -2.61539700    -1.36000000
 O  -1     1.15000000    -1.99185800     0.00000000
 Ag  0     2.21985700     3.78453100    -0.00000100
 Ag  0     4.45248998     2.45210840    -0.00000100
 Ag  0     3.33617294     3.11831877    -2.25166705
 Ag  0     5.56880591     1.78589617    -2.25166705

