 Entering Gaussian System, Link 0=C:\G16W\g16.exe
 Input=Al4O6_t3_z1.gjf
 Output=Al4O6_t3_z1.out
 Initial command:
 C:\G16W\l1.exe ".\Gau-70560.inp" "Al4O6_t3_z1.out" /scrdir=".\"
 Entering Link 1 = C:\G16W\l1.exe PID=     97452.
  
 Copyright (c) 1988-2019, Gaussian, Inc.  All Rights Reserved.
  
 This is part of the Gaussian(R) 16 program.  It is based on
 the Gaussian(R) 09 system (copyright 2009, Gaussian, Inc.),
 the Gaussian(R) 03 system (copyright 2003, Gaussian, Inc.),
 the Gaussian(R) 98 system (copyright 1998, Gaussian, Inc.),
 the Gaussian(R) 94 system (copyright 1995, Gaussian, Inc.),
 the Gaussian 92(TM) system (copyright 1992, Gaussian, Inc.),
 the Gaussian 90(TM) system (copyright 1990, Gaussian, Inc.),
 the Gaussian 88(TM) system (copyright 1988, Gaussian, Inc.),
 the Gaussian 86(TM) system (copyright 1986, Carnegie Mellon
 University), and the Gaussian 82(TM) system (copyright 1983,
 Carnegie Mellon University). Gaussian is a federally registered
 trademark of Gaussian, Inc.
  
 This software contains proprietary and confidential information,
 including trade secrets, belonging to Gaussian, Inc.
  
 This software is provided under written license and may be
 used, copied, transmitted, or stored only in accord with that
 written license.
  
 The following legend is applicable only to US Government
 contracts under FAR:
  
                    RESTRICTED RIGHTS LEGEND
  
 Use, reproduction and disclosure by the US Government is
 subject to restrictions as set forth in subparagraphs (a)
 and (c) of the Commercial Computer Software - Restricted
 Rights clause in FAR 52.227-19.
  
 Gaussian, Inc.
 340 Quinnipiac St., Bldg. 40, Wallingford CT 06492
  
  
 ---------------------------------------------------------------
 Warning -- This program may not be used in any manner that
 competes with the business of Gaussian, Inc. or will provide
 assistance to any competitor of Gaussian, Inc.  The licensee
 of this program is prohibited from giving any competitor of
 Gaussian, Inc. access to this program.  By using this program,
 the user acknowledges that Gaussian, Inc. is engaged in the
 business of creating and licensing software in the field of
 computational chemistry and represents and warrants to the
 licensee that it is not a competitor of Gaussian, Inc. and that
 it will not use this program in any manner prohibited above.
 ---------------------------------------------------------------
  

 Cite this work as:
 Gaussian 16, Revision C.01,
 M. J. Frisch, G. W. Trucks, H. B. Schlegel, G. E. Scuseria, 
 M. A. Robb, J. R. Cheeseman, G. Scalmani, V. Barone, 
 G. A. Petersson, H. Nakatsuji, X. Li, M. Caricato, A. V. Marenich, 
 J. Bloino, B. G. Janesko, R. Gomperts, B. Mennucci, H. P. Hratchian, 
 J. V. Ortiz, A. F. Izmaylov, J. L. Sonnenberg, D. Williams-Young, 
 F. Ding, F. Lipparini, F. Egidi, J. Goings, B. Peng, A. Petrone, 
 T. Henderson, D. Ranasinghe, V. G. Zakrzewski, J. Gao, N. Rega, 
 G. Zheng, W. Liang, M. Hada, M. Ehara, K. Toyota, R. Fukuda, 
 J. Hasegawa, M. Ishida, T. Nakajima, Y. Honda, O. Kitao, H. Nakai, 
 T. Vreven, K. Throssell, J. A. Montgomery, Jr., J. E. Peralta, 
 F. Ogliaro, M. J. Bearpark, J. J. Heyd, E. N. Brothers, K. N. Kudin, 
 V. N. Staroverov, T. A. Keith, R. Kobayashi, J. Normand, 
 K. Raghavachari, A. P. Rendell, J. C. Burant, S. S. Iyengar, 
 J. Tomasi, M. Cossi, J. M. Millam, M. Klene, C. Adamo, R. Cammi, 
 J. W. Ochterski, R. L. Martin, K. Morokuma, O. Farkas, 
 J. B. Foresman, and D. J. Fox, Gaussian, Inc., Wallingford CT, 2019.
 
 ******************************************
 Gaussian 16:  EM64W-G16RevC.01 30-May-2019
                11-Sep-2026 
 ******************************************
 %Chk=Al4O6.chk
 %NProcShared=8
 Will use up to    8 processors via shared memory.
 %Mem=48GB
 ----------------------------------------------------------------------
 #P PBE1PBE/Def2SVP EmpiricalDispersion=GD3BJ SP SCF=(XQC,MaxCycle=128)
  NoSymm Guess=Read
 ----------------------------------------------------------------------
 1/38=1,172=1/1;
 2/12=2,15=1,17=6,18=5,40=1/2;
 3/5=43,7=101,11=2,25=1,30=1,74=-13,116=-2,124=41/1,2,3;
 4/5=1/1;
 5/5=2,7=128,8=3,13=1,38=6/2,8;
 6/7=2,8=2,9=2,10=2,28=1/1;
 99/5=1,9=1/99;
 Leave Link    1 at Fri Sep 11 20:47:35 2026, MaxMem=  6442450944 cpu:               1.0 elap:               0.2
 (Enter C:\G16W\l101.exe)
 --------------------------------------
 Al4O6 t=0.750 dz=+0.40 class=site2site
 --------------------------------------
 Symbolic Z-matrix:
 Charge =  0 Multiplicity = 2
 Al                    1.32934   0.54606   0.00001 
 Al                   -1.32934   0.54606   0.00001 
 Al                    0.       -1.33597   1.32984 
 Al                    0.       -1.33596  -1.32985 
 O                     0.        1.60852  -0.00002 
 O                     1.4159   -0.39516   1.41502 
 O                     1.4159   -0.39516  -1.41502 
 O                    -1.4159   -0.39516   1.41502 
 O                    -1.4159   -0.39516  -1.41502 
 O                     0.       -2.39807  0. 
 Ag                    4.25764   0.03792  -0.91025 
 
 ITRead=  0  0  0  0  0  0  0  0  0  0  0
 MicOpt= -1 -1 -1 -1 -1 -1 -1 -1 -1 -1 -1
 NAtoms=     11 NQM=       11 NQMF=       0 NMMI=      0 NMMIF=      0
                NMic=       0 NMicF=      0.
                    Isotopes and Nuclear Properties:
 (Nuclear quadrupole moments (NQMom) in fm**2, nuclear magnetic moments (NMagM)
  in nuclear magnetons)

  Atom         1           2           3           4           5           6           7           8           9          10
 IAtWgt=          27          27          27          27          16          16          16          16          16          16
 AtmWgt=  26.9815413  26.9815413  26.9815413  26.9815413  15.9949146  15.9949146  15.9949146  15.9949146  15.9949146  15.9949146
 NucSpn=           5           5           5           5           0           0           0           0           0           0
 AtZEff=   0.0000000   0.0000000   0.0000000   0.0000000   0.0000000   0.0000000   0.0000000   0.0000000   0.0000000   0.0000000
 NQMom=   14.6600000  14.6600000  14.6600000  14.6600000   0.0000000   0.0000000   0.0000000   0.0000000   0.0000000   0.0000000
 NMagM=    3.6415040   3.6415040   3.6415040   3.6415040   0.0000000   0.0000000   0.0000000   0.0000000   0.0000000   0.0000000
 AtZNuc=  13.0000000  13.0000000  13.0000000  13.0000000   8.0000000   8.0000000   8.0000000   8.0000000   8.0000000   8.0000000

  Atom        11
 IAtWgt=         107
 AtmWgt= 106.9050900
 NucSpn=           1
 AtZEff=   0.0000000
 NQMom=    0.0000000
 NMagM=   -0.1135700
 AtZNuc=  47.0000000
 Leave Link  101 at Fri Sep 11 20:47:35 2026, MaxMem=  6442450944 cpu:               0.0 elap:               0.2
 (Enter C:\G16W\l202.exe)
                          Input orientation:                          
 ---------------------------------------------------------------------
 Center     Atomic      Atomic             Coordinates (Angstroms)
 Number     Number       Type             X           Y           Z
 ---------------------------------------------------------------------
      1         13           0        1.329338    0.546055    0.000008
      2         13           0       -1.329338    0.546055    0.000008
      3         13           0        0.000000   -1.335966    1.329844
      4         13           0        0.000000   -1.335960   -1.329845
      5          8           0        0.000000    1.608524   -0.000023
      6          8           0        1.415899   -0.395163    1.415022
      7          8           0        1.415900   -0.395158   -1.415016
      8          8           0       -1.415899   -0.395163    1.415022
      9          8           0       -1.415900   -0.395158   -1.415016
     10          8           0        0.000000   -2.398065   -0.000004
     11         47           0        4.257639    0.037915   -0.910247
 ---------------------------------------------------------------------
                    Distance matrix (angstroms):
                    1          2          3          4          5
     1  Al   0.000000
     2  Al   2.658676   0.000000
     3  Al   2.660377   2.660377   0.000000
     4  Al   2.660381   2.660381   2.659689   0.000000
     5  O    1.701758   1.701758   3.230877   3.230853   0.000000
     6  O    1.701661   3.228697   1.702097   3.228647   2.832293
     7  O    1.701666   3.228700   3.228645   1.702097   2.832264
     8  O    3.228697   1.701661   1.702097   3.228647   2.832293
     9  O    3.228700   1.701666   3.228645   1.702097   2.832264
    10  O    3.230322   3.230322   1.701925   1.701924   4.006589
    11  Ag   3.108330   5.683404   5.003304   4.493449   4.628478
                    6          7          8          9         10
     6  O    0.000000
     7  O    2.830038   0.000000
     8  O    2.831798   4.003524   0.000000
     9  O    4.003524   2.831800   2.830038   0.000000
    10  O    2.831728   2.831725   2.831728   2.831725   0.000000
    11  Ag   3.697285   2.918532   6.146826   5.712389   4.988991
                   11
    11  Ag   0.000000
 Symmetry turned off by external request.
 Stoichiometry    AgAl4O6(2)
 Framework group  C1[X(AgAl4O6)]
 Deg. of freedom    27
 Full point group                 C1      NOp   1
 Rotational constants (GHZ):           1.1293682           0.2823726           0.2823088
 Leave Link  202 at Fri Sep 11 20:47:35 2026, MaxMem=  6442450944 cpu:               0.0 elap:               0.1
 (Enter C:\G16W\l301.exe)
 Standard basis: def2SVP (5D, 7F)
 Ernie: Thresh=  0.10000D-02 Tol=  0.10000D-05 Strict=F.
   187 basis functions,   363 primitive gaussians,   202 cartesian basis functions
    60 alpha electrons       59 beta electrons
       nuclear repulsion energy      1193.4220752212 Hartrees.
 IExCor= 1009 DFT=T Ex+Corr=PBE1PBE ExCW=0 ScaHFX=  0.250000
 ScaDFX=  0.750000  0.750000  1.000000  1.000000 ScalE2=  1.000000  1.000000
 IRadAn=      5 IRanWt=     -1 IRanGd=            0 ICorTp=0 IEmpDi=141
 NAtoms=   11 NActive=   11 NUniq=   11 SFac= 1.00D+00 NAtFMM=   60 NAOKFM=F Big=F
 Integral buffers will be    131072 words long.
 Raffenetti 2 integral format.
 Two-electron integral symmetry is turned off.
 R6Disp:  Grimme-D3(BJ) Dispersion energy=       -0.0175732377 Hartrees.
 Nuclear repulsion after empirical dispersion term =     1193.4045019836 Hartrees.
 Leave Link  301 at Fri Sep 11 20:47:36 2026, MaxMem=  6442450944 cpu:               1.0 elap:               0.2
 (Enter C:\G16W\l302.exe)
 NPDir=0 NMtPBC=     1 NCelOv=     1 NCel=       1 NClECP=     1 NCelD=      1
         NCelK=      1 NCelE2=     1 NClLst=     1 CellRange=     0.0.
 One-electron integrals computed using PRISM.
   1 Symmetry operations used in ECPInt.
 ECPInt:  NShTT=    3160 NPrTT=   13551 LenC2=    3064 LenP2D=    9486.
 LDataN:  DoStor=T MaxTD1= 7 Len=  274
 NBasis=   187 RedAO= T EigKep=  4.04D-03  NBF=   187
 NBsUse=   187 1.00D-06 EigRej= -1.00D+00 NBFU=   187
 Precomputing XC quadrature grid using
 IXCGrd= 4 IRadAn=           5 IRanWt=          -1 IRanGd=           0 AccXCQ= 0.00D+00.
 Defaulting to unpruned grid for atomic number  47.
 Generated NRdTot=       0 NPtTot=           0 NUsed=           0 NTot=          32
 NSgBfM=   201   201   201   201   201 MxSgAt=    11 MxSgA2=    11.
 Leave Link  302 at Fri Sep 11 20:47:41 2026, MaxMem=  6442450944 cpu:               5.0 elap:               5.6
 (Enter C:\G16W\l303.exe)
 DipDrv:  MaxL=1.
 Leave Link  303 at Fri Sep 11 20:47:42 2026, MaxMem=  6442450944 cpu:               0.0 elap:               0.1
 (Enter C:\G16W\l401.exe)
 Initial guess from the checkpoint file:  "Al4O6.chk"
 B after Tr=     0.235711    0.014895   -0.031139
         Rot=    0.999949   -0.000009    0.009116    0.004291 Ang=  -1.15 deg.
 Guess basis will be translated and rotated to current coordinates.
 JPrj=2 DoOrth=T DoCkMO=T.
 Initial guess <Sx>= 0.0000 <Sy>= 0.0000 <Sz>= 0.5000 <S**2>= 0.7530 S= 0.5015
 Leave Link  401 at Fri Sep 11 20:47:45 2026, MaxMem=  6442450944 cpu:               3.0 elap:               3.3
 (Enter C:\G16W\l502.exe)
 Keep R1 and R2 ints in memory in canonical form, NReq=317248728.
 FoFCou: FMM=F IPFlag=           0 FMFlag=           0 FMFlg1=           0
         NFxFlg=           0 DoJE=F BraDBF=F KetDBF=F FulRan=T
         wScrn=  0.000000 ICntrl=       600 IOpCl=  0 I1Cent=           0 NGrid=           0
         NMat0=    1 NMatS0=  17578 NMatT0=    0 NMatD0=    1 NMtDS0=    0 NMtDT0=    0
 Symmetry not used in FoFCou.
 Two-electron integral symmetry not used.
 UHF open shell SCF:
 Using DIIS extrapolation, IDIIS=  1040.
 NGot=  6442450944 LenX=  6133362222 LenY=  6133320977
 Requested convergence on RMS density matrix=1.00D-08 within 128 cycles.
 Requested convergence on MAX density matrix=1.00D-06.
 Requested convergence on             energy=1.00D-06.
 No special actions if energy rises.

 Cycle   1  Pass 1  IDiag  1:
 Defaulting to unpruned grid for atomic number  47.
 Defaulting to unpruned grid for atomic number  47.
 Defaulting to unpruned grid for atomic number  47.
 Defaulting to unpruned grid for atomic number  47.
 Defaulting to unpruned grid for atomic number  47.
 Defaulting to unpruned grid for atomic number  47.
 Defaulting to unpruned grid for atomic number  47.
 Defaulting to unpruned grid for atomic number  47.
 E= -1566.94150750676    
 DIIS: error= 7.47D-03 at cycle   1 NSaved=   1.
 NSaved= 1 IEnMin= 1 EnMin= -1566.94150750676     IErMin= 1 ErrMin= 7.47D-03
 ErrMax= 7.47D-03  0.00D+00 EMaxC= 1.00D-01 BMatC= 4.32D-02 BMatP= 4.32D-02
 IDIUse=3 WtCom= 9.25D-01 WtEn= 7.47D-02
 Coeff-Com:  0.100D+01
 Coeff-En:   0.100D+01
 Coeff:      0.100D+01
 Gap=     0.126 Goal=   None    Shift=    0.000
 Gap=     0.174 Goal=   None    Shift=    0.000
 GapD=    0.126 DampG=1.000 DampE=1.000 DampFc=1.0000 IDamp=-1.
 RMSDP=9.15D-04 MaxDP=3.59D-02              OVMax= 7.05D-02

 Cycle   2  Pass 1  IDiag  1:
 E= -1566.94647419205     Delta-E=       -0.004966685297 Rises=F Damp=F
 DIIS: error= 1.69D-03 at cycle   2 NSaved=   2.
 NSaved= 2 IEnMin= 2 EnMin= -1566.94647419205     IErMin= 2 ErrMin= 1.69D-03
 ErrMax= 1.69D-03  0.00D+00 EMaxC= 1.00D-01 BMatC= 2.55D-03 BMatP= 4.32D-02
 IDIUse=3 WtCom= 9.83D-01 WtEn= 1.69D-02
 Coeff-Com:  0.690D-01 0.931D+00
 Coeff-En:   0.000D+00 0.100D+01
 Coeff:      0.678D-01 0.932D+00
 Gap=     0.112 Goal=   None    Shift=    0.000
 Gap=     0.162 Goal=   None    Shift=    0.000
 RMSDP=3.01D-04 MaxDP=1.47D-02 DE=-4.97D-03 OVMax= 1.97D-02

 Cycle   3  Pass 1  IDiag  1:
 E= -1566.94603084625     Delta-E=        0.000443345806 Rises=F Damp=F
 DIIS: error= 1.75D-03 at cycle   3 NSaved=   3.
 NSaved= 3 IEnMin= 2 EnMin= -1566.94647419205     IErMin= 2 ErrMin= 1.69D-03
 ErrMax= 1.75D-03  0.00D+00 EMaxC= 1.00D-01 BMatC= 5.40D-03 BMatP= 2.55D-03
 IDIUse=3 WtCom= 1.93D-01 WtEn= 8.07D-01
 Coeff-Com: -0.436D-02 0.599D+00 0.406D+00
 Coeff-En:   0.000D+00 0.621D+00 0.379D+00
 Coeff:     -0.841D-03 0.616D+00 0.384D+00
 Gap=     0.111 Goal=   None    Shift=    0.000
 Gap=     0.160 Goal=   None    Shift=    0.000
 RMSDP=1.59D-04 MaxDP=8.57D-03 DE= 4.43D-04 OVMax= 1.11D-02

 Cycle   4  Pass 1  IDiag  1:
 E= -1566.94711801440     Delta-E=       -0.001087168152 Rises=F Damp=F
 DIIS: error= 4.49D-04 at cycle   4 NSaved=   4.
 NSaved= 4 IEnMin= 4 EnMin= -1566.94711801440     IErMin= 4 ErrMin= 4.49D-04
 ErrMax= 4.49D-04  0.00D+00 EMaxC= 1.00D-01 BMatC= 8.59D-05 BMatP= 2.55D-03
 IDIUse=3 WtCom= 9.96D-01 WtEn= 4.49D-03
 Coeff-Com: -0.404D-02 0.241D+00 0.169D+00 0.594D+00
 Coeff-En:   0.000D+00 0.000D+00 0.000D+00 0.100D+01
 Coeff:     -0.402D-02 0.240D+00 0.168D+00 0.596D+00
 Gap=     0.111 Goal=   None    Shift=    0.000
 Gap=     0.160 Goal=   None    Shift=    0.000
 RMSDP=4.89D-05 MaxDP=3.94D-03 DE=-1.09D-03 OVMax= 5.31D-03

 Cycle   5  Pass 1  IDiag  1:
 E= -1566.94714125408     Delta-E=       -0.000023239678 Rises=F Damp=F
 DIIS: error= 1.99D-04 at cycle   5 NSaved=   5.
 NSaved= 5 IEnMin= 5 EnMin= -1566.94714125408     IErMin= 5 ErrMin= 1.99D-04
 ErrMax= 1.99D-04  0.00D+00 EMaxC= 1.00D-01 BMatC= 1.29D-05 BMatP= 8.59D-05
 IDIUse=3 WtCom= 9.98D-01 WtEn= 1.99D-03
 Coeff-Com: -0.606D-03-0.358D-01-0.215D-01 0.223D+00 0.835D+00
 Coeff-En:   0.000D+00 0.000D+00 0.000D+00 0.000D+00 0.100D+01
 Coeff:     -0.605D-03-0.357D-01-0.215D-01 0.222D+00 0.835D+00
 Gap=     0.111 Goal=   None    Shift=    0.000
 Gap=     0.160 Goal=   None    Shift=    0.000
 RMSDP=2.55D-05 MaxDP=1.25D-03 DE=-2.32D-05 OVMax= 1.77D-03

 Cycle   6  Pass 1  IDiag  1:
 E= -1566.94714685951     Delta-E=       -0.000005605427 Rises=F Damp=F
 DIIS: error= 7.19D-05 at cycle   6 NSaved=   6.
 NSaved= 6 IEnMin= 6 EnMin= -1566.94714685951     IErMin= 6 ErrMin= 7.19D-05
 ErrMax= 7.19D-05  0.00D+00 EMaxC= 1.00D-01 BMatC= 3.40D-06 BMatP= 1.29D-05
 IDIUse=1 WtCom= 1.00D+00 WtEn= 0.00D+00
 Coeff-Com:  0.371D-03-0.626D-01-0.403D-01 0.497D-01 0.459D+00 0.594D+00
 Coeff:      0.371D-03-0.626D-01-0.403D-01 0.497D-01 0.459D+00 0.594D+00
 Gap=     0.111 Goal=   None    Shift=    0.000
 Gap=     0.160 Goal=   None    Shift=    0.000
 RMSDP=1.01D-05 MaxDP=6.44D-04 DE=-5.61D-06 OVMax= 7.69D-04

 Cycle   7  Pass 1  IDiag  1:
 E= -1566.94714793130     Delta-E=       -0.000001071794 Rises=F Damp=F
 DIIS: error= 2.07D-05 at cycle   7 NSaved=   7.
 NSaved= 7 IEnMin= 7 EnMin= -1566.94714793130     IErMin= 7 ErrMin= 2.07D-05
 ErrMax= 2.07D-05  0.00D+00 EMaxC= 1.00D-01 BMatC= 4.64D-07 BMatP= 3.40D-06
 IDIUse=1 WtCom= 1.00D+00 WtEn= 0.00D+00
 Coeff-Com:  0.326D-03-0.251D-01-0.156D-01-0.270D-02 0.776D-01 0.280D+00
 Coeff-Com:  0.686D+00
 Coeff:      0.326D-03-0.251D-01-0.156D-01-0.270D-02 0.776D-01 0.280D+00
 Coeff:      0.686D+00
 Gap=     0.111 Goal=   None    Shift=    0.000
 Gap=     0.160 Goal=   None    Shift=    0.000
 RMSDP=4.15D-06 MaxDP=2.37D-04 DE=-1.07D-06 OVMax= 2.71D-04

 Cycle   8  Pass 1  IDiag  1:
 E= -1566.94714808324     Delta-E=       -0.000000151934 Rises=F Damp=F
 DIIS: error= 1.75D-05 at cycle   8 NSaved=   8.
 NSaved= 8 IEnMin= 8 EnMin= -1566.94714808324     IErMin= 8 ErrMin= 1.75D-05
 ErrMax= 1.75D-05  0.00D+00 EMaxC= 1.00D-01 BMatC= 1.24D-07 BMatP= 4.64D-07
 IDIUse=1 WtCom= 1.00D+00 WtEn= 0.00D+00
 Coeff-Com:  0.815D-04-0.297D-04 0.482D-03-0.104D-01-0.624D-01 0.129D-01
 Coeff-Com:  0.389D+00 0.670D+00
 Coeff:      0.815D-04-0.297D-04 0.482D-03-0.104D-01-0.624D-01 0.129D-01
 Coeff:      0.389D+00 0.670D+00
 Gap=     0.111 Goal=   None    Shift=    0.000
 Gap=     0.160 Goal=   None    Shift=    0.000
 RMSDP=1.84D-06 MaxDP=1.20D-04 DE=-1.52D-07 OVMax= 1.25D-04

 Cycle   9  Pass 1  IDiag  1:
 E= -1566.94714812061     Delta-E=       -0.000000037375 Rises=F Damp=F
 DIIS: error= 2.78D-06 at cycle   9 NSaved=   9.
 NSaved= 9 IEnMin= 9 EnMin= -1566.94714812061     IErMin= 9 ErrMin= 2.78D-06
 ErrMax= 2.78D-06  0.00D+00 EMaxC= 1.00D-01 BMatC= 1.04D-08 BMatP= 1.24D-07
 IDIUse=1 WtCom= 1.00D+00 WtEn= 0.00D+00
 Coeff-Com: -0.400D-05 0.334D-02 0.224D-02-0.487D-02-0.377D-01-0.281D-01
 Coeff-Com:  0.923D-01 0.297D+00 0.676D+00
 Coeff:     -0.400D-05 0.334D-02 0.224D-02-0.487D-02-0.377D-01-0.281D-01
 Coeff:      0.923D-01 0.297D+00 0.676D+00
 Gap=     0.111 Goal=   None    Shift=    0.000
 Gap=     0.160 Goal=   None    Shift=    0.000
 RMSDP=4.64D-07 MaxDP=3.25D-05 DE=-3.74D-08 OVMax= 3.32D-05

 Cycle  10  Pass 1  IDiag  1:
 E= -1566.94714812321     Delta-E=       -0.000000002603 Rises=F Damp=F
 DIIS: error= 1.45D-06 at cycle  10 NSaved=  10.
 NSaved=10 IEnMin=10 EnMin= -1566.94714812321     IErMin=10 ErrMin= 1.45D-06
 ErrMax= 1.45D-06  0.00D+00 EMaxC= 1.00D-01 BMatC= 2.25D-09 BMatP= 1.04D-08
 IDIUse=1 WtCom= 1.00D+00 WtEn= 0.00D+00
 Coeff-Com: -0.136D-04 0.190D-02 0.115D-02-0.109D-02-0.981D-02-0.162D-01
 Coeff-Com: -0.112D-01 0.546D-01 0.363D+00 0.618D+00
 Coeff:     -0.136D-04 0.190D-02 0.115D-02-0.109D-02-0.981D-02-0.162D-01
 Coeff:     -0.112D-01 0.546D-01 0.363D+00 0.618D+00
 Gap=     0.111 Goal=   None    Shift=    0.000
 Gap=     0.160 Goal=   None    Shift=    0.000
 RMSDP=1.68D-07 MaxDP=9.08D-06 DE=-2.60D-09 OVMax= 9.10D-06

 Cycle  11  Pass 1  IDiag  1:
 E= -1566.94714812375     Delta-E=       -0.000000000537 Rises=F Damp=F
 DIIS: error= 4.79D-07 at cycle  11 NSaved=  11.
 NSaved=11 IEnMin=11 EnMin= -1566.94714812375     IErMin=11 ErrMin= 4.79D-07
 ErrMax= 4.79D-07  0.00D+00 EMaxC= 1.00D-01 BMatC= 1.67D-10 BMatP= 2.25D-09
 IDIUse=1 WtCom= 1.00D+00 WtEn= 0.00D+00
 Coeff-Com: -0.422D-05 0.184D-04-0.297D-04 0.349D-03 0.317D-02 0.181D-03
 Coeff-Com: -0.179D-01-0.301D-01 0.120D-01 0.210D+00 0.822D+00
 Coeff:     -0.422D-05 0.184D-04-0.297D-04 0.349D-03 0.317D-02 0.181D-03
 Coeff:     -0.179D-01-0.301D-01 0.120D-01 0.210D+00 0.822D+00
 Gap=     0.111 Goal=   None    Shift=    0.000
 Gap=     0.160 Goal=   None    Shift=    0.000
 RMSDP=7.38D-08 MaxDP=3.98D-06 DE=-5.37D-10 OVMax= 4.91D-06

 Cycle  12  Pass 1  IDiag  1:
 E= -1566.94714812382     Delta-E=       -0.000000000065 Rises=F Damp=F
 DIIS: error= 1.65D-07 at cycle  12 NSaved=  12.
 NSaved=12 IEnMin=12 EnMin= -1566.94714812382     IErMin=12 ErrMin= 1.65D-07
 ErrMax= 1.65D-07  0.00D+00 EMaxC= 1.00D-01 BMatC= 2.94D-11 BMatP= 1.67D-10
 IDIUse=1 WtCom= 1.00D+00 WtEn= 0.00D+00
 Coeff-Com:  0.391D-06-0.273D-03-0.173D-03 0.346D-03 0.252D-02 0.246D-02
 Coeff-Com: -0.491D-02-0.198D-01-0.528D-01-0.135D-01 0.315D+00 0.771D+00
 Coeff:      0.391D-06-0.273D-03-0.173D-03 0.346D-03 0.252D-02 0.246D-02
 Coeff:     -0.491D-02-0.198D-01-0.528D-01-0.135D-01 0.315D+00 0.771D+00
 Gap=     0.111 Goal=   None    Shift=    0.000
 Gap=     0.160 Goal=   None    Shift=    0.000
 RMSDP=2.90D-08 MaxDP=1.56D-06 DE=-6.46D-11 OVMax= 1.56D-06

 Cycle  13  Pass 1  IDiag  1:
 E= -1566.94714812387     Delta-E=       -0.000000000052 Rises=F Damp=F
 DIIS: error= 9.11D-08 at cycle  13 NSaved=  13.
 NSaved=13 IEnMin=13 EnMin= -1566.94714812387     IErMin=13 ErrMin= 9.11D-08
 ErrMax= 9.11D-08  0.00D+00 EMaxC= 1.00D-01 BMatC= 1.26D-11 BMatP= 2.94D-11
 IDIUse=1 WtCom= 1.00D+00 WtEn= 0.00D+00
 Coeff-Com:  0.809D-06-0.169D-03-0.102D-03 0.167D-03 0.108D-02 0.144D-02
 Coeff-Com: -0.651D-03-0.823D-02-0.342D-01-0.363D-01 0.861D-01 0.487D+00
 Coeff-Com:  0.504D+00
 Coeff:      0.809D-06-0.169D-03-0.102D-03 0.167D-03 0.108D-02 0.144D-02
 Coeff:     -0.651D-03-0.823D-02-0.342D-01-0.363D-01 0.861D-01 0.487D+00
 Coeff:      0.504D+00
 Gap=     0.111 Goal=   None    Shift=    0.000
 Gap=     0.160 Goal=   None    Shift=    0.000
 RMSDP=1.02D-08 MaxDP=3.70D-07 DE=-5.18D-11 OVMax= 5.21D-07

 Cycle  14  Pass 1  IDiag  1:
 E= -1566.94714812386     Delta-E=        0.000000000005 Rises=F Damp=F
 DIIS: error= 2.24D-08 at cycle  14 NSaved=  14.
 NSaved=14 IEnMin=13 EnMin= -1566.94714812387     IErMin=14 ErrMin= 2.24D-08
 ErrMax= 2.24D-08  0.00D+00 EMaxC= 1.00D-01 BMatC= 9.35D-13 BMatP= 1.26D-11
 IDIUse=1 WtCom= 1.00D+00 WtEn= 0.00D+00
 Coeff-Com:  0.179D-06 0.774D-05 0.541D-05-0.326D-04-0.252D-03-0.130D-03
 Coeff-Com:  0.973D-03 0.201D-02 0.178D-02-0.914D-02-0.513D-01-0.134D-01
 Coeff-Com:  0.203D+00 0.866D+00
 Coeff:      0.179D-06 0.774D-05 0.541D-05-0.326D-04-0.252D-03-0.130D-03
 Coeff:      0.973D-03 0.201D-02 0.178D-02-0.914D-02-0.513D-01-0.134D-01
 Coeff:      0.203D+00 0.866D+00
 Gap=     0.111 Goal=   None    Shift=    0.000
 Gap=     0.160 Goal=   None    Shift=    0.000
 RMSDP=4.42D-09 MaxDP=1.48D-07 DE= 4.55D-12 OVMax= 2.31D-07

 SCF Done:  E(UPBE1PBE) =  -1566.94714812     A.U. after   14 cycles
            NFock= 14  Conv=0.44D-08     -V/T= 2.0653
 <Sx>= 0.0000 <Sy>= 0.0000 <Sz>= 0.5000 <S**2>= 0.7519 S= 0.5010
 <L.S>= 0.000000000000E+00
 KE= 1.470887413091D+03 PE=-6.088624182029D+03 EE= 1.857385118831D+03
 Annihilation of the first spin contaminant:
 S**2 before annihilation     0.7519,   after     0.7500
 Leave Link  502 at Fri Sep 11 20:49:25 2026, MaxMem=  6442450944 cpu:             100.0 elap:              99.6
 (Enter C:\G16W\l508.exe)
 QCSCF skips out because SCF is already converged.
 Leave Link  508 at Fri Sep 11 20:49:25 2026, MaxMem=  6442450944 cpu:               0.0 elap:               0.1
 (Enter C:\G16W\l601.exe)
 Copying SCF densities to generalized density rwf, IOpCl= 1 IROHF=0.

 **********************************************************************

            Population analysis using the SCF Density.

 **********************************************************************

 Alpha  occ. eigenvalues --  -56.15940 -56.15508 -56.15487 -56.14544 -19.17430
 Alpha  occ. eigenvalues --  -19.16783 -19.16725 -19.16504 -19.16244 -19.16176
 Alpha  occ. eigenvalues --   -4.19329  -4.18914  -4.18891  -4.17868  -3.78241
 Alpha  occ. eigenvalues --   -2.73072  -2.72667  -2.72625  -2.72338  -2.72320
 Alpha  occ. eigenvalues --   -2.71922  -2.71910  -2.71891  -2.71880  -2.71572
 Alpha  occ. eigenvalues --   -2.70925  -2.70897  -2.36431  -2.36172  -2.36099
 Alpha  occ. eigenvalues --   -0.96675  -0.93537  -0.93024  -0.92975  -0.91580
 Alpha  occ. eigenvalues --   -0.91306  -0.45133  -0.44706  -0.44085  -0.43984
 Alpha  occ. eigenvalues --   -0.38974  -0.38434  -0.38132  -0.37830  -0.37650
 Alpha  occ. eigenvalues --   -0.37341  -0.35960  -0.35778  -0.35606  -0.35531
 Alpha  occ. eigenvalues --   -0.35428  -0.32498  -0.32134  -0.31841  -0.31650
 Alpha  occ. eigenvalues --   -0.31455  -0.29122  -0.28639  -0.28529  -0.20681
 Alpha virt. eigenvalues --   -0.09542  -0.05924  -0.04455  -0.04144  -0.00950
 Alpha virt. eigenvalues --    0.00048   0.02666   0.04647   0.09070   0.11182
 Alpha virt. eigenvalues --    0.11365   0.13475   0.13661   0.14089   0.14602
 Alpha virt. eigenvalues --    0.14960   0.16097   0.17870   0.19597   0.19858
 Alpha virt. eigenvalues --    0.22448   0.25929   0.26332   0.26596   0.28906
 Alpha virt. eigenvalues --    0.31689   0.33077   0.37745   0.38561   0.39620
 Alpha virt. eigenvalues --    0.39684   0.40299   0.41667   0.42690   0.43259
 Alpha virt. eigenvalues --    0.44251   0.45030   0.45230   0.45538   0.46699
 Alpha virt. eigenvalues --    0.47618   0.49993   0.50542   0.52338   0.53038
 Alpha virt. eigenvalues --    0.53929   0.56645   0.57765   0.61213   0.67264
 Alpha virt. eigenvalues --    0.68215   0.71443   0.74050   0.78685   0.79134
 Alpha virt. eigenvalues --    0.80394   0.85390   0.86532   0.88327   0.88653
 Alpha virt. eigenvalues --    0.89319   0.94699   0.94911   0.95629   1.08597
 Alpha virt. eigenvalues --    1.11043   1.11480   1.12357   1.14746   1.15161
 Alpha virt. eigenvalues --    1.17299   1.21997   1.22913   1.24912   1.25118
 Alpha virt. eigenvalues --    1.25534   1.26534   1.28051   1.28926   1.30653
 Alpha virt. eigenvalues --    1.32720   1.39050   1.45797   1.46384   1.63487
 Alpha virt. eigenvalues --    1.64097   1.65294   1.90420   2.03328   2.59058
 Alpha virt. eigenvalues --    2.59073   2.59107   2.59165   2.59210   2.59247
 Alpha virt. eigenvalues --    2.59329   2.61748   2.64056   2.64264   2.64412
 Alpha virt. eigenvalues --    2.73899   2.74111   2.74813   2.75069   2.75304
 Alpha virt. eigenvalues --    2.75935   2.85652   2.85865   2.85981   2.89003
 Alpha virt. eigenvalues --    2.90811   2.90987   2.92236   2.92376   2.92653
 Alpha virt. eigenvalues --    2.99278   2.99424   2.99678   3.16028   3.16190
 Alpha virt. eigenvalues --    3.16286   3.16746   3.16998   3.27632   3.27867
 Alpha virt. eigenvalues --    3.28618  53.78867
  Beta  occ. eigenvalues --  -56.15930 -56.15504 -56.15484 -56.14520 -19.17262
  Beta  occ. eigenvalues --  -19.16780 -19.16716 -19.16501 -19.16197 -19.16163
  Beta  occ. eigenvalues --   -4.19312  -4.18905  -4.18886  -4.17819  -3.78123
  Beta  occ. eigenvalues --   -2.73059  -2.72659  -2.72618  -2.72317  -2.72311
  Beta  occ. eigenvalues --   -2.71917  -2.71902  -2.71888  -2.71877  -2.71485
  Beta  occ. eigenvalues --   -2.70900  -2.70871  -2.36323  -2.36158  -2.36093
  Beta  occ. eigenvalues --   -0.96586  -0.93346  -0.92998  -0.92930  -0.91496
  Beta  occ. eigenvalues --   -0.91259  -0.44941  -0.44463  -0.43999  -0.43860
  Beta  occ. eigenvalues --   -0.38684  -0.38424  -0.38015  -0.37713  -0.37593
  Beta  occ. eigenvalues --   -0.37307  -0.35374  -0.35257  -0.35057  -0.34938
  Beta  occ. eigenvalues --   -0.34892  -0.32155  -0.32068  -0.31811  -0.31591
  Beta  occ. eigenvalues --   -0.31419  -0.29004  -0.28590  -0.28494
  Beta virt. eigenvalues --   -0.12486  -0.08598  -0.04345  -0.04040  -0.03533
  Beta virt. eigenvalues --    0.01489   0.02019   0.03236   0.06593   0.10327
  Beta virt. eigenvalues --    0.11329   0.11670   0.13605   0.13790   0.14371
  Beta virt. eigenvalues --    0.14660   0.15457   0.17430   0.18043   0.19718
  Beta virt. eigenvalues --    0.20224   0.23011   0.26074   0.26496   0.26834
  Beta virt. eigenvalues --    0.30248   0.34098   0.34849   0.38607   0.38927
  Beta virt. eigenvalues --    0.39779   0.40027   0.40896   0.42110   0.43040
  Beta virt. eigenvalues --    0.43704   0.45128   0.45184   0.45765   0.46141
  Beta virt. eigenvalues --    0.47620   0.48964   0.50386   0.50819   0.52745
  Beta virt. eigenvalues --    0.53690   0.54875   0.56972   0.58535   0.62083
  Beta virt. eigenvalues --    0.67317   0.68479   0.72134   0.74281   0.78746
  Beta virt. eigenvalues --    0.79417   0.80627   0.85474   0.86618   0.88613
  Beta virt. eigenvalues --    0.88792   0.89495   0.94727   0.95012   0.95729
  Beta virt. eigenvalues --    1.08643   1.11092   1.11523   1.12422   1.14767
  Beta virt. eigenvalues --    1.15205   1.17402   1.22081   1.22952   1.24943
  Beta virt. eigenvalues --    1.25153   1.25598   1.26554   1.28097   1.29054
  Beta virt. eigenvalues --    1.30725   1.32961   1.39395   1.45831   1.46432
  Beta virt. eigenvalues --    1.63507   1.64154   1.65371   1.90506   2.04440
  Beta virt. eigenvalues --    2.59059   2.59071   2.59135   2.59199   2.59274
  Beta virt. eigenvalues --    2.59351   2.59424   2.61811   2.64166   2.64306
  Beta virt. eigenvalues --    2.64432   2.74016   2.74193   2.74886   2.75090
  Beta virt. eigenvalues --    2.75391   2.75970   2.85758   2.85915   2.86015
  Beta virt. eigenvalues --    2.89069   2.90880   2.91047   2.92332   2.92407
  Beta virt. eigenvalues --    2.92712   2.99370   2.99447   2.99765   3.16076
  Beta virt. eigenvalues --    3.16212   3.16406   3.16829   3.17053   3.27650
  Beta virt. eigenvalues --    3.28007   3.28673  53.79012
          Condensed to atoms (all electrons):
               1          2          3          4          5          6
     1  Al  11.003309  -0.024336  -0.017517  -0.027685   0.371957   0.372389
     2  Al  -0.024336  10.954707   0.008204   0.004873   0.378084  -0.001003
     3  Al  -0.017517   0.008204  10.958051   0.008000   0.004096   0.374874
     4  Al  -0.027685   0.004873   0.008000  10.958053   0.001421   0.002568
     5  O    0.371957   0.378084   0.004096   0.001421   7.899512  -0.009413
     6  O    0.372389  -0.001003   0.374874   0.002568  -0.009413   7.905559
     7  O    0.317378   0.002230   0.005601   0.359093  -0.008806  -0.008534
     8  O    0.004755   0.375291   0.372394   0.003016  -0.008968  -0.008895
     9  O    0.003139   0.368181   0.005637   0.377073  -0.009169  -0.000072
    10  O    0.008207   0.006236   0.369025   0.371913  -0.000066  -0.009264
    11  Ag   0.080492   0.004549   0.007375   0.015567  -0.000503   0.001307
               7          8          9         10         11
     1  Al   0.317378   0.004755   0.003139   0.008207   0.080492
     2  Al   0.002230   0.375291   0.368181   0.006236   0.004549
     3  Al   0.005601   0.372394   0.005637   0.369025   0.007375
     4  Al   0.359093   0.003016   0.377073   0.371913   0.015567
     5  O   -0.008806  -0.008968  -0.009169  -0.000066  -0.000503
     6  O   -0.008534  -0.008895  -0.000072  -0.009264   0.001307
     7  O    7.970566  -0.000065  -0.008435  -0.009099   0.020169
     8  O   -0.000065   7.907470  -0.009171  -0.009111   0.000024
     9  O   -0.008435  -0.009171   7.907269  -0.009199   0.000184
    10  O   -0.009099  -0.009111  -0.009199   7.910138  -0.000677
    11  Ag   0.020169   0.000024   0.000184  -0.000677  18.774738
          Atomic-Atomic Spin Densities.
               1          2          3          4          5          6
     1  Al   0.096707  -0.024929  -0.020774  -0.018238   0.002113   0.000037
     2  Al  -0.024929   0.028630   0.010120   0.008405  -0.002935  -0.000930
     3  Al  -0.020774   0.010120   0.024563   0.005708  -0.000956  -0.002387
     4  Al  -0.018238   0.008405   0.005708   0.027611  -0.000798  -0.000796
     5  O    0.002113  -0.002935  -0.000956  -0.000798   0.004574   0.000131
     6  O    0.000037  -0.000930  -0.002387  -0.000796   0.000131   0.015703
     7  O   -0.004326  -0.001091  -0.001635  -0.004226   0.000142   0.000563
     8  O    0.002380  -0.001870  -0.001702  -0.000184   0.000023  -0.000057
     9  O    0.003218  -0.002358  -0.000511  -0.002275   0.000057   0.000000
    10  O    0.002348  -0.000667  -0.001314  -0.001200   0.000002   0.000024
    11  Ag   0.055152   0.005139   0.007992   0.011010  -0.001102  -0.005621
               7          8          9         10         11
     1  Al  -0.004326   0.002380   0.003218   0.002348   0.055152
     2  Al  -0.001091  -0.001870  -0.002358  -0.000667   0.005139
     3  Al  -0.001635  -0.001702  -0.000511  -0.001314   0.007992
     4  Al  -0.004226  -0.000184  -0.002275  -0.001200   0.011010
     5  O    0.000142   0.000023   0.000057   0.000002  -0.001102
     6  O    0.000563  -0.000057   0.000000   0.000024  -0.005621
     7  O    0.065622  -0.000002  -0.000235   0.000016  -0.027428
     8  O   -0.000002   0.001391   0.000021   0.000028  -0.000055
     9  O   -0.000235   0.000021   0.003673   0.000051  -0.000142
    10  O    0.000016   0.000028   0.000051   0.000889  -0.000217
    11  Ag  -0.027428  -0.000055  -0.000142  -0.000217   0.763201
 Mulliken charges and spin densities:
               1          2
     1  Al   0.907911   0.093687
     2  Al   0.922983   0.017513
     3  Al   0.904260   0.019103
     4  Al   0.926110   0.025017
     5  O   -0.618146   0.001251
     6  O   -0.619516   0.006667
     7  O   -0.640098   0.027399
     8  O   -0.626738  -0.000027
     9  O   -0.625436   0.001501
    10  O   -0.628104  -0.000038
    11  Ag   0.096775   0.807928
 Sum of Mulliken charges =   0.00000   1.00000
 Mulliken charges and spin densities with hydrogens summed into heavy atoms:
               1          2
     1  Al   0.907911   0.093687
     2  Al   0.922983   0.017513
     3  Al   0.904260   0.019103
     4  Al   0.926110   0.025017
     5  O   -0.618146   0.001251
     6  O   -0.619516   0.006667
     7  O   -0.640098   0.027399
     8  O   -0.626738  -0.000027
     9  O   -0.625436   0.001501
    10  O   -0.628104  -0.000038
    11  Ag   0.096775   0.807928
 Electronic spatial extent (au):  <R**2>=           2716.9723
 Charge=              0.0000 electrons
 Dipole moment (field-independent basis, Debye):
    X=              1.3560    Y=             -1.1388    Z=             -0.9961  Tot=              2.0317
 Quadrupole moment (field-independent basis, Debye-Ang):
   XX=            -81.8258   YY=            -91.3972   ZZ=            -89.1619
   XY=             -4.4556   XZ=             -4.3571   YZ=              0.5599
 Traceless Quadrupole moment (field-independent basis, Debye-Ang):
   XX=              5.6358   YY=             -3.9356   ZZ=             -1.7003
   XY=             -4.4556   XZ=             -4.3571   YZ=              0.5599
 Octapole moment (field-independent basis, Debye-Ang**2):
  XXX=           -203.1885  YYY=             78.3574  ZZZ=             49.9076  XYY=            -85.1776
  XXY=             44.0320  XXZ=             -1.8632  XZZ=            -76.9786  YZZ=             -7.8488
  YYZ=             17.5506  XYZ=              2.4160
 Hexadecapole moment (field-independent basis, Debye-Ang**3):
 XXXX=          -2420.4875 YYYY=           -708.2127 ZZZZ=           -623.2187 XXXY=            -82.2465
 XXXZ=            137.0923 YYYX=            -22.9768 YYYZ=              3.5224 ZZZX=            211.5297
 ZZZY=              3.6488 XXYY=           -539.6462 XXZZ=           -587.5409 YYZZ=           -143.9114
 XXYZ=             10.8318 YYXZ=             73.5469 ZZXY=             -8.4048
 N-N= 1.193404501984D+03 E-N=-6.088624176554D+03  KE= 1.470887413091D+03
                          Isotropic Fermi Contact Couplings
        Atom                 a.u.       MegaHertz       Gauss      10(-4) cm-1
     1  Al(27)             0.06387      74.45115      26.56602      24.83423
     2  Al(27)             0.00929      10.83376       3.86575       3.61375
     3  Al(27)             0.01679      19.56614       6.98168       6.52656
     4  Al(27)             0.03343      38.96424      13.90341      12.99707
     5  O(17)              0.01635      -9.91386      -3.53751      -3.30691
     6  O(17)              0.04684     -28.39297     -10.13132      -9.47088
     7  O(17)              0.15148     -91.82629     -32.76590     -30.62995
     8  O(17)              0.00494      -2.99494      -1.06867      -0.99900
     9  O(17)              0.00739      -4.48208      -1.59932      -1.49506
    10  O(17)              0.00486      -2.94655      -1.05140      -0.98286
    11  Ag(107             0.00029      -0.05279      -0.01884      -0.01761
 --------------------------------------------------------
       Center         ----  Spin Dipole Couplings  ----
                      3XX-RR        3YY-RR        3ZZ-RR
 --------------------------------------------------------
     1   Atom        0.047959     -0.014604     -0.033355
     2   Atom        0.001950      0.000713     -0.002662
     3   Atom        0.001343     -0.003858      0.002515
     4   Atom        0.007620     -0.006892     -0.000728
     5   Atom        0.012191     -0.006211     -0.005981
     6   Atom        0.023018     -0.023631      0.000613
     7   Atom        0.139616     -0.073687     -0.065929
     8   Atom        0.004524     -0.002437     -0.002087
     9   Atom        0.013336     -0.006503     -0.006833
    10   Atom        0.001395      0.002697     -0.004092
    11   Atom        0.003975      0.001369     -0.005344
 --------------------------------------------------------
                        XY            XZ            YZ
 --------------------------------------------------------
     1   Atom        0.038003     -0.008351     -0.002838
     2   Atom       -0.002655     -0.000415      0.000221
     3   Atom        0.001385      0.003466     -0.000345
     4   Atom        0.007225     -0.010760     -0.004222
     5   Atom       -0.012360     -0.005807      0.001647
     6   Atom        0.012248     -0.032033     -0.008734
     7   Atom        0.041803      0.040806      0.005022
     8   Atom        0.002046     -0.002534      0.000226
     9   Atom        0.003420      0.000670     -0.000845
    10   Atom        0.004313     -0.001403     -0.002004
    11   Atom       -0.030824     -0.027243      0.012555
 --------------------------------------------------------


 ---------------------------------------------------------------------------------
              Anisotropic Spin Dipole Couplings in Principal Axis System
 ---------------------------------------------------------------------------------

       Atom             a.u.   MegaHertz   Gauss  10(-4) cm-1        Axes

              Baa    -0.0346    -4.815    -1.718    -1.606  0.2565 -0.3600  0.8970
     1 Al(27) Bbb    -0.0321    -4.461    -1.592    -1.488 -0.3493  0.8308  0.4333
              Bcc     0.0667     9.276     3.310     3.094  0.9012  0.4245 -0.0873
 
              Baa    -0.0027    -0.376    -0.134    -0.125  0.0936  0.0084  0.9956
     2 Al(27) Bbb    -0.0014    -0.193    -0.069    -0.065  0.6161  0.7850 -0.0645
              Bcc     0.0041     0.569     0.203     0.190  0.7821 -0.6195 -0.0683
 
              Baa    -0.0045    -0.621    -0.222    -0.207 -0.3471  0.9123  0.2175
     3 Al(27) Bbb    -0.0010    -0.142    -0.051    -0.047  0.6727  0.4038 -0.6200
              Bcc     0.0055     0.763     0.272     0.255  0.6534  0.0690  0.7538
 
              Baa    -0.0099    -1.376    -0.491    -0.459 -0.4204  0.9041 -0.0771
     4 Al(27) Bbb    -0.0079    -1.102    -0.393    -0.367  0.4536  0.2830  0.8451
              Bcc     0.0178     2.478     0.884     0.827  0.7858  0.3203 -0.5291
 
              Baa    -0.0127     0.915     0.327     0.305  0.4736  0.8576  0.2005
     5 O(17)  Bbb    -0.0071     0.515     0.184     0.172  0.1065 -0.2817  0.9536
              Bcc     0.0198    -1.430    -0.510    -0.477  0.8743 -0.4302 -0.2247
 
              Baa    -0.0268     1.936     0.691     0.646 -0.1615  0.9791  0.1234
     6 O(17)  Bbb    -0.0221     1.601     0.571     0.534  0.5800 -0.0070  0.8146
              Bcc     0.0489    -3.536    -1.262    -1.180  0.7984  0.2032 -0.5668
 
              Baa    -0.0824     5.959     2.126     1.988 -0.2269  0.9333  0.2785
     7 O(17)  Bbb    -0.0728     5.266     1.879     1.757 -0.1200 -0.3105  0.9429
              Bcc     0.1551   -11.225    -4.005    -3.744  0.9665  0.1806  0.1825
 
              Baa    -0.0038     0.272     0.097     0.091 -0.3634  0.6739 -0.6433
     8 O(17)  Bbb    -0.0021     0.149     0.053     0.050  0.0536  0.7044  0.7078
              Bcc     0.0058    -0.420    -0.150    -0.140  0.9301  0.2227 -0.2921
 
              Baa    -0.0079     0.572     0.204     0.191 -0.1393  0.7357  0.6628
     9 O(17)  Bbb    -0.0060     0.435     0.155     0.145  0.0902 -0.6571  0.7484
              Bcc     0.0139    -1.007    -0.359    -0.336  0.9861  0.1641  0.0252
 
              Baa    -0.0047     0.337     0.120     0.112  0.0629  0.2280  0.9716
    10 O(17)  Bbb    -0.0023     0.166     0.059     0.055  0.7719 -0.6282  0.0975
              Bcc     0.0069    -0.503    -0.179    -0.168  0.6326  0.7439 -0.2155
 
              Baa    -0.0339     0.736     0.263     0.246  0.7339  0.4647  0.4953
    11 Ag(107 Bbb    -0.0148     0.321     0.115     0.107 -0.0607 -0.6815  0.7293
              Bcc     0.0487    -1.057    -0.377    -0.353  0.6765 -0.5653 -0.4720
 

 ---------------------------------------------------------------------------------

 No NMR shielding tensors so no spin-rotation constants.
 Leave Link  601 at Fri Sep 11 20:49:27 2026, MaxMem=  6442450944 cpu:               2.0 elap:               1.9
 (Enter C:\G16W\l9999.exe)
 Unable to Open any file for archive entry.
 1|1|UNPC-DESKTOP-2JKEGCA|SP|UPBE1PBE|def2SVP|Ag1Al4O6(2)|JHKIM|11-Sep-
 2026|0||#P PBE1PBE/Def2SVP EmpiricalDispersion=GD3BJ SP SCF=(XQC,MaxCy
 cle=128) NoSymm Guess=Read||Al4O6 t=0.750 dz=+0.40 class=site2site||0,
 2|Al,0,1.329338,0.546055,0.000008|Al,0,-1.329338,0.546055,0.000008|Al,
 0,0.,-1.335966,1.329844|Al,0,0.,-1.33596,-1.329845|O,0,0.,1.608524,-0.
 000023|O,0,1.415899,-0.395163,1.415022|O,0,1.4159,-0.395158,-1.415016|
 O,0,-1.415899,-0.395163,1.415022|O,0,-1.4159,-0.395158,-1.415016|O,0,0
 .,-2.398065,-0.000004|Ag,0,4.25763922,0.03791547,-0.91024663||Version=
 EM64W-G16RevC.01|HF=-1566.9471481|S2=0.751926|S2-1=0.|S2A=0.750003|RMS
 D=4.423e-009|Dipole=0.5335016,-0.4480392,-0.3918839|Quadrupole=4.19011
 07,-2.9260002,-1.2641105,-3.3126043,-3.2394267,0.4162723|PG=C01 [X(Ag1
 Al4O6)]||@
 The archive entry for this job was punched.


 WHEN YOU'VE SEEN ONE NUCLEAR WAR YOU'VE SEEN THEM ALL.
 Job cpu time:       0 days  0 hours  1 minutes 54.0 seconds.
 Elapsed time:       0 days  0 hours  1 minutes 51.7 seconds.
 File lengths (MBytes):  RWF=     28 Int=      0 D2E=      0 Chk=      4 Scr=      1
 Normal termination of Gaussian 16 at Fri Sep 11 20:49:28 2026.
