 Entering Gaussian System, Link 0=C:\G16W\g16.exe
 Input=benzene_t0_z1.gjf
 Output=benzene_t0_z1.out
 Initial command:
 C:\G16W\l1.exe ".\Gau-128992.inp" "benzene_t0_z1.out" /scrdir=".\"
 Entering Link 1 = C:\G16W\l1.exe PID=    136760.
  
 Copyright (c) 1988-2019, Gaussian, Inc.  All Rights Reserved.
  
 This is part of the Gaussian(R) 16 program.  It is based on
 the Gaussian(R) 09 system (copyright 2009, Gaussian, Inc.),
 the Gaussian(R) 03 system (copyright 2003, Gaussian, Inc.),
 the Gaussian(R) 98 system (copyright 1998, Gaussian, Inc.),
 the Gaussian(R) 94 system (copyright 1995, Gaussian, Inc.),
 the Gaussian 92(TM) system (copyright 1992, Gaussian, Inc.),
 the Gaussian 90(TM) system (copyright 1990, Gaussian, Inc.),
 the Gaussian 88(TM) system (copyright 1988, Gaussian, Inc.),
 the Gaussian 86(TM) system (copyright 1986, Carnegie Mellon
 University), and the Gaussian 82(TM) system (copyright 1983,
 Carnegie Mellon University). Gaussian is a federally registered
 trademark of Gaussian, Inc.
  
 This software contains proprietary and confidential information,
 including trade secrets, belonging to Gaussian, Inc.
  
 This software is provided under written license and may be
 used, copied, transmitted, or stored only in accord with that
 written license.
  
 The following legend is applicable only to US Government
 contracts under FAR:
  
                    RESTRICTED RIGHTS LEGEND
  
 Use, reproduction and disclosure by the US Government is
 subject to restrictions as set forth in subparagraphs (a)
 and (c) of the Commercial Computer Software - Restricted
 Rights clause in FAR 52.227-19.
  
 Gaussian, Inc.
 340 Quinnipiac St., Bldg. 40, Wallingford CT 06492
  
  
 ---------------------------------------------------------------
 Warning -- This program may not be used in any manner that
 competes with the business of Gaussian, Inc. or will provide
 assistance to any competitor of Gaussian, Inc.  The licensee
 of this program is prohibited from giving any competitor of
 Gaussian, Inc. access to this program.  By using this program,
 the user acknowledges that Gaussian, Inc. is engaged in the
 business of creating and licensing software in the field of
 computational chemistry and represents and warrants to the
 licensee that it is not a competitor of Gaussian, Inc. and that
 it will not use this program in any manner prohibited above.
 ---------------------------------------------------------------
  

 Cite this work as:
 Gaussian 16, Revision C.01,
 M. J. Frisch, G. W. Trucks, H. B. Schlegel, G. E. Scuseria, 
 M. A. Robb, J. R. Cheeseman, G. Scalmani, V. Barone, 
 G. A. Petersson, H. Nakatsuji, X. Li, M. Caricato, A. V. Marenich, 
 J. Bloino, B. G. Janesko, R. Gomperts, B. Mennucci, H. P. Hratchian, 
 J. V. Ortiz, A. F. Izmaylov, J. L. Sonnenberg, D. Williams-Young, 
 F. Ding, F. Lipparini, F. Egidi, J. Goings, B. Peng, A. Petrone, 
 T. Henderson, D. Ranasinghe, V. G. Zakrzewski, J. Gao, N. Rega, 
 G. Zheng, W. Liang, M. Hada, M. Ehara, K. Toyota, R. Fukuda, 
 J. Hasegawa, M. Ishida, T. Nakajima, Y. Honda, O. Kitao, H. Nakai, 
 T. Vreven, K. Throssell, J. A. Montgomery, Jr., J. E. Peralta, 
 F. Ogliaro, M. J. Bearpark, J. J. Heyd, E. N. Brothers, K. N. Kudin, 
 V. N. Staroverov, T. A. Keith, R. Kobayashi, J. Normand, 
 K. Raghavachari, A. P. Rendell, J. C. Burant, S. S. Iyengar, 
 J. Tomasi, M. Cossi, J. M. Millam, M. Klene, C. Adamo, R. Cammi, 
 J. W. Ochterski, R. L. Martin, K. Morokuma, O. Farkas, 
 J. B. Foresman, and D. J. Fox, Gaussian, Inc., Wallingford CT, 2019.
 
 ******************************************
 Gaussian 16:  EM64W-G16RevC.01 30-May-2019
                12-Sep-2026 
 ******************************************
 %Chk=benzene.chk
 %NProcShared=8
 Will use up to    8 processors via shared memory.
 %Mem=48GB
 ----------------------------------------------------------------------
 #P PBE1PBE/Def2SVP EmpiricalDispersion=GD3BJ SP SCF=(XQC,MaxCycle=128)
  NoSymm Guess=Read
 ----------------------------------------------------------------------
 1/38=1,172=1/1;
 2/12=2,15=1,17=6,18=5,40=1/2;
 3/5=43,7=101,11=2,25=1,30=1,74=-13,116=-2,124=41/1,2,3;
 4/5=1/1;
 5/5=2,7=128,8=3,13=1,38=6/2,8;
 6/7=2,8=2,9=2,10=2,28=1/1;
 99/5=1,9=1/99;
 Leave Link    1 at Sat Sep 12 01:22:42 2026, MaxMem=  6442450944 cpu:               0.0 elap:               0.2
 (Enter C:\G16W\l101.exe)
 -------------------------------------
 benzene t=0.000 dz=+0.40 class=toface
 -------------------------------------
 Symbolic Z-matrix:
 Charge =  0 Multiplicity = 2
 C                     1.14123  -0.78309   0.03803 
 C                     1.24953   0.59631  -0.01289 
 C                     0.1083    1.3794   -0.05092 
 C                    -1.14123   0.78309  -0.03803 
 C                    -1.24953  -0.59631   0.01289 
 C                    -0.1083   -1.3794    0.05092 
 H                     2.03179  -1.39418   0.06771 
 H                     2.2246    1.06165  -0.02295 
 H                     0.19282   2.45583  -0.09066 
 H                    -2.03179   1.39418  -0.06771 
 H                    -2.2246   -1.06164   0.02295 
 H                    -0.19282  -2.45583   0.09066 
 Ag                   -0.13258  -0.00435  -2.95606 
 
 ITRead=  0  0  0  0  0  0  0  0  0  0  0  0  0
 MicOpt= -1 -1 -1 -1 -1 -1 -1 -1 -1 -1 -1 -1 -1
 NAtoms=     13 NQM=       13 NQMF=       0 NMMI=      0 NMMIF=      0
                NMic=       0 NMicF=      0.
                    Isotopes and Nuclear Properties:
 (Nuclear quadrupole moments (NQMom) in fm**2, nuclear magnetic moments (NMagM)
  in nuclear magnetons)

  Atom         1           2           3           4           5           6           7           8           9          10
 IAtWgt=          12          12          12          12          12          12           1           1           1           1
 AtmWgt=  12.0000000  12.0000000  12.0000000  12.0000000  12.0000000  12.0000000   1.0078250   1.0078250   1.0078250   1.0078250
 NucSpn=           0           0           0           0           0           0           1           1           1           1
 AtZEff=   0.0000000   0.0000000   0.0000000   0.0000000   0.0000000   0.0000000   0.0000000   0.0000000   0.0000000   0.0000000
 NQMom=    0.0000000   0.0000000   0.0000000   0.0000000   0.0000000   0.0000000   0.0000000   0.0000000   0.0000000   0.0000000
 NMagM=    0.0000000   0.0000000   0.0000000   0.0000000   0.0000000   0.0000000   2.7928460   2.7928460   2.7928460   2.7928460
 AtZNuc=   6.0000000   6.0000000   6.0000000   6.0000000   6.0000000   6.0000000   1.0000000   1.0000000   1.0000000   1.0000000

  Atom        11          12          13
 IAtWgt=           1           1         107
 AtmWgt=   1.0078250   1.0078250 106.9050900
 NucSpn=           1           1           1
 AtZEff=   0.0000000   0.0000000   0.0000000
 NQMom=    0.0000000   0.0000000   0.0000000
 NMagM=    2.7928460   2.7928460  -0.1135700
 AtZNuc=   1.0000000   1.0000000  47.0000000
 Leave Link  101 at Sat Sep 12 01:22:42 2026, MaxMem=  6442450944 cpu:               0.0 elap:               0.2
 (Enter C:\G16W\l202.exe)
                          Input orientation:                          
 ---------------------------------------------------------------------
 Center     Atomic      Atomic             Coordinates (Angstroms)
 Number     Number       Type             X           Y           Z
 ---------------------------------------------------------------------
      1          6           0        1.141225   -0.783092    0.038033
      2          6           0        1.249529    0.596311   -0.012888
      3          6           0        0.108303    1.379403   -0.050921
      4          6           0       -1.141226    0.783092   -0.038033
      5          6           0       -1.249529   -0.596311    0.012888
      6          6           0       -0.108303   -1.379403    0.050921
      7          1           0        2.031786   -1.394181    0.067712
      8          1           0        2.224604    1.061646   -0.022945
      9          1           0        0.192818    2.455827   -0.090658
     10          1           0       -2.031786    1.394182   -0.067712
     11          1           0       -2.224605   -1.061645    0.022945
     12          1           0       -0.192818   -2.455827    0.090657
     13         47           0       -0.132580   -0.004353   -2.956063
 ---------------------------------------------------------------------
                    Distance matrix (angstroms):
                    1          2          3          4          5
     1  C    0.000000
     2  C    1.384585   0.000000
     3  C    2.398171   1.384585   0.000000
     4  C    2.769170   2.398172   1.384585   0.000000
     5  C    2.398171   2.769170   2.398171   1.384585   0.000000
     6  C    1.384584   2.398171   2.769170   2.398172   1.384585
     7  H    1.080467   2.140206   3.377370   3.849637   3.377370
     8  H    2.140207   1.080467   2.140206   3.377371   3.849637
     9  H    3.377371   2.140207   1.080468   2.140207   3.377371
    10  H    3.849637   3.377371   2.140206   1.080467   2.140207
    11  H    3.377370   3.849638   3.377370   2.140206   1.080468
    12  H    2.140206   3.377371   3.849637   3.377371   2.140207
    13  Ag   3.345687   3.306554   3.226865   3.186273   3.226865
                    6          7          8          9         10
     6  C    0.000000
     7  H    2.140206   0.000000
     8  H    3.377370   2.465052   0.000000
     9  H    3.849637   4.269596   2.465052   0.000000
    10  H    3.377371   4.930104   4.269595   2.465052   0.000000
    11  H    2.140207   4.269596   4.930105   4.269596   2.465053
    12  H    1.080468   2.465052   4.269596   4.930105   4.269596
    13  Ag   3.306554   3.969800   3.910991   3.790635   3.729002
                   11         12         13
    11  H    0.000000
    12  H    2.465053   0.000000
    13  Ag   3.790636   3.910991   0.000000
 Symmetry turned off by external request.
 Stoichiometry    C6H6Ag(2)
 Framework group  C1[X(C6H6Ag)]
 Deg. of freedom    33
 Full point group                 C1      NOp   1
 Rotational constants (GHZ):           2.8991245           1.0476652           1.0466837
 Leave Link  202 at Sat Sep 12 01:22:42 2026, MaxMem=  6442450944 cpu:               0.0 elap:               0.2
 (Enter C:\G16W\l301.exe)
 Standard basis: def2SVP (5D, 7F)
 Ernie: Thresh=  0.10000D-02 Tol=  0.10000D-05 Strict=F.
   145 basis functions,   257 primitive gaussians,   156 cartesian basis functions
    31 alpha electrons       30 beta electrons
       nuclear repulsion energy       331.3900140112 Hartrees.
 IExCor= 1009 DFT=T Ex+Corr=PBE1PBE ExCW=0 ScaHFX=  0.250000
 ScaDFX=  0.750000  0.750000  1.000000  1.000000 ScalE2=  1.000000  1.000000
 IRadAn=      5 IRanWt=     -1 IRanGd=            0 ICorTp=0 IEmpDi=141
 NAtoms=   13 NActive=   13 NUniq=   13 SFac= 1.00D+00 NAtFMM=   60 NAOKFM=F Big=F
 Integral buffers will be    131072 words long.
 Raffenetti 2 integral format.
 Two-electron integral symmetry is turned off.
 R6Disp:  Grimme-D3(BJ) Dispersion energy=       -0.0148391083 Hartrees.
 Nuclear repulsion after empirical dispersion term =      331.3751749029 Hartrees.
 Leave Link  301 at Sat Sep 12 01:22:43 2026, MaxMem=  6442450944 cpu:               0.0 elap:               0.2
 (Enter C:\G16W\l302.exe)
 NPDir=0 NMtPBC=     1 NCelOv=     1 NCel=       1 NClECP=     1 NCelD=      1
         NCelK=      1 NCelE2=     1 NClLst=     1 CellRange=     0.0.
 One-electron integrals computed using PRISM.
   1 Symmetry operations used in ECPInt.
 ECPInt:  NShTT=    2145 NPrTT=    7492 LenC2=    2140 LenP2D=    6359.
 LDataN:  DoStor=T MaxTD1= 7 Len=  274
 NBasis=   145 RedAO= T EigKep=  2.94D-04  NBF=   145
 NBsUse=   145 1.00D-06 EigRej= -1.00D+00 NBFU=   145
 Precomputing XC quadrature grid using
 IXCGrd= 4 IRadAn=           5 IRanWt=          -1 IRanGd=           0 AccXCQ= 0.00D+00.
 Defaulting to unpruned grid for atomic number  47.
 Generated NRdTot=       0 NPtTot=           0 NUsed=           0 NTot=          32
 NSgBfM=   156   156   156   156   156 MxSgAt=    13 MxSgA2=    13.
 Leave Link  302 at Sat Sep 12 01:22:45 2026, MaxMem=  6442450944 cpu:               2.0 elap:               2.2
 (Enter C:\G16W\l303.exe)
 DipDrv:  MaxL=1.
 Leave Link  303 at Sat Sep 12 01:22:45 2026, MaxMem=  6442450944 cpu:               0.0 elap:               0.1
 (Enter C:\G16W\l401.exe)
 Initial guess from the checkpoint file:  "benzene.chk"
 B after Tr=    -0.048114    0.021542   -0.356827
         Rot=    0.999705   -0.013750   -0.020007    0.000646 Ang=  -2.78 deg.
 Guess basis will be translated and rotated to current coordinates.
 JPrj=2 DoOrth=T DoCkMO=T.
 Initial guess <Sx>= 0.0000 <Sy>= 0.0000 <Sz>= 0.5000 <S**2>= 0.7520 S= 0.5010
 Leave Link  401 at Sat Sep 12 01:22:50 2026, MaxMem=  6442450944 cpu:               4.0 elap:               4.2
 (Enter C:\G16W\l502.exe)
 Two-electron integral symmetry not used.
 UHF open shell SCF:
 Using DIIS extrapolation, IDIIS=  1040.
 NGot=  6442450944 LenX=  6442399402 LenY=  6442374625
 Requested convergence on RMS density matrix=1.00D-08 within 128 cycles.
 Requested convergence on MAX density matrix=1.00D-06.
 Requested convergence on             energy=1.00D-06.
 No special actions if energy rises.
 Fock matrices will be formed incrementally for  20 cycles.

 Cycle   1  Pass 1  IDiag  1:
 FoFJK:  IHMeth= 1 ICntrl=       0 DoSepK=F KAlg= 0 I1Cent=           0 FoldK=F
 IRaf= 990000000 NMat=       1 IRICut=       1 DoRegI=T DoRafI=F ISym2E= 0 IDoP0=0 IntGTp=1.
 FoFCou: FMM=F IPFlag=           0 FMFlag=      100000 FMFlg1=           0
         NFxFlg=           0 DoJE=F BraDBF=F KetDBF=F FulRan=T
         wScrn=  0.000000 ICntrl=         0 IOpCl=  1 I1Cent=           0 NGrid=           0
         NMat0=    1 NMatS0=      1 NMatT0=    0 NMatD0=    1 NMtDS0=    0 NMtDT0=    0
 Symmetry not used in FoFCou.
 Defaulting to unpruned grid for atomic number  47.
 Defaulting to unpruned grid for atomic number  47.
 Defaulting to unpruned grid for atomic number  47.
 Defaulting to unpruned grid for atomic number  47.
 Defaulting to unpruned grid for atomic number  47.
 Defaulting to unpruned grid for atomic number  47.
 Defaulting to unpruned grid for atomic number  47.
 Defaulting to unpruned grid for atomic number  47.
 E= -378.741381268299    
 DIIS: error= 1.35D-02 at cycle   1 NSaved=   1.
 NSaved= 1 IEnMin= 1 EnMin= -378.741381268299     IErMin= 1 ErrMin= 1.35D-02
 ErrMax= 1.35D-02  0.00D+00 EMaxC= 1.00D-01 BMatC= 3.63D-02 BMatP= 3.63D-02
 IDIUse=3 WtCom= 8.65D-01 WtEn= 1.35D-01
 Coeff-Com:  0.100D+01
 Coeff-En:   0.100D+01
 Coeff:      0.100D+01
 Gap=     0.175 Goal=   None    Shift=    0.000
 Gap=     0.223 Goal=   None    Shift=    0.000
 GapD=    0.175 DampG=1.000 DampE=0.250 DampFc=0.2500 IDamp=-1.
 Damping current iteration by 2.50D-01
 RMSDP=1.12D-03 MaxDP=3.47D-02              OVMax= 2.71D-02

 Cycle   2  Pass 1  IDiag  1:
 RMSU=  2.79D-04    CP:  9.99D-01
 E= -378.742827882954     Delta-E=       -0.001446614655 Rises=F Damp=T
 DIIS: error= 1.01D-02 at cycle   2 NSaved=   2.
 NSaved= 2 IEnMin= 2 EnMin= -378.742827882954     IErMin= 2 ErrMin= 1.01D-02
 ErrMax= 1.01D-02  0.00D+00 EMaxC= 1.00D-01 BMatC= 2.06D-02 BMatP= 3.63D-02
 IDIUse=3 WtCom= 8.99D-01 WtEn= 1.01D-01
 Coeff-Com: -0.297D+01 0.397D+01
 Coeff-En:   0.000D+00 0.100D+01
 Coeff:     -0.267D+01 0.367D+01
 Gap=     0.149 Goal=   None    Shift=    0.000
 Gap=     0.202 Goal=   None    Shift=    0.000
 RMSDP=8.79D-04 MaxDP=2.80D-02 DE=-1.45D-03 OVMax= 9.54D-03

 Cycle   3  Pass 1  IDiag  1:
 RMSU=  3.52D-04    CP:  9.96D-01  3.00D+00
 E= -378.747598826074     Delta-E=       -0.004770943120 Rises=F Damp=F
 DIIS: error= 1.25D-03 at cycle   3 NSaved=   3.
 NSaved= 3 IEnMin= 3 EnMin= -378.747598826074     IErMin= 3 ErrMin= 1.25D-03
 ErrMax= 1.25D-03  0.00D+00 EMaxC= 1.00D-01 BMatC= 4.78D-04 BMatP= 2.06D-02
 IDIUse=3 WtCom= 9.88D-01 WtEn= 1.25D-02
 Coeff-Com: -0.139D+01 0.183D+01 0.555D+00
 Coeff-En:   0.000D+00 0.000D+00 0.100D+01
 Coeff:     -0.137D+01 0.181D+01 0.560D+00
 Gap=     0.151 Goal=   None    Shift=    0.000
 Gap=     0.200 Goal=   None    Shift=    0.000
 RMSDP=1.06D-04 MaxDP=6.49D-03 DE=-4.77D-03 OVMax= 2.82D-03

 Cycle   4  Pass 1  IDiag  1:
 RMSU=  1.04D-04    CP:  9.96D-01  3.00D+00  1.06D+00
 E= -378.747707708859     Delta-E=       -0.000108882784 Rises=F Damp=F
 DIIS: error= 2.41D-04 at cycle   4 NSaved=   4.
 NSaved= 4 IEnMin= 4 EnMin= -378.747707708859     IErMin= 4 ErrMin= 2.41D-04
 ErrMax= 2.41D-04  0.00D+00 EMaxC= 1.00D-01 BMatC= 2.09D-05 BMatP= 4.78D-04
 IDIUse=3 WtCom= 9.98D-01 WtEn= 2.41D-03
 Coeff-Com: -0.349D+00 0.458D+00 0.208D+00 0.683D+00
 Coeff-En:   0.000D+00 0.000D+00 0.000D+00 0.100D+01
 Coeff:     -0.348D+00 0.457D+00 0.207D+00 0.684D+00
 Gap=     0.151 Goal=   None    Shift=    0.000
 Gap=     0.200 Goal=   None    Shift=    0.000
 RMSDP=3.28D-05 MaxDP=8.44D-04 DE=-1.09D-04 OVMax= 1.64D-03

 Cycle   5  Pass 1  IDiag  1:
 RMSU=  2.89D-05    CP:  9.96D-01  3.00D+00  1.09D+00  8.96D-01
 E= -378.747712202191     Delta-E=       -0.000004493332 Rises=F Damp=F
 DIIS: error= 1.92D-04 at cycle   5 NSaved=   5.
 NSaved= 5 IEnMin= 5 EnMin= -378.747712202191     IErMin= 5 ErrMin= 1.92D-04
 ErrMax= 1.92D-04  0.00D+00 EMaxC= 1.00D-01 BMatC= 9.56D-06 BMatP= 2.09D-05
 IDIUse=3 WtCom= 9.98D-01 WtEn= 1.92D-03
 Coeff-Com:  0.126D+00-0.168D+00-0.113D-01 0.433D+00 0.620D+00
 Coeff-En:   0.000D+00 0.000D+00 0.000D+00 0.254D+00 0.746D+00
 Coeff:      0.126D+00-0.168D+00-0.113D-01 0.433D+00 0.620D+00
 Gap=     0.151 Goal=   None    Shift=    0.000
 Gap=     0.200 Goal=   None    Shift=    0.000
 RMSDP=1.70D-05 MaxDP=6.63D-04 DE=-4.49D-06 OVMax= 7.90D-04

 Cycle   6  Pass 1  IDiag  1:
 RMSU=  1.22D-05    CP:  9.96D-01  3.00D+00  1.11D+00  9.54D-01  6.81D-01
 E= -378.747715216052     Delta-E=       -0.000003013861 Rises=F Damp=F
 DIIS: error= 3.91D-05 at cycle   6 NSaved=   6.
 NSaved= 6 IEnMin= 6 EnMin= -378.747715216052     IErMin= 6 ErrMin= 3.91D-05
 ErrMax= 3.91D-05  0.00D+00 EMaxC= 1.00D-01 BMatC= 6.87D-07 BMatP= 9.56D-06
 IDIUse=1 WtCom= 1.00D+00 WtEn= 0.00D+00
 Coeff-Com:  0.805D-01-0.107D+00-0.219D-01 0.154D+00 0.311D+00 0.583D+00
 Coeff:      0.805D-01-0.107D+00-0.219D-01 0.154D+00 0.311D+00 0.583D+00
 Gap=     0.151 Goal=   None    Shift=    0.000
 Gap=     0.200 Goal=   None    Shift=    0.000
 RMSDP=4.84D-06 MaxDP=2.82D-04 DE=-3.01D-06 OVMax= 2.68D-04

 Cycle   7  Pass 1  IDiag  1:
 RMSU=  4.31D-06    CP:  9.96D-01  3.00D+00  1.11D+00  9.57D-01  7.42D-01
                    CP:  1.00D+00
 E= -378.747715452646     Delta-E=       -0.000000236594 Rises=F Damp=F
 DIIS: error= 1.25D-05 at cycle   7 NSaved=   7.
 NSaved= 7 IEnMin= 7 EnMin= -378.747715452646     IErMin= 7 ErrMin= 1.25D-05
 ErrMax= 1.25D-05  0.00D+00 EMaxC= 1.00D-01 BMatC= 3.30D-08 BMatP= 6.87D-07
 IDIUse=1 WtCom= 1.00D+00 WtEn= 0.00D+00
 Coeff-Com: -0.101D-01 0.135D-01-0.314D-02-0.519D-01-0.554D-01 0.631D-01
 Coeff-Com:  0.104D+01
 Coeff:     -0.101D-01 0.135D-01-0.314D-02-0.519D-01-0.554D-01 0.631D-01
 Coeff:      0.104D+01
 Gap=     0.151 Goal=   None    Shift=    0.000
 Gap=     0.200 Goal=   None    Shift=    0.000
 RMSDP=2.56D-06 MaxDP=2.40D-04 DE=-2.37D-07 OVMax= 2.62D-04

 Cycle   8  Pass 1  IDiag  1:
 RMSU=  1.04D-06    CP:  9.96D-01  3.00D+00  1.11D+00  9.60D-01  7.72D-01
                    CP:  1.16D+00  1.14D+00
 E= -378.747715480825     Delta-E=       -0.000000028178 Rises=F Damp=F
 DIIS: error= 2.95D-06 at cycle   8 NSaved=   8.
 NSaved= 8 IEnMin= 8 EnMin= -378.747715480825     IErMin= 8 ErrMin= 2.95D-06
 ErrMax= 2.95D-06  0.00D+00 EMaxC= 1.00D-01 BMatC= 4.03D-09 BMatP= 3.30D-08
 IDIUse=1 WtCom= 1.00D+00 WtEn= 0.00D+00
 Coeff-Com: -0.141D-01 0.187D-01 0.187D-02-0.355D-01-0.536D-01-0.380D-01
 Coeff-Com:  0.344D+00 0.777D+00
 Coeff:     -0.141D-01 0.187D-01 0.187D-02-0.355D-01-0.536D-01-0.380D-01
 Coeff:      0.344D+00 0.777D+00
 Gap=     0.151 Goal=   None    Shift=    0.000
 Gap=     0.200 Goal=   None    Shift=    0.000
 RMSDP=7.16D-07 MaxDP=6.55D-05 DE=-2.82D-08 OVMax= 7.09D-05

 Cycle   9  Pass 1  IDiag  1:
 RMSU=  3.30D-07    CP:  9.96D-01  3.00D+00  1.11D+00  9.61D-01  7.80D-01
                    CP:  1.21D+00  1.19D+00  1.13D+00
 E= -378.747715483183     Delta-E=       -0.000000002359 Rises=F Damp=F
 DIIS: error= 1.16D-06 at cycle   9 NSaved=   9.
 NSaved= 9 IEnMin= 9 EnMin= -378.747715483183     IErMin= 9 ErrMin= 1.16D-06
 ErrMax= 1.16D-06  0.00D+00 EMaxC= 1.00D-01 BMatC= 4.93D-10 BMatP= 4.03D-09
 IDIUse=1 WtCom= 1.00D+00 WtEn= 0.00D+00
 Coeff-Com: -0.468D-02 0.623D-02 0.944D-03-0.108D-01-0.177D-01-0.181D-01
 Coeff-Com:  0.567D-01 0.289D+00 0.698D+00
 Coeff:     -0.468D-02 0.623D-02 0.944D-03-0.108D-01-0.177D-01-0.181D-01
 Coeff:      0.567D-01 0.289D+00 0.698D+00
 Gap=     0.151 Goal=   None    Shift=    0.000
 Gap=     0.200 Goal=   None    Shift=    0.000
 RMSDP=1.95D-07 MaxDP=1.57D-05 DE=-2.36D-09 OVMax= 1.65D-05

 Cycle  10  Pass 1  IDiag  1:
 RMSU=  1.02D-07    CP:  9.96D-01  3.00D+00  1.11D+00  9.61D-01  7.81D-01
                    CP:  1.21D+00  1.20D+00  1.24D+00  9.50D-01
 E= -378.747715483393     Delta-E=       -0.000000000210 Rises=F Damp=F
 DIIS: error= 3.48D-07 at cycle  10 NSaved=  10.
 NSaved=10 IEnMin=10 EnMin= -378.747715483393     IErMin=10 ErrMin= 3.48D-07
 ErrMax= 3.48D-07  0.00D+00 EMaxC= 1.00D-01 BMatC= 3.98D-11 BMatP= 4.93D-10
 IDIUse=1 WtCom= 1.00D+00 WtEn= 0.00D+00
 Coeff-Com:  0.766D-03-0.102D-02 0.546D-04 0.229D-02 0.283D-02 0.272D-03
 Coeff-Com: -0.366D-01-0.428D-01 0.183D+00 0.891D+00
 Coeff:      0.766D-03-0.102D-02 0.546D-04 0.229D-02 0.283D-02 0.272D-03
 Coeff:     -0.366D-01-0.428D-01 0.183D+00 0.891D+00
 Gap=     0.151 Goal=   None    Shift=    0.000
 Gap=     0.200 Goal=   None    Shift=    0.000
 RMSDP=7.69D-08 MaxDP=7.31D-06 DE=-2.10D-10 OVMax= 7.87D-06

 Cycle  11  Pass 1  IDiag  1:
 RMSU=  3.54D-08    CP:  9.96D-01  3.00D+00  1.11D+00  9.61D-01  7.81D-01
                    CP:  1.22D+00  1.20D+00  1.28D+00  1.04D+00  9.87D-01
 E= -378.747715483422     Delta-E=       -0.000000000029 Rises=F Damp=F
 DIIS: error= 8.96D-08 at cycle  11 NSaved=  11.
 NSaved=11 IEnMin=11 EnMin= -378.747715483422     IErMin=11 ErrMin= 8.96D-08
 ErrMax= 8.96D-08  0.00D+00 EMaxC= 1.00D-01 BMatC= 2.55D-12 BMatP= 3.98D-11
 IDIUse=1 WtCom= 1.00D+00 WtEn= 0.00D+00
 Coeff-Com:  0.431D-03-0.574D-03-0.376D-04 0.113D-02 0.162D-02 0.105D-02
 Coeff-Com: -0.976D-02-0.266D-01 0.276D-02 0.205D+00 0.825D+00
 Coeff:      0.431D-03-0.574D-03-0.376D-04 0.113D-02 0.162D-02 0.105D-02
 Coeff:     -0.976D-02-0.266D-01 0.276D-02 0.205D+00 0.825D+00
 Gap=     0.151 Goal=   None    Shift=    0.000
 Gap=     0.200 Goal=   None    Shift=    0.000
 RMSDP=1.40D-08 MaxDP=7.98D-07 DE=-2.86D-11 OVMax= 8.71D-07

 Cycle  12  Pass 1  IDiag  1:
 RMSU=  7.72D-09    CP:  9.96D-01  3.00D+00  1.11D+00  9.61D-01  7.81D-01
                    CP:  1.22D+00  1.20D+00  1.28D+00  1.05D+00  1.01D+00
                    CP:  1.23D+00
 E= -378.747715483421     Delta-E=        0.000000000001 Rises=F Damp=F
 DIIS: error= 3.66D-08 at cycle  12 NSaved=  12.
 NSaved=12 IEnMin=11 EnMin= -378.747715483422     IErMin=12 ErrMin= 3.66D-08
 ErrMax= 3.66D-08  0.00D+00 EMaxC= 1.00D-01 BMatC= 4.73D-13 BMatP= 2.55D-12
 IDIUse=1 WtCom= 1.00D+00 WtEn= 0.00D+00
 Coeff-Com: -0.109D-04 0.148D-04-0.126D-04-0.728D-04-0.758D-04 0.717D-04
 Coeff-Com:  0.343D-02-0.157D-02-0.233D-01-0.781D-01 0.192D+00 0.908D+00
 Coeff:     -0.109D-04 0.148D-04-0.126D-04-0.728D-04-0.758D-04 0.717D-04
 Coeff:      0.343D-02-0.157D-02-0.233D-01-0.781D-01 0.192D+00 0.908D+00
 Gap=     0.151 Goal=   None    Shift=    0.000
 Gap=     0.200 Goal=   None    Shift=    0.000
 RMSDP=7.26D-09 MaxDP=3.84D-07 DE= 1.02D-12 OVMax= 4.25D-07

 SCF Done:  E(UPBE1PBE) =  -378.747715483     A.U. after   12 cycles
            NFock= 12  Conv=0.73D-08     -V/T= 2.3257
 <Sx>= 0.0000 <Sy>= 0.0000 <Sz>= 0.5000 <S**2>= 0.7516 S= 0.5008
 <L.S>= 0.000000000000E+00
 KE= 2.857032061870D+02 PE=-1.516323323373D+03 EE= 5.204972267996D+02
 Annihilation of the first spin contaminant:
 S**2 before annihilation     0.7516,   after     0.7500
 Leave Link  502 at Sat Sep 12 01:23:55 2026, MaxMem=  6442450944 cpu:              65.0 elap:              65.1
 (Enter C:\G16W\l508.exe)
 QCSCF skips out because SCF is already converged.
 Leave Link  508 at Sat Sep 12 01:23:56 2026, MaxMem=  6442450944 cpu:               1.0 elap:               0.5
 (Enter C:\G16W\l601.exe)
 Copying SCF densities to generalized density rwf, IOpCl= 1 IROHF=0.

 **********************************************************************

            Population analysis using the SCF Density.

 **********************************************************************

 Alpha  occ. eigenvalues --  -10.24993 -10.24946 -10.24929 -10.24896 -10.24873
 Alpha  occ. eigenvalues --  -10.24838  -3.74015  -2.32001  -2.32000  -2.31938
 Alpha  occ. eigenvalues --   -0.89379  -0.77816  -0.77812  -0.63101  -0.63101
 Alpha  occ. eigenvalues --   -0.55556  -0.48120  -0.47977  -0.44894  -0.44891
 Alpha  occ. eigenvalues --   -0.40899  -0.36831  -0.36831  -0.32068  -0.32064
 Alpha  occ. eigenvalues --   -0.31572  -0.31571  -0.31362  -0.27879  -0.27873
 Alpha  occ. eigenvalues --   -0.16657
 Alpha virt. eigenvalues --   -0.01565  -0.01562   0.00704   0.00714   0.03178
 Alpha virt. eigenvalues --    0.05818   0.11095   0.11106   0.13358   0.14595
 Alpha virt. eigenvalues --    0.14596   0.15141   0.16974   0.28871   0.28880
 Alpha virt. eigenvalues --    0.28982   0.29006   0.29344   0.34335   0.34354
 Alpha virt. eigenvalues --    0.40056   0.40471   0.40759   0.40801   0.43380
 Alpha virt. eigenvalues --    0.43416   0.47310   0.47363   0.51012   0.51132
 Alpha virt. eigenvalues --    0.54193   0.54194   0.55278   0.55328   0.64045
 Alpha virt. eigenvalues --    0.64060   0.65220   0.65232   0.68460   0.68983
 Alpha virt. eigenvalues --    0.69012   0.71520   0.73108   0.73501   0.75562
 Alpha virt. eigenvalues --    0.75748   0.75887   0.81107   0.81133   0.84402
 Alpha virt. eigenvalues --    0.85084   0.91826   1.04504   1.04529   1.17527
 Alpha virt. eigenvalues --    1.24177   1.26866   1.26928   1.28735   1.28764
 Alpha virt. eigenvalues --    1.30716   1.30733   1.53106   1.65207   1.65895
 Alpha virt. eigenvalues --    1.67341   1.76758   1.76782   1.76935   1.76945
 Alpha virt. eigenvalues --    1.77177   1.77236   1.77279   1.83496   1.83501
 Alpha virt. eigenvalues --    1.93317   1.99316   1.99325   1.99969   2.00892
 Alpha virt. eigenvalues --    2.00907   2.08153   2.11204   2.16911   2.19462
 Alpha virt. eigenvalues --    2.19478   2.31684   2.31708   2.33680   2.33681
 Alpha virt. eigenvalues --    2.36066   2.36068   2.58226   2.61850   2.61865
 Alpha virt. eigenvalues --    2.63405   2.63484   2.63502   2.63920   2.63938
 Alpha virt. eigenvalues --    2.65334   2.65387   2.66807   2.76147   2.76149
 Alpha virt. eigenvalues --    2.77173   2.89641   2.89645   2.92288   3.16657
 Alpha virt. eigenvalues --    3.16658   3.29074   3.72033  53.82590
  Beta  occ. eigenvalues --  -10.24978 -10.24933 -10.24918 -10.24885 -10.24864
  Beta  occ. eigenvalues --  -10.24831  -3.73901  -2.31965  -2.31965  -2.31928
  Beta  occ. eigenvalues --   -0.89338  -0.77782  -0.77778  -0.63078  -0.63078
  Beta  occ. eigenvalues --   -0.55544  -0.48108  -0.47956  -0.44880  -0.44877
  Beta  occ. eigenvalues --   -0.40669  -0.36817  -0.36817  -0.31473  -0.31468
  Beta  occ. eigenvalues --   -0.30937  -0.30937  -0.30702  -0.27726  -0.27725
  Beta virt. eigenvalues --   -0.07695  -0.01502  -0.01499   0.03396   0.03406
  Beta virt. eigenvalues --    0.05240   0.07019   0.11312   0.11313   0.14609
  Beta virt. eigenvalues --    0.14611   0.15182   0.15263   0.16987   0.28952
  Beta virt. eigenvalues --    0.28953   0.29497   0.29510   0.31597   0.36079
  Beta virt. eigenvalues --    0.36092   0.40807   0.40822   0.41947   0.42021
  Beta virt. eigenvalues --    0.44870   0.44901   0.47362   0.47655   0.51668
  Beta virt. eigenvalues --    0.51784   0.54693   0.54696   0.55282   0.56987
  Beta virt. eigenvalues --    0.64363   0.64384   0.65277   0.65290   0.68490
  Beta virt. eigenvalues --    0.69071   0.69107   0.71859   0.73937   0.74183
  Beta virt. eigenvalues --    0.75605   0.75970   0.76086   0.81318   0.81349
  Beta virt. eigenvalues --    0.85075   0.85141   0.91832   1.04575   1.04603
  Beta virt. eigenvalues --    1.17638   1.24212   1.26942   1.27006   1.28777
  Beta virt. eigenvalues --    1.28807   1.30745   1.30763   1.53194   1.65212
  Beta virt. eigenvalues --    1.65944   1.67346   1.76775   1.76797   1.76952
  Beta virt. eigenvalues --    1.76960   1.77228   1.77259   1.77321   1.83509
  Beta virt. eigenvalues --    1.83514   1.93413   1.99338   1.99345   1.99975
  Beta virt. eigenvalues --    2.00910   2.00925   2.09356   2.11201   2.16925
  Beta virt. eigenvalues --    2.19515   2.19531   2.31725   2.31750   2.33694
  Beta virt. eigenvalues --    2.33696   2.36092   2.36094   2.58254   2.61890
  Beta virt. eigenvalues --    2.61904   2.63418   2.63514   2.63540   2.63964
  Beta virt. eigenvalues --    2.63984   2.65361   2.65414   2.66840   2.76155
  Beta virt. eigenvalues --    2.76156   2.77188   2.89655   2.89659   2.92315
  Beta virt. eigenvalues --    3.16668   3.16669   3.29086   3.72047  53.82750
          Condensed to atoms (all electrons):
               1          2          3          4          5          6
     1  C    5.100830   0.272316   0.089220  -0.152061   0.089220   0.272316
     2  C    0.272316   5.105856   0.268670   0.089306  -0.151950   0.089070
     3  C    0.089220   0.268670   5.117817   0.264157   0.089244  -0.151950
     4  C   -0.152061   0.089306   0.264157   5.124830   0.264156   0.089306
     5  C    0.089220  -0.151950   0.089244   0.264156   5.117818   0.268669
     6  C    0.272316   0.089070  -0.151950   0.089306   0.268669   5.105855
     7  H    0.451893  -0.069132   0.014453  -0.001808   0.014453  -0.069132
     8  H   -0.069102   0.452414  -0.069701   0.014537  -0.001826   0.014440
     9  H    0.014496  -0.069592   0.453507  -0.070278   0.014599  -0.001863
    10  H   -0.001880   0.014569  -0.070189   0.454069  -0.070189   0.014569
    11  H    0.014496  -0.001863   0.014599  -0.070278   0.453507  -0.069592
    12  H   -0.069102   0.014440  -0.001826   0.014537  -0.069701   0.452414
    13  Ag  -0.001766  -0.002069  -0.002185  -0.001828  -0.002185  -0.002069
               7          8          9         10         11         12
     1  C    0.451893  -0.069102   0.014496  -0.001880   0.014496  -0.069102
     2  C   -0.069132   0.452414  -0.069592   0.014569  -0.001863   0.014440
     3  C    0.014453  -0.069701   0.453507  -0.070189   0.014599  -0.001826
     4  C   -0.001808   0.014537  -0.070278   0.454069  -0.070278   0.014537
     5  C    0.014453  -0.001826   0.014599  -0.070189   0.453507  -0.069701
     6  C   -0.069132   0.014440  -0.001863   0.014569  -0.069592   0.452414
     7  H    0.659195  -0.012563  -0.000264   0.000038  -0.000264  -0.012563
     8  H   -0.012563   0.658702  -0.012603  -0.000262   0.000038  -0.000266
     9  H   -0.000264  -0.012603   0.657424  -0.012646  -0.000261   0.000038
    10  H    0.000038  -0.000262  -0.012646   0.656612  -0.012646  -0.000262
    11  H   -0.000264   0.000038  -0.000261  -0.012646   0.657424  -0.012603
    12  H   -0.012563  -0.000266   0.000038  -0.000262  -0.012603   0.658702
    13  Ag   0.000144   0.000134   0.000105   0.000083   0.000105   0.000134
              13
     1  C   -0.001766
     2  C   -0.002069
     3  C   -0.002185
     4  C   -0.001828
     5  C   -0.002185
     6  C   -0.002069
     7  H    0.000144
     8  H    0.000134
     9  H    0.000105
    10  H    0.000083
    11  H    0.000105
    12  H    0.000134
    13  Ag  19.086661
          Atomic-Atomic Spin Densities.
               1          2          3          4          5          6
     1  C    0.002255   0.001101   0.000859   0.000153   0.000860   0.001100
     2  C    0.001101   0.003837   0.001758   0.000928   0.000162   0.000851
     3  C    0.000859   0.001758   0.007327   0.002559   0.000985   0.000162
     4  C    0.000153   0.000928   0.002559   0.008926   0.002559   0.000928
     5  C    0.000860   0.000162   0.000985   0.002559   0.007327   0.001759
     6  C    0.001100   0.000851   0.000162   0.000928   0.001759   0.003837
     7  H    0.000191   0.000071   0.000022   0.000003   0.000022   0.000071
     8  H    0.000075   0.000235   0.000081   0.000025   0.000003   0.000019
     9  H    0.000019   0.000083   0.000349   0.000096   0.000025   0.000002
    10  H    0.000002   0.000022   0.000095   0.000419   0.000095   0.000022
    11  H    0.000019   0.000002   0.000025   0.000096   0.000349   0.000083
    12  H    0.000075   0.000019   0.000003   0.000025   0.000081   0.000235
    13  Ag  -0.007902  -0.009530  -0.013101  -0.015004  -0.013101  -0.009531
               7          8          9         10         11         12
     1  C    0.000191   0.000075   0.000019   0.000002   0.000019   0.000075
     2  C    0.000071   0.000235   0.000083   0.000022   0.000002   0.000019
     3  C    0.000022   0.000081   0.000349   0.000095   0.000025   0.000003
     4  C    0.000003   0.000025   0.000096   0.000419   0.000096   0.000025
     5  C    0.000022   0.000003   0.000025   0.000095   0.000349   0.000081
     6  C    0.000071   0.000019   0.000002   0.000022   0.000083   0.000235
     7  H    0.000210   0.000027   0.000002   0.000000   0.000002   0.000027
     8  H    0.000027   0.000168   0.000033   0.000002   0.000000   0.000002
     9  H    0.000002   0.000033   0.000086   0.000039   0.000002   0.000000
    10  H    0.000000   0.000002   0.000039   0.000061   0.000039   0.000002
    11  H    0.000002   0.000000   0.000002   0.000039   0.000086   0.000033
    12  H    0.000027   0.000002   0.000000   0.000002   0.000033   0.000168
    13  Ag  -0.000872  -0.000967  -0.001192  -0.001325  -0.001192  -0.000967
              13
     1  C   -0.007902
     2  C   -0.009530
     3  C   -0.013101
     4  C   -0.015004
     5  C   -0.013101
     6  C   -0.009531
     7  H   -0.000872
     8  H   -0.000967
     9  H   -0.001192
    10  H   -0.001325
    11  H   -0.001192
    12  H   -0.000967
    13  Ag   1.075085
 Mulliken charges and spin densities:
               1          2
     1  C   -0.010875  -0.001193
     2  C   -0.012034  -0.000462
     3  C   -0.015817   0.001125
     4  C   -0.018645   0.001715
     5  C   -0.015815   0.001125
     6  C   -0.012033  -0.000462
     7  H    0.025551  -0.000223
     8  H    0.026058  -0.000296
     9  H    0.027340  -0.000454
    10  H    0.028136  -0.000526
    11  H    0.027340  -0.000454
    12  H    0.026058  -0.000296
    13  Ag  -0.075265   1.000402
 Sum of Mulliken charges =   0.00000   1.00000
 Mulliken charges and spin densities with hydrogens summed into heavy atoms:
               1          2
     1  C    0.014676  -0.001416
     2  C    0.014024  -0.000758
     3  C    0.011523   0.000671
     4  C    0.009491   0.001189
     5  C    0.011525   0.000671
     6  C    0.014026  -0.000758
    13  Ag  -0.075265   1.000402
 Electronic spatial extent (au):  <R**2>=           1097.6247
 Charge=              0.0000 electrons
 Dipole moment (field-independent basis, Debye):
    X=              0.0439    Y=              0.0317    Z=              1.9150  Tot=              1.9157
 Quadrupole moment (field-independent basis, Debye-Ang):
   XX=            -51.6193   YY=            -51.6242   ZZ=            -67.4165
   XY=             -0.0020   XZ=             -0.1886   YZ=             -0.3808
 Traceless Quadrupole moment (field-independent basis, Debye-Ang):
   XX=              5.2674   YY=              5.2624   ZZ=            -10.5298
   XY=             -0.0020   XZ=             -0.1886   YZ=             -0.3808
 Octapole moment (field-independent basis, Debye-Ang**2):
  XXX=              8.2412  YYY=              0.4171  ZZZ=            216.7308  XYY=              2.7468
  XXY=              0.1395  XXZ=             62.7870  XZZ=              3.7367  YZZ=              0.3782
  YYZ=             62.7557  XYZ=              0.0097
 Hexadecapole moment (field-independent basis, Debye-Ang**3):
 XXXX=           -295.1685 YYYY=           -292.7724 ZZZZ=          -1303.0541 XXXY=             -0.0768
 XXXZ=            -25.4431 YYYX=             -0.0747 YYYZ=              1.8789 ZZZX=            -29.4762
 ZZZY=              3.2433 XXYY=            -97.9886 XXZZ=           -259.2305 YYZZ=           -258.6348
 XXYZ=              0.6241 YYXZ=             -8.4806 ZZXY=             -0.0741
 N-N= 3.313751749029D+02 E-N=-1.516323323803D+03  KE= 2.857032061870D+02
                          Isotropic Fermi Contact Couplings
        Atom                 a.u.       MegaHertz       Gauss      10(-4) cm-1
     1  C(13)              0.00387       4.34634       1.55088       1.44978
     2  C(13)              0.00446       5.01645       1.79000       1.67331
     3  C(13)              0.00585       6.58060       2.34812       2.19505
     4  C(13)              0.00661       7.43273       2.65218       2.47929
     5  C(13)              0.00585       6.58046       2.34807       2.19500
     6  C(13)              0.00446       5.01656       1.79003       1.67334
     7  H(1)               0.00004       0.16097       0.05744       0.05369
     8  H(1)               0.00003       0.13123       0.04683       0.04377
     9  H(1)               0.00002       0.09313       0.03323       0.03106
    10  H(1)               0.00002       0.10510       0.03750       0.03506
    11  H(1)               0.00002       0.09316       0.03324       0.03108
    12  H(1)               0.00003       0.13121       0.04682       0.04377
    13  Ag(107             0.00033      -0.06069      -0.02166      -0.02024
 --------------------------------------------------------
       Center         ----  Spin Dipole Couplings  ----
                      3XX-RR        3YY-RR        3ZZ-RR
 --------------------------------------------------------
     1   Atom       -0.002486     -0.003131      0.005617
     2   Atom       -0.003043     -0.004164      0.007207
     3   Atom       -0.005958     -0.004902      0.010860
     4   Atom       -0.006308     -0.006413      0.012721
     5   Atom       -0.005483     -0.005745      0.011228
     6   Atom       -0.004308     -0.003217      0.007525
     7   Atom       -0.000260     -0.001306      0.001566
     8   Atom        0.000276     -0.001748      0.001472
     9   Atom       -0.002498      0.000957      0.001542
    10   Atom       -0.000283     -0.001451      0.001735
    11   Atom        0.000026     -0.001864      0.001839
    12   Atom       -0.002217      0.000480      0.001738
    13   Atom        0.007782      0.007639     -0.015421
 --------------------------------------------------------
                        XY            XZ            YZ
 --------------------------------------------------------
     1   Atom       -0.000576      0.003066     -0.001814
     2   Atom        0.000432      0.003546      0.001542
     3   Atom        0.000362      0.000795      0.004166
     4   Atom       -0.000435     -0.003001      0.002693
     5   Atom        0.000417     -0.003131     -0.001517
     6   Atom       -0.000164      0.000189     -0.003402
     7   Atom       -0.001154      0.002376     -0.001516
     8   Atom        0.001076      0.002680      0.001248
     9   Atom        0.000474      0.000389      0.003166
    10   Atom       -0.001766     -0.002647      0.001964
    11   Atom        0.001340     -0.002831     -0.001387
    12   Atom        0.000028     -0.000093     -0.002908
    13   Atom       -0.000076      0.000888     -0.001354
 --------------------------------------------------------


 ---------------------------------------------------------------------------------
              Anisotropic Spin Dipole Couplings in Principal Axis System
 ---------------------------------------------------------------------------------

       Atom             a.u.   MegaHertz   Gauss  10(-4) cm-1        Axes

              Baa    -0.0035    -0.474    -0.169    -0.158  0.7624 -0.5366 -0.3617
     1 C(13)  Bbb    -0.0035    -0.465    -0.166    -0.155  0.5668  0.8234 -0.0269
              Bcc     0.0070     0.940     0.335     0.313  0.3123 -0.1845  0.9319
 
              Baa    -0.0044    -0.587    -0.210    -0.196  0.1585  0.9712 -0.1778
     2 C(13)  Bbb    -0.0041    -0.556    -0.198    -0.185  0.9422 -0.2026 -0.2669
              Bcc     0.0085     1.143     0.408     0.381  0.2953  0.1252  0.9472
 
              Baa    -0.0061    -0.823    -0.294    -0.274  0.7722 -0.6245  0.1170
     3 C(13)  Bbb    -0.0058    -0.779    -0.278    -0.260  0.6336  0.7429 -0.2159
              Bcc     0.0119     1.602     0.571     0.534  0.0479  0.2409  0.9694
 
              Baa    -0.0068    -0.912    -0.326    -0.304  0.5660  0.8240 -0.0267
     4 C(13)  Bbb    -0.0068    -0.907    -0.324    -0.302  0.8105 -0.5503  0.2009
              Bcc     0.0136     1.819     0.649     0.607 -0.1509  0.1353  0.9792
 
              Baa    -0.0061    -0.823    -0.294    -0.274  0.8633 -0.4920  0.1127
     5 C(13)  Bbb    -0.0058    -0.779    -0.278    -0.260  0.4722  0.8661  0.1640
              Bcc     0.0119     1.601     0.571     0.534 -0.1783 -0.0883  0.9800
 
              Baa    -0.0044    -0.587    -0.210    -0.196  0.8545  0.5028  0.1302
     6 C(13)  Bbb    -0.0041    -0.556    -0.198    -0.185 -0.5191  0.8182  0.2470
              Bcc     0.0085     1.143     0.408     0.381  0.0177 -0.2787  0.9602
 
              Baa    -0.0021    -1.094    -0.390    -0.365  0.5662  0.8238 -0.0266
     7 H(1)   Bbb    -0.0018    -0.984    -0.351    -0.328 -0.6260  0.4508  0.6364
              Bcc     0.0039     2.078     0.742     0.693  0.5363 -0.3437  0.7709
 
              Baa    -0.0022    -1.186    -0.423    -0.396 -0.2934  0.9499 -0.1080
     8 H(1)   Bbb    -0.0019    -0.994    -0.355    -0.331  0.7410  0.1546 -0.6535
              Bcc     0.0041     2.179     0.778     0.727  0.6040  0.2717  0.7492
 
              Baa    -0.0026    -1.368    -0.488    -0.456  0.9868 -0.1591  0.0293
     9 H(1)   Bbb    -0.0019    -1.023    -0.365    -0.341  0.1367  0.7231 -0.6771
              Bcc     0.0045     2.391     0.853     0.798  0.0866  0.6722  0.7353
 
              Baa    -0.0027    -1.456    -0.519    -0.486  0.5662  0.8238 -0.0266
    10 H(1)   Bbb    -0.0020    -1.042    -0.372    -0.347  0.6247 -0.4079  0.6658
              Bcc     0.0047     2.497     0.891     0.833 -0.5377  0.3936  0.7456
 
              Baa    -0.0026    -1.368    -0.488    -0.456 -0.5034  0.8625 -0.0520
    11 H(1)   Bbb    -0.0019    -1.023    -0.365    -0.341  0.6460  0.4156  0.6403
              Bcc     0.0045     2.391     0.853     0.798 -0.5738 -0.2888  0.7664
 
              Baa    -0.0022    -1.186    -0.423    -0.396  0.9947  0.0705  0.0750
    12 H(1)   Bbb    -0.0019    -0.994    -0.355    -0.331 -0.1020  0.7752  0.6234
              Bcc     0.0041     2.179     0.778     0.727 -0.0142 -0.6278  0.7783
 
              Baa    -0.0155     0.337     0.120     0.112 -0.0378  0.0582  0.9976
    13 Ag(107 Bbb     0.0076    -0.166    -0.059    -0.055  0.5664  0.8237 -0.0266
              Bcc     0.0079    -0.171    -0.061    -0.057  0.8232 -0.5641  0.0641
 

 ---------------------------------------------------------------------------------

 No NMR shielding tensors so no spin-rotation constants.
 Leave Link  601 at Sat Sep 12 01:23:57 2026, MaxMem=  6442450944 cpu:               1.0 elap:               0.5
 (Enter C:\G16W\l9999.exe)
 Unable to Open any file for archive entry.
 1|1|UNPC-DESKTOP-2JKEGCA|SP|UPBE1PBE|def2SVP|C6H6Ag1(2)|JHKIM|12-Sep-2
 026|0||#P PBE1PBE/Def2SVP EmpiricalDispersion=GD3BJ SP SCF=(XQC,MaxCyc
 le=128) NoSymm Guess=Read||benzene t=0.000 dz=+0.40 class=toface||0,2|
 C,0,1.141225,-0.783092,0.038033|C,0,1.249529,0.596311,-0.012888|C,0,0.
 108303,1.379403,-0.050921|C,0,-1.141226,0.783092,-0.038033|C,0,-1.2495
 29,-0.596311,0.012888|C,0,-0.108303,-1.379403,0.050921|H,0,2.031786,-1
 .394181,0.067712|H,0,2.224604,1.061646,-0.022945|H,0,0.192818,2.455827
 ,-0.090658|H,0,-2.031786,1.394182,-0.067712|H,0,-2.224605,-1.061645,0.
 022945|H,0,-0.192818,-2.455827,0.090657|Ag,0,-0.1325802,-0.00435343,-2
 .95606282||Version=EM64W-G16RevC.01|HF=-378.7477155|S2=0.75161|S2-1=0.
 |S2A=0.750002|RMSD=7.265e-009|Dipole=0.0172645,0.0124732,0.7534027|Qua
 drupole=3.9161781,3.9124781,-7.8286562,-0.0014906,-0.1401967,-0.283142
 3|PG=C01 [X(C6H6Ag1)]||@
 The archive entry for this job was punched.


 THE MEEK SHALL INHERIT THE EARTH.
 (THE REST OF US WILL ESCAPE TO THE STARS)
 Job cpu time:       0 days  0 hours  1 minutes 15.0 seconds.
 Elapsed time:       0 days  0 hours  1 minutes 13.7 seconds.
 File lengths (MBytes):  RWF=     23 Int=      0 D2E=      0 Chk=      3 Scr=      1
 Normal termination of Gaussian 16 at Sat Sep 12 01:23:57 2026.
