 Entering Gaussian System, Link 0=C:\G16W\g16.exe
 Input=Bphen_t0_z0.gjf
 Output=Bphen_t0_z0.out
 Initial command:
 C:\G16W\l1.exe ".\Gau-130476.inp" "Bphen_t0_z0.out" /scrdir=".\"
 Entering Link 1 = C:\G16W\l1.exe PID=     53616.
  
 Copyright (c) 1988-2019, Gaussian, Inc.  All Rights Reserved.
  
 This is part of the Gaussian(R) 16 program.  It is based on
 the Gaussian(R) 09 system (copyright 2009, Gaussian, Inc.),
 the Gaussian(R) 03 system (copyright 2003, Gaussian, Inc.),
 the Gaussian(R) 98 system (copyright 1998, Gaussian, Inc.),
 the Gaussian(R) 94 system (copyright 1995, Gaussian, Inc.),
 the Gaussian 92(TM) system (copyright 1992, Gaussian, Inc.),
 the Gaussian 90(TM) system (copyright 1990, Gaussian, Inc.),
 the Gaussian 88(TM) system (copyright 1988, Gaussian, Inc.),
 the Gaussian 86(TM) system (copyright 1986, Carnegie Mellon
 University), and the Gaussian 82(TM) system (copyright 1983,
 Carnegie Mellon University). Gaussian is a federally registered
 trademark of Gaussian, Inc.
  
 This software contains proprietary and confidential information,
 including trade secrets, belonging to Gaussian, Inc.
  
 This software is provided under written license and may be
 used, copied, transmitted, or stored only in accord with that
 written license.
  
 The following legend is applicable only to US Government
 contracts under FAR:
  
                    RESTRICTED RIGHTS LEGEND
  
 Use, reproduction and disclosure by the US Government is
 subject to restrictions as set forth in subparagraphs (a)
 and (c) of the Commercial Computer Software - Restricted
 Rights clause in FAR 52.227-19.
  
 Gaussian, Inc.
 340 Quinnipiac St., Bldg. 40, Wallingford CT 06492
  
  
 ---------------------------------------------------------------
 Warning -- This program may not be used in any manner that
 competes with the business of Gaussian, Inc. or will provide
 assistance to any competitor of Gaussian, Inc.  The licensee
 of this program is prohibited from giving any competitor of
 Gaussian, Inc. access to this program.  By using this program,
 the user acknowledges that Gaussian, Inc. is engaged in the
 business of creating and licensing software in the field of
 computational chemistry and represents and warrants to the
 licensee that it is not a competitor of Gaussian, Inc. and that
 it will not use this program in any manner prohibited above.
 ---------------------------------------------------------------
  

 Cite this work as:
 Gaussian 16, Revision C.01,
 M. J. Frisch, G. W. Trucks, H. B. Schlegel, G. E. Scuseria, 
 M. A. Robb, J. R. Cheeseman, G. Scalmani, V. Barone, 
 G. A. Petersson, H. Nakatsuji, X. Li, M. Caricato, A. V. Marenich, 
 J. Bloino, B. G. Janesko, R. Gomperts, B. Mennucci, H. P. Hratchian, 
 J. V. Ortiz, A. F. Izmaylov, J. L. Sonnenberg, D. Williams-Young, 
 F. Ding, F. Lipparini, F. Egidi, J. Goings, B. Peng, A. Petrone, 
 T. Henderson, D. Ranasinghe, V. G. Zakrzewski, J. Gao, N. Rega, 
 G. Zheng, W. Liang, M. Hada, M. Ehara, K. Toyota, R. Fukuda, 
 J. Hasegawa, M. Ishida, T. Nakajima, Y. Honda, O. Kitao, H. Nakai, 
 T. Vreven, K. Throssell, J. A. Montgomery, Jr., J. E. Peralta, 
 F. Ogliaro, M. J. Bearpark, J. J. Heyd, E. N. Brothers, K. N. Kudin, 
 V. N. Staroverov, T. A. Keith, R. Kobayashi, J. Normand, 
 K. Raghavachari, A. P. Rendell, J. C. Burant, S. S. Iyengar, 
 J. Tomasi, M. Cossi, J. M. Millam, M. Klene, C. Adamo, R. Cammi, 
 J. W. Ochterski, R. L. Martin, K. Morokuma, O. Farkas, 
 J. B. Foresman, and D. J. Fox, Gaussian, Inc., Wallingford CT, 2019.
 
 ******************************************
 Gaussian 16:  EM64W-G16RevC.01 30-May-2019
                11-Sep-2026 
 ******************************************
 %Chk=Bphen.chk
 %NProcShared=8
 Will use up to    8 processors via shared memory.
 %Mem=48GB
 ----------------------------------------------------------------------
 #P PBE1PBE/Def2SVP EmpiricalDispersion=GD3BJ SP SCF=(XQC,MaxCycle=128,
 VShift=300) NoSymm
 ----------------------------------------------------------------------
 1/38=1,172=1/1;
 2/12=2,15=1,17=6,18=5,40=1/2;
 3/5=43,7=101,11=2,25=1,30=1,74=-13,124=41/1,2,3;
 4//1;
 5/5=2,7=128,8=3,10=300,13=1,38=5/2,8;
 6/7=2,8=2,9=2,10=2,28=1/1;
 99/5=1,9=1/99;
 Leave Link    1 at Fri Sep 11 20:32:35 2026, MaxMem=  6442450944 cpu:               0.0 elap:               0.3
 (Enter C:\G16W\l101.exe)
 -----------------------------------
 Bphen t=0.000 dz=+0.00 class=toface
 -----------------------------------
 Symbolic Z-matrix:
 Charge =  0 Multiplicity = 2
 C                    -5.0751    2.59606  -0.84858 
 C                    -4.71572   2.43416   0.47886 
 C                    -3.98565   1.32625   0.87075 
 C                    -3.60881   0.37048  -0.0652 
 C                    -2.84989  -0.82782   0.35639 
 C                    -3.5129   -1.97087   0.7492 
 C                    -2.76401  -3.08484   1.14144 
 N                    -1.45743  -3.11297   1.16005 
 C                    -0.78703  -2.01864   0.78421 
 C                    -1.4373   -0.83218   0.36743 
 C                    -0.66729   0.3003   -0.02102 
 C                     0.68582   0.26343   0.00091 
 C                     1.38006  -0.90895   0.4131 
 C                     2.79041  -0.98148   0.44787 
 C                     3.62669   0.17333   0.05207 
 C                     4.02533   1.1075    1.00071 
 C                     4.82692   2.17366   0.63356 
 C                     5.23657   2.31503  -0.68161 
 C                     4.84108   1.3874   -1.63058 
 C                     4.03949   0.32006  -1.26687 
 C                     3.37714  -2.15855   0.86106 
 C                     2.5564   -3.22975   1.22785 
 N                     1.25031  -3.18672   1.20402 
 C                     0.653    -2.05787   0.80757 
 C                    -3.97094   0.53789  -1.3965 
 C                    -4.70102   1.647    -1.78497 
 H                    -5.6466    3.46042  -1.15284 
 H                    -5.00582   3.17229   1.21221 
 H                    -3.70334   1.19591   1.9058 
 H                    -4.59224  -2.00367   0.75332 
 H                    -3.25874  -3.99548   1.45464 
 H                    -1.19166   1.19194  -0.33448 
 H                     1.26783   1.12493  -0.29462 
 H                     3.70361   0.99327   2.02611 
 H                     5.13349   2.89518   1.37667 
 H                     5.86383   3.14671  -0.96651 
 H                     5.15874   1.49424  -2.65746 
 H                     3.72879  -0.40634  -2.00431 
 H                     4.45239  -2.25004   0.90015 
 H                     2.99042  -4.16569   1.55613 
 H                    -3.6772   -0.20534  -2.12405 
 H                    -4.97963   1.76976  -2.82136 
 Ag                   -0.16254  -4.94378   1.80519 
 
 ITRead=  0  0  0  0  0  0  0  0  0  0  0  0  0  0  0  0  0  0  0  0
 ITRead=  0  0  0  0  0  0  0  0  0  0  0  0  0  0  0  0  0  0  0  0
 ITRead=  0  0  0
 MicOpt= -1 -1 -1 -1 -1 -1 -1 -1 -1 -1 -1 -1 -1 -1 -1 -1 -1 -1 -1 -1
 MicOpt= -1 -1 -1 -1 -1 -1 -1 -1 -1 -1 -1 -1 -1 -1 -1 -1 -1 -1 -1 -1
 MicOpt= -1 -1 -1
 NAtoms=     43 NQM=       43 NQMF=       0 NMMI=      0 NMMIF=      0
                NMic=       0 NMicF=      0.
                    Isotopes and Nuclear Properties:
 (Nuclear quadrupole moments (NQMom) in fm**2, nuclear magnetic moments (NMagM)
  in nuclear magnetons)

  Atom         1           2           3           4           5           6           7           8           9          10
 IAtWgt=          12          12          12          12          12          12          12          14          12          12
 AtmWgt=  12.0000000  12.0000000  12.0000000  12.0000000  12.0000000  12.0000000  12.0000000  14.0030740  12.0000000  12.0000000
 NucSpn=           0           0           0           0           0           0           0           2           0           0
 AtZEff=   0.0000000   0.0000000   0.0000000   0.0000000   0.0000000   0.0000000   0.0000000   0.0000000   0.0000000   0.0000000
 NQMom=    0.0000000   0.0000000   0.0000000   0.0000000   0.0000000   0.0000000   0.0000000   2.0440000   0.0000000   0.0000000
 NMagM=    0.0000000   0.0000000   0.0000000   0.0000000   0.0000000   0.0000000   0.0000000   0.4037610   0.0000000   0.0000000
 AtZNuc=   6.0000000   6.0000000   6.0000000   6.0000000   6.0000000   6.0000000   6.0000000   7.0000000   6.0000000   6.0000000

  Atom        11          12          13          14          15          16          17          18          19          20
 IAtWgt=          12          12          12          12          12          12          12          12          12          12
 AtmWgt=  12.0000000  12.0000000  12.0000000  12.0000000  12.0000000  12.0000000  12.0000000  12.0000000  12.0000000  12.0000000
 NucSpn=           0           0           0           0           0           0           0           0           0           0
 AtZEff=   0.0000000   0.0000000   0.0000000   0.0000000   0.0000000   0.0000000   0.0000000   0.0000000   0.0000000   0.0000000
 NQMom=    0.0000000   0.0000000   0.0000000   0.0000000   0.0000000   0.0000000   0.0000000   0.0000000   0.0000000   0.0000000
 NMagM=    0.0000000   0.0000000   0.0000000   0.0000000   0.0000000   0.0000000   0.0000000   0.0000000   0.0000000   0.0000000
 AtZNuc=   6.0000000   6.0000000   6.0000000   6.0000000   6.0000000   6.0000000   6.0000000   6.0000000   6.0000000   6.0000000

  Atom        21          22          23          24          25          26          27          28          29          30
 IAtWgt=          12          12          14          12          12          12           1           1           1           1
 AtmWgt=  12.0000000  12.0000000  14.0030740  12.0000000  12.0000000  12.0000000   1.0078250   1.0078250   1.0078250   1.0078250
 NucSpn=           0           0           2           0           0           0           1           1           1           1
 AtZEff=   0.0000000   0.0000000   0.0000000   0.0000000   0.0000000   0.0000000   0.0000000   0.0000000   0.0000000   0.0000000
 NQMom=    0.0000000   0.0000000   2.0440000   0.0000000   0.0000000   0.0000000   0.0000000   0.0000000   0.0000000   0.0000000
 NMagM=    0.0000000   0.0000000   0.4037610   0.0000000   0.0000000   0.0000000   2.7928460   2.7928460   2.7928460   2.7928460
 AtZNuc=   6.0000000   6.0000000   7.0000000   6.0000000   6.0000000   6.0000000   1.0000000   1.0000000   1.0000000   1.0000000

  Atom        31          32          33          34          35          36          37          38          39          40
 IAtWgt=           1           1           1           1           1           1           1           1           1           1
 AtmWgt=   1.0078250   1.0078250   1.0078250   1.0078250   1.0078250   1.0078250   1.0078250   1.0078250   1.0078250   1.0078250
 NucSpn=           1           1           1           1           1           1           1           1           1           1
 AtZEff=   0.0000000   0.0000000   0.0000000   0.0000000   0.0000000   0.0000000   0.0000000   0.0000000   0.0000000   0.0000000
 NQMom=    0.0000000   0.0000000   0.0000000   0.0000000   0.0000000   0.0000000   0.0000000   0.0000000   0.0000000   0.0000000
 NMagM=    2.7928460   2.7928460   2.7928460   2.7928460   2.7928460   2.7928460   2.7928460   2.7928460   2.7928460   2.7928460
 AtZNuc=   1.0000000   1.0000000   1.0000000   1.0000000   1.0000000   1.0000000   1.0000000   1.0000000   1.0000000   1.0000000

  Atom        41          42          43
 IAtWgt=           1           1         107
 AtmWgt=   1.0078250   1.0078250 106.9050900
 NucSpn=           1           1           1
 AtZEff=   0.0000000   0.0000000   0.0000000
 NQMom=    0.0000000   0.0000000   0.0000000
 NMagM=    2.7928460   2.7928460  -0.1135700
 AtZNuc=   1.0000000   1.0000000  47.0000000
 Leave Link  101 at Fri Sep 11 20:32:36 2026, MaxMem=  6442450944 cpu:               1.0 elap:               0.3
 (Enter C:\G16W\l202.exe)
                          Input orientation:                          
 ---------------------------------------------------------------------
 Center     Atomic      Atomic             Coordinates (Angstroms)
 Number     Number       Type             X           Y           Z
 ---------------------------------------------------------------------
      1          6           0       -5.075104    2.596057   -0.848582
      2          6           0       -4.715716    2.434163    0.478857
      3          6           0       -3.985648    1.326254    0.870754
      4          6           0       -3.608814    0.370482   -0.065200
      5          6           0       -2.849893   -0.827816    0.356392
      6          6           0       -3.512903   -1.970870    0.749200
      7          6           0       -2.764008   -3.084836    1.141440
      8          7           0       -1.457428   -3.112970    1.160054
      9          6           0       -0.787031   -2.018643    0.784213
     10          6           0       -1.437298   -0.832182    0.367434
     11          6           0       -0.667287    0.300298   -0.021018
     12          6           0        0.685824    0.263426    0.000908
     13          6           0        1.380055   -0.908949    0.413101
     14          6           0        2.790408   -0.981482    0.447870
     15          6           0        3.626694    0.173326    0.052066
     16          6           0        4.025328    1.107500    1.000707
     17          6           0        4.826918    2.173661    0.633555
     18          6           0        5.236571    2.315029   -0.681611
     19          6           0        4.841079    1.387397   -1.630584
     20          6           0        4.039486    0.320062   -1.266868
     21          6           0        3.377135   -2.158548    0.861055
     22          6           0        2.556396   -3.229745    1.227851
     23          7           0        1.250307   -3.186722    1.204024
     24          6           0        0.653004   -2.057874    0.807573
     25          6           0       -3.970941    0.537891   -1.396496
     26          6           0       -4.701020    1.647000   -1.784966
     27          1           0       -5.646599    3.460423   -1.152844
     28          1           0       -5.005817    3.172287    1.212213
     29          1           0       -3.703341    1.195908    1.905798
     30          1           0       -4.592243   -2.003673    0.753324
     31          1           0       -3.258742   -3.995483    1.454638
     32          1           0       -1.191655    1.191943   -0.334479
     33          1           0        1.267832    1.124926   -0.294617
     34          1           0        3.703614    0.993274    2.026112
     35          1           0        5.133493    2.895180    1.376669
     36          1           0        5.863825    3.146713   -0.966506
     37          1           0        5.158745    1.494240   -2.657458
     38          1           0        3.728793   -0.406340   -2.004305
     39          1           0        4.452389   -2.250041    0.900153
     40          1           0        2.990418   -4.165689    1.556131
     41          1           0       -3.677198   -0.205338   -2.124046
     42          1           0       -4.979626    1.769762   -2.821356
     43         47           0       -0.162542   -4.943780    1.805193
 ---------------------------------------------------------------------
                    Distance matrix (angstroms):
                    1          2          3          4          5
     1  C    0.000000
     2  C    1.384725   0.000000
     3  C    2.399048   1.383490   0.000000
     4  C    2.777927   2.404165   1.389789   0.000000
     5  C    4.257515   3.759894   2.488880   1.479736   0.000000
     6  C    5.084309   4.574293   3.333060   2.480801   1.378569
     7  C    6.447782   5.891310   4.585127   3.756182   2.391195
     8  N    7.050900   6.469247   5.116864   4.273657   2.794058
     9  C    6.507614   5.946031   4.628928   3.793663   2.420021
    10  C    5.144429   4.629195   3.377316   2.519733   1.412645
    11  C    5.038276   4.603589   3.585995   2.942696   2.485729
    12  C    6.273045   5.840990   4.869177   4.296481   3.717321
    13  C    7.452918   6.952636   5.830639   5.172478   4.231106
    14  C    8.737611   8.246787   7.170733   6.560571   5.643135
    15  C    9.077559   8.653863   7.742561   7.239143   6.560570
    16  C    9.404974   8.856535   8.015016   7.743351   7.171419
    17  C   10.021237   9.547442   8.856392   8.654553   8.247370
    18  C   10.316855  10.020424   9.404086   9.077558   8.737610
    19  C   10.020133   9.842652   9.174505   8.653626   8.246593
    20  C    9.403769   9.174450   8.365681   7.742289   7.170505
    21  C    9.847308   9.313072   8.145828   7.487151   6.387598
    22  C    9.823000   9.247943   7.980162   7.255579   5.979688
    23  N    8.812749   8.228830   6.920495   6.154323   4.805680
    24  C    7.563937   7.007825   5.742248   4.982142   3.739906
    25  C    2.399048   2.769023   2.400449   1.389788   2.488879
    26  C    1.384725   2.396818   2.769022   2.404165   3.759894
    27  H    1.079959   2.140608   3.377630   3.857884   5.337448
    28  H    2.140962   1.080184   2.136627   3.381348   4.623988
    29  H    3.380645   2.143441   1.080742   2.138948   2.687841
    30  H    4.894566   4.448029   3.386763   2.696985   2.139154
    31  H    7.214734   6.664478   5.402795   4.636174   3.377487
    32  H    4.161372   3.824086   3.045821   2.567093   2.703051
    33  H    6.534825   6.173752   5.384949   4.939989   4.603550
    34  H    9.375429   8.680742   7.782704   7.631059   7.003770
    35  H   10.452592   9.900784   9.266942   9.213089   8.867701
    36  H   10.953415  10.701565  10.183404   9.912149   9.668289
    37  H   10.450727  10.403120   9.802878   9.211554   8.866426
    38  H    9.373296   9.249015   8.413112   7.629158   7.002117
    39  H   10.831245  10.304048   9.164672   8.531239   7.459338
    40  H   10.796134  10.203091   8.904868   8.170399   6.833008
    41  H    3.380645   3.849752   3.377831   2.138946   2.687840
    42  H    2.140962   3.376756   3.849204   3.381347   4.623987
    43  Ag   9.382160   8.770667   7.402881   6.604282   5.124650
                    6          7          8          9         10
     6  C    0.000000
     7  C    1.398433   0.000000
     8  N    2.387084   1.307015   0.000000
     9  C    2.726515   2.274383   1.337251   0.000000
    10  C    2.398018   2.726480   2.414673   1.415712   0.000000
    11  C    3.721420   4.148094   3.697249   2.457687   1.423490
    12  C    4.814699   4.940953   4.163796   2.826784   2.417094
    13  C    5.018135   4.736900   3.669735   2.462805   2.818769
    14  C    6.387599   5.979688   4.805680   3.739906   4.231106
    15  C    7.487150   7.255579   6.154322   4.982142   5.172477
    16  C    8.146444   7.980637   6.920865   5.742686   5.831268
    17  C    9.313599   9.248346   8.229136   7.008176   6.953151
    18  C    9.847307   9.823000   8.812748   7.563936   7.452916
    19  C    9.312913   9.247829   8.228740   7.007708   6.952455
    20  C    8.145642   7.980026   6.920385   5.742102   5.830418
    21  C    6.893501   6.216934   4.936934   4.167224   5.018134
    22  C    6.216934   5.323078   4.016095   3.583586   4.736900
    23  N    4.936935   4.016095   2.709096   2.385665   3.669736
    24  C    4.167224   3.583586   2.385664   1.440759   2.462804
    25  C    3.332820   4.584971   5.116882   4.629108   3.377558
    26  C    4.574123   5.891192   6.469262   5.946169   4.629368
    27  H    6.137538   7.510891   8.130692   7.575471   6.201284
    28  H    5.375429   6.646977   7.217911   6.702768   5.429894
    29  H    3.376754   4.448748   4.915963   4.482874   3.408029
    30  H    1.079846   2.159164   3.350080   3.805367   3.387474
    31  H    2.159004   1.082651   2.027398   3.235231   3.808693
    32  H    4.070128   4.789725   4.564706   3.423895   2.156410
    33  H    5.790417   6.003340   5.244318   3.907475   3.403867
    34  H    7.905363   7.696997   6.651891   5.547959   5.701971
    35  H    9.941445   9.908907   8.921044   7.716817   7.621488
    36  H   10.819257  10.849661   9.864413   8.601151   8.421247
    37  H    9.940311   9.908056   8.920399   7.716068   7.620367
    38  H    7.903904   7.695877   6.651008   5.546893   5.700437
    39  H    7.971612   7.268527   5.978138   5.245809   6.081326
    40  H    6.910973   5.869721   4.587857   4.413024   5.668328
    41  H    3.376335   4.448463   4.915996   4.483203   3.408454
    42  H    5.375172   6.646791   7.217934   6.702984   5.430155
    43  Ag   4.601982   3.265558   2.333409   3.160508   4.538435
                   11         12         13         14         15
    11  C    0.000000
    12  C    1.353791   0.000000
    13  C    2.417095   1.423490   0.000000
    14  C    3.717320   2.485728   1.412645   0.000000
    15  C    4.296479   2.942695   2.519733   1.479735   0.000000
    16  C    4.869921   3.586690   3.377694   2.488876   1.389788
    17  C    5.841596   4.604118   4.629465   3.759891   2.404165
    18  C    6.273043   5.038274   5.144428   4.257514   2.777927
    19  C    5.840769   4.603392   4.629097   3.759895   2.404165
    20  C    4.868906   3.585737   3.377179   2.488883   1.389790
    21  C    4.814699   3.721420   2.398018   1.378570   2.480802
    22  C    4.940952   4.148093   2.726479   2.391196   3.756182
    23  N    4.163797   3.697249   2.414673   2.794059   4.273657
    24  C    2.826784   2.457686   1.415712   2.420021   3.793663
    25  C    3.586436   4.869654   5.831050   7.171194   7.743081
    26  C    4.603924   5.841379   6.952974   8.247179   8.654318
    27  H    6.005079   7.186899   8.421251   9.668293   9.912153
    28  H    5.347151   6.505652   7.620658   8.866744   9.211946
    29  H    3.705720   4.874720   5.700832   7.002525   7.629640
    30  H    4.616619   5.793432   6.081325   7.459337   8.531237
    31  H    5.229430   5.984249   5.668327   6.833008   8.170398
    32  H    1.080856   2.121216   3.403868   4.603550   4.939988
    33  H    2.121215   1.080856   2.156411   2.703050   2.567092
    34  H    4.876037   3.706911   3.408692   2.687834   2.138946
    35  H    6.506611   5.347954   5.430300   4.623983   3.381347
    36  H    7.186894   6.005075   6.201282   5.337447   3.857885
    37  H    6.505303   5.346853   5.429747   4.623990   3.381348
    38  H    4.874247   3.705284   3.407791   2.687846   2.138948
    39  H    5.793433   4.616619   3.387475   2.139155   2.696986
    40  H    5.984250   5.229429   3.808693   3.377487   4.636174
    41  H    3.706475   4.875565   5.701578   7.003362   7.630576
    42  H    5.347662   6.506270   7.621204   8.867390   9.212704
    43  Ag   5.575856   5.575855   4.538434   5.124651   6.604282
                   16         17         18         19         20
    16  C    0.000000
    17  C    1.383491   0.000000
    18  C    2.399048   1.384725   0.000000
    19  C    2.769022   2.396818   1.384726   0.000000
    20  C    2.400449   2.769023   2.399048   1.383490   0.000000
    21  C    3.332676   4.574020   5.084310   4.574399   3.333208
    22  C    4.584872   5.891117   6.447783   5.891386   4.585227
    23  N    5.116876   6.469257   7.050900   6.469251   5.116870
    24  C    4.629197   5.946237   6.507614   5.945963   4.628838
    25  C    8.367279   9.176011   9.404656   8.855967   8.014437
    26  C    9.176066   9.844197  10.020947   9.546878   8.855825
    27  H   10.184311  10.702408  10.953419  10.701265  10.183080
    28  H    9.266588   9.900241  10.451219  10.403302   9.802986
    29  H    7.781988   8.679857   9.373854   9.249312   8.413340
    30  H    9.165322  10.304613  10.831242  10.303880   9.164478
    31  H    8.905289  10.203451  10.796132  10.202994   8.904755
    32  H    5.385793   6.174470   6.534823   6.173489   5.384641
    33  H    3.046630   3.824715   4.161370   3.823845   3.045512
    34  H    1.080742   2.143441   3.380645   3.849751   3.377831
    35  H    2.136627   1.080183   2.140962   3.376757   3.849204
    36  H    3.377631   2.140608   1.079959   2.140608   3.377630
    37  H    3.849204   3.376757   2.140963   1.080184   2.136627
    38  H    3.377831   3.849752   3.380645   2.143441   1.080742
    39  H    3.386085   4.447526   4.894567   4.448220   3.387019
    40  H    5.402412   6.664176   7.214735   6.664598   5.402946
    41  H    8.415256   9.251161   9.374868   8.679940   7.781903
    42  H    9.804894  10.405184  10.452105   9.900020   9.266199
    43  Ag   7.402935   8.770713   9.382160   8.770666   7.402880
                   21         22         23         24         25
    21  C    0.000000
    22  C    1.398433   0.000000
    23  N    2.387083   1.307015   0.000000
    24  C    2.726515   2.274383   1.337252   0.000000
    25  C    8.146259   7.980502   6.920757   5.742542   0.000000
    26  C    9.313442   9.248232   8.229047   7.008061   1.383491
    27  H   10.819261  10.849663   9.864415   8.601153   3.377631
    28  H    9.940573   9.908245   8.920547   7.716254   3.849204
    29  H    7.904240   7.696124   6.651207   5.547156   3.377831
    30  H    7.971611   7.268526   5.978137   5.245808   3.386339
    31  H    6.910972   5.869720   4.587856   4.413024   5.402562
    32  H    5.790417   6.003340   5.244319   3.907475   3.046325
    33  H    4.070128   4.789725   4.564706   3.423894   5.385489
    34  H    3.376082   4.448283   4.915985   4.483365   8.415487
    35  H    5.375018   6.646675   7.217927   6.703089   9.804997
    36  H    6.137540   7.510892   8.130692   7.575469  10.183981
    37  H    5.375586   6.647096   7.217918   6.702660   9.265840
    38  H    3.377008   4.448928   4.915973   4.482711   7.781189
    39  H    1.079848   2.159165   3.350080   3.805368   9.165132
    40  H    2.159003   1.082651   2.027398   3.235232   8.905178
    41  H    7.905028   7.696749   6.651692   5.547696   1.080742
    42  H    9.941188   9.908722   8.920901   7.716634   2.136628
    43  Ag   4.601981   3.265557   2.333409   3.160509   7.402934
                   26         27         28         29         30
    26  C    0.000000
    27  H    2.140608   0.000000
    28  H    3.376756   2.467209   0.000000
    29  H    3.849751   4.273122   2.466491   0.000000
    30  H    4.447714   5.882303   5.212695   3.515062   0.000000
    31  H    6.664294   8.251749   7.381597   5.229890   2.497473
    32  H    3.824478   5.065792   4.567477   3.365624   4.791584
    33  H    6.174212   7.348500   6.769113   5.436858   6.725087
    34  H    9.251462  10.179345   9.014695   7.410703   8.911954
    35  H   10.405361  11.087304  10.144429   9.014274  10.907670
    36  H   10.702101  11.516206  11.085873  10.177742  11.781920
    37  H    9.899472  11.085360  11.004931   9.972406  10.906447
    38  H    8.679059  10.177171   9.972260   8.549428   8.910423
    39  H   10.304450  11.781925  10.906727   8.910770   9.049178
    40  H   10.203357  11.836139  10.858358   8.583437   7.925627
    41  H    2.143442   4.273123   4.929929   4.266593   3.514338
    42  H    1.080183   2.467209   4.270532   4.929929   5.212218
    43  Ag   8.770713  10.462098   9.469925   7.088240   5.419678
                   31         32         33         34         35
    31  H    0.000000
    32  H    5.863717   0.000000
    33  H    7.054669   2.460723   0.000000
    34  H    8.584211   5.438338   3.366920   0.000000
    35  H   10.858956   6.770269   4.568406   2.466491   0.000000
    36  H   11.836137   7.348495   5.065788   4.273122   2.467210
    37  H   10.858199   6.768692   4.567123   4.929929   4.270533
    38  H    8.583232   5.436326   3.365136   4.266593   4.929929
    39  H    7.925627   6.725088   4.791584   3.513907   5.211935
    40  H    6.252301   7.054669   5.863717   5.229190   7.381114
    41  H    5.229463   3.366433   5.437806   8.552010   9.974793
    42  H    7.381302   4.568058   6.769856   9.974945  11.007505
    43  Ag   3.257086   6.579086   6.579085   7.088341   9.470001
                   36         37         38         39         40
    36  H    0.000000
    37  H    2.467210   0.000000
    38  H    4.273122   2.466491   0.000000
    39  H    5.882306   5.212981   3.515494   0.000000
    40  H    8.251751   7.381786   5.230163   2.497473   0.000000
    41  H   10.178765   9.013711   7.409686   8.911609   8.584008
    42  H   11.086789  10.143438   9.013299  10.907399  10.858802
    43  Ag  10.462098   9.469923   7.088238   5.419679   3.257087
                   41         42         43
    41  H    0.000000
    42  H    2.466491   0.000000
    43  Ag   7.088340   9.470000   0.000000
 Symmetry turned off by external request.
 Stoichiometry    C24H16AgN2(2)
 Framework group  C1[X(C24H16AgN2)]
 Deg. of freedom   123
 Full point group                 C1      NOp   1
 Rotational constants (GHZ):           0.1458686           0.1247518           0.0705238
 Leave Link  202 at Fri Sep 11 20:32:36 2026, MaxMem=  6442450944 cpu:               0.0 elap:               0.1
 (Enter C:\G16W\l301.exe)
 Standard basis: def2SVP (5D, 7F)
 Ernie: Thresh=  0.10000D-02 Tol=  0.10000D-05 Strict=F.
   475 basis functions,   827 primitive gaussians,   506 cartesian basis functions
    97 alpha electrons       96 beta electrons
       nuclear repulsion energy      2369.0339693258 Hartrees.
 IExCor= 1009 DFT=T Ex+Corr=PBE1PBE ExCW=0 ScaHFX=  0.250000
 ScaDFX=  0.750000  0.750000  1.000000  1.000000 ScalE2=  1.000000  1.000000
 IRadAn=      5 IRanWt=     -1 IRanGd=            0 ICorTp=0 IEmpDi=141
 NAtoms=   43 NActive=   43 NUniq=   43 SFac= 1.00D+00 NAtFMM=   60 NAOKFM=F Big=F
 Integral buffers will be    131072 words long.
 Raffenetti 2 integral format.
 Two-electron integral symmetry is turned off.
 R6Disp:  Grimme-D3(BJ) Dispersion energy=       -0.0610366642 Hartrees.
 Nuclear repulsion after empirical dispersion term =     2368.9729326616 Hartrees.
 Leave Link  301 at Fri Sep 11 20:32:36 2026, MaxMem=  6442450944 cpu:               0.0 elap:               0.2
 (Enter C:\G16W\l302.exe)
 NPDir=0 NMtPBC=     1 NCelOv=     1 NCel=       1 NClECP=     1 NCelD=      1
         NCelK=      1 NCelE2=     1 NClLst=     1 CellRange=     0.0.
 One-electron integrals computed using PRISM.
   1 Symmetry operations used in ECPInt.
 ECPInt:  NShTT=   23220 NPrTT=   85067 LenC2=   19828 LenP2D=   49623.
 LDataN:  DoStor=T MaxTD1= 7 Len=  274
 NBasis=   475 RedAO= T EigKep=  1.34D-04  NBF=   475
 NBsUse=   475 1.00D-06 EigRej= -1.00D+00 NBFU=   475
 Precomputing XC quadrature grid using
 IXCGrd= 4 IRadAn=           5 IRanWt=          -1 IRanGd=           0 AccXCQ= 0.00D+00.
 Defaulting to unpruned grid for atomic number  47.
 Generated NRdTot=       0 NPtTot=           0 NUsed=           0 NTot=          32
 NSgBfM=   500   500   500   500   500 MxSgAt=    43 MxSgA2=    43.
 Leave Link  302 at Fri Sep 11 20:32:43 2026, MaxMem=  6442450944 cpu:               7.0 elap:               6.6
 (Enter C:\G16W\l303.exe)
 DipDrv:  MaxL=1.
 Leave Link  303 at Fri Sep 11 20:32:43 2026, MaxMem=  6442450944 cpu:               0.0 elap:               0.6
 (Enter C:\G16W\l401.exe)
 ExpMin= 3.75D-02 ExpMax= 1.71D+03 ExpMxC= 2.58D+02 IAcc=3 IRadAn=         5 AccDes= 0.00D+00
 Harris functional with IExCor= 1009 and IRadAn=       5 diagonalized for initial guess.
 HarFok:  IExCor= 1009 AccDes= 0.00D+00 IRadAn=         5 IDoV= 1 UseB2=F ITyADJ=14
 ICtDFT=  3500011 ScaDFX=  1.000000  1.000000  1.000000  1.000000
 Defaulting to unpruned grid for atomic number  47.
 FoFCou: FMM=F IPFlag=           0 FMFlag=      100000 FMFlg1=           0
         NFxFlg=           0 DoJE=T BraDBF=F KetDBF=T FulRan=T
         wScrn=  0.000000 ICntrl=       500 IOpCl=  0 I1Cent=   200000004 NGrid=           0
         NMat0=    1 NMatS0=      1 NMatT0=    0 NMatD0=    1 NMtDS0=    0 NMtDT0=    0
 Symmetry not used in FoFCou.
 Harris En= -1179.37877301207    
 JPrj=0 DoOrth=F DoCkMO=F.
 Initial guess <Sx>= 0.0000 <Sy>= 0.0000 <Sz>= 0.5000 <S**2>= 0.7500 S= 0.5000
 Leave Link  401 at Fri Sep 11 20:32:55 2026, MaxMem=  6442450944 cpu:              11.0 elap:              11.8
 (Enter C:\G16W\l502.exe)
 Two-electron integral symmetry not used.
 UHF open shell SCF:
 Using DIIS extrapolation, IDIIS=  1040.
 NGot=  6442450944 LenX=  6441929892 LenY=  6441673350
 Requested convergence on RMS density matrix=1.00D-08 within 128 cycles.
 Requested convergence on MAX density matrix=1.00D-06.
 Requested convergence on             energy=1.00D-06.
 Virtual orbitals will be shifted by   0.300 hartree.
 No special actions if energy rises.
 Fock matrices will be formed incrementally for  20 cycles.

 Cycle   1  Pass 1  IDiag  1:
 FoFJK:  IHMeth= 1 ICntrl=       0 DoSepK=F KAlg= 0 I1Cent=           0 FoldK=F
 IRaf= 780000000 NMat=       1 IRICut=       1 DoRegI=T DoRafI=F ISym2E= 0 IDoP0=0 IntGTp=1.
 FoFCou: FMM=F IPFlag=           0 FMFlag=      100000 FMFlg1=           0
         NFxFlg=           0 DoJE=F BraDBF=F KetDBF=F FulRan=T
         wScrn=  0.000000 ICntrl=         0 IOpCl=  1 I1Cent=           0 NGrid=           0
         NMat0=    1 NMatS0=      1 NMatT0=    0 NMatD0=    1 NMtDS0=    0 NMtDT0=    0
 Symmetry not used in FoFCou.
 Defaulting to unpruned grid for atomic number  47.
 Defaulting to unpruned grid for atomic number  47.
 Defaulting to unpruned grid for atomic number  47.
 Defaulting to unpruned grid for atomic number  47.
 Defaulting to unpruned grid for atomic number  47.
 Defaulting to unpruned grid for atomic number  47.
 Defaulting to unpruned grid for atomic number  47.
 Defaulting to unpruned grid for atomic number  47.
 E= -1178.16643118048    
 DIIS: error= 4.02D-02 at cycle   1 NSaved=   1.
 NSaved= 1 IEnMin= 1 EnMin= -1178.16643118048     IErMin= 1 ErrMin= 4.02D-02
 ErrMax= 4.02D-02  0.00D+00 EMaxC= 1.00D-01 BMatC= 1.99D+00 BMatP= 1.99D+00
 IDIUse=3 WtCom= 5.98D-01 WtEn= 4.02D-01
 Coeff-Com:  0.100D+01
 Coeff-En:   0.100D+01
 Coeff:      0.100D+01
 Gap=    -0.009 Goal=   None    Shift=    0.300
 Gap=     0.611 Goal=   None    Shift=    0.300
 GapD=   -0.009 DampG=0.250 DampE=0.250 DampFc=0.1250 IDamp=-1.
 Damping current iteration by 1.25D-01
 RMSDP=3.86D-03 MaxDP=1.27D-01              OVMax= 1.54D-01

 Cycle   2  Pass 1  IDiag  1:
 RMSU=  4.45D-04    CP:  9.89D-01
 E= -1178.28546328468     Delta-E=       -0.119032104204 Rises=F Damp=T
 DIIS: error= 3.40D-02 at cycle   2 NSaved=   2.
 NSaved= 2 IEnMin= 2 EnMin= -1178.28546328468     IErMin= 2 ErrMin= 3.40D-02
 ErrMax= 3.40D-02  0.00D+00 EMaxC= 1.00D-01 BMatC= 1.34D+00 BMatP= 1.99D+00
 IDIUse=3 WtCom= 6.60D-01 WtEn= 3.40D-01
 Coeff-Com: -0.433D+01 0.533D+01
 Coeff-En:   0.000D+00 0.100D+01
 Coeff:     -0.286D+01 0.386D+01
 Gap=    -0.077 Goal=   None    Shift=    0.300
 Gap=     0.049 Goal=   None    Shift=    0.300
 RMSDP=3.26D-03 MaxDP=9.58D-02 DE=-1.19D-01 OVMax= 2.50D-02

 Cycle   3  Pass 1  IDiag  1:
 RMSU=  2.11D-03    CP:  9.16D-01  3.00D+00
 E= -1178.69378714342     Delta-E=       -0.408323858734 Rises=F Damp=F
 DIIS: error= 1.00D-02 at cycle   3 NSaved=   3.
 NSaved= 3 IEnMin= 3 EnMin= -1178.69378714342     IErMin= 3 ErrMin= 1.00D-02
 ErrMax= 1.00D-02  0.00D+00 EMaxC= 1.00D-01 BMatC= 2.12D-01 BMatP= 1.34D+00
 IDIUse=3 WtCom= 9.00D-01 WtEn= 1.00D-01
 Coeff-Com:  0.162D+01-0.160D+01 0.987D+00
 Coeff-En:   0.000D+00 0.000D+00 0.100D+01
 Coeff:      0.145D+01-0.144D+01 0.988D+00
 Gap=    -0.007 Goal=   None    Shift=    0.300
 Gap=     0.122 Goal=   None    Shift=    0.300
 RMSDP=6.15D-04 MaxDP=3.38D-02 DE=-4.08D-01 OVMax= 2.84D-02

 Cycle   4  Pass 1  IDiag  1:
 RMSU=  4.58D-04    CP:  9.23D-01  3.00D+00  8.16D-01
 E= -1178.75080997764     Delta-E=       -0.057022834227 Rises=F Damp=F
 DIIS: error= 1.72D-03 at cycle   4 NSaved=   4.
 NSaved= 4 IEnMin= 4 EnMin= -1178.75080997764     IErMin= 4 ErrMin= 1.72D-03
 ErrMax= 1.72D-03  0.00D+00 EMaxC= 1.00D-01 BMatC= 4.66D-03 BMatP= 2.12D-01
 IDIUse=3 WtCom= 9.83D-01 WtEn= 1.72D-02
 Coeff-Com: -0.551D+00 0.648D+00-0.220D+00 0.112D+01
 Coeff-En:   0.000D+00 0.000D+00 0.000D+00 0.100D+01
 Coeff:     -0.542D+00 0.637D+00-0.216D+00 0.112D+01
 Gap=    -0.016 Goal=   None    Shift=    0.300
 Gap=     0.108 Goal=   None    Shift=    0.300
 RMSDP=1.29D-04 MaxDP=1.39D-02 DE=-5.70D-02 OVMax= 1.10D-02

 Cycle   5  Pass 1  IDiag  1:
 RMSU=  1.04D-04    CP:  9.24D-01  3.00D+00  7.92D-01  1.12D+00
 E= -1178.75258305913     Delta-E=       -0.001773081491 Rises=F Damp=F
 DIIS: error= 6.96D-04 at cycle   5 NSaved=   5.
 NSaved= 5 IEnMin= 5 EnMin= -1178.75258305913     IErMin= 5 ErrMin= 6.96D-04
 ErrMax= 6.96D-04  0.00D+00 EMaxC= 1.00D-01 BMatC= 6.28D-04 BMatP= 4.66D-03
 IDIUse=3 WtCom= 9.93D-01 WtEn= 6.96D-03
 Coeff-Com: -0.355D+00 0.405D+00-0.148D+00 0.369D+00 0.728D+00
 Coeff-En:   0.000D+00 0.000D+00 0.000D+00 0.000D+00 0.100D+01
 Coeff:     -0.352D+00 0.402D+00-0.147D+00 0.367D+00 0.730D+00
 Gap=    -0.016 Goal=   None    Shift=    0.300
 Gap=     0.109 Goal=   None    Shift=    0.300
 RMSDP=5.50D-05 MaxDP=5.94D-03 DE=-1.77D-03 OVMax= 5.82D-03

 Cycle   6  Pass 1  IDiag  1:
 RMSU=  3.30D-05    CP:  9.24D-01  3.00D+00  7.86D-01  1.18D+00  1.31D+00
 E= -1178.75293253362     Delta-E=       -0.000349474483 Rises=F Damp=F
 DIIS: error= 2.97D-04 at cycle   6 NSaved=   6.
 NSaved= 6 IEnMin= 6 EnMin= -1178.75293253362     IErMin= 6 ErrMin= 2.97D-04
 ErrMax= 2.97D-04  0.00D+00 EMaxC= 1.00D-01 BMatC= 9.30D-05 BMatP= 6.28D-04
 IDIUse=3 WtCom= 9.97D-01 WtEn= 2.97D-03
 Coeff-Com: -0.179D-01 0.152D-01-0.719D-02-0.127D+00-0.112D-01 0.115D+01
 Coeff-En:   0.000D+00 0.000D+00 0.000D+00 0.000D+00 0.000D+00 0.100D+01
 Coeff:     -0.178D-01 0.152D-01-0.717D-02-0.126D+00-0.112D-01 0.115D+01
 Gap=    -0.017 Goal=   None    Shift=    0.300
 Gap=     0.106 Goal=   None    Shift=    0.300
 RMSDP=2.80D-05 MaxDP=2.93D-03 DE=-3.49D-04 OVMax= 4.15D-03

 Cycle   7  Pass 1  IDiag  1:
 RMSU=  1.62D-05    CP:  9.23D-01  3.00D+00  7.85D-01  1.19D+00  1.50D+00
                    CP:  1.30D+00
 E= -1178.75304995691     Delta-E=       -0.000117423295 Rises=F Damp=F
 DIIS: error= 2.31D-04 at cycle   7 NSaved=   7.
 NSaved= 7 IEnMin= 7 EnMin= -1178.75304995691     IErMin= 7 ErrMin= 2.31D-04
 ErrMax= 2.31D-04  0.00D+00 EMaxC= 1.00D-01 BMatC= 4.00D-05 BMatP= 9.30D-05
 IDIUse=3 WtCom= 9.98D-01 WtEn= 2.31D-03
 Coeff-Com:  0.627D-01-0.733D-01 0.255D-01-0.794D-01-0.188D+00-0.437D+00
 Coeff-Com:  0.169D+01
 Coeff-En:   0.000D+00 0.000D+00 0.000D+00 0.000D+00 0.000D+00 0.000D+00
 Coeff-En:   0.100D+01
 Coeff:      0.626D-01-0.731D-01 0.254D-01-0.792D-01-0.187D+00-0.436D+00
 Coeff:      0.169D+01
 Gap=    -0.017 Goal=   None    Shift=    0.300
 Gap=     0.106 Goal=   None    Shift=    0.300
 RMSDP=2.13D-05 MaxDP=1.54D-03 DE=-1.17D-04 OVMax= 4.26D-03

 Cycle   8  Pass 1  IDiag  1:
 RMSU=  8.69D-06    CP:  9.23D-01  3.00D+00  7.86D-01  1.20D+00  1.59D+00
                    CP:  1.54D+00  1.90D+00
 E= -1178.75311808745     Delta-E=       -0.000068130543 Rises=F Damp=F
 DIIS: error= 1.61D-04 at cycle   8 NSaved=   8.
 NSaved= 8 IEnMin= 8 EnMin= -1178.75311808745     IErMin= 8 ErrMin= 1.61D-04
 ErrMax= 1.61D-04  0.00D+00 EMaxC= 1.00D-01 BMatC= 2.35D-05 BMatP= 4.00D-05
 IDIUse=3 WtCom= 9.98D-01 WtEn= 1.61D-03
 Coeff-Com:  0.164D-01-0.181D-01 0.899D-02 0.123D-01-0.116D+00-0.744D+00
 Coeff-Com:  0.902D+00 0.938D+00
 Coeff-En:   0.000D+00 0.000D+00 0.000D+00 0.000D+00 0.000D+00 0.000D+00
 Coeff-En:   0.000D+00 0.100D+01
 Coeff:      0.164D-01-0.181D-01 0.897D-02 0.122D-01-0.115D+00-0.742D+00
 Coeff:      0.900D+00 0.938D+00
 Gap=    -0.017 Goal=   None    Shift=    0.300
 Gap=     0.106 Goal=   None    Shift=    0.300
 RMSDP=1.45D-05 MaxDP=9.17D-04 DE=-6.81D-05 OVMax= 3.12D-03

 Cycle   9  Pass 1  IDiag  1:
 RMSU=  4.88D-06    CP:  9.23D-01  3.00D+00  7.86D-01  1.20D+00  1.64D+00
                    CP:  1.72D+00  2.54D+00  1.41D+00
 E= -1178.75315433400     Delta-E=       -0.000036246544 Rises=F Damp=F
 DIIS: error= 1.17D-04 at cycle   9 NSaved=   9.
 NSaved= 9 IEnMin= 9 EnMin= -1178.75315433400     IErMin= 9 ErrMin= 1.17D-04
 ErrMax= 1.17D-04  0.00D+00 EMaxC= 1.00D-01 BMatC= 9.10D-06 BMatP= 2.35D-05
 IDIUse=3 WtCom= 9.99D-01 WtEn= 1.17D-03
 Coeff-Com: -0.745D-02 0.916D-02-0.299D-02 0.225D-01-0.463D-02-0.201D+00
 Coeff-Com: -0.183D+00-0.192D+00 0.156D+01
 Coeff-En:   0.000D+00 0.000D+00 0.000D+00 0.000D+00 0.000D+00 0.000D+00
 Coeff-En:   0.000D+00 0.000D+00 0.100D+01
 Coeff:     -0.744D-02 0.915D-02-0.299D-02 0.225D-01-0.462D-02-0.201D+00
 Coeff:     -0.183D+00-0.192D+00 0.156D+01
 Gap=    -0.017 Goal=   None    Shift=    0.300
 Gap=     0.106 Goal=   None    Shift=    0.300
 RMSDP=1.16D-05 MaxDP=7.32D-04 DE=-3.62D-05 OVMax= 2.77D-03

 Cycle  10  Pass 1  IDiag  1:
 RMSU=  3.17D-06    CP:  9.23D-01  3.00D+00  7.86D-01  1.21D+00  1.68D+00
                    CP:  1.84D+00  3.00D+00  1.88D+00  1.80D+00
 E= -1178.75317403191     Delta-E=       -0.000019697907 Rises=F Damp=F
 DIIS: error= 9.40D-05 at cycle  10 NSaved=  10.
 NSaved=10 IEnMin=10 EnMin= -1178.75317403191     IErMin=10 ErrMin= 9.40D-05
 ErrMax= 9.40D-05  0.00D+00 EMaxC= 1.00D-01 BMatC= 4.68D-06 BMatP= 9.10D-06
 IDIUse=1 WtCom= 1.00D+00 WtEn= 0.00D+00
 Coeff-Com:  0.558D-02-0.642D-02-0.446D-04-0.900D-02 0.275D-01 0.212D+00
 Coeff-Com: -0.441D+00-0.634D+00 0.532D+00 0.131D+01
 Coeff:      0.558D-02-0.642D-02-0.446D-04-0.900D-02 0.275D-01 0.212D+00
 Coeff:     -0.441D+00-0.634D+00 0.532D+00 0.131D+01
 Gap=    -0.017 Goal=   None    Shift=    0.300
 Gap=     0.106 Goal=   None    Shift=    0.300
 RMSDP=8.72D-06 MaxDP=5.11D-04 DE=-1.97D-05 OVMax= 2.12D-03

 Cycle  11  Pass 1  IDiag  1:
 RMSU=  5.60D-06    CP:  9.23D-01  3.00D+00  7.86D-01  1.21D+00  1.70D+00
                    CP:  1.92D+00  3.00D+00  2.28D+00  2.54D+00  1.73D+00
 E= -1178.75318414665     Delta-E=       -0.000010114748 Rises=F Damp=F
 DIIS: error= 7.54D-05 at cycle  11 NSaved=  11.
 NSaved=11 IEnMin=11 EnMin= -1178.75318414665     IErMin=11 ErrMin= 7.54D-05
 ErrMax= 7.54D-05  0.00D+00 EMaxC= 1.00D-01 BMatC= 2.07D-06 BMatP= 4.68D-06
 IDIUse=1 WtCom= 1.00D+00 WtEn= 0.00D+00
 Coeff-Com:  0.128D-02-0.168D-02 0.143D-02-0.116D-01-0.463D-03 0.998D-01
 Coeff-Com:  0.258D-01-0.910D-01-0.490D+00-0.532D+00 0.200D+01
 Coeff:      0.128D-02-0.168D-02 0.143D-02-0.116D-01-0.463D-03 0.998D-01
 Coeff:      0.258D-01-0.910D-01-0.490D+00-0.532D+00 0.200D+01
 Gap=    -0.017 Goal=   None    Shift=    0.300
 Gap=     0.106 Goal=   None    Shift=    0.300
 RMSDP=5.98D-06 MaxDP=3.57D-04 DE=-1.01D-05 OVMax= 1.55D-03

 Cycle  12  Pass 1  IDiag  1:
 RMSU=  1.27D-06    CP:  9.23D-01  3.00D+00  7.86D-01  1.21D+00  1.71D+00
                    CP:  1.98D+00  3.00D+00  2.56D+00  3.00D+00  2.33D+00
                    CP:  1.64D+00
 E= -1178.75318875183     Delta-E=       -0.000004605172 Rises=F Damp=F
 DIIS: error= 6.21D-05 at cycle  12 NSaved=  12.
 NSaved=12 IEnMin=12 EnMin= -1178.75318875183     IErMin=12 ErrMin= 6.21D-05
 ErrMax= 6.21D-05  0.00D+00 EMaxC= 1.00D-01 BMatC= 1.11D-06 BMatP= 2.07D-06
 IDIUse=1 WtCom= 1.00D+00 WtEn= 0.00D+00
 Coeff-Com: -0.673D-02 0.763D-02-0.499D-03 0.436D-02-0.160D-01-0.908D-01
 Coeff-Com:  0.288D+00 0.327D+00-0.516D+00-0.129D+01 0.451D+00 0.184D+01
 Coeff:     -0.673D-02 0.763D-02-0.499D-03 0.436D-02-0.160D-01-0.908D-01
 Coeff:      0.288D+00 0.327D+00-0.516D+00-0.129D+01 0.451D+00 0.184D+01
 Gap=    -0.017 Goal=   None    Shift=    0.300
 Gap=     0.106 Goal=   None    Shift=    0.300
 RMSDP=4.25D-06 MaxDP=2.34D-04 DE=-4.61D-06 OVMax= 1.12D-03

 Cycle  13  Pass 1  IDiag  1:
 RMSU=  1.95D-06    CP:  9.23D-01  3.00D+00  7.86D-01  1.21D+00  1.72D+00
                    CP:  2.01D+00  3.00D+00  2.73D+00  3.00D+00  2.81D+00
                    CP:  2.07D+00  1.88D+00
 E= -1178.75319095204     Delta-E=       -0.000002200210 Rises=F Damp=F
 DIIS: error= 4.98D-05 at cycle  13 NSaved=  13.
 NSaved=13 IEnMin=13 EnMin= -1178.75319095204     IErMin=13 ErrMin= 4.98D-05
 ErrMax= 4.98D-05  0.00D+00 EMaxC= 1.00D-01 BMatC= 5.68D-07 BMatP= 1.11D-06
 IDIUse=1 WtCom= 1.00D+00 WtEn= 0.00D+00
 Coeff-Com:  0.107D-03-0.105D-03-0.189D-03 0.700D-02-0.106D-01-0.106D+00
 Coeff-Com:  0.138D+00 0.187D+00 0.999D-01-0.433D+00-0.105D+01 0.533D+00
 Coeff-Com:  0.164D+01
 Coeff:      0.107D-03-0.105D-03-0.189D-03 0.700D-02-0.106D-01-0.106D+00
 Coeff:      0.138D+00 0.187D+00 0.999D-01-0.433D+00-0.105D+01 0.533D+00
 Coeff:      0.164D+01
 Gap=    -0.017 Goal=   None    Shift=    0.300
 Gap=     0.106 Goal=   None    Shift=    0.300
 RMSDP=2.87D-06 MaxDP=1.39D-04 DE=-2.20D-06 OVMax= 7.61D-04

 Cycle  14  Pass 1  IDiag  1:
 RMSU=  7.15D-07    CP:  9.23D-01  3.00D+00  7.86D-01  1.21D+00  1.72D+00
                    CP:  2.04D+00  3.00D+00  2.83D+00  3.00D+00  3.00D+00
                    CP:  2.37D+00  2.72D+00  1.56D+00
 E= -1178.75319198290     Delta-E=       -0.000001030863 Rises=F Damp=F
 DIIS: error= 3.99D-05 at cycle  14 NSaved=  14.
 NSaved=14 IEnMin=14 EnMin= -1178.75319198290     IErMin=14 ErrMin= 3.99D-05
 ErrMax= 3.99D-05  0.00D+00 EMaxC= 1.00D-01 BMatC= 2.66D-07 BMatP= 5.68D-07
 IDIUse=1 WtCom= 1.00D+00 WtEn= 0.00D+00
 Coeff-Com:  0.232D-02-0.263D-02 0.226D-03 0.411D-03-0.290D-03-0.119D-01
 Coeff-Com: -0.254D-01-0.559D-01 0.237D+00 0.259D+00-0.699D+00-0.466D+00
 Coeff-Com:  0.140D+00 0.162D+01
 Coeff:      0.232D-02-0.263D-02 0.226D-03 0.411D-03-0.290D-03-0.119D-01
 Coeff:     -0.254D-01-0.559D-01 0.237D+00 0.259D+00-0.699D+00-0.466D+00
 Coeff:      0.140D+00 0.162D+01
 Gap=    -0.017 Goal=   None    Shift=    0.300
 Gap=     0.106 Goal=   None    Shift=    0.300
 RMSDP=1.95D-06 MaxDP=8.44D-05 DE=-1.03D-06 OVMax= 5.43D-04

 Cycle  15  Pass 1  IDiag  1:
 RMSU=  8.29D-07    CP:  9.23D-01  3.00D+00  7.86D-01  1.21D+00  1.73D+00
                    CP:  2.05D+00  3.00D+00  2.89D+00  3.00D+00  3.00D+00
                    CP:  2.56D+00  3.00D+00  1.94D+00  1.77D+00
 E= -1178.75319246966     Delta-E=       -0.000000486761 Rises=F Damp=F
 DIIS: error= 3.24D-05 at cycle  15 NSaved=  15.
 NSaved=15 IEnMin=15 EnMin= -1178.75319246966     IErMin=15 ErrMin= 3.24D-05
 ErrMax= 3.24D-05  0.00D+00 EMaxC= 1.00D-01 BMatC= 1.37D-07 BMatP= 2.66D-07
 IDIUse=1 WtCom= 1.00D+00 WtEn= 0.00D+00
 Coeff-Com: -0.990D-04 0.117D-03 0.199D-05-0.387D-02 0.507D-02 0.555D-01
 Coeff-Com: -0.787D-01-0.136D+00 0.630D-01 0.348D+00 0.204D+00-0.639D+00
 Coeff-Com: -0.917D+00 0.501D+00 0.160D+01
 Coeff:     -0.990D-04 0.117D-03 0.199D-05-0.387D-02 0.507D-02 0.555D-01
 Coeff:     -0.787D-01-0.136D+00 0.630D-01 0.348D+00 0.204D+00-0.639D+00
 Coeff:     -0.917D+00 0.501D+00 0.160D+01
 Gap=    -0.017 Goal=   None    Shift=    0.300
 Gap=     0.106 Goal=   None    Shift=    0.300
 RMSDP=1.41D-06 MaxDP=4.96D-05 DE=-4.87D-07 OVMax= 4.45D-04

 Cycle  16  Pass 1  IDiag  1:
 RMSU=  3.99D-07    CP:  9.23D-01  3.00D+00  7.86D-01  1.21D+00  1.73D+00
                    CP:  2.06D+00  3.00D+00  2.92D+00  3.00D+00  3.00D+00
                    CP:  2.67D+00  3.00D+00  2.24D+00  2.59D+00  1.82D+00
 E= -1178.75319272707     Delta-E=       -0.000000257414 Rises=F Damp=F
 DIIS: error= 2.60D-05 at cycle  16 NSaved=  16.
 NSaved=16 IEnMin=16 EnMin= -1178.75319272707     IErMin=16 ErrMin= 2.60D-05
 ErrMax= 2.60D-05  0.00D+00 EMaxC= 1.00D-01 BMatC= 6.63D-08 BMatP= 1.37D-07
 IDIUse=1 WtCom= 1.00D+00 WtEn= 0.00D+00
 Coeff-Com: -0.530D-03 0.592D-03-0.273D-04-0.174D-02 0.160D-02 0.270D-01
 Coeff-Com: -0.249D-01-0.260D-01-0.557D-01 0.315D-01 0.334D+00-0.158D+00
 Coeff-Com: -0.492D+00-0.396D+00 0.291D+00 0.147D+01
 Coeff:     -0.530D-03 0.592D-03-0.273D-04-0.174D-02 0.160D-02 0.270D-01
 Coeff:     -0.249D-01-0.260D-01-0.557D-01 0.315D-01 0.334D+00-0.158D+00
 Coeff:     -0.492D+00-0.396D+00 0.291D+00 0.147D+01
 Gap=    -0.017 Goal=   None    Shift=    0.300
 Gap=     0.106 Goal=   None    Shift=    0.300
 RMSDP=1.06D-06 MaxDP=3.43D-05 DE=-2.57D-07 OVMax= 3.63D-04

 Cycle  17  Pass 1  IDiag  1:
 RMSU=  2.96D-07    CP:  9.23D-01  3.00D+00  7.86D-01  1.21D+00  1.73D+00
                    CP:  2.07D+00  3.00D+00  2.95D+00  3.00D+00  3.00D+00
                    CP:  2.75D+00  3.00D+00  2.45D+00  3.00D+00  2.51D+00
                    CP:  1.61D+00
 E= -1178.75319286660     Delta-E=       -0.000000139530 Rises=F Damp=F
 DIIS: error= 2.08D-05 at cycle  17 NSaved=  17.
 NSaved=17 IEnMin=17 EnMin= -1178.75319286660     IErMin=17 ErrMin= 2.08D-05
 ErrMax= 2.08D-05  0.00D+00 EMaxC= 1.00D-01 BMatC= 3.65D-08 BMatP= 6.63D-08
 IDIUse=1 WtCom= 1.00D+00 WtEn= 0.00D+00
 Coeff-Com:  0.191D-03-0.221D-03 0.917D-04 0.127D-02-0.236D-02-0.199D-01
 Coeff-Com:  0.307D-01 0.715D-01-0.571D-01-0.185D+00 0.571D-01 0.231D+00
 Coeff-Com:  0.234D+00-0.583D+00-0.824D+00 0.465D+00 0.158D+01
 Coeff:      0.191D-03-0.221D-03 0.917D-04 0.127D-02-0.236D-02-0.199D-01
 Coeff:      0.307D-01 0.715D-01-0.571D-01-0.185D+00 0.571D-01 0.231D+00
 Coeff:      0.234D+00-0.583D+00-0.824D+00 0.465D+00 0.158D+01
 Gap=    -0.017 Goal=   None    Shift=    0.300
 Gap=     0.106 Goal=   None    Shift=    0.300
 RMSDP=8.39D-07 MaxDP=2.50D-05 DE=-1.40D-07 OVMax= 3.02D-04

 Cycle  18  Pass 1  IDiag  1:
 RMSU=  2.94D-07    CP:  9.23D-01  3.00D+00  7.86D-01  1.21D+00  1.73D+00
                    CP:  2.08D+00  3.00D+00  2.96D+00  3.00D+00  3.00D+00
                    CP:  2.80D+00  3.00D+00  2.60D+00  3.00D+00  3.00D+00
                    CP:  2.24D+00  2.19D+00
 E= -1178.75319294875     Delta-E=       -0.000000082144 Rises=F Damp=F
 DIIS: error= 1.67D-05 at cycle  18 NSaved=  18.
 NSaved=18 IEnMin=18 EnMin= -1178.75319294875     IErMin=18 ErrMin= 1.67D-05
 ErrMax= 1.67D-05  0.00D+00 EMaxC= 1.00D-01 BMatC= 2.09D-08 BMatP= 3.65D-08
 IDIUse=1 WtCom= 1.00D+00 WtEn= 0.00D+00
 Coeff-Com: -0.250D-03 0.291D-03-0.878D-04 0.115D-02-0.521D-03-0.159D-01
 Coeff-Com:  0.208D-01 0.323D-01-0.446D-03-0.740D-01-0.105D+00 0.114D+00
 Coeff-Com:  0.249D+00-0.658D-01-0.450D+00-0.546D+00 0.193D+00 0.165D+01
 Coeff:     -0.250D-03 0.291D-03-0.878D-04 0.115D-02-0.521D-03-0.159D-01
 Coeff:      0.208D-01 0.323D-01-0.446D-03-0.740D-01-0.105D+00 0.114D+00
 Coeff:      0.249D+00-0.658D-01-0.450D+00-0.546D+00 0.193D+00 0.165D+01
 Gap=    -0.017 Goal=   None    Shift=    0.300
 Gap=     0.106 Goal=   None    Shift=    0.300
 RMSDP=6.69D-07 MaxDP=1.73D-05 DE=-8.21D-08 OVMax= 2.56D-04

 Cycle  19  Pass 1  IDiag  1:
 RMSU=  3.56D-07    CP:  9.23D-01  3.00D+00  7.86D-01  1.21D+00  1.73D+00
                    CP:  2.08D+00  3.00D+00  2.97D+00  3.00D+00  3.00D+00
                    CP:  2.84D+00  3.00D+00  2.71D+00  3.00D+00  3.00D+00
                    CP:  2.81D+00  3.00D+00  1.86D+00
 E= -1178.75319299924     Delta-E=       -0.000000050492 Rises=F Damp=F
 DIIS: error= 1.33D-05 at cycle  19 NSaved=  19.
 NSaved=19 IEnMin=19 EnMin= -1178.75319299924     IErMin=19 ErrMin= 1.33D-05
 ErrMax= 1.33D-05  0.00D+00 EMaxC= 1.00D-01 BMatC= 1.28D-08 BMatP= 2.09D-08
 IDIUse=1 WtCom= 1.00D+00 WtEn= 0.00D+00
 Coeff-Com: -0.767D-04 0.931D-04-0.585D-04-0.125D-04 0.769D-03 0.338D-03
 Coeff-Com: -0.345D-02-0.189D-01 0.365D-01 0.607D-01-0.113D+00-0.666D-01
 Coeff-Com:  0.221D-01 0.270D+00 0.154D+00-0.654D+00-0.573D+00-0.760D-01
 Coeff-Com:  0.196D+01
 Coeff:     -0.767D-04 0.931D-04-0.585D-04-0.125D-04 0.769D-03 0.338D-03
 Coeff:     -0.345D-02-0.189D-01 0.365D-01 0.607D-01-0.113D+00-0.666D-01
 Coeff:      0.221D-01 0.270D+00 0.154D+00-0.654D+00-0.573D+00-0.760D-01
 Coeff:      0.196D+01
 Gap=    -0.017 Goal=   None    Shift=    0.300
 Gap=     0.106 Goal=   None    Shift=    0.300
 RMSDP=5.70D-07 MaxDP=1.98D-05 DE=-5.05D-08 OVMax= 2.27D-04

 Cycle  20  Pass 1  IDiag  1:
 RMSU=  2.77D-07    CP:  9.23D-01  3.00D+00  7.86D-01  1.21D+00  1.73D+00
                    CP:  2.08D+00  3.00D+00  2.98D+00  3.00D+00  3.00D+00
                    CP:  2.86D+00  3.00D+00  2.80D+00  3.00D+00  3.00D+00
                    CP:  3.00D+00  3.00D+00  2.59D+00  1.98D+00
 E= -1178.75319303386     Delta-E=       -0.000000034624 Rises=F Damp=F
 DIIS: error= 1.06D-05 at cycle  20 NSaved=  20.
 NSaved=20 IEnMin=20 EnMin= -1178.75319303386     IErMin=20 ErrMin= 1.06D-05
 ErrMax= 1.06D-05  0.00D+00 EMaxC= 1.00D-01 BMatC= 9.21D-09 BMatP= 1.28D-08
 IDIUse=1 WtCom= 1.00D+00 WtEn= 0.00D+00
 Coeff-Com:  0.355D-05-0.131D-05-0.251D-04-0.182D-03 0.429D-03 0.386D-02
 Coeff-Com: -0.701D-02-0.175D-01 0.225D-01 0.494D-01-0.383D-01-0.706D-01
 Coeff-Com: -0.523D-01 0.174D+00 0.200D+00-0.306D+00-0.289D+00-0.783D+00
 Coeff-Com:  0.967D+00 0.115D+01
 Coeff:      0.355D-05-0.131D-05-0.251D-04-0.182D-03 0.429D-03 0.386D-02
 Coeff:     -0.701D-02-0.175D-01 0.225D-01 0.494D-01-0.383D-01-0.706D-01
 Coeff:     -0.523D-01 0.174D+00 0.200D+00-0.306D+00-0.289D+00-0.783D+00
 Coeff:      0.967D+00 0.115D+01
 Gap=    -0.017 Goal=   None    Shift=    0.300
 Gap=     0.106 Goal=   None    Shift=    0.300
 RMSDP=4.94D-07 MaxDP=2.24D-05 DE=-3.46D-08 OVMax= 2.05D-04

 Cycle  21  Pass 1  IDiag  1:
 Restarting incremental Fock formation.
 E= -1178.75319306028     Delta-E=       -0.000000026416 Rises=F Damp=F
 DIIS: error= 8.50D-06 at cycle  21 NSaved=  20.
 NSaved=20 IEnMin=20 EnMin= -1178.75319306028     IErMin=20 ErrMin= 8.50D-06
 ErrMax= 8.50D-06  0.00D+00 EMaxC= 1.00D-01 BMatC= 7.41D-09 BMatP= 9.21D-09
 IDIUse=1 WtCom= 1.00D+00 WtEn= 0.00D+00
 Coeff-Com:  0.210D-05-0.215D-04-0.125D-03 0.299D-03 0.294D-02-0.533D-02
 Coeff-Com: -0.131D-01 0.175D-01 0.370D-01-0.294D-01-0.559D-01-0.400D-01
 Coeff-Com:  0.136D+00 0.156D+00-0.252D+00-0.205D+00-0.685D+00 0.775D+00
 Coeff-Com:  0.813D+00 0.349D+00
 Coeff:      0.210D-05-0.215D-04-0.125D-03 0.299D-03 0.294D-02-0.533D-02
 Coeff:     -0.131D-01 0.175D-01 0.370D-01-0.294D-01-0.559D-01-0.400D-01
 Coeff:      0.136D+00 0.156D+00-0.252D+00-0.205D+00-0.685D+00 0.775D+00
 Coeff:      0.813D+00 0.349D+00
 Gap=    -0.017 Goal=   None    Shift=    0.300
 Gap=     0.106 Goal=   None    Shift=    0.300
 RMSDP=4.42D-07 MaxDP=2.38D-05 DE=-2.64D-08 OVMax= 1.89D-04

 Cycle  22  Pass 1  IDiag  1:
 RMSU=  4.42D-07    CP:  1.00D+00
 E= -1178.75319308287     Delta-E=       -0.000000022586 Rises=F Damp=F
 DIIS: error= 6.84D-06 at cycle  22 NSaved=  20.
 NSaved=20 IEnMin=20 EnMin= -1178.75319308287     IErMin=20 ErrMin= 6.84D-06
 ErrMax= 6.84D-06  0.00D+00 EMaxC= 1.00D-01 BMatC= 7.08D-09 BMatP= 7.41D-09
 IDIUse=1 WtCom= 1.00D+00 WtEn= 0.00D+00
 Coeff-Com: -0.134D-04-0.249D-04-0.260D-03 0.311D-02-0.404D-02-0.446D-02
 Coeff-Com:  0.357D-02 0.541D-02 0.223D-01-0.328D-01-0.498D-01 0.389D-01
 Coeff-Com:  0.107D+00-0.755D-01 0.159D+00-0.118D+01 0.175D+00-0.296D+00
 Coeff-Com:  0.501D+01-0.288D+01
 Coeff:     -0.134D-04-0.249D-04-0.260D-03 0.311D-02-0.404D-02-0.446D-02
 Coeff:      0.357D-02 0.541D-02 0.223D-01-0.328D-01-0.498D-01 0.389D-01
 Coeff:      0.107D+00-0.755D-01 0.159D+00-0.118D+01 0.175D+00-0.296D+00
 Coeff:      0.501D+01-0.288D+01
 Gap=    -0.017 Goal=   None    Shift=    0.300
 Gap=     0.106 Goal=   None    Shift=    0.300
 RMSDP=3.91D-07 MaxDP=2.24D-05 DE=-2.26D-08 OVMax= 1.70D-04

 Cycle  23  Pass 1  IDiag  1:
 RMSU=  5.30D-08    CP:  1.00D+00  1.88D+00
 E= -1178.75319310328     Delta-E=       -0.000000020417 Rises=F Damp=F
 DIIS: error= 5.55D-06 at cycle  23 NSaved=  20.
 NSaved=20 IEnMin=20 EnMin= -1178.75319310328     IErMin=20 ErrMin= 5.55D-06
 ErrMax= 5.55D-06  0.00D+00 EMaxC= 1.00D-01 BMatC= 7.74D-09 BMatP= 7.08D-09
 IDIUse=1 WtCom= 1.00D+00 WtEn= 0.00D+00
 Coeff-Com: -0.126D-03-0.292D-03 0.371D-02-0.411D-02-0.595D-02 0.330D-02
 Coeff-Com:  0.839D-02 0.256D-01-0.386D-01-0.610D-01 0.531D-01 0.128D+00
 Coeff-Com: -0.935D-01 0.117D+00-0.118D+01 0.249D+00 0.702D-01 0.348D+01
 Coeff-Com: -0.105D+01-0.713D+00
 Coeff:     -0.126D-03-0.292D-03 0.371D-02-0.411D-02-0.595D-02 0.330D-02
 Coeff:      0.839D-02 0.256D-01-0.386D-01-0.610D-01 0.531D-01 0.128D+00
 Coeff:     -0.935D-01 0.117D+00-0.118D+01 0.249D+00 0.702D-01 0.348D+01
 Coeff:     -0.105D+01-0.713D+00
 Gap=    -0.017 Goal=   None    Shift=    0.300
 Gap=     0.106 Goal=   None    Shift=    0.300
 RMSDP=3.83D-07 MaxDP=2.38D-05 DE=-2.04D-08 OVMax= 1.69D-04

 Cycle  24  Pass 1  IDiag  1:
 RMSU=  3.52D-08    CP:  1.00D+00  2.71D+00  2.80D+00
 E= -1178.75319312444     Delta-E=       -0.000000021157 Rises=F Damp=F
 DIIS: error= 5.17D-06 at cycle  24 NSaved=  20.
 NSaved=20 IEnMin=20 EnMin= -1178.75319312444     IErMin=20 ErrMin= 5.17D-06
 ErrMax= 5.17D-06  0.00D+00 EMaxC= 1.00D-01 BMatC= 9.18D-09 BMatP= 7.08D-09
 IDIUse=1 WtCom= 1.00D+00 WtEn= 0.00D+00
 Large coefficients: NSaved= 20 BigCof=   23.48 CofMax=   10.00 Det=-2.94D-12
 Inversion failed.  Reducing to 19 matrices.
 Large coefficients: NSaved= 19 BigCof=   22.36 CofMax=   10.00 Det=-3.31D-12
 Inversion failed.  Reducing to 18 matrices.
 Large coefficients: NSaved= 18 BigCof=   22.04 CofMax=   10.00 Det=-3.42D-12
 Inversion failed.  Reducing to 17 matrices.
 Large coefficients: NSaved= 17 BigCof=   22.02 CofMax=   10.00 Det=-3.42D-12
 Inversion failed.  Reducing to 16 matrices.
 Large coefficients: NSaved= 16 BigCof=   21.92 CofMax=   10.00 Det=-3.46D-12
 Inversion failed.  Reducing to 15 matrices.
 Large coefficients: NSaved= 15 BigCof=   21.96 CofMax=   10.00 Det=-3.47D-12
 Inversion failed.  Reducing to 14 matrices.
 Large coefficients: NSaved= 14 BigCof=   21.82 CofMax=   10.00 Det=-3.50D-12
 Inversion failed.  Reducing to 13 matrices.
 Large coefficients: NSaved= 13 BigCof=   21.85 CofMax=   10.00 Det=-3.53D-12
 Inversion failed.  Reducing to 12 matrices.
 Large coefficients: NSaved= 12 BigCof=   21.80 CofMax=   10.00 Det=-3.53D-12
 Inversion failed.  Reducing to 11 matrices.
 Large coefficients: NSaved= 11 BigCof=   19.81 CofMax=   10.00 Det=-4.00D-12
 Inversion failed.  Reducing to 10 matrices.
 Large coefficients: NSaved= 10 BigCof=   19.60 CofMax=   10.00 Det=-4.08D-12
 Inversion failed.  Reducing to  9 matrices.
 Large coefficients: NSaved=  9 BigCof=   19.48 CofMax=   10.00 Det=-4.17D-12
 Inversion failed.  Reducing to  8 matrices.
 Large coefficients: NSaved=  8 BigCof=   19.68 CofMax=   10.00 Det=-4.29D-12
 Inversion failed.  Reducing to  7 matrices.
 Large coefficients: NSaved=  7 BigCof=   19.76 CofMax=   10.00 Det=-4.30D-12
 Inversion failed.  Reducing to  6 matrices.
 Large coefficients: NSaved=  6 BigCof=   19.18 CofMax=   10.00 Det=-5.82D-12
 Inversion failed.  Reducing to  5 matrices.
 Large coefficients: NSaved=  5 BigCof=   19.28 CofMax=   10.00 Det=-6.04D-12
 Inversion failed.  Reducing to  4 matrices.
 Large coefficients: NSaved=  4 BigCof=   19.25 CofMax=   10.00 Det=-6.05D-12
 Inversion failed.  Reducing to  3 matrices.
 Large coefficients: NSaved=  3 BigCof=   16.53 CofMax=   10.00 Det=-6.29D-12
 Inversion failed.  Reducing to  2 matrices.
 Coeff-Com:  0.338D+01-0.238D+01
 Coeff:      0.338D+01-0.238D+01
 Gap=    -0.017 Goal=   None    Shift=    0.300
 Gap=     0.106 Goal=   None    Shift=    0.300
 RMSDP=3.84D-07 MaxDP=2.53D-05 DE=-2.12D-08 OVMax= 1.70D-04

 Cycle  25  Pass 1  IDiag  1:
 RMSU=  2.62D-07    CP:  1.00D+00  3.00D+00  3.00D+00  3.00D+00
 E= -1178.75319314763     Delta-E=       -0.000000023188 Rises=F Damp=F
 DIIS: error= 5.77D-06 at cycle  25 NSaved=   3.
 NSaved= 3 IEnMin= 3 EnMin= -1178.75319314763     IErMin= 2 ErrMin= 5.17D-06
 ErrMax= 5.77D-06  0.00D+00 EMaxC= 1.00D-01 BMatC= 1.18D-08 BMatP= 7.74D-09
 IDIUse=1 WtCom= 1.00D+00 WtEn= 0.00D+00
 Coeff-Com:  0.370D+01-0.297D+01 0.267D+00
 Coeff:      0.370D+01-0.297D+01 0.267D+00
 Gap=    -0.017 Goal=   None    Shift=    0.300
 Gap=     0.106 Goal=   None    Shift=    0.300
 RMSDP=3.95D-07 MaxDP=2.66D-05 DE=-2.32D-08 OVMax= 1.77D-04

 Cycle  26  Pass 1  IDiag  1:
 RMSU=  1.12D-07    CP:  1.00D+00  3.00D+00  3.00D+00  3.00D+00  2.44D+00
 E= -1178.75319317390     Delta-E=       -0.000000026269 Rises=F Damp=F
 DIIS: error= 6.41D-06 at cycle  26 NSaved=   4.
 NSaved= 4 IEnMin= 4 EnMin= -1178.75319317390     IErMin= 2 ErrMin= 5.17D-06
 ErrMax= 6.41D-06  0.00D+00 EMaxC= 1.00D-01 BMatC= 1.45D-08 BMatP= 7.74D-09
 IDIUse=1 WtCom= 1.00D+00 WtEn= 0.00D+00
 Large coefficients: NSaved=  4 BigCof=   11.31 CofMax=   10.00 Det=-2.55D-11
 Inversion failed.  Reducing to  3 matrices.
 Coeff-Com: -0.256D+00 0.811D+01-0.686D+01
 Coeff:     -0.256D+00 0.811D+01-0.686D+01
 Gap=    -0.017 Goal=   None    Shift=    0.300
 Gap=     0.106 Goal=   None    Shift=    0.300
 RMSDP=3.17D-07 MaxDP=1.95D-05 DE=-2.63D-08 OVMax= 1.42D-04

 Cycle  27  Pass 1  IDiag  1:
 RMSU=  1.59D-07    CP:  1.00D+00  3.00D+00  3.00D+00  3.00D+00  3.00D+00
                    CP:  1.99D+00
 E= -1178.75319319709     Delta-E=       -0.000000023195 Rises=F Damp=F
 DIIS: error= 6.88D-06 at cycle  27 NSaved=   4.
 NSaved= 4 IEnMin= 4 EnMin= -1178.75319319709     IErMin= 1 ErrMin= 5.17D-06
 ErrMax= 6.88D-06  0.00D+00 EMaxC= 1.00D-01 BMatC= 1.62D-08 BMatP= 9.18D-09
 IDIUse=1 WtCom= 1.00D+00 WtEn= 0.00D+00
 Large coefficients: NSaved=  4 BigCof=   10.01 CofMax=   10.00 Det=-1.72D-11
 Inversion failed.  Reducing to  3 matrices.
 Coeff-Com:  0.755D+01-0.664D+01 0.943D-01
 Coeff:      0.755D+01-0.664D+01 0.943D-01
 Gap=    -0.017 Goal=   None    Shift=    0.300
 Gap=     0.106 Goal=   None    Shift=    0.300
 RMSDP=3.35D-07 MaxDP=2.19D-05 DE=-2.32D-08 OVMax= 1.51D-04

 Cycle  28  Pass 1  IDiag  1:
 RMSU=  1.11D-07    CP:  1.00D+00  3.00D+00  3.00D+00  3.00D+00  3.00D+00
                    CP:  2.94D+00  2.88D+00
 E= -1178.75319322329     Delta-E=       -0.000000026193 Rises=F Damp=F
 DIIS: error= 7.41D-06 at cycle  28 NSaved=   4.
 NSaved= 4 IEnMin= 4 EnMin= -1178.75319322329     IErMin= 1 ErrMin= 5.77D-06
 ErrMax= 7.41D-06  0.00D+00 EMaxC= 1.00D-01 BMatC= 1.89D-08 BMatP= 1.18D-08
 IDIUse=1 WtCom= 1.00D+00 WtEn= 0.00D+00
 Coeff-Com:  0.432D+01-0.381D+01 0.527D+01-0.478D+01
 Coeff:      0.432D+01-0.381D+01 0.527D+01-0.478D+01
 Gap=    -0.017 Goal=   None    Shift=    0.300
 Gap=     0.106 Goal=   None    Shift=    0.300
 RMSDP=3.35D-07 MaxDP=2.21D-05 DE=-2.62D-08 OVMax= 1.50D-04

 Cycle  29  Pass 1  IDiag  1:
 RMSU=  2.82D-07    CP:  1.00D+00  3.00D+00  3.00D+00  3.00D+00  3.00D+00
                    CP:  3.00D+00  3.00D+00  2.30D+00
 E= -1178.75319325125     Delta-E=       -0.000000027967 Rises=F Damp=F
 DIIS: error= 7.95D-06 at cycle  29 NSaved=   5.
 NSaved= 5 IEnMin= 5 EnMin= -1178.75319325125     IErMin= 1 ErrMin= 5.77D-06
 ErrMax= 7.95D-06  0.00D+00 EMaxC= 1.00D-01 BMatC= 2.18D-08 BMatP= 1.18D-08
 IDIUse=1 WtCom= 1.00D+00 WtEn= 0.00D+00
 Coeff-Com:  0.375D+01-0.345D+01 0.705D+01-0.706D+01 0.714D+00
 Coeff:      0.375D+01-0.345D+01 0.705D+01-0.706D+01 0.714D+00
 Gap=    -0.017 Goal=   None    Shift=    0.300
 Gap=     0.106 Goal=   None    Shift=    0.300
 RMSDP=3.53D-07 MaxDP=2.37D-05 DE=-2.80D-08 OVMax= 1.58D-04

 Cycle  30  Pass 1  IDiag  1:
 RMSU=  8.78D-08    CP:  1.00D+00  3.00D+00  3.00D+00  3.00D+00  3.00D+00
                    CP:  3.00D+00  3.00D+00  3.00D+00  2.11D+00
 E= -1178.75319328296     Delta-E=       -0.000000031709 Rises=F Damp=F
 DIIS: error= 8.53D-06 at cycle  30 NSaved=   6.
 NSaved= 6 IEnMin= 6 EnMin= -1178.75319328296     IErMin= 1 ErrMin= 5.77D-06
 ErrMax= 8.53D-06  0.00D+00 EMaxC= 1.00D-01 BMatC= 2.51D-08 BMatP= 1.18D-08
 IDIUse=1 WtCom= 1.00D+00 WtEn= 0.00D+00
 Coeff-Com: -0.404D+00 0.543D+00 0.756D+01-0.743D+01 0.556D+01-0.483D+01
 Coeff:     -0.404D+00 0.543D+00 0.756D+01-0.743D+01 0.556D+01-0.483D+01
 Gap=    -0.017 Goal=   None    Shift=    0.300
 Gap=     0.106 Goal=   None    Shift=    0.300
 RMSDP=3.59D-07 MaxDP=2.42D-05 DE=-3.17D-08 OVMax= 1.61D-04

 Cycle  31  Pass 1  IDiag  1:
 RMSU=  8.92D-08    CP:  1.00D+00  3.00D+00  3.00D+00  3.00D+00  3.00D+00
                    CP:  3.00D+00  3.00D+00  3.00D+00  3.00D+00  2.56D+00
 E= -1178.75319331759     Delta-E=       -0.000000034632 Rises=F Damp=F
 DIIS: error= 9.11D-06 at cycle  31 NSaved=   7.
 NSaved= 7 IEnMin= 7 EnMin= -1178.75319331759     IErMin= 1 ErrMin= 5.77D-06
 ErrMax= 9.11D-06  0.00D+00 EMaxC= 1.00D-01 BMatC= 2.81D-08 BMatP= 1.18D-08
 IDIUse=1 WtCom= 1.00D+00 WtEn= 0.00D+00
 Coeff-Com: -0.149D+00 0.227D+00 0.753D+01-0.731D+01 0.519D+01-0.430D+01
 Coeff-Com: -0.187D+00
 Coeff:     -0.149D+00 0.227D+00 0.753D+01-0.731D+01 0.519D+01-0.430D+01
 Coeff:     -0.187D+00
 Gap=    -0.017 Goal=   None    Shift=    0.300
 Gap=     0.106 Goal=   None    Shift=    0.300
 RMSDP=3.78D-07 MaxDP=2.56D-05 DE=-3.46D-08 OVMax= 1.70D-04

 Cycle  32  Pass 1  IDiag  1:
 RMSU=  2.24D-07    CP:  1.00D+00  3.00D+00  3.00D+00  3.00D+00  3.00D+00
                    CP:  3.00D+00  3.00D+00  3.00D+00  3.00D+00  3.00D+00
                    CP:  3.00D+00
 E= -1178.75319335651     Delta-E=       -0.000000038919 Rises=F Damp=F
 DIIS: error= 9.73D-06 at cycle  32 NSaved=   8.
 NSaved= 8 IEnMin= 8 EnMin= -1178.75319335651     IErMin= 1 ErrMin= 5.77D-06
 ErrMax= 9.73D-06  0.00D+00 EMaxC= 1.00D-01 BMatC= 3.21D-08 BMatP= 1.18D-08
 IDIUse=1 WtCom= 1.00D+00 WtEn= 0.00D+00
 Large coefficients: NSaved=  8 BigCof=   12.73 CofMax=   10.00 Det=-2.90D-12
 Inversion failed.  Reducing to  7 matrices.
 Large coefficients: NSaved=  7 BigCof=   12.66 CofMax=   10.00 Det=-2.94D-12
 Inversion failed.  Reducing to  6 matrices.
 Large coefficients: NSaved=  6 BigCof=   12.32 CofMax=   10.00 Det=-3.03D-12
 Inversion failed.  Reducing to  5 matrices.
 Large coefficients: NSaved=  5 BigCof=   18.88 CofMax=   10.00 Det=-4.22D-12
 Inversion failed.  Reducing to  4 matrices.
 Large coefficients: NSaved=  4 BigCof=   19.56 CofMax=   10.00 Det=-6.89D-12
 Inversion failed.  Reducing to  3 matrices.
 Large coefficients: NSaved=  3 BigCof=   25.11 CofMax=   10.00 Det=-1.75D-11
 Inversion failed.  Reducing to  2 matrices.
 Large coefficients: NSaved=  2 BigCof=   12.94 CofMax=   10.00 Det=-1.57D-10
 Coeff-Com:  0.129D+02-0.119D+02
 Coeff:      0.129D+02-0.119D+02
 Gap=    -0.017 Goal=   None    Shift=    0.300
 Gap=     0.106 Goal=   None    Shift=    0.300
 RMSDP=4.57D-07 MaxDP=3.05D-05 DE=-3.89D-08 OVMax= 1.99D-04

 Cycle  33  Pass 1  IDiag  1:
 RMSU=  2.11D-07    CP:  1.00D+00  3.00D+00  3.00D+00  3.00D+00  3.00D+00
                    CP:  3.00D+00  3.00D+00  3.00D+00  3.00D+00  3.00D+00
                    CP:  3.00D+00  2.81D+00
 E= -1178.75319340481     Delta-E=       -0.000000048303 Rises=F Damp=F
 DIIS: error= 1.05D-05 at cycle  33 NSaved=   3.
 NSaved= 3 IEnMin= 3 EnMin= -1178.75319340481     IErMin= 1 ErrMin= 9.11D-06
 ErrMax= 1.05D-05  0.00D+00 EMaxC= 1.00D-01 BMatC= 4.01D-08 BMatP= 2.81D-08
 IDIUse=1 WtCom= 1.00D+00 WtEn= 0.00D+00
 Large coefficients: NSaved=  3 BigCof=   15.52 CofMax=   10.00 Det=-1.05D-10
 Inversion failed.  Reducing to  2 matrices.
 Coeff-Com:  0.125D+01-0.248D+00
 Coeff:      0.125D+01-0.248D+00
 Gap=    -0.017 Goal=   None    Shift=    0.300
 Gap=     0.106 Goal=   None    Shift=    0.300
 RMSDP=9.83D-07 MaxDP=7.28D-05 DE=-4.83D-08 OVMax= 4.25D-04

 Cycle  34  Pass 1  IDiag  1:
 RMSU=  8.93D-07    CP:  1.00D+00  3.00D+00  3.00D+00  3.00D+00  3.00D+00
                    CP:  3.00D+00  3.00D+00  3.00D+00  3.00D+00  3.00D+00
                    CP:  3.00D+00  3.00D+00  2.43D+00
 E= -1178.75319352375     Delta-E=       -0.000000118936 Rises=F Damp=F
 DIIS: error= 1.22D-05 at cycle  34 NSaved=   3.
 NSaved= 3 IEnMin= 3 EnMin= -1178.75319352375     IErMin= 1 ErrMin= 9.73D-06
 ErrMax= 1.22D-05  0.00D+00 EMaxC= 1.00D-01 BMatC= 4.72D-08 BMatP= 3.21D-08
 IDIUse=1 WtCom= 1.00D+00 WtEn= 0.00D+00
 Coeff-Com:  0.133D+01 0.479D+00-0.806D+00
 Coeff:      0.133D+01 0.479D+00-0.806D+00
 Gap=    -0.017 Goal=   None    Shift=    0.300
 Gap=     0.106 Goal=   None    Shift=    0.300
 RMSDP=9.27D-07 MaxDP=6.59D-05 DE=-1.19D-07 OVMax= 4.11D-04

 Cycle  35  Pass 1  IDiag  1:
 RMSU=  1.90D-07    CP:  1.00D+00  3.00D+00  3.00D+00  3.00D+00  3.00D+00
                    CP:  3.00D+00  3.00D+00  3.00D+00  3.00D+00  3.00D+00
                    CP:  3.00D+00  3.00D+00  3.00D+00  1.98D+00
 E= -1178.75319365200     Delta-E=       -0.000000128250 Rises=F Damp=F
 DIIS: error= 1.37D-05 at cycle  35 NSaved=   4.
 NSaved= 4 IEnMin= 4 EnMin= -1178.75319365200     IErMin= 1 ErrMin= 9.73D-06
 ErrMax= 1.37D-05  0.00D+00 EMaxC= 1.00D-01 BMatC= 6.16D-08 BMatP= 3.21D-08
 IDIUse=1 WtCom= 1.00D+00 WtEn= 0.00D+00
 Coeff-Com:  0.119D+01-0.731D+00 0.282D+01-0.228D+01
 Coeff:      0.119D+01-0.731D+00 0.282D+01-0.228D+01
 Gap=    -0.017 Goal=   None    Shift=    0.300
 Gap=     0.106 Goal=   None    Shift=    0.300
 RMSDP=9.04D-07 MaxDP=6.25D-05 DE=-1.28D-07 OVMax= 4.03D-04

 Cycle  36  Pass 1  IDiag  1:
 RMSU=  6.69D-08    CP:  1.00D+00  3.00D+00  3.00D+00  3.00D+00  3.00D+00
                    CP:  3.00D+00  3.00D+00  3.00D+00  3.00D+00  3.00D+00
                    CP:  3.00D+00  3.00D+00  3.00D+00  2.94D+00  2.57D+00
 E= -1178.75319379040     Delta-E=       -0.000000138401 Rises=F Damp=F
 DIIS: error= 1.52D-05 at cycle  36 NSaved=   5.
 NSaved= 5 IEnMin= 5 EnMin= -1178.75319379040     IErMin= 1 ErrMin= 9.73D-06
 ErrMax= 1.52D-05  0.00D+00 EMaxC= 1.00D-01 BMatC= 8.57D-08 BMatP= 3.21D-08
 IDIUse=1 WtCom= 1.00D+00 WtEn= 0.00D+00
 Coeff-Com:  0.101D+01-0.117D+01 0.663D+01-0.741D+01 0.193D+01
 Coeff:      0.101D+01-0.117D+01 0.663D+01-0.741D+01 0.193D+01
 Gap=    -0.017 Goal=   None    Shift=    0.300
 Gap=     0.106 Goal=   None    Shift=    0.300
 RMSDP=8.97D-07 MaxDP=6.11D-05 DE=-1.38D-07 OVMax= 4.03D-04

 Cycle  37  Pass 1  IDiag  1:
 RMSU=  8.21D-07    CP:  1.00D+00  3.00D+00  3.00D+00  3.00D+00  3.00D+00
                    CP:  3.00D+00  3.00D+00  3.00D+00  3.00D+00  3.00D+00
                    CP:  3.00D+00  3.00D+00  3.00D+00  3.00D+00  3.00D+00
                    CP:  1.10D+00
 E= -1178.75319394639     Delta-E=       -0.000000155988 Rises=F Damp=F
 DIIS: error= 1.67D-05 at cycle  37 NSaved=   6.
 NSaved= 6 IEnMin= 6 EnMin= -1178.75319394639     IErMin= 1 ErrMin= 9.73D-06
 ErrMax= 1.67D-05  0.00D+00 EMaxC= 1.00D-01 BMatC= 9.75D-08 BMatP= 3.21D-08
 IDIUse=1 WtCom= 1.00D+00 WtEn= 0.00D+00
 Coeff-Com:  0.127D+01-0.805D+00 0.170D+01-0.653D+00 0.246D+01-0.297D+01
 Coeff:      0.127D+01-0.805D+00 0.170D+01-0.653D+00 0.246D+01-0.297D+01
 Gap=    -0.017 Goal=   None    Shift=    0.300
 Gap=     0.106 Goal=   None    Shift=    0.300
 RMSDP=7.87D-07 MaxDP=5.15D-05 DE=-1.56D-07 OVMax= 3.54D-04

 Cycle  38  Pass 1  IDiag  1:
 RMSU=  1.10D-07    CP:  1.00D+00  3.00D+00  3.00D+00  3.00D+00  3.00D+00
                    CP:  3.00D+00  3.00D+00  3.00D+00  3.00D+00  3.00D+00
                    CP:  3.00D+00  3.00D+00  3.00D+00  3.00D+00  3.00D+00
                    CP:  4.61D-01  1.95D+00
 E= -1178.75319409240     Delta-E=       -0.000000146016 Rises=F Damp=F
 DIIS: error= 1.79D-05 at cycle  38 NSaved=   7.
 NSaved= 7 IEnMin= 7 EnMin= -1178.75319409240     IErMin= 1 ErrMin= 9.73D-06
 ErrMax= 1.79D-05  0.00D+00 EMaxC= 1.00D-01 BMatC= 1.16D-07 BMatP= 3.21D-08
 IDIUse=1 WtCom= 1.00D+00 WtEn= 0.00D+00
 Coeff-Com:  0.104D+01-0.208D+01 0.413D+01-0.179D+01 0.614D+01-0.842D+01
 Coeff-Com:  0.198D+01
 Coeff:      0.104D+01-0.208D+01 0.413D+01-0.179D+01 0.614D+01-0.842D+01
 Coeff:      0.198D+01
 Gap=    -0.017 Goal=   None    Shift=    0.300
 Gap=     0.106 Goal=   None    Shift=    0.300
 RMSDP=7.63D-07 MaxDP=5.03D-05 DE=-1.46D-07 OVMax= 3.45D-04

 Cycle  39  Pass 1  IDiag  1:
 RMSU=  1.01D-07    CP:  1.00D+00  3.00D+00  3.00D+00  3.00D+00  3.00D+00
                    CP:  3.00D+00  3.00D+00  3.00D+00  3.00D+00  3.00D+00
                    CP:  3.00D+00  3.00D+00  3.00D+00  3.00D+00  3.00D+00
                    CP:  7.98D-02  2.87D+00  1.33D+00
 E= -1178.75319424710     Delta-E=       -0.000000154693 Rises=F Damp=F
 DIIS: error= 1.91D-05 at cycle  39 NSaved=   8.
 NSaved= 8 IEnMin= 8 EnMin= -1178.75319424710     IErMin= 1 ErrMin= 9.73D-06
 ErrMax= 1.91D-05  0.00D+00 EMaxC= 1.00D-01 BMatC= 1.28D-07 BMatP= 3.21D-08
 IDIUse=1 WtCom= 1.00D+00 WtEn= 0.00D+00
 Coeff-Com:  0.175D+01 0.580D+00-0.301D+01 0.304D+01-0.709D-01-0.255D+00
 Coeff-Com:  0.154D+01-0.259D+01
 Coeff:      0.175D+01 0.580D+00-0.301D+01 0.304D+01-0.709D-01-0.255D+00
 Coeff:      0.154D+01-0.259D+01
 Gap=    -0.017 Goal=   None    Shift=    0.300
 Gap=     0.106 Goal=   None    Shift=    0.300
 RMSDP=7.29D-07 MaxDP=4.72D-05 DE=-1.55D-07 OVMax= 3.30D-04

 Cycle  40  Pass 1  IDiag  1:
 RMSU=  6.15D-07    CP:  1.00D+00  3.00D+00  3.00D+00  3.00D+00  3.00D+00
                    CP:  3.00D+00  3.00D+00  3.00D+00  3.00D+00  3.00D+00
                    CP:  3.00D+00  3.00D+00  3.00D+00  3.00D+00  3.00D+00
                    CP: -3.75D-01  3.00D+00  1.71D+00  1.69D+00
 E= -1178.75319440440     Delta-E=       -0.000000157308 Rises=F Damp=F
 DIIS: error= 2.03D-05 at cycle  40 NSaved=   9.
 NSaved= 9 IEnMin= 9 EnMin= -1178.75319440440     IErMin= 1 ErrMin= 9.73D-06
 ErrMax= 2.03D-05  0.00D+00 EMaxC= 1.00D-01 BMatC= 1.42D-07 BMatP= 3.21D-08
 IDIUse=1 WtCom= 1.00D+00 WtEn= 0.00D+00
 Coeff-Com:  0.165D+01 0.481D+00-0.192D+01 0.189D+01 0.163D+00-0.427D+00
 Coeff-Com:  0.102D+01-0.122D+01-0.637D+00
 Coeff:      0.165D+01 0.481D+00-0.192D+01 0.189D+01 0.163D+00-0.427D+00
 Coeff:      0.102D+01-0.122D+01-0.637D+00
 Gap=    -0.017 Goal=   None    Shift=    0.300
 Gap=     0.106 Goal=   None    Shift=    0.300
 RMSDP=7.66D-07 MaxDP=5.09D-05 DE=-1.57D-07 OVMax= 3.47D-04

 Cycle  41  Pass 1  IDiag  1:
 Restarting incremental Fock formation.
 E= -1178.75319457967     Delta-E=       -0.000000175261 Rises=F Damp=F
 DIIS: error= 2.15D-05 at cycle  41 NSaved=  10.
 NSaved=10 IEnMin=10 EnMin= -1178.75319457967     IErMin= 1 ErrMin= 9.73D-06
 ErrMax= 2.15D-05  0.00D+00 EMaxC= 1.00D-01 BMatC= 1.61D-07 BMatP= 3.21D-08
 IDIUse=1 WtCom= 1.00D+00 WtEn= 0.00D+00
 Coeff-Com:  0.168D+01 0.583D+00-0.193D+01 0.178D+01-0.291D-01-0.135D+00
 Coeff-Com:  0.941D+00-0.900D+00-0.152D+01 0.535D+00
 Coeff:      0.168D+01 0.583D+00-0.193D+01 0.178D+01-0.291D-01-0.135D+00
 Coeff:      0.941D+00-0.900D+00-0.152D+01 0.535D+00
 Gap=    -0.017 Goal=   None    Shift=    0.300
 Gap=     0.106 Goal=   None    Shift=    0.300
 RMSDP=8.12D-07 MaxDP=5.47D-05 DE=-1.75D-07 OVMax= 3.67D-04

 Cycle  42  Pass 1  IDiag  1:
 RMSU=  8.12D-07    CP:  1.00D+00
 E= -1178.75319477738     Delta-E=       -0.000000197711 Rises=F Damp=F
 DIIS: error= 2.28D-05 at cycle  42 NSaved=  11.
 NSaved=11 IEnMin=11 EnMin= -1178.75319477738     IErMin= 1 ErrMin= 9.73D-06
 ErrMax= 2.28D-05  0.00D+00 EMaxC= 1.00D-01 BMatC= 1.82D-07 BMatP= 3.21D-08
 IDIUse=1 WtCom= 1.00D+00 WtEn= 0.00D+00
 Large coefficients: NSaved= 11 BigCof=   11.63 CofMax=   10.00 Det=-1.39D-11
 Inversion failed.  Reducing to 10 matrices.
 Large coefficients: NSaved= 10 BigCof=   14.70 CofMax=   10.00 Det=-1.77D-11
 Inversion failed.  Reducing to  9 matrices.
 Large coefficients: NSaved=  9 BigCof=   15.72 CofMax=   10.00 Det=-2.11D-11
 Inversion failed.  Reducing to  8 matrices.
 Large coefficients: NSaved=  8 BigCof=   14.91 CofMax=   10.00 Det=-2.19D-11
 Inversion failed.  Reducing to  7 matrices.
 Large coefficients: NSaved=  7 BigCof=   16.00 CofMax=   10.00 Det=-2.25D-11
 Inversion failed.  Reducing to  6 matrices.
 Large coefficients: NSaved=  6 BigCof=   17.36 CofMax=   10.00 Det=-2.58D-11
 Inversion failed.  Reducing to  5 matrices.
 Large coefficients: NSaved=  5 BigCof=   19.16 CofMax=   10.00 Det=-3.44D-11
 Inversion failed.  Reducing to  4 matrices.
 Large coefficients: NSaved=  4 BigCof=   19.10 CofMax=   10.00 Det=-3.44D-11
 Inversion failed.  Reducing to  3 matrices.
 Large coefficients: NSaved=  3 BigCof=   24.23 CofMax=   10.00 Det=-5.80D-11
 Inversion failed.  Reducing to  2 matrices.
 Large coefficients: NSaved=  2 BigCof=   15.77 CofMax=   10.00 Det=-6.89D-10
 Coeff-Com:  0.158D+02-0.148D+02
 Coeff:      0.158D+02-0.148D+02
 Gap=    -0.017 Goal=   None    Shift=    0.300
 Gap=     0.106 Goal=   None    Shift=    0.300
 RMSDP=9.38D-07 MaxDP=6.39D-05 DE=-1.98D-07 OVMax= 4.11D-04

 Cycle  43  Pass 1  IDiag  1:
 RMSU=  1.87D-07    CP:  1.00D+00  2.13D+00
 E= -1178.75319501229     Delta-E=       -0.000000234917 Rises=F Damp=F
 DIIS: error= 2.44D-05 at cycle  43 NSaved=   3.
 NSaved= 3 IEnMin= 3 EnMin= -1178.75319501229     IErMin= 1 ErrMin= 2.15D-05
 ErrMax= 2.44D-05  0.00D+00 EMaxC= 1.00D-01 BMatC= 2.17D-07 BMatP= 1.61D-07
 IDIUse=1 WtCom= 1.00D+00 WtEn= 0.00D+00
 Large coefficients: NSaved=  3 BigCof=   17.14 CofMax=   10.00 Det=-5.03D-10
 Inversion failed.  Reducing to  2 matrices.
 Coeff-Com:  0.151D+01-0.506D+00
 Coeff:      0.151D+01-0.506D+00
 Gap=    -0.017 Goal=   None    Shift=    0.300
 Gap=     0.106 Goal=   None    Shift=    0.300
 RMSDP=2.30D-06 MaxDP=1.71D-04 DE=-2.35D-07 OVMax= 9.88D-04

 Cycle  44  Pass 1  IDiag  1:
 RMSU=  1.61D-06    CP:  1.00D+00  3.00D+00  1.42D+00
 E= -1178.75319566085     Delta-E=       -0.000000648559 Rises=F Damp=F
 DIIS: error= 2.85D-05 at cycle  44 NSaved=   3.
 NSaved= 3 IEnMin= 3 EnMin= -1178.75319566085     IErMin= 1 ErrMin= 2.28D-05
 ErrMax= 2.85D-05  0.00D+00 EMaxC= 1.00D-01 BMatC= 2.61D-07 BMatP= 1.82D-07
 IDIUse=1 WtCom= 1.00D+00 WtEn= 0.00D+00
 Coeff-Com:  0.145D+01-0.626D-01-0.392D+00
 Coeff:      0.145D+01-0.626D-01-0.392D+00
 Gap=    -0.017 Goal=   None    Shift=    0.300
 Gap=     0.106 Goal=   None    Shift=    0.300
 RMSDP=2.28D-06 MaxDP=1.64D-04 DE=-6.49D-07 OVMax= 1.01D-03

 Cycle  45  Pass 1  IDiag  1:
 RMSU=  4.23D-07    CP:  1.00D+00  3.00D+00  1.59D+00  2.39D+00
 E= -1178.75319639970     Delta-E=       -0.000000738848 Rises=F Damp=F
 DIIS: error= 3.23D-05 at cycle  45 NSaved=   4.
 NSaved= 4 IEnMin= 4 EnMin= -1178.75319639970     IErMin= 1 ErrMin= 2.28D-05
 ErrMax= 3.23D-05  0.00D+00 EMaxC= 1.00D-01 BMatC= 3.40D-07 BMatP= 1.82D-07
 IDIUse=1 WtCom= 1.00D+00 WtEn= 0.00D+00
 Coeff-Com:  0.126D+01-0.172D+01 0.565D+01-0.419D+01
 Coeff:      0.126D+01-0.172D+01 0.565D+01-0.419D+01
 Gap=    -0.017 Goal=   None    Shift=    0.300
 Gap=     0.106 Goal=   None    Shift=    0.300
 RMSDP=1.88D-06 MaxDP=1.26D-04 DE=-7.39D-07 OVMax= 8.38D-04

 Cycle  46  Pass 1  IDiag  1:
 RMSU=  8.36D-07    CP:  1.00D+00  3.00D+00  1.20D+00  3.00D+00  2.21D+00
 E= -1178.75319706417     Delta-E=       -0.000000664469 Rises=F Damp=F
 DIIS: error= 3.53D-05 at cycle  46 NSaved=   5.
 NSaved= 5 IEnMin= 5 EnMin= -1178.75319706417     IErMin= 1 ErrMin= 2.28D-05
 ErrMax= 3.53D-05  0.00D+00 EMaxC= 1.00D-01 BMatC= 4.78D-07 BMatP= 1.82D-07
 IDIUse=1 WtCom= 1.00D+00 WtEn= 0.00D+00
 Large coefficients: NSaved=  5 BigCof=   11.35 CofMax=   10.00 Det=-9.07D-10
 Inversion failed.  Reducing to  4 matrices.
 Large coefficients: NSaved=  4 BigCof=   12.05 CofMax=   10.00 Det=-9.65D-10
 Inversion failed.  Reducing to  3 matrices.
 Coeff-Com:  0.774D+01-0.834D+01 0.160D+01
 Coeff:      0.774D+01-0.834D+01 0.160D+01
 Gap=    -0.017 Goal=   None    Shift=    0.300
 Gap=     0.106 Goal=   None    Shift=    0.300
 RMSDP=1.68D-06 MaxDP=1.08D-04 DE=-6.64D-07 OVMax= 7.63D-04

 Cycle  47  Pass 1  IDiag  1:
 RMSU=  5.64D-07    CP:  1.00D+00  3.00D+00  3.70D-01  3.00D+00  3.00D+00
                    CP:  2.80D+00
 E= -1178.75319773596     Delta-E=       -0.000000671787 Rises=F Damp=F
 DIIS: error= 3.78D-05 at cycle  47 NSaved=   4.
 NSaved= 4 IEnMin= 4 EnMin= -1178.75319773596     IErMin= 1 ErrMin= 2.85D-05
 ErrMax= 3.78D-05  0.00D+00 EMaxC= 1.00D-01 BMatC= 5.21D-07 BMatP= 2.61D-07
 IDIUse=1 WtCom= 1.00D+00 WtEn= 0.00D+00
 Coeff-Com:  0.776D+01-0.838D+01 0.157D+01 0.443D-01
 Coeff:      0.776D+01-0.838D+01 0.157D+01 0.443D-01
 Gap=    -0.017 Goal=   None    Shift=    0.300
 Gap=     0.106 Goal=   None    Shift=    0.300
 RMSDP=1.78D-06 MaxDP=1.19D-04 DE=-6.72D-07 OVMax= 8.08D-04

 Cycle  48  Pass 1  IDiag  1:
 RMSU=  1.51D-06    CP:  1.00D+00  3.00D+00  7.01D-02  3.00D+00  3.00D+00
                    CP:  3.00D+00  2.11D+00
 E= -1178.75319850224     Delta-E=       -0.000000766287 Rises=F Damp=F
 DIIS: error= 4.07D-05 at cycle  48 NSaved=   5.
 NSaved= 5 IEnMin= 5 EnMin= -1178.75319850224     IErMin= 1 ErrMin= 2.85D-05
 ErrMax= 4.07D-05  0.00D+00 EMaxC= 1.00D-01 BMatC= 5.98D-07 BMatP= 2.61D-07
 IDIUse=1 WtCom= 1.00D+00 WtEn= 0.00D+00
 Large coefficients: NSaved=  5 BigCof=   10.94 CofMax=   10.00 Det=-5.33D-10
 Inversion failed.  Reducing to  4 matrices.
 Large coefficients: NSaved=  4 BigCof=   16.02 CofMax=   10.00 Det=-7.19D-10
 Inversion failed.  Reducing to  3 matrices.
 Large coefficients: NSaved=  3 BigCof=   18.98 CofMax=   10.00 Det=-9.51D-10
 Inversion failed.  Reducing to  2 matrices.
 Large coefficients: NSaved=  2 BigCof=   10.14 CofMax=   10.00 Det=-4.04D-09
 Coeff-Com:  0.101D+02-0.914D+01
 Coeff:      0.101D+02-0.914D+01
 Gap=    -0.017 Goal=   None    Shift=    0.300
 Gap=     0.106 Goal=   None    Shift=    0.300
 RMSDP=2.25D-06 MaxDP=1.52D-04 DE=-7.66D-07 OVMax= 9.44D-04

 Cycle  49  Pass 1  IDiag  1:
 RMSU=  8.65D-07    CP:  1.00D+00  3.00D+00 -1.12D+00  3.00D+00  3.00D+00
                    CP:  3.00D+00  3.00D+00  2.22D+00
 E= -1178.75319946208     Delta-E=       -0.000000959836 Rises=F Damp=F
 DIIS: error= 4.44D-05 at cycle  49 NSaved=   3.
 NSaved= 3 IEnMin= 3 EnMin= -1178.75319946208     IErMin= 1 ErrMin= 3.78D-05
 ErrMax= 4.44D-05  0.00D+00 EMaxC= 1.00D-01 BMatC= 8.08D-07 BMatP= 5.21D-07
 IDIUse=1 WtCom= 1.00D+00 WtEn= 0.00D+00
 Large coefficients: NSaved=  3 BigCof=   12.46 CofMax=   10.00 Det=-3.20D-09
 Inversion failed.  Reducing to  2 matrices.
 Coeff-Com:  0.810D+00 0.190D+00
 Coeff:      0.810D+00 0.190D+00
 Gap=    -0.017 Goal=   None    Shift=    0.300
 Gap=     0.106 Goal=   None    Shift=    0.300
 RMSDP=4.23D-06 MaxDP=3.11D-04 DE=-9.60D-07 OVMax= 1.82D-03

 Cycle  50  Pass 1  IDiag  1:
 RMSU=  2.90D-06    CP:  1.00D+00  3.00D+00  1.42D+00  3.00D+00  3.00D+00
                    CP:  3.00D+00  3.00D+00  3.00D+00  2.32D+00
 E= -1178.75320164386     Delta-E=       -0.000002181779 Rises=F Damp=F
 DIIS: error= 5.19D-05 at cycle  50 NSaved=   3.
 NSaved= 3 IEnMin= 3 EnMin= -1178.75320164386     IErMin= 1 ErrMin= 4.07D-05
 ErrMax= 5.19D-05  0.00D+00 EMaxC= 1.00D-01 BMatC= 8.70D-07 BMatP= 5.98D-07
 IDIUse=1 WtCom= 1.00D+00 WtEn= 0.00D+00
 Coeff-Com:  0.900D+00 0.439D+00-0.339D+00
 Coeff:      0.900D+00 0.439D+00-0.339D+00
 Gap=    -0.017 Goal=   None    Shift=    0.300
 Gap=     0.106 Goal=   None    Shift=    0.300
 RMSDP=4.20D-06 MaxDP=3.00D-04 DE=-2.18D-06 OVMax= 1.86D-03

 Cycle  51  Pass 1  IDiag  1:
 RMSU=  8.47D-07    CP:  1.00D+00  3.00D+00  2.89D+00  3.00D+00  3.00D+00
                    CP:  3.00D+00  3.00D+00  3.00D+00  3.00D+00  2.37D+00
 E= -1178.75320410440     Delta-E=       -0.000002460540 Rises=F Damp=F
 DIIS: error= 5.89D-05 at cycle  51 NSaved=   4.
 NSaved= 4 IEnMin= 4 EnMin= -1178.75320410440     IErMin= 1 ErrMin= 4.07D-05
 ErrMax= 5.89D-05  0.00D+00 EMaxC= 1.00D-01 BMatC= 1.18D-06 BMatP= 5.98D-07
 IDIUse=1 WtCom= 1.00D+00 WtEn= 0.00D+00
 Coeff-Com:  0.444D+00-0.129D+01 0.530D+01-0.346D+01
 Coeff:      0.444D+00-0.129D+01 0.530D+01-0.346D+01
 Gap=    -0.017 Goal=   None    Shift=    0.300
 Gap=     0.106 Goal=   None    Shift=    0.300
 RMSDP=3.99D-06 MaxDP=2.76D-04 DE=-2.46D-06 OVMax= 1.78D-03

 Cycle  52  Pass 1  IDiag  1:
 RMSU=  1.98D-06    CP:  1.00D+00  3.00D+00  3.00D+00  3.00D+00  3.00D+00
                    CP:  3.00D+00  3.00D+00  3.00D+00  3.00D+00  3.00D+00
                    CP:  2.47D+00
 E= -1178.75320671923     Delta-E=       -0.000002614827 Rises=F Damp=F
 DIIS: error= 6.55D-05 at cycle  52 NSaved=   5.
 NSaved= 5 IEnMin= 5 EnMin= -1178.75320671923     IErMin= 1 ErrMin= 4.07D-05
 ErrMax= 6.55D-05  0.00D+00 EMaxC= 1.00D-01 BMatC= 1.60D-06 BMatP= 5.98D-07
 IDIUse=1 WtCom= 1.00D+00 WtEn= 0.00D+00
 Coeff-Com:  0.287D+00-0.158D+01 0.706D+01-0.554D+01 0.770D+00
 Coeff:      0.287D+00-0.158D+01 0.706D+01-0.554D+01 0.770D+00
 Gap=    -0.017 Goal=   None    Shift=    0.300
 Gap=     0.106 Goal=   None    Shift=    0.300
 RMSDP=4.17D-06 MaxDP=2.88D-04 DE=-2.61D-06 OVMax= 1.87D-03

 Cycle  53  Pass 1  IDiag  1:
 RMSU=  1.05D-06    CP:  1.00D+00  3.00D+00  3.00D+00  3.00D+00  3.00D+00
                    CP:  3.00D+00  3.00D+00  3.00D+00  3.00D+00  3.00D+00
                    CP:  3.00D+00  2.98D+00
 E= -1178.75320980351     Delta-E=       -0.000003084287 Rises=F Damp=F
 DIIS: error= 7.23D-05 at cycle  53 NSaved=   6.
 NSaved= 6 IEnMin= 6 EnMin= -1178.75320980351     IErMin= 1 ErrMin= 4.07D-05
 ErrMax= 7.23D-05  0.00D+00 EMaxC= 1.00D-01 BMatC= 1.95D-06 BMatP= 5.98D-07
 IDIUse=1 WtCom= 1.00D+00 WtEn= 0.00D+00
 Coeff-Com:  0.953D+00-0.769D-01-0.224D+01 0.297D+01 0.558D+01-0.619D+01
 Coeff:      0.953D+00-0.769D-01-0.224D+01 0.297D+01 0.558D+01-0.619D+01
 Gap=    -0.017 Goal=   None    Shift=    0.300
 Gap=     0.106 Goal=   None    Shift=    0.300
 RMSDP=3.19D-06 MaxDP=2.02D-04 DE=-3.08D-06 OVMax= 1.44D-03

 Cycle  54  Pass 1  IDiag  1:
 RMSU=  2.88D-06    CP:  1.00D+00  3.00D+00  3.00D+00  3.00D+00  3.00D+00
                    CP:  3.00D+00  3.00D+00  3.00D+00  3.00D+00  3.00D+00
                    CP:  3.00D+00  3.00D+00  2.25D+00
 E= -1178.75321235778     Delta-E=       -0.000002554267 Rises=F Damp=F
 DIIS: error= 7.69D-05 at cycle  54 NSaved=   7.
 NSaved= 7 IEnMin= 7 EnMin= -1178.75321235778     IErMin= 1 ErrMin= 4.07D-05
 ErrMax= 7.69D-05  0.00D+00 EMaxC= 1.00D-01 BMatC= 2.22D-06 BMatP= 5.98D-07
 IDIUse=1 WtCom= 1.00D+00 WtEn= 0.00D+00
 Coeff-Com:  0.664D+00-0.754D+00-0.109D+01 0.240D+01 0.823D+01-0.935D+01
 Coeff-Com:  0.896D+00
 Coeff:      0.664D+00-0.754D+00-0.109D+01 0.240D+01 0.823D+01-0.935D+01
 Coeff:      0.896D+00
 Gap=    -0.017 Goal=   None    Shift=    0.300
 Gap=     0.106 Goal=   None    Shift=    0.300
 RMSDP=3.22D-06 MaxDP=2.11D-04 DE=-2.55D-06 OVMax= 1.46D-03

 Cycle  55  Pass 1  IDiag  1:
 RMSU=  5.64D-07    CP:  1.00D+00  3.00D+00  3.00D+00  3.00D+00  3.00D+00
                    CP:  3.00D+00  3.00D+00  3.00D+00  3.00D+00  3.00D+00
                    CP:  3.00D+00  3.00D+00  3.00D+00  2.04D+00
 E= -1178.75321515001     Delta-E=       -0.000002792229 Rises=F Damp=F
 DIIS: error= 8.20D-05 at cycle  55 NSaved=   8.
 NSaved= 8 IEnMin= 8 EnMin= -1178.75321515001     IErMin= 1 ErrMin= 4.07D-05
 ErrMax= 8.20D-05  0.00D+00 EMaxC= 1.00D-01 BMatC= 2.49D-06 BMatP= 5.98D-07
 IDIUse=1 WtCom= 1.00D+00 WtEn= 0.00D+00
 Coeff-Com:  0.152D+01 0.112D+01-0.459D+01 0.339D+01 0.233D+01-0.230D+01
 Coeff-Com:  0.287D+01-0.335D+01
 Coeff:      0.152D+01 0.112D+01-0.459D+01 0.339D+01 0.233D+01-0.230D+01
 Coeff:      0.287D+01-0.335D+01
 Gap=    -0.017 Goal=   None    Shift=    0.300
 Gap=     0.106 Goal=   None    Shift=    0.300
 RMSDP=3.21D-06 MaxDP=2.10D-04 DE=-2.79D-06 OVMax= 1.45D-03

 Cycle  56  Pass 1  IDiag  1:
 RMSU=  7.35D-07    CP:  1.00D+00  3.00D+00  2.40D+00  3.00D+00  3.00D+00
                    CP:  3.00D+00  3.00D+00  3.00D+00  3.00D+00  3.00D+00
                    CP:  3.00D+00  3.00D+00  3.00D+00  3.00D+00  3.00D+00
 E= -1178.75321814056     Delta-E=       -0.000002990548 Rises=F Damp=F
 DIIS: error= 8.71D-05 at cycle  56 NSaved=   9.
 NSaved= 9 IEnMin= 9 EnMin= -1178.75321814056     IErMin= 1 ErrMin= 4.07D-05
 ErrMax= 8.71D-05  0.00D+00 EMaxC= 1.00D-01 BMatC= 2.73D-06 BMatP= 5.98D-07
 IDIUse=1 WtCom= 1.00D+00 WtEn= 0.00D+00
 Coeff-Com:  0.133D+01 0.895D+00-0.330D+01 0.231D+01 0.267D+01-0.255D+01
 Coeff-Com:  0.226D+01-0.207D+01-0.551D+00
 Coeff:      0.133D+01 0.895D+00-0.330D+01 0.231D+01 0.267D+01-0.255D+01
 Coeff:      0.226D+01-0.207D+01-0.551D+00
 Gap=    -0.017 Goal=   None    Shift=    0.300
 Gap=     0.106 Goal=   None    Shift=    0.300
 RMSDP=3.38D-06 MaxDP=2.26D-04 DE=-2.99D-06 OVMax= 1.53D-03

 Cycle  57  Pass 1  IDiag  1:
 RMSU=  3.17D-06    CP:  1.00D+00  3.00D+00  1.89D+00  3.00D+00  3.00D+00
                    CP:  3.00D+00  3.00D+00  3.00D+00  3.00D+00  3.00D+00
                    CP:  3.00D+00  3.00D+00  3.00D+00  3.00D+00  3.00D+00
                    CP:  2.58D+00
 E= -1178.75322146683     Delta-E=       -0.000003326274 Rises=F Damp=F
 DIIS: error= 9.26D-05 at cycle  57 NSaved=  10.
 NSaved=10 IEnMin=10 EnMin= -1178.75322146683     IErMin= 1 ErrMin= 4.07D-05
 ErrMax= 9.26D-05  0.00D+00 EMaxC= 1.00D-01 BMatC= 3.10D-06 BMatP= 5.98D-07
 IDIUse=1 WtCom= 1.00D+00 WtEn= 0.00D+00
 Coeff-Com:  0.125D+01 0.591D+00-0.390D+01 0.325D+01 0.388D+01-0.413D+01
 Coeff-Com:  0.229D+01-0.361D+01 0.441D+01-0.303D+01
 Coeff:      0.125D+01 0.591D+00-0.390D+01 0.325D+01 0.388D+01-0.413D+01
 Coeff:      0.229D+01-0.361D+01 0.441D+01-0.303D+01
 Gap=    -0.017 Goal=   None    Shift=    0.300
 Gap=     0.106 Goal=   None    Shift=    0.300
 RMSDP=3.57D-06 MaxDP=2.41D-04 DE=-3.33D-06 OVMax= 1.61D-03

 Cycle  58  Pass 1  IDiag  1:
 RMSU=  9.18D-07    CP:  1.00D+00  3.00D+00  1.39D+00  3.00D+00  3.00D+00
                    CP:  3.00D+00  3.00D+00  3.00D+00  3.00D+00  3.00D+00
                    CP:  3.00D+00  3.00D+00  3.00D+00  3.00D+00  3.00D+00
                    CP:  3.00D+00  2.06D+00
 E= -1178.75322519309     Delta-E=       -0.000003726255 Rises=F Damp=F
 DIIS: error= 9.84D-05 at cycle  58 NSaved=  11.
 NSaved=11 IEnMin=11 EnMin= -1178.75322519309     IErMin= 1 ErrMin= 4.07D-05
 ErrMax= 9.84D-05  0.00D+00 EMaxC= 1.00D-01 BMatC= 3.52D-06 BMatP= 5.98D-07
 IDIUse=1 WtCom= 1.00D+00 WtEn= 0.00D+00
 Coeff-Com:  0.130D+01 0.891D+00-0.294D+01 0.167D+01 0.263D+01-0.227D+01
 Coeff-Com:  0.258D+01-0.239D+01-0.251D+01 0.447D+01-0.244D+01
 Coeff:      0.130D+01 0.891D+00-0.294D+01 0.167D+01 0.263D+01-0.227D+01
 Coeff:      0.258D+01-0.239D+01-0.251D+01 0.447D+01-0.244D+01
 Gap=    -0.017 Goal=   None    Shift=    0.300
 Gap=     0.106 Goal=   None    Shift=    0.300
 RMSDP=3.72D-06 MaxDP=2.52D-04 DE=-3.73D-06 OVMax= 1.68D-03

 Cycle  59  Pass 1  IDiag  1:
 RMSU=  5.29D-07    CP:  1.00D+00  3.00D+00  1.23D+00  3.00D+00  3.00D+00
                    CP:  3.00D+00  3.00D+00  3.00D+00  3.00D+00  3.00D+00
                    CP:  3.00D+00  3.00D+00  3.00D+00  3.00D+00  3.00D+00
                    CP:  3.00D+00  3.00D+00  2.35D+00
 E= -1178.75322932500     Delta-E=       -0.000004131914 Rises=F Damp=F
 DIIS: error= 1.04D-04 at cycle  59 NSaved=  12.
 NSaved=12 IEnMin=12 EnMin= -1178.75322932500     IErMin= 1 ErrMin= 4.07D-05
 ErrMax= 1.04D-04  0.00D+00 EMaxC= 1.00D-01 BMatC= 3.98D-06 BMatP= 5.98D-07
 IDIUse=1 WtCom= 1.00D+00 WtEn= 0.00D+00
 Coeff-Com:  0.111D+01 0.606D+00-0.223D+01 0.137D+01 0.312D+01-0.291D+01
 Coeff-Com:  0.205D+01-0.175D+01 0.111D+00-0.840D+00 0.179D+01-0.142D+01
 Coeff:      0.111D+01 0.606D+00-0.223D+01 0.137D+01 0.312D+01-0.291D+01
 Coeff:      0.205D+01-0.175D+01 0.111D+00-0.840D+00 0.179D+01-0.142D+01
 Gap=    -0.017 Goal=   None    Shift=    0.300
 Gap=     0.106 Goal=   None    Shift=    0.300
 RMSDP=3.93D-06 MaxDP=2.68D-04 DE=-4.13D-06 OVMax= 1.77D-03

 Cycle  60  Pass 1  IDiag  1:
 RMSU=  2.78D-06    CP:  1.00D+00  3.00D+00  1.16D+00  3.00D+00  3.00D+00
                    CP:  3.00D+00  3.00D+00  3.00D+00  3.00D+00  3.00D+00
                    CP:  3.00D+00  3.00D+00  3.00D+00  3.00D+00  3.00D+00
                    CP:  3.00D+00  3.00D+00  3.00D+00  3.00D+00
 E= -1178.75323395625     Delta-E=       -0.000004631251 Rises=F Damp=F
 DIIS: error= 1.11D-04 at cycle  60 NSaved=  13.
 NSaved=13 IEnMin=13 EnMin= -1178.75323395625     IErMin= 1 ErrMin= 4.07D-05
 ErrMax= 1.11D-04  0.00D+00 EMaxC= 1.00D-01 BMatC= 4.51D-06 BMatP= 5.98D-07
 IDIUse=1 WtCom= 1.00D+00 WtEn= 0.00D+00
 Coeff-Com:  0.110D+01 0.588D+00-0.230D+01 0.141D+01 0.329D+01-0.307D+01
 Coeff-Com:  0.204D+01-0.190D+01 0.219D+00-0.331D+00 0.835D+00-0.448D+00
 Coeff-Com: -0.440D+00
 Coeff:      0.110D+01 0.588D+00-0.230D+01 0.141D+01 0.329D+01-0.307D+01
 Coeff:      0.204D+01-0.190D+01 0.219D+00-0.331D+00 0.835D+00-0.448D+00
 Coeff:     -0.440D+00
 Gap=    -0.017 Goal=   None    Shift=    0.300
 Gap=     0.106 Goal=   None    Shift=    0.300
 RMSDP=4.16D-06 MaxDP=2.84D-04 DE=-4.63D-06 OVMax= 1.87D-03

 Cycle  61  Pass 1  IDiag  1:
 Restarting incremental Fock formation.
 E= -1178.75323916234     Delta-E=       -0.000005206090 Rises=F Damp=F
 DIIS: error= 1.18D-04 at cycle  61 NSaved=  14.
 NSaved=14 IEnMin=14 EnMin= -1178.75323916234     IErMin= 1 ErrMin= 4.07D-05
 ErrMax= 1.18D-04  0.00D+00 EMaxC= 1.00D-01 BMatC= 5.11D-06 BMatP= 5.98D-07
 IDIUse=1 WtCom= 1.00D+00 WtEn= 0.00D+00
 Large coefficients: NSaved= 14 BigCof=   15.71 CofMax=   10.00 Det=-7.01D-11
 Inversion failed.  Reducing to 13 matrices.
 Large coefficients: NSaved= 13 BigCof=   19.61 CofMax=   10.00 Det=-8.56D-11
 Inversion failed.  Reducing to 12 matrices.
 Large coefficients: NSaved= 12 BigCof=   23.56 CofMax=   10.00 Det=-1.08D-10
 Inversion failed.  Reducing to 11 matrices.
 Large coefficients: NSaved= 11 BigCof=   23.06 CofMax=   10.00 Det=-1.08D-10
 Inversion failed.  Reducing to 10 matrices.
 Large coefficients: NSaved= 10 BigCof=   23.05 CofMax=   10.00 Det=-1.08D-10
 Inversion failed.  Reducing to  9 matrices.
 Large coefficients: NSaved=  9 BigCof=   36.55 CofMax=   10.00 Det=-1.59D-10
 Inversion failed.  Reducing to  8 matrices.
 Large coefficients: NSaved=  8 BigCof=   36.24 CofMax=   10.00 Det=-1.60D-10
 Inversion failed.  Reducing to  7 matrices.
 Large coefficients: NSaved=  7 BigCof=   35.38 CofMax=   10.00 Det=-1.39D-10
 Inversion failed.  Reducing to  6 matrices.
 Large coefficients: NSaved=  6 BigCof=   37.31 CofMax=   10.00 Det=-1.44D-10
 Inversion failed.  Reducing to  5 matrices.
 Large coefficients: NSaved=  5 BigCof=   37.67 CofMax=   10.00 Det=-3.08D-10
 Inversion failed.  Reducing to  4 matrices.
 Large coefficients: NSaved=  4 BigCof=   38.03 CofMax=   10.00 Det=-3.53D-10
 Inversion failed.  Reducing to  3 matrices.
 Large coefficients: NSaved=  3 BigCof=   35.72 CofMax=   10.00 Det=-4.23D-10
 Inversion failed.  Reducing to  2 matrices.
 Large coefficients: NSaved=  2 BigCof=   15.38 CofMax=   10.00 Det=-2.01D-08
 Coeff-Com:  0.154D+02-0.144D+02
 Coeff:      0.154D+02-0.144D+02
 Gap=    -0.017 Goal=   None    Shift=    0.300
 Gap=     0.105 Goal=   None    Shift=    0.300
 RMSDP=5.10D-06 MaxDP=3.50D-04 DE=-5.21D-06 OVMax= 2.22D-03

 Cycle  62  Pass 1  IDiag  1:
 RMSU=  5.10D-06    CP:  1.00D+00
 E= -1178.75324554124     Delta-E=       -0.000006378900 Rises=F Damp=F
 DIIS: error= 1.26D-04 at cycle  62 NSaved=   3.
 NSaved= 3 IEnMin= 3 EnMin= -1178.75324554124     IErMin= 1 ErrMin= 1.11D-04
 ErrMax= 1.26D-04  0.00D+00 EMaxC= 1.00D-01 BMatC= 6.64D-06 BMatP= 4.51D-06
 IDIUse=1 WtCom= 1.00D+00 WtEn= 0.00D+00
 Large coefficients: NSaved=  3 BigCof=   17.59 CofMax=   10.00 Det=-1.28D-08
 Inversion failed.  Reducing to  2 matrices.
 Coeff-Com:  0.170D+01-0.702D+00
 Coeff:      0.170D+01-0.702D+00
 Gap=    -0.016 Goal=   None    Shift=    0.300
 Gap=     0.106 Goal=   None    Shift=    0.300
 RMSDP=1.19D-05 MaxDP=8.72D-04 DE=-6.38D-06 OVMax= 5.05D-03

 Cycle  63  Pass 1  IDiag  1:
 RMSU=  4.23D-06    CP:  1.00D+00  3.00D+00
 E= -1178.75326286763     Delta-E=       -0.000017326386 Rises=F Damp=F
 DIIS: error= 1.47D-04 at cycle  63 NSaved=   3.
 NSaved= 3 IEnMin= 3 EnMin= -1178.75326286763     IErMin= 1 ErrMin= 1.18D-04
 ErrMax= 1.47D-04  0.00D+00 EMaxC= 1.00D-01 BMatC= 7.31D-06 BMatP= 5.11D-06
 IDIUse=1 WtCom= 1.00D+00 WtEn= 0.00D+00
 Coeff-Com:  0.171D+01-0.668D+00-0.389D-01
 Coeff:      0.171D+01-0.668D+00-0.389D-01
 Gap=    -0.016 Goal=   None    Shift=    0.300
 Gap=     0.106 Goal=   None    Shift=    0.300
 RMSDP=1.21D-05 MaxDP=8.70D-04 DE=-1.73D-05 OVMax= 5.31D-03

 Cycle  64  Pass 1  IDiag  1:
 RMSU=  1.08D-05    CP:  1.00D+00  3.00D+00  2.27D+00
 E= -1178.75328314044     Delta-E=       -0.000020272815 Rises=F Damp=F
 DIIS: error= 1.67D-04 at cycle  64 NSaved=   4.
 NSaved= 4 IEnMin= 4 EnMin= -1178.75328314044     IErMin= 1 ErrMin= 1.18D-04
 ErrMax= 1.67D-04  0.00D+00 EMaxC= 1.00D-01 BMatC= 9.30D-06 BMatP= 5.11D-06
 IDIUse=1 WtCom= 1.00D+00 WtEn= 0.00D+00
 Coeff-Com:  0.107D+01-0.146D+01 0.737D+01-0.598D+01
 Coeff:      0.107D+01-0.146D+01 0.737D+01-0.598D+01
 Gap=    -0.016 Goal=   None    Shift=    0.300
 Gap=     0.106 Goal=   None    Shift=    0.300
 RMSDP=7.47D-06 MaxDP=4.50D-04 DE=-2.03D-05 OVMax= 3.30D-03

 Cycle  65  Pass 1  IDiag  1:
 RMSU=  2.37D-06    CP:  1.00D+00  3.00D+00  2.71D+00  1.63D+00
 E= -1178.75329609197     Delta-E=       -0.000012951525 Rises=F Damp=F
 DIIS: error= 1.77D-04 at cycle  65 NSaved=   5.
 NSaved= 5 IEnMin= 5 EnMin= -1178.75329609197     IErMin= 1 ErrMin= 1.18D-04
 ErrMax= 1.77D-04  0.00D+00 EMaxC= 1.00D-01 BMatC= 1.25D-05 BMatP= 5.11D-06
 IDIUse=1 WtCom= 1.00D+00 WtEn= 0.00D+00
 Large coefficients: NSaved=  5 BigCof=   10.38 CofMax=   10.00 Det=-2.97D-08
 Inversion failed.  Reducing to  4 matrices.
 Large coefficients: NSaved=  4 BigCof=   11.65 CofMax=   10.00 Det=-3.71D-08
 Inversion failed.  Reducing to  3 matrices.
 Coeff-Com:  0.735D+01-0.677D+01 0.415D+00
 Coeff:      0.735D+01-0.677D+01 0.415D+00
 Gap=    -0.016 Goal=   None    Shift=    0.300
 Gap=     0.106 Goal=   None    Shift=    0.300
 RMSDP=7.64D-06 MaxDP=4.77D-04 DE=-1.30D-05 OVMax= 3.41D-03

 Cycle  66  Pass 1  IDiag  1:
 RMSU=  2.80D-06    CP:  1.00D+00  3.00D+00  3.00D+00  2.22D+00  1.64D+00
 E= -1178.75331084339     Delta-E=       -0.000014751424 Rises=F Damp=F
 DIIS: error= 1.88D-04 at cycle  66 NSaved=   4.
 NSaved= 4 IEnMin= 4 EnMin= -1178.75331084339     IErMin= 1 ErrMin= 1.47D-04
 ErrMax= 1.88D-04  0.00D+00 EMaxC= 1.00D-01 BMatC= 1.44D-05 BMatP= 7.31D-06
 IDIUse=1 WtCom= 1.00D+00 WtEn= 0.00D+00
 Coeff-Com:  0.782D+01-0.710D+01-0.499D+00 0.781D+00
 Coeff:      0.782D+01-0.710D+01-0.499D+00 0.781D+00
 Gap=    -0.016 Goal=   None    Shift=    0.300
 Gap=     0.106 Goal=   None    Shift=    0.300
 RMSDP=7.90D-06 MaxDP=5.17D-04 DE=-1.48D-05 OVMax= 3.57D-03

 Cycle  67  Pass 1  IDiag  1:
 RMSU=  8.96D-07    CP:  1.00D+00  3.00D+00  3.00D+00  2.91D+00  1.78D+00
                    CP:  1.85D+00
 E= -1178.75332749809     Delta-E=       -0.000016654695 Rises=F Damp=F
 DIIS: error= 2.00D-04 at cycle  67 NSaved=   5.
 NSaved= 5 IEnMin= 5 EnMin= -1178.75332749809     IErMin= 1 ErrMin= 1.47D-04
 ErrMax= 2.00D-04  0.00D+00 EMaxC= 1.00D-01 BMatC= 1.65D-05 BMatP= 7.31D-06
 IDIUse=1 WtCom= 1.00D+00 WtEn= 0.00D+00
 Coeff-Com:  0.560D+01-0.518D+01 0.129D+01 0.169D+01-0.240D+01
 Coeff:      0.560D+01-0.518D+01 0.129D+01 0.169D+01-0.240D+01
 Gap=    -0.016 Goal=   None    Shift=    0.300
 Gap=     0.106 Goal=   None    Shift=    0.300
 RMSDP=8.41D-06 MaxDP=5.72D-04 DE=-1.67D-05 OVMax= 3.76D-03

 Cycle  68  Pass 1  IDiag  1:
 RMSU=  6.98D-06    CP:  1.00D+00  3.00D+00  3.00D+00  3.00D+00  2.01D+00
                    CP:  2.78D+00  2.03D+00
 E= -1178.75334634530     Delta-E=       -0.000018847215 Rises=F Damp=F
 DIIS: error= 2.14D-04 at cycle  68 NSaved=   6.
 NSaved= 6 IEnMin= 6 EnMin= -1178.75334634530     IErMin= 1 ErrMin= 1.47D-04
 ErrMax= 2.14D-04  0.00D+00 EMaxC= 1.00D-01 BMatC= 1.93D-05 BMatP= 7.31D-06
 IDIUse=1 WtCom= 1.00D+00 WtEn= 0.00D+00
 Coeff-Com:  0.582D+01-0.544D+01 0.115D+01 0.135D+01-0.135D+01-0.531D+00
 Coeff:      0.582D+01-0.544D+01 0.115D+01 0.135D+01-0.135D+01-0.531D+00
 Gap=    -0.016 Goal=   None    Shift=    0.300
 Gap=     0.106 Goal=   None    Shift=    0.300
 RMSDP=8.69D-06 MaxDP=5.91D-04 DE=-1.88D-05 OVMax= 3.90D-03

 Cycle  69  Pass 1  IDiag  1:
 RMSU=  2.37D-06    CP:  1.00D+00  3.00D+00  3.00D+00  3.00D+00  2.22D+00
                    CP:  3.00D+00  2.99D+00  2.16D+00
 E= -1178.75336708297     Delta-E=       -0.000020737675 Rises=F Damp=F
 DIIS: error= 2.27D-04 at cycle  69 NSaved=   7.
 NSaved= 7 IEnMin= 7 EnMin= -1178.75336708297     IErMin= 1 ErrMin= 1.47D-04
 ErrMax= 2.27D-04  0.00D+00 EMaxC= 1.00D-01 BMatC= 2.25D-05 BMatP= 7.31D-06
 IDIUse=1 WtCom= 1.00D+00 WtEn= 0.00D+00
 Coeff-Com:  0.621D+01-0.580D+01 0.669D+00 0.102D+01-0.278D+01 0.474D+01
 Coeff-Com: -0.306D+01
 Coeff:      0.621D+01-0.580D+01 0.669D+00 0.102D+01-0.278D+01 0.474D+01
 Coeff:     -0.306D+01
 Gap=    -0.016 Goal=   None    Shift=    0.300
 Gap=     0.105 Goal=   None    Shift=    0.300
 RMSDP=8.87D-06 MaxDP=5.98D-04 DE=-2.07D-05 OVMax= 3.99D-03

 Cycle  70  Pass 1  IDiag  1:
 RMSU=  2.54D-06    CP:  1.00D+00  3.00D+00  3.00D+00  3.00D+00  2.35D+00
                    CP:  3.00D+00  3.00D+00  3.00D+00  2.26D+00
 E= -1178.75338974473     Delta-E=       -0.000022661755 Rises=F Damp=F
 DIIS: error= 2.41D-04 at cycle  70 NSaved=   8.
 NSaved= 8 IEnMin= 8 EnMin= -1178.75338974473     IErMin= 1 ErrMin= 1.47D-04
 ErrMax= 2.41D-04  0.00D+00 EMaxC= 1.00D-01 BMatC= 2.54D-05 BMatP= 7.31D-06
 IDIUse=1 WtCom= 1.00D+00 WtEn= 0.00D+00
 Coeff-Com:  0.612D+01-0.564D+01 0.123D+01 0.145D+01-0.170D+01-0.237D+01
 Coeff-Com:  0.393D+01-0.201D+01
 Coeff:      0.612D+01-0.564D+01 0.123D+01 0.145D+01-0.170D+01-0.237D+01
 Coeff:      0.393D+01-0.201D+01
 Gap=    -0.016 Goal=   None    Shift=    0.300
 Gap=     0.105 Goal=   None    Shift=    0.300
 RMSDP=8.93D-06 MaxDP=6.01D-04 DE=-2.27D-05 OVMax= 4.02D-03

 Cycle  71  Pass 1  IDiag  1:
 RMSU=  3.77D-06    CP:  1.00D+00  3.00D+00  3.00D+00  3.00D+00  2.52D+00
                    CP:  3.00D+00  3.00D+00  3.00D+00  3.00D+00  3.00D+00
 E= -1178.75341393704     Delta-E=       -0.000024192307 Rises=F Damp=F
 DIIS: error= 2.54D-04 at cycle  71 NSaved=   9.
 NSaved= 9 IEnMin= 9 EnMin= -1178.75341393704     IErMin= 1 ErrMin= 1.47D-04
 ErrMax= 2.54D-04  0.00D+00 EMaxC= 1.00D-01 BMatC= 2.86D-05 BMatP= 7.31D-06
 IDIUse=1 WtCom= 1.00D+00 WtEn= 0.00D+00
 Coeff-Com:  0.585D+01-0.555D+01 0.133D+01 0.126D+01-0.102D+01-0.165D+01
 Coeff-Com:  0.106D+01 0.808D+00-0.108D+01
 Coeff:      0.585D+01-0.555D+01 0.133D+01 0.126D+01-0.102D+01-0.165D+01
 Coeff:      0.106D+01 0.808D+00-0.108D+01
 Gap=    -0.016 Goal=   None    Shift=    0.300
 Gap=     0.105 Goal=   None    Shift=    0.300
 RMSDP=9.39D-06 MaxDP=6.36D-04 DE=-2.42D-05 OVMax= 4.23D-03

 Cycle  72  Pass 1  IDiag  1:
 RMSU=  3.06D-06    CP:  1.00D+00  3.00D+00  3.00D+00  3.00D+00  2.71D+00
                    CP:  3.00D+00  3.00D+00  3.00D+00  3.00D+00  3.00D+00
                    CP:  3.00D+00
 E= -1178.75344078224     Delta-E=       -0.000026845202 Rises=F Damp=F
 DIIS: error= 2.69D-04 at cycle  72 NSaved=  10.
 NSaved=10 IEnMin=10 EnMin= -1178.75344078224     IErMin= 1 ErrMin= 1.47D-04
 ErrMax= 2.69D-04  0.00D+00 EMaxC= 1.00D-01 BMatC= 3.26D-05 BMatP= 7.31D-06
 IDIUse=1 WtCom= 1.00D+00 WtEn= 0.00D+00
 Coeff-Com:  0.613D+01-0.564D+01 0.110D+01 0.115D+01-0.194D+01-0.174D+01
 Coeff-Com:  0.437D+01-0.401D+01 0.380D+01-0.223D+01
 Coeff:      0.613D+01-0.564D+01 0.110D+01 0.115D+01-0.194D+01-0.174D+01
 Coeff:      0.437D+01-0.401D+01 0.380D+01-0.223D+01
 Gap=    -0.016 Goal=   None    Shift=    0.300
 Gap=     0.105 Goal=   None    Shift=    0.300
 RMSDP=9.82D-06 MaxDP=6.65D-04 DE=-2.68D-05 OVMax= 4.41D-03

 Cycle  73  Pass 1  IDiag  1:
 RMSU=  7.05D-06    CP:  1.00D+00  3.00D+00  3.00D+00  3.00D+00  2.87D+00
                    CP:  3.00D+00  3.00D+00  3.00D+00  3.00D+00  3.00D+00
                    CP:  3.00D+00  3.00D+00
 E= -1178.75347048959     Delta-E=       -0.000029707347 Rises=F Damp=F
 DIIS: error= 2.84D-04 at cycle  73 NSaved=  11.
 NSaved=11 IEnMin=11 EnMin= -1178.75347048959     IErMin= 1 ErrMin= 1.47D-04
 ErrMax= 2.84D-04  0.00D+00 EMaxC= 1.00D-01 BMatC= 3.70D-05 BMatP= 7.31D-06
 IDIUse=1 WtCom= 1.00D+00 WtEn= 0.00D+00
 Coeff-Com:  0.595D+01-0.560D+01 0.131D+01 0.129D+01-0.136D+01-0.223D+01
 Coeff-Com:  0.315D+01-0.143D+01-0.101D+01 0.260D+01-0.167D+01
 Coeff:      0.595D+01-0.560D+01 0.131D+01 0.129D+01-0.136D+01-0.223D+01
 Coeff:      0.315D+01-0.143D+01-0.101D+01 0.260D+01-0.167D+01
 Gap=    -0.016 Goal=   None    Shift=    0.300
 Gap=     0.105 Goal=   None    Shift=    0.300
 RMSDP=1.03D-05 MaxDP=6.99D-04 DE=-2.97D-05 OVMax= 4.63D-03

 Cycle  74  Pass 1  IDiag  1:
 RMSU=  6.45D-06    CP:  1.00D+00  3.00D+00  3.00D+00  3.00D+00  3.00D+00
                    CP:  3.00D+00  3.00D+00  3.00D+00  3.00D+00  3.00D+00
                    CP:  3.00D+00  3.00D+00  2.14D+00
 E= -1178.75350346175     Delta-E=       -0.000032972167 Rises=F Damp=F
 DIIS: error= 3.00D-04 at cycle  74 NSaved=  12.
 NSaved=12 IEnMin=12 EnMin= -1178.75350346175     IErMin= 1 ErrMin= 1.47D-04
 ErrMax= 3.00D-04  0.00D+00 EMaxC= 1.00D-01 BMatC= 4.19D-05 BMatP= 7.31D-06
 IDIUse=1 WtCom= 1.00D+00 WtEn= 0.00D+00
 Coeff-Com:  0.595D+01-0.560D+01 0.119D+01 0.101D+01-0.133D+01-0.169D+01
 Coeff-Com:  0.288D+01-0.193D+01 0.171D+01-0.149D+01 0.137D+01-0.108D+01
 Coeff:      0.595D+01-0.560D+01 0.119D+01 0.101D+01-0.133D+01-0.169D+01
 Coeff:      0.288D+01-0.193D+01 0.171D+01-0.149D+01 0.137D+01-0.108D+01
 Gap=    -0.016 Goal=   None    Shift=    0.300
 Gap=     0.105 Goal=   None    Shift=    0.300
 RMSDP=1.08D-05 MaxDP=7.36D-04 DE=-3.30D-05 OVMax= 4.88D-03

 Cycle  75  Pass 1  IDiag  1:
 RMSU=  2.39D-06    CP:  1.00D+00  3.00D+00  3.00D+00  3.00D+00  3.00D+00
                    CP:  3.00D+00  3.00D+00  3.00D+00  3.00D+00  3.00D+00
                    CP:  3.00D+00  3.00D+00  3.00D+00  2.05D+00
 E= -1178.75354007967     Delta-E=       -0.000036617919 Rises=F Damp=F
 DIIS: error= 3.16D-04 at cycle  75 NSaved=  13.
 NSaved=13 IEnMin=13 EnMin= -1178.75354007967     IErMin= 1 ErrMin= 1.47D-04
 ErrMax= 3.16D-04  0.00D+00 EMaxC= 1.00D-01 BMatC= 4.76D-05 BMatP= 7.31D-06
 IDIUse=1 WtCom= 1.00D+00 WtEn= 0.00D+00
 Coeff-Com:  0.593D+01-0.556D+01 0.122D+01 0.101D+01-0.149D+01-0.171D+01
 Coeff-Com:  0.329D+01-0.263D+01 0.162D+01-0.538D-01-0.140D+01 0.247D+01
 Coeff-Com: -0.169D+01
 Coeff:      0.593D+01-0.556D+01 0.122D+01 0.101D+01-0.149D+01-0.171D+01
 Coeff:      0.329D+01-0.263D+01 0.162D+01-0.538D-01-0.140D+01 0.247D+01
 Coeff:     -0.169D+01
 Gap=    -0.016 Goal=   None    Shift=    0.300
 Gap=     0.105 Goal=   None    Shift=    0.300
 RMSDP=1.14D-05 MaxDP=7.77D-04 DE=-3.66D-05 OVMax= 5.14D-03

 Cycle  76  Pass 1  IDiag  1:
 RMSU=  4.29D-06    CP:  1.00D+00  3.00D+00  3.00D+00  3.00D+00  3.00D+00
                    CP:  3.00D+00  3.00D+00  3.00D+00  3.00D+00  3.00D+00
                    CP:  3.00D+00  3.00D+00  3.00D+00  3.00D+00  3.00D+00
 E= -1178.75358079193     Delta-E=       -0.000040712258 Rises=F Damp=F
 DIIS: error= 3.33D-04 at cycle  76 NSaved=  14.
 NSaved=14 IEnMin=14 EnMin= -1178.75358079193     IErMin= 1 ErrMin= 1.47D-04
 ErrMax= 3.33D-04  0.00D+00 EMaxC= 1.00D-01 BMatC= 5.42D-05 BMatP= 7.31D-06
 IDIUse=1 WtCom= 1.00D+00 WtEn= 0.00D+00
 Coeff-Com:  0.582D+01-0.552D+01 0.132D+01 0.103D+01-0.132D+01-0.182D+01
 Coeff-Com:  0.281D+01-0.166D+01 0.368D+00 0.736D+00-0.900D+00 0.341D+00
 Coeff-Com:  0.717D+00-0.923D+00
 Coeff:      0.582D+01-0.552D+01 0.132D+01 0.103D+01-0.132D+01-0.182D+01
 Coeff:      0.281D+01-0.166D+01 0.368D+00 0.736D+00-0.900D+00 0.341D+00
 Coeff:      0.717D+00-0.923D+00
 Gap=    -0.016 Goal=   None    Shift=    0.300
 Gap=     0.105 Goal=   None    Shift=    0.300
 RMSDP=1.21D-05 MaxDP=8.21D-04 DE=-4.07D-05 OVMax= 5.43D-03

 Cycle  77  Pass 1  IDiag  1:
 RMSU=  5.65D-06    CP:  1.00D+00  3.00D+00  3.00D+00  3.00D+00  3.00D+00
                    CP:  3.00D+00  3.00D+00  3.00D+00  3.00D+00  3.00D+00
                    CP:  3.00D+00  3.00D+00  3.00D+00  3.00D+00  3.00D+00
                    CP:  3.00D+00
 E= -1178.75362619250     Delta-E=       -0.000045400573 Rises=F Damp=F
 DIIS: error= 3.51D-04 at cycle  77 NSaved=  15.
 NSaved=15 IEnMin=15 EnMin= -1178.75362619250     IErMin= 1 ErrMin= 1.47D-04
 ErrMax= 3.51D-04  0.00D+00 EMaxC= 1.00D-01 BMatC= 6.17D-05 BMatP= 7.31D-06
 IDIUse=1 WtCom= 1.00D+00 WtEn= 0.00D+00
 Coeff-Com:  0.581D+01-0.551D+01 0.131D+01 0.986D+00-0.133D+01-0.176D+01
 Coeff-Com:  0.284D+01-0.181D+01 0.787D+00 0.165D+00-0.506D+00 0.377D+00
 Coeff-Com: -0.147D-01 0.260D+00-0.594D+00
 Coeff:      0.581D+01-0.551D+01 0.131D+01 0.986D+00-0.133D+01-0.176D+01
 Coeff:      0.284D+01-0.181D+01 0.787D+00 0.165D+00-0.506D+00 0.377D+00
 Coeff:     -0.147D-01 0.260D+00-0.594D+00
 Gap=    -0.016 Goal=   None    Shift=    0.300
 Gap=     0.105 Goal=   None    Shift=    0.300
 RMSDP=1.28D-05 MaxDP=8.66D-04 DE=-4.54D-05 OVMax= 5.73D-03

 Cycle  78  Pass 1  IDiag  1:
 RMSU=  8.20D-06    CP:  1.00D+00  3.00D+00  3.00D+00  3.00D+00  3.00D+00
                    CP:  3.00D+00  3.00D+00  3.00D+00  3.00D+00  3.00D+00
                    CP:  3.00D+00  3.00D+00  3.00D+00  3.00D+00  3.00D+00
                    CP:  3.00D+00  2.73D+00
 E= -1178.75367671410     Delta-E=       -0.000050521598 Rises=F Damp=F
 DIIS: error= 3.70D-04 at cycle  78 NSaved=  16.
 NSaved=16 IEnMin=16 EnMin= -1178.75367671410     IErMin= 1 ErrMin= 1.47D-04
 ErrMax= 3.70D-04  0.00D+00 EMaxC= 1.00D-01 BMatC= 7.04D-05 BMatP= 7.31D-06
 IDIUse=1 WtCom= 1.00D+00 WtEn= 0.00D+00
 Coeff-Com:  0.586D+01-0.549D+01 0.117D+01 0.961D+00-0.121D+01-0.185D+01
 Coeff-Com:  0.295D+01-0.202D+01 0.182D+01-0.141D+01 0.782D+00 0.641D-01
 Coeff-Com: -0.159D+01 0.455D+01-0.606D+01 0.247D+01
 Coeff:      0.586D+01-0.549D+01 0.117D+01 0.961D+00-0.121D+01-0.185D+01
 Coeff:      0.295D+01-0.202D+01 0.182D+01-0.141D+01 0.782D+00 0.641D-01
 Coeff:     -0.159D+01 0.455D+01-0.606D+01 0.247D+01
 Gap=    -0.016 Goal=   None    Shift=    0.300
 Gap=     0.105 Goal=   None    Shift=    0.300
 RMSDP=1.35D-05 MaxDP=9.12D-04 DE=-5.05D-05 OVMax= 6.06D-03

 Cycle  79  Pass 1  IDiag  1:
 RMSU=  8.86D-06    CP:  1.00D+00  3.00D+00  3.00D+00  3.00D+00  3.00D+00
                    CP:  3.00D+00  3.00D+00  3.00D+00  3.00D+00  3.00D+00
                    CP:  3.00D+00  3.00D+00  3.00D+00  3.00D+00  3.00D+00
                    CP:  3.00D+00  3.00D+00  2.05D+00
 E= -1178.75373335045     Delta-E=       -0.000056636352 Rises=F Damp=F
 DIIS: error= 3.90D-04 at cycle  79 NSaved=  17.
 NSaved=17 IEnMin=17 EnMin= -1178.75373335045     IErMin= 1 ErrMin= 1.47D-04
 ErrMax= 3.90D-04  0.00D+00 EMaxC= 1.00D-01 BMatC= 7.95D-05 BMatP= 7.31D-06
 IDIUse=1 WtCom= 1.00D+00 WtEn= 0.00D+00
 Coeff-Com:  0.591D+01-0.553D+01 0.120D+01 0.974D+00-0.120D+01-0.187D+01
 Coeff-Com:  0.292D+01-0.198D+01 0.202D+01-0.174D+01 0.109D+01-0.198D+00
 Coeff-Com: -0.151D+01 0.530D+01-0.709D+01 0.179D+01 0.930D+00
 Coeff:      0.591D+01-0.553D+01 0.120D+01 0.974D+00-0.120D+01-0.187D+01
 Coeff:      0.292D+01-0.198D+01 0.202D+01-0.174D+01 0.109D+01-0.198D+00
 Coeff:     -0.151D+01 0.530D+01-0.709D+01 0.179D+01 0.930D+00
 Gap=    -0.016 Goal=   None    Shift=    0.300
 Gap=     0.105 Goal=   None    Shift=    0.300
 RMSDP=1.43D-05 MaxDP=9.65D-04 DE=-5.66D-05 OVMax= 6.43D-03

 Cycle  80  Pass 1  IDiag  1:
 RMSU=  1.29D-06    CP:  1.00D+00  3.00D+00  3.00D+00  3.00D+00  3.00D+00
                    CP:  3.00D+00  3.00D+00  3.00D+00  3.00D+00  3.00D+00
                    CP:  3.00D+00  3.00D+00  3.00D+00  3.00D+00  3.00D+00
                    CP:  3.00D+00  3.00D+00  3.00D+00  2.25D+00
 E= -1178.75379675174     Delta-E=       -0.000063401291 Rises=F Damp=F
 DIIS: error= 4.11D-04 at cycle  80 NSaved=  18.
 NSaved=18 IEnMin=18 EnMin= -1178.75379675174     IErMin= 1 ErrMin= 1.47D-04
 ErrMax= 4.11D-04  0.00D+00 EMaxC= 1.00D-01 BMatC= 8.96D-05 BMatP= 7.31D-06
 IDIUse=1 WtCom= 1.00D+00 WtEn= 0.00D+00
 Large coefficients: NSaved= 18 BigCof=   10.35 CofMax=   10.00 Det=-1.62D-10
 Inversion failed.  Reducing to 17 matrices.
 Large coefficients: NSaved= 17 BigCof=   31.63 CofMax=   10.00 Det=-1.64D-10
 Inversion failed.  Reducing to 16 matrices.
 Large coefficients: NSaved= 16 BigCof=   36.19 CofMax=   10.00 Det=-1.92D-10
 Inversion failed.  Reducing to 15 matrices.
 Large coefficients: NSaved= 15 BigCof=   44.93 CofMax=   10.00 Det=-2.01D-10
 Inversion failed.  Reducing to 14 matrices.
 Large coefficients: NSaved= 14 BigCof=   45.50 CofMax=   10.00 Det=-2.26D-10
 Inversion failed.  Reducing to 13 matrices.
 Large coefficients: NSaved= 13 BigCof=   45.82 CofMax=   10.00 Det=-2.34D-10
 Inversion failed.  Reducing to 12 matrices.
 Large coefficients: NSaved= 12 BigCof=   44.57 CofMax=   10.00 Det=-1.73D-10
 Inversion failed.  Reducing to 11 matrices.
 Large coefficients: NSaved= 11 BigCof=   42.74 CofMax=   10.00 Det=-2.50D-10
 Inversion failed.  Reducing to 10 matrices.
 Large coefficients: NSaved= 10 BigCof=   43.71 CofMax=   10.00 Det=-2.55D-10
 Inversion failed.  Reducing to  9 matrices.
 Large coefficients: NSaved=  9 BigCof=   43.72 CofMax=   10.00 Det=-3.16D-10
 Inversion failed.  Reducing to  8 matrices.
 Large coefficients: NSaved=  8 BigCof=   45.86 CofMax=   10.00 Det=-2.57D-10
 Inversion failed.  Reducing to  7 matrices.
 Large coefficients: NSaved=  7 BigCof=   45.15 CofMax=   10.00 Det=-2.62D-10
 Inversion failed.  Reducing to  6 matrices.
 Large coefficients: NSaved=  6 BigCof=   46.24 CofMax=   10.00 Det=-4.04D-10
 Inversion failed.  Reducing to  5 matrices.
 Large coefficients: NSaved=  5 BigCof=   46.84 CofMax=   10.00 Det=-4.05D-10
 Inversion failed.  Reducing to  4 matrices.
 Large coefficients: NSaved=  4 BigCof=   38.64 CofMax=   10.00 Det=-7.54D-10
 Inversion failed.  Reducing to  3 matrices.
 Large coefficients: NSaved=  3 BigCof=   22.46 CofMax=   10.00 Det=-8.16D-10
 Inversion failed.  Reducing to  2 matrices.
 Large coefficients: NSaved=  2 BigCof=   16.46 CofMax=   10.00 Det=-3.17D-07
 Coeff-Com:  0.165D+02-0.155D+02
 Coeff:      0.165D+02-0.155D+02
 Gap=    -0.016 Goal=   None    Shift=    0.300
 Gap=     0.104 Goal=   None    Shift=    0.300
 RMSDP=1.99D-05 MaxDP=1.32D-03 DE=-6.34D-05 OVMax= 8.15D-03

 Cycle  81  Pass 1  IDiag  1:
 Restarting incremental Fock formation.
 E= -1178.75386782802     Delta-E=       -0.000071076275 Rises=F Damp=F
 DIIS: error= 4.29D-04 at cycle  81 NSaved=   3.
 NSaved= 3 IEnMin= 3 EnMin= -1178.75386782802     IErMin= 1 ErrMin= 3.90D-04
 ErrMax= 4.29D-04  0.00D+00 EMaxC= 1.00D-01 BMatC= 1.45D-04 BMatP= 7.95D-05
 IDIUse=1 WtCom= 1.00D+00 WtEn= 0.00D+00
 Large coefficients: NSaved=  3 BigCof=   19.76 CofMax=   10.00 Det=-1.20D-07
 Inversion failed.  Reducing to  2 matrices.
 Coeff-Com:  0.248D+01-0.148D+01
 Coeff:      0.248D+01-0.148D+01
 Gap=    -0.015 Goal=   None    Shift=    0.300
 Gap=     0.108 Goal=   None    Shift=    0.300
 RMSDP=4.30D-05 MaxDP=2.82D-03 DE=-7.11D-05 OVMax= 1.74D-02

 Cycle  82  Pass 1  IDiag  1:
 RMSU=  4.30D-05    CP:  1.00D+00
 E= -1178.75409345431     Delta-E=       -0.000225626295 Rises=F Damp=F
 DIIS: error= 5.03D-04 at cycle  82 NSaved=   3.
 NSaved= 3 IEnMin= 3 EnMin= -1178.75409345431     IErMin= 1 ErrMin= 4.11D-04
 ErrMax= 5.03D-04  0.00D+00 EMaxC= 1.00D-01 BMatC= 1.17D-04 BMatP= 8.96D-05
 IDIUse=1 WtCom= 1.00D+00 WtEn= 0.00D+00
 Coeff-Com:  0.240D+01-0.152D+01 0.126D+00
 Coeff:      0.240D+01-0.152D+01 0.126D+00
 Gap=    -0.015 Goal=   None    Shift=    0.300
 Gap=     0.108 Goal=   None    Shift=    0.300
 RMSDP=4.23D-05 MaxDP=2.85D-03 DE=-2.26D-04 OVMax= 1.86D-02

 Cycle  83  Pass 1  IDiag  1:
 RMSU=  1.11D-05    CP:  1.00D+00  1.95D+00
 E= -1178.75434290785     Delta-E=       -0.000249453536 Rises=F Damp=F
 DIIS: error= 5.65D-04 at cycle  83 NSaved=   4.
 NSaved= 4 IEnMin= 4 EnMin= -1178.75434290785     IErMin= 1 ErrMin= 4.11D-04
 ErrMax= 5.65D-04  0.00D+00 EMaxC= 1.00D-01 BMatC= 1.42D-04 BMatP= 8.96D-05
 IDIUse=1 WtCom= 1.00D+00 WtEn= 0.00D+00
 Coeff-Com:  0.109D+01-0.783D+00 0.672D+01-0.603D+01
 Coeff:      0.109D+01-0.783D+00 0.672D+01-0.603D+01
 Gap=    -0.015 Goal=   None    Shift=    0.300
 Gap=     0.104 Goal=   None    Shift=    0.300
 RMSDP=2.90D-05 MaxDP=2.11D-03 DE=-2.49D-04 OVMax= 1.06D-02

 Cycle  84  Pass 1  IDiag  1:
 RMSU=  8.82D-06    CP:  1.00D+00  2.29D+00  3.00D+00
 E= -1178.75444917623     Delta-E=       -0.000106268380 Rises=F Damp=F
 DIIS: error= 5.62D-04 at cycle  84 NSaved=   5.
 NSaved= 5 IEnMin= 5 EnMin= -1178.75444917623     IErMin= 1 ErrMin= 4.11D-04
 ErrMax= 5.62D-04  0.00D+00 EMaxC= 1.00D-01 BMatC= 2.82D-04 BMatP= 8.96D-05
 IDIUse=1 WtCom= 1.00D+00 WtEn= 0.00D+00
 Coeff-Com:  0.156D+01-0.203D+01 0.920D+01-0.852D+01 0.795D+00
 Coeff:      0.156D+01-0.203D+01 0.920D+01-0.852D+01 0.795D+00
 Gap=    -0.015 Goal=   None    Shift=    0.300
 Gap=     0.103 Goal=   None    Shift=    0.300
 RMSDP=2.31D-05 MaxDP=1.71D-03 DE=-1.06D-04 OVMax= 9.78D-03

 Cycle  85  Pass 1  IDiag  1:
 RMSU=  1.55D-05    CP:  1.00D+00  2.67D+00  3.00D+00  1.67D+00
 E= -1178.75455348879     Delta-E=       -0.000104312557 Rises=F Damp=F
 DIIS: error= 5.77D-04 at cycle  85 NSaved=   6.
 NSaved= 6 IEnMin= 6 EnMin= -1178.75455348879     IErMin= 1 ErrMin= 4.11D-04
 ErrMax= 5.77D-04  0.00D+00 EMaxC= 1.00D-01 BMatC= 3.87D-04 BMatP= 8.96D-05
 IDIUse=1 WtCom= 1.00D+00 WtEn= 0.00D+00
 Coeff-Com:  0.832D-02 0.875D+00 0.650D+01-0.644D+01 0.178D+01-0.172D+01
 Coeff:      0.832D-02 0.875D+00 0.650D+01-0.644D+01 0.178D+01-0.172D+01
 Gap=    -0.015 Goal=   None    Shift=    0.300
 Gap=     0.102 Goal=   None    Shift=    0.300
 RMSDP=2.28D-05 MaxDP=1.79D-03 DE=-1.04D-04 OVMax= 9.75D-03

 Cycle  86  Pass 1  IDiag  1:
 RMSU=  4.04D-06    CP:  1.00D+00  3.00D+00  3.00D+00  2.19D+00  1.92D+00
 E= -1178.75466017951     Delta-E=       -0.000106690719 Rises=F Damp=F
 DIIS: error= 5.90D-04 at cycle  86 NSaved=   7.
 NSaved= 7 IEnMin= 7 EnMin= -1178.75466017951     IErMin= 1 ErrMin= 4.11D-04
 ErrMax= 5.90D-04  0.00D+00 EMaxC= 1.00D-01 BMatC= 5.12D-04 BMatP= 8.96D-05
 IDIUse=1 WtCom= 1.00D+00 WtEn= 0.00D+00
 Coeff-Com:  0.476D-01 0.827D+00 0.651D+01-0.645D+01 0.191D+01-0.200D+01
 Coeff-Com:  0.162D+00
 Coeff:      0.476D-01 0.827D+00 0.651D+01-0.645D+01 0.191D+01-0.200D+01
 Coeff:      0.162D+00
 Gap=    -0.015 Goal=   None    Shift=    0.300
 Gap=     0.102 Goal=   None    Shift=    0.300
 RMSDP=2.29D-05 MaxDP=1.67D-03 DE=-1.07D-04 OVMax= 1.03D-02

 Cycle  87  Pass 1  IDiag  1:
 RMSU=  1.57D-05    CP:  1.00D+00  3.00D+00  3.00D+00  2.54D+00  2.61D+00
                    CP:  3.00D+00
 E= -1178.75479553723     Delta-E=       -0.000135357728 Rises=F Damp=F
 DIIS: error= 6.14D-04 at cycle  87 NSaved=   8.
 NSaved= 8 IEnMin= 8 EnMin= -1178.75479553723     IErMin= 1 ErrMin= 4.11D-04
 ErrMax= 6.14D-04  0.00D+00 EMaxC= 1.00D-01 BMatC= 6.07D-04 BMatP= 8.96D-05
 IDIUse=1 WtCom= 1.00D+00 WtEn= 0.00D+00
 Coeff-Com: -0.228D+00 0.911D+00 0.634D+01-0.620D+01 0.911D+00-0.220D+01
 Coeff-Com:  0.610D+01-0.463D+01
 Coeff:     -0.228D+00 0.911D+00 0.634D+01-0.620D+01 0.911D+00-0.220D+01
 Coeff:      0.610D+01-0.463D+01
 Gap=    -0.015 Goal=   None    Shift=    0.300
 Gap=     0.101 Goal=   None    Shift=    0.300
 RMSDP=2.32D-05 MaxDP=1.88D-03 DE=-1.35D-04 OVMax= 1.00D-02

 Cycle  88  Pass 1  IDiag  1:
 RMSU=  1.11D-05    CP:  1.00D+00  3.00D+00  3.00D+00  2.97D+00  3.00D+00
                    CP:  3.00D+00  2.05D+00
 E= -1178.75490612880     Delta-E=       -0.000110591562 Rises=F Damp=F
 DIIS: error= 7.10D-04 at cycle  88 NSaved=   9.
 NSaved= 9 IEnMin= 9 EnMin= -1178.75490612880     IErMin= 1 ErrMin= 4.11D-04
 ErrMax= 7.10D-04  0.00D+00 EMaxC= 1.00D-01 BMatC= 7.77D-04 BMatP= 8.96D-05
 IDIUse=1 WtCom= 1.00D+00 WtEn= 0.00D+00
 Coeff-Com: -0.790D-01 0.513D+00 0.658D+01-0.626D+01 0.857D+00-0.266D+01
 Coeff-Com:  0.844D+01-0.702D+01 0.631D+00
 Coeff:     -0.790D-01 0.513D+00 0.658D+01-0.626D+01 0.857D+00-0.266D+01
 Coeff:      0.844D+01-0.702D+01 0.631D+00
 Gap=    -0.015 Goal=   None    Shift=    0.300
 Gap=     0.101 Goal=   None    Shift=    0.300
 RMSDP=2.35D-05 MaxDP=1.84D-03 DE=-1.11D-04 OVMax= 1.05D-02

 Cycle  89  Pass 1  IDiag  1:
 RMSU=  5.63D-06    CP:  1.00D+00  3.00D+00  3.00D+00  3.00D+00  3.00D+00
                    CP:  3.00D+00  3.00D+00  2.21D+00
 E= -1178.75504364660     Delta-E=       -0.000137517801 Rises=F Damp=F
 DIIS: error= 7.60D-04 at cycle  89 NSaved=  10.
 NSaved=10 IEnMin=10 EnMin= -1178.75504364660     IErMin= 1 ErrMin= 4.11D-04
 ErrMax= 7.60D-04  0.00D+00 EMaxC= 1.00D-01 BMatC= 9.15D-04 BMatP= 8.96D-05
 IDIUse=1 WtCom= 1.00D+00 WtEn= 0.00D+00
 Coeff-Com: -0.172D+00 0.710D+00 0.652D+01-0.630D+01 0.763D+00-0.228D+01
 Coeff-Com:  0.679D+01-0.558D+01 0.164D+01-0.109D+01
 Coeff:     -0.172D+00 0.710D+00 0.652D+01-0.630D+01 0.763D+00-0.228D+01
 Coeff:      0.679D+01-0.558D+01 0.164D+01-0.109D+01
 Gap=    -0.015 Goal=   None    Shift=    0.300
 Gap=     0.101 Goal=   None    Shift=    0.300
 RMSDP=2.43D-05 MaxDP=1.90D-03 DE=-1.38D-04 OVMax= 1.09D-02

 Cycle  90  Pass 1  IDiag  1:
 RMSU=  1.37D-05    CP:  1.00D+00  3.00D+00  3.00D+00  3.00D+00  3.00D+00
                    CP:  3.00D+00  3.00D+00  3.00D+00  3.00D+00
 E= -1178.75519835598     Delta-E=       -0.000154709380 Rises=F Damp=F
 DIIS: error= 8.13D-04 at cycle  90 NSaved=  11.
 NSaved=11 IEnMin=11 EnMin= -1178.75519835598     IErMin= 1 ErrMin= 4.11D-04
 ErrMax= 8.13D-04  0.00D+00 EMaxC= 1.00D-01 BMatC= 1.05D-03 BMatP= 8.96D-05
 IDIUse=1 WtCom= 1.00D+00 WtEn= 0.00D+00
 Coeff-Com: -0.205D+00 0.757D+00 0.651D+01-0.628D+01 0.678D+00-0.225D+01
 Coeff-Com:  0.681D+01-0.555D+01 0.249D+01-0.280D+01 0.849D+00
 Coeff:     -0.205D+00 0.757D+00 0.651D+01-0.628D+01 0.678D+00-0.225D+01
 Coeff:      0.681D+01-0.555D+01 0.249D+01-0.280D+01 0.849D+00
 Gap=    -0.015 Goal=   None    Shift=    0.300
 Gap=     0.101 Goal=   None    Shift=    0.300
 RMSDP=2.56D-05 MaxDP=2.00D-03 DE=-1.55D-04 OVMax= 1.15D-02

 Cycle  91  Pass 1  IDiag  1:
 RMSU=  1.20D-05    CP:  1.00D+00  3.00D+00  3.00D+00  3.00D+00  3.00D+00
                    CP:  3.00D+00  3.00D+00  3.00D+00  3.00D+00  2.65D+00
 E= -1178.75537636794     Delta-E=       -0.000178011967 Rises=F Damp=F
 DIIS: error= 8.60D-04 at cycle  91 NSaved=  12.
 NSaved=12 IEnMin=12 EnMin= -1178.75537636794     IErMin= 1 ErrMin= 4.11D-04
 ErrMax= 8.60D-04  0.00D+00 EMaxC= 1.00D-01 BMatC= 1.18D-03 BMatP= 8.96D-05
 IDIUse=1 WtCom= 1.00D+00 WtEn= 0.00D+00
 Coeff-Com: -0.233D+00 0.822D+00 0.648D+01-0.624D+01 0.610D+00-0.226D+01
 Coeff-Com:  0.727D+01-0.591D+01 0.263D+01-0.274D+01-0.621D+00 0.119D+01
 Coeff:     -0.233D+00 0.822D+00 0.648D+01-0.624D+01 0.610D+00-0.226D+01
 Coeff:      0.727D+01-0.591D+01 0.263D+01-0.274D+01-0.621D+00 0.119D+01
 Gap=    -0.015 Goal=   None    Shift=    0.300
 Gap=     0.101 Goal=   None    Shift=    0.300
 RMSDP=2.73D-05 MaxDP=2.13D-03 DE=-1.78D-04 OVMax= 1.23D-02

 Cycle  92  Pass 1  IDiag  1:
 RMSU=  1.98D-05    CP:  1.00D+00  3.00D+00  3.00D+00  3.00D+00  3.00D+00
                    CP:  3.00D+00  3.00D+00  3.00D+00  3.00D+00  3.00D+00
                    CP:  1.99D+00
 E= -1178.75558333039     Delta-E=       -0.000206962448 Rises=F Damp=F
 DIIS: error= 9.01D-04 at cycle  92 NSaved=  13.
 NSaved=13 IEnMin=13 EnMin= -1178.75558333039     IErMin= 1 ErrMin= 4.11D-04
 ErrMax= 9.01D-04  0.00D+00 EMaxC= 1.00D-01 BMatC= 1.30D-03 BMatP= 8.96D-05
 IDIUse=1 WtCom= 1.00D+00 WtEn= 0.00D+00
 Large coefficients: NSaved= 13 BigCof=   11.51 CofMax=   10.00 Det=-1.65D-09
 Inversion failed.  Reducing to 12 matrices.
 Large coefficients: NSaved= 12 BigCof=   11.45 CofMax=   10.00 Det=-1.65D-09
 Inversion failed.  Reducing to 11 matrices.
 Large coefficients: NSaved= 11 BigCof=   10.60 CofMax=   10.00 Det=-1.80D-09
 Inversion failed.  Reducing to 10 matrices.
 Large coefficients: NSaved= 10 BigCof=   33.76 CofMax=   10.00 Det=-1.99D-09
 Inversion failed.  Reducing to  9 matrices.
 Large coefficients: NSaved=  9 BigCof=   21.75 CofMax=   10.00 Det=-2.38D-09
 Inversion failed.  Reducing to  8 matrices.
 Large coefficients: NSaved=  8 BigCof=   23.15 CofMax=   10.00 Det=-2.47D-09
 Inversion failed.  Reducing to  7 matrices.
 Large coefficients: NSaved=  7 BigCof=   29.11 CofMax=   10.00 Det=-2.63D-09
 Inversion failed.  Reducing to  6 matrices.
 Large coefficients: NSaved=  6 BigCof=   27.88 CofMax=   10.00 Det=-2.82D-09
 Inversion failed.  Reducing to  5 matrices.
 Large coefficients: NSaved=  5 BigCof=   33.22 CofMax=   10.00 Det=-3.49D-09
 Inversion failed.  Reducing to  4 matrices.
 Large coefficients: NSaved=  4 BigCof=   36.73 CofMax=   10.00 Det=-3.54D-09
 Inversion failed.  Reducing to  3 matrices.
 Large coefficients: NSaved=  3 BigCof=   48.44 CofMax=   10.00 Det=-3.86D-09
 Inversion failed.  Reducing to  2 matrices.
 Large coefficients: NSaved=  2 BigCof=   19.99 CofMax=   10.00 Det=-3.09D-06
 Coeff-Com:  0.200D+02-0.190D+02
 Coeff:      0.200D+02-0.190D+02
 Gap=    -0.014 Goal=   None    Shift=    0.300
 Gap=     0.097 Goal=   None    Shift=    0.300
 RMSDP=4.40D-05 MaxDP=4.19D-03 DE=-2.07D-04 OVMax= 1.73D-02

 Cycle  93  Pass 1  IDiag  1:
 RMSU=  2.43D-05    CP:  1.00D+00  3.00D+00  3.00D+00  3.00D+00  3.00D+00
                    CP:  3.00D+00  3.00D+00  3.00D+00  3.00D+00  3.00D+00
                    CP:  3.00D+00  2.46D+00
 E= -1178.75568836163     Delta-E=       -0.000105031235 Rises=F Damp=F
 DIIS: error= 1.11D-03 at cycle  93 NSaved=   3.
 NSaved= 3 IEnMin= 3 EnMin= -1178.75568836163     IErMin= 1 ErrMin= 8.60D-04
 ErrMax= 1.11D-03  0.00D+00 EMaxC= 1.00D-01 BMatC= 2.01D-03 BMatP= 1.18D-03
 IDIUse=1 WtCom= 1.00D+00 WtEn= 0.00D+00
 Large coefficients: NSaved=  3 BigCof=   24.34 CofMax=   10.00 Det=-5.79D-07
 Inversion failed.  Reducing to  2 matrices.
 Coeff-Com:  0.368D+01-0.268D+01
 Coeff:      0.368D+01-0.268D+01
 Gap=    -0.007 Goal=   None    Shift=    0.300
 Gap=     0.114 Goal=   None    Shift=    0.300
 RMSDP=1.05D-04 MaxDP=5.23D-03 DE=-1.05D-04 OVMax= 3.09D-02

 Cycle  94  Pass 1  IDiag  1:
 RMSU=  8.48D-05    CP:  1.00D+00  3.00D+00  3.00D+00  3.54D-01  3.00D+00
                    CP:  3.00D+00  3.00D+00  3.00D+00  3.00D+00  3.00D+00
                    CP:  3.00D+00  3.00D+00 -3.59D-01
 E= -1178.75679434701     Delta-E=       -0.001105985379 Rises=F Damp=F
 DIIS: error= 8.10D-04 at cycle  94 NSaved=   3.
 NSaved= 3 IEnMin= 3 EnMin= -1178.75679434701     IErMin= 3 ErrMin= 8.10D-04
 ErrMax= 8.10D-04  0.00D+00 EMaxC= 1.00D-01 BMatC= 1.00D-03 BMatP= 1.30D-03
 IDIUse=1 WtCom= 1.00D+00 WtEn= 0.00D+00
 Coeff-Com:  0.289D+01-0.253D+01 0.640D+00
 Coeff:      0.289D+01-0.253D+01 0.640D+00
 Gap=    -0.006 Goal=   None    Shift=    0.300
 Gap=     0.116 Goal=   None    Shift=    0.300
 RMSDP=8.60D-05 MaxDP=6.00D-03 DE=-1.11D-03 OVMax= 3.48D-02

 Cycle  95  Pass 1  IDiag  1:
 RMSU=  4.42D-05    CP:  1.00D+00  3.00D+00  3.00D+00 -2.15D-01  3.00D+00
                    CP:  3.00D+00  3.00D+00  3.00D+00  3.00D+00  3.00D+00
                    CP:  3.00D+00  3.00D+00 -5.85D-01  1.86D+00
 E= -1178.75779015091     Delta-E=       -0.000995803900 Rises=F Damp=F
 DIIS: error= 8.89D-04 at cycle  95 NSaved=   4.
 NSaved= 4 IEnMin= 4 EnMin= -1178.75779015091     IErMin= 3 ErrMin= 8.10D-04
 ErrMax= 8.89D-04  0.00D+00 EMaxC= 1.00D-01 BMatC= 7.50D-04 BMatP= 1.00D-03
 IDIUse=1 WtCom= 1.00D+00 WtEn= 0.00D+00
 Coeff-Com:  0.380D+01-0.306D+01 0.124D+01-0.982D+00
 Coeff:      0.380D+01-0.306D+01 0.124D+01-0.982D+00
 Gap=    -0.006 Goal=   None    Shift=    0.300
 Gap=     0.111 Goal=   None    Shift=    0.300
 RMSDP=7.03D-05 MaxDP=7.37D-03 DE=-9.96D-04 OVMax= 3.09D-02

 Cycle  96  Pass 1  IDiag  1:
 RMSU=  1.35D-05    CP:  1.00D+00  3.00D+00  3.00D+00  6.33D-01  3.00D+00
                    CP:  3.00D+00  3.00D+00  3.00D+00  3.00D+00  3.00D+00
                    CP:  3.00D+00  3.00D+00  7.14D-01  2.46D+00  1.78D+00
 E= -1178.75838582371     Delta-E=       -0.000595672808 Rises=F Damp=F
 DIIS: error= 8.92D-04 at cycle  96 NSaved=   5.
 NSaved= 5 IEnMin= 5 EnMin= -1178.75838582371     IErMin= 3 ErrMin= 8.10D-04
 ErrMax= 8.92D-04  0.00D+00 EMaxC= 1.00D-01 BMatC= 1.37D-03 BMatP= 7.50D-04
 IDIUse=1 WtCom= 1.00D+00 WtEn= 0.00D+00
 Coeff-Com:  0.331D+01-0.239D+01 0.912D+00-0.126D+00-0.706D+00
 Coeff:      0.331D+01-0.239D+01 0.912D+00-0.126D+00-0.706D+00
 Gap=    -0.005 Goal=   None    Shift=    0.300
 Gap=     0.109 Goal=   None    Shift=    0.300
 RMSDP=6.86D-05 MaxDP=8.07D-03 DE=-5.96D-04 OVMax= 3.06D-02

 Cycle  97  Pass 1  IDiag  1:
 RMSU=  8.77D-06    CP:  1.00D+00  3.00D+00  3.00D+00  1.39D+00  3.00D+00
                    CP:  3.00D+00  3.00D+00  3.00D+00  3.00D+00  3.00D+00
                    CP:  3.00D+00  3.00D+00  1.90D+00  3.00D+00  2.45D+00
                    CP:  2.04D+00
 E= -1178.75892941227     Delta-E=       -0.000543588558 Rises=F Damp=F
 DIIS: error= 1.22D-03 at cycle  97 NSaved=   6.
 NSaved= 6 IEnMin= 6 EnMin= -1178.75892941227     IErMin= 3 ErrMin= 8.10D-04
 ErrMax= 1.22D-03  0.00D+00 EMaxC= 1.00D-01 BMatC= 2.14D-03 BMatP= 7.50D-04
 IDIUse=1 WtCom= 1.00D+00 WtEn= 0.00D+00
 Coeff-Com:  0.328D+01-0.235D+01 0.858D+00 0.156D+00-0.118D+01 0.239D+00
 Coeff:      0.328D+01-0.235D+01 0.858D+00 0.156D+00-0.118D+01 0.239D+00
 Gap=    -0.004 Goal=   None    Shift=    0.300
 Gap=     0.110 Goal=   None    Shift=    0.300
 RMSDP=6.87D-05 MaxDP=8.26D-03 DE=-5.44D-04 OVMax= 3.10D-02

 Cycle  98  Pass 1  IDiag  1:
 RMSU=  4.36D-05    CP:  1.00D+00  3.00D+00  3.00D+00  1.64D+00  3.00D+00
                    CP:  3.00D+00  3.00D+00  3.00D+00  3.00D+00  3.00D+00
                    CP:  3.00D+00  3.00D+00  2.83D+00  3.00D+00  3.00D+00
                    CP:  3.00D+00  3.00D+00
 E= -1178.75950285632     Delta-E=       -0.000573444048 Rises=F Damp=F
 DIIS: error= 1.44D-03 at cycle  98 NSaved=   7.
 NSaved= 7 IEnMin= 7 EnMin= -1178.75950285632     IErMin= 3 ErrMin= 8.10D-04
 ErrMax= 1.44D-03  0.00D+00 EMaxC= 1.00D-01 BMatC= 2.90D-03 BMatP= 7.50D-04
 IDIUse=1 WtCom= 1.00D+00 WtEn= 0.00D+00
 Coeff-Com:  0.264D+01-0.133D+01 0.625D+00 0.781D+00-0.369D+01 0.479D+01
 Coeff-Com: -0.282D+01
 Coeff:      0.264D+01-0.133D+01 0.625D+00 0.781D+00-0.369D+01 0.479D+01
 Coeff:     -0.282D+01
 Gap=    -0.005 Goal=   None    Shift=    0.300
 Gap=     0.102 Goal=   None    Shift=    0.300
 RMSDP=7.25D-05 MaxDP=9.86D-03 DE=-5.73D-04 OVMax= 2.86D-02

 Cycle  99  Pass 1  IDiag  1:
 RMSU=  5.58D-05    CP:  9.99D-01  3.00D+00  3.00D+00  3.00D+00  3.00D+00
                    CP:  3.00D+00  3.00D+00  3.00D+00  3.00D+00  3.00D+00
                    CP:  3.00D+00  3.00D+00  3.00D+00  3.00D+00  3.00D+00
                    CP:  3.00D+00  3.00D+00  1.90D+00
 E= -1178.75944798122     Delta-E=        0.000054875100 Rises=F Damp=F
 DIIS: error= 2.03D-03 at cycle  99 NSaved=   8.
 NSaved= 8 IEnMin= 7 EnMin= -1178.75950285632     IErMin= 3 ErrMin= 8.10D-04
 ErrMax= 2.03D-03  0.00D+00 EMaxC= 1.00D-01 BMatC= 5.20D-03 BMatP= 7.50D-04
 IDIUse=1 WtCom= 1.00D+00 WtEn= 0.00D+00
 Large coefficients: NSaved=  8 BigCof=   10.93 CofMax=   10.00 Det=-2.55D-07
 Inversion failed.  Reducing to  7 matrices.
 Large coefficients: NSaved=  7 BigCof=   17.31 CofMax=   10.00 Det=-2.71D-07
 Inversion failed.  Reducing to  6 matrices.
 Large coefficients: NSaved=  6 BigCof=   16.44 CofMax=   10.00 Det=-2.84D-07
 Inversion failed.  Reducing to  5 matrices.
 Coeff-Com:  0.926D+00-0.608D+00 0.665D+01-0.714D+01 0.117D+01
 Coeff:      0.926D+00-0.608D+00 0.665D+01-0.714D+01 0.117D+01
 Gap=     0.000 Goal=   None    Shift=    0.000
 Gap=     0.109 Goal=   None    Shift=    0.000
 RMSDP=1.57D-03 MaxDP=2.38D-01 DE= 5.49D-05 OVMax= 7.10D-01

 Cycle 100  Pass 1  IDiag  1:
 RMSU=  1.49D-03    CP:  9.95D-01  3.00D+00  3.00D+00 -3.00D+00  3.00D+00
                    CP:  3.00D+00  3.00D+00  3.00D+00  3.00D+00  3.00D+00
                    CP:  3.00D+00  3.00D+00  3.00D+00  3.00D+00  3.00D+00
                    CP:  3.00D+00  3.00D+00  3.00D+00  3.00D+00
 E= -1178.73872888805     Delta-E=        0.020719093170 Rises=F Damp=F
 DIIS: error= 8.12D-03 at cycle 100 NSaved=   6.
 NSaved= 6 IEnMin= 4 EnMin= -1178.75950285632     IErMin= 1 ErrMin= 8.89D-04
 ErrMax= 8.12D-03  0.00D+00 EMaxC= 1.00D-01 BMatC= 9.14D-02 BMatP= 7.50D-04
 IDIUse=1 WtCom= 1.00D+00 WtEn= 0.00D+00
 Large coefficients: NSaved=  6 BigCof=   11.62 CofMax=   10.00 Det=-3.36D-07
 Inversion failed.  Reducing to  5 matrices.
 Coeff-Com:  0.553D+00 0.898D+01-0.867D+01 0.106D-02 0.141D+00
 Coeff:      0.553D+00 0.898D+01-0.867D+01 0.106D-02 0.141D+00
 Gap=     0.019 Goal=   None    Shift=    0.000
 Gap=     0.114 Goal=   None    Shift=    0.000
 RMSDP=1.73D-04 MaxDP=1.23D-02 DE= 2.07D-02 OVMax= 7.62D-02

 Cycle 101  Pass 1  IDiag  1:
 Restarting incremental Fock formation.
 E= -1178.73818261304     Delta-E=        0.000546275013 Rises=F Damp=F
 DIIS: error= 8.16D-03 at cycle 101 NSaved=   6.
 NSaved= 6 IEnMin= 3 EnMin= -1178.75950285632     IErMin= 1 ErrMin= 8.92D-04
 ErrMax= 8.16D-03  0.00D+00 EMaxC= 1.00D-01 BMatC= 9.23D-02 BMatP= 1.37D-03
 IDIUse=1 WtCom= 1.00D+00 WtEn= 0.00D+00
 Large coefficients: NSaved=  6 BigCof=   10.04 CofMax=   10.00 Det=-3.93D-07
 Inversion failed.  Reducing to  5 matrices.
 Large coefficients: NSaved=  5 BigCof=   10.14 CofMax=   10.00 Det=-5.31D-07
 Inversion failed.  Reducing to  4 matrices.
 Coeff-Com:  0.455D+01-0.364D+01 0.111D+01-0.102D+01
 Coeff:      0.455D+01-0.364D+01 0.111D+01-0.102D+01
 Gap=     0.026 Goal=   None    Shift=    0.000
 Gap=     0.126 Goal=   None    Shift=    0.000
 RMSDP=4.35D-04 MaxDP=4.80D-02 DE= 5.46D-04 OVMax= 1.93D-01

 Cycle 102  Pass 1  IDiag  1:
 RMSU=  4.35D-04    CP:  9.99D-01
 E= -1178.75245094089     Delta-E=       -0.014268327852 Rises=F Damp=F
 DIIS: error= 6.41D-03 at cycle 102 NSaved=   5.
 NSaved= 5 IEnMin= 1 EnMin= -1178.75950285632     IErMin= 1 ErrMin= 1.44D-03
 ErrMax= 6.41D-03  0.00D+00 EMaxC= 1.00D-01 BMatC= 5.65D-02 BMatP= 2.90D-03
 IDIUse=1 WtCom= 1.00D+00 WtEn= 0.00D+00
 Coeff-Com:  0.502D+01-0.426D+01 0.107D+01-0.123D+01 0.411D+00
 Coeff:      0.502D+01-0.426D+01 0.107D+01-0.123D+01 0.411D+00
 Gap=     0.029 Goal=   None    Shift=    0.000
 Gap=     0.134 Goal=   None    Shift=    0.000
 RMSDP=7.37D-05 MaxDP=8.36D-03 DE=-1.43D-02 OVMax= 1.33D-02

 Cycle 103  Pass 1  IDiag  1:
 RMSU=  6.46D-05    CP:  9.99D-01  1.08D+00
 E= -1178.75658987609     Delta-E=       -0.004138935197 Rises=F Damp=F
 DIIS: error= 5.80D-03 at cycle 103 NSaved=   6.
 NSaved= 6 IEnMin= 1 EnMin= -1178.75950285632     IErMin= 1 ErrMin= 1.44D-03
 ErrMax= 5.80D-03  0.00D+00 EMaxC= 1.00D-01 BMatC= 4.61D-02 BMatP= 2.90D-03
 IDIUse=1 WtCom= 1.00D+00 WtEn= 0.00D+00
 Coeff-Com:  0.474D+01-0.412D+01 0.548D+00-0.915D+00 0.865D-01 0.658D+00
 Coeff:      0.474D+01-0.412D+01 0.548D+00-0.915D+00 0.865D-01 0.658D+00
 Gap=     0.030 Goal=   None    Shift=    0.000
 Gap=     0.146 Goal=   None    Shift=    0.000
 RMSDP=8.85D-05 MaxDP=8.12D-03 DE=-4.14D-03 OVMax= 7.62D-03

 Cycle 104  Pass 1  IDiag  1:
 RMSU=  4.43D-05    CP:  9.99D-01  1.10D+00  2.18D+00
 E= -1178.76066097842     Delta-E=       -0.004071102335 Rises=F Damp=F
 DIIS: error= 5.14D-03 at cycle 104 NSaved=   7.
 NSaved= 7 IEnMin= 7 EnMin= -1178.76066097842     IErMin= 1 ErrMin= 1.44D-03
 ErrMax= 5.14D-03  0.00D+00 EMaxC= 1.00D-01 BMatC= 3.58D-02 BMatP= 2.90D-03
 IDIUse=1 WtCom= 1.00D+00 WtEn= 0.00D+00
 Coeff-Com:  0.392D+01-0.340D+01 0.177D+00-0.585D+00-0.182D+00 0.221D+00
 Coeff-Com:  0.847D+00
 Coeff:      0.392D+01-0.340D+01 0.177D+00-0.585D+00-0.182D+00 0.221D+00
 Coeff:      0.847D+00
 Gap=     0.030 Goal=   None    Shift=    0.300
 Gap=     0.159 Goal=   None    Shift=    0.300
 RMSDP=6.54D-05 MaxDP=4.42D-03 DE=-4.07D-03 OVMax= 3.52D-03

 Cycle 105  Pass 1  IDiag  1:
 RMSU=  1.66D-05    CP:  9.99D-01  1.12D+00  3.00D+00  1.62D+00
 E= -1178.76330488268     Delta-E=       -0.002643904255 Rises=F Damp=F
 DIIS: error= 4.43D-03 at cycle 105 NSaved=   8.
 NSaved= 8 IEnMin= 8 EnMin= -1178.76330488268     IErMin= 1 ErrMin= 1.44D-03
 ErrMax= 4.43D-03  0.00D+00 EMaxC= 1.00D-01 BMatC= 2.84D-02 BMatP= 2.90D-03
 IDIUse=1 WtCom= 1.00D+00 WtEn= 0.00D+00
 Coeff-Com:  0.415D+01-0.362D+01 0.169D+00-0.600D+00-0.178D+00 0.324D+00
 Coeff-Com:  0.102D+01-0.274D+00
 Coeff:      0.415D+01-0.362D+01 0.169D+00-0.600D+00-0.178D+00 0.324D+00
 Coeff:      0.102D+01-0.274D+00
 Gap=     0.030 Goal=   None    Shift=    0.300
 Gap=     0.157 Goal=   None    Shift=    0.300
 RMSDP=1.25D-05 MaxDP=1.63D-03 DE=-2.64D-03 OVMax= 1.56D-03

 Cycle 106  Pass 1  IDiag  1:
 RMSU=  1.15D-05    CP:  9.99D-01  1.12D+00  3.00D+00  1.73D+00  9.15D-01
 E= -1178.76371994472     Delta-E=       -0.000415062046 Rises=F Damp=F
 DIIS: error= 4.45D-03 at cycle 106 NSaved=   9.
 NSaved= 9 IEnMin= 9 EnMin= -1178.76371994472     IErMin= 1 ErrMin= 1.44D-03
 ErrMax= 4.45D-03  0.00D+00 EMaxC= 1.00D-01 BMatC= 2.78D-02 BMatP= 2.90D-03
 IDIUse=1 WtCom= 1.00D+00 WtEn= 0.00D+00
 Coeff-Com:  0.422D+01-0.369D+01 0.574D+00-0.841D+00 0.461D-01-0.172D+00
 Coeff-Com:  0.610D+00-0.220D+01 0.246D+01
 Coeff:      0.422D+01-0.369D+01 0.574D+00-0.841D+00 0.461D-01-0.172D+00
 Coeff:      0.610D+00-0.220D+01 0.246D+01
 Gap=     0.030 Goal=   None    Shift=    0.300
 Gap=     0.158 Goal=   None    Shift=    0.300
 RMSDP=1.31D-05 MaxDP=1.60D-03 DE=-4.15D-04 OVMax= 1.99D-03

 Cycle 107  Pass 1  IDiag  1:
 RMSU=  5.52D-06    CP:  9.99D-01  1.12D+00  3.00D+00  1.88D+00  9.13D-01
                    CP:  1.84D+00
 E= -1178.76414356345     Delta-E=       -0.000423618724 Rises=F Damp=F
 DIIS: error= 4.34D-03 at cycle 107 NSaved=  10.
 NSaved=10 IEnMin=10 EnMin= -1178.76414356345     IErMin= 1 ErrMin= 1.44D-03
 ErrMax= 4.34D-03  0.00D+00 EMaxC= 1.00D-01 BMatC= 2.69D-02 BMatP= 2.90D-03
 IDIUse=1 WtCom= 1.00D+00 WtEn= 0.00D+00
 Coeff-Com:  0.393D+01-0.343D+01 0.156D+01-0.145D+01 0.573D+00-0.120D+01
 Coeff-Com: -0.908D+00-0.462D+01 0.396D+01 0.257D+01
 Coeff:      0.393D+01-0.343D+01 0.156D+01-0.145D+01 0.573D+00-0.120D+01
 Coeff:     -0.908D+00-0.462D+01 0.396D+01 0.257D+01
 Gap=     0.030 Goal=   None    Shift=    0.300
 Gap=     0.164 Goal=   None    Shift=    0.300
 RMSDP=3.67D-05 MaxDP=3.10D-03 DE=-4.24D-04 OVMax= 3.33D-03

 Cycle 108  Pass 1  IDiag  1:
 RMSU=  1.75D-05    CP:  9.99D-01  1.12D+00  3.00D+00  2.26D+00  1.55D+00
                    CP:  3.00D+00  2.73D+00
 E= -1178.76541802228     Delta-E=       -0.001274458833 Rises=F Damp=F
 DIIS: error= 4.06D-03 at cycle 108 NSaved=  11.
 NSaved=11 IEnMin=11 EnMin= -1178.76541802228     IErMin= 1 ErrMin= 1.44D-03
 ErrMax= 4.06D-03  0.00D+00 EMaxC= 1.00D-01 BMatC= 2.36D-02 BMatP= 2.90D-03
 IDIUse=1 WtCom= 1.00D+00 WtEn= 0.00D+00
 Coeff-Com:  0.353D+01-0.308D+01 0.165D+01-0.147D+01 0.633D+00-0.115D+01
 Coeff-Com: -0.113D+01-0.505D+01 0.361D+01 0.152D+01 0.193D+01
 Coeff:      0.353D+01-0.308D+01 0.165D+01-0.147D+01 0.633D+00-0.115D+01
 Coeff:     -0.113D+01-0.505D+01 0.361D+01 0.152D+01 0.193D+01
 Gap=     0.030 Goal=   None    Shift=    0.300
 Gap=     0.171 Goal=   None    Shift=    0.300
 RMSDP=5.09D-05 MaxDP=4.21D-03 DE=-1.27D-03 OVMax= 4.22D-03

 Cycle 109  Pass 1  IDiag  1:
 RMSU=  1.81D-05    CP:  9.99D-01  1.13D+00  3.00D+00  2.78D+00  2.45D+00
                    CP:  3.00D+00  3.00D+00  3.00D+00
 E= -1178.76705515468     Delta-E=       -0.001637132400 Rises=F Damp=F
 DIIS: error= 3.65D-03 at cycle 109 NSaved=  12.
 NSaved=12 IEnMin=12 EnMin= -1178.76705515468     IErMin= 1 ErrMin= 1.44D-03
 ErrMax= 3.65D-03  0.00D+00 EMaxC= 1.00D-01 BMatC= 1.95D-02 BMatP= 2.90D-03
 IDIUse=1 WtCom= 1.00D+00 WtEn= 0.00D+00
 Coeff-Com:  0.346D+01-0.304D+01 0.136D+01-0.128D+01 0.516D+00-0.624D+00
 Coeff-Com: -0.614D+00-0.491D+01 0.301D+01 0.484D+00 0.162D+01 0.102D+01
 Coeff:      0.346D+01-0.304D+01 0.136D+01-0.128D+01 0.516D+00-0.624D+00
 Coeff:     -0.614D+00-0.491D+01 0.301D+01 0.484D+00 0.162D+01 0.102D+01
 Gap=     0.030 Goal=   None    Shift=    0.300
 Gap=     0.175 Goal=   None    Shift=    0.300
 RMSDP=3.62D-05 MaxDP=3.69D-03 DE=-1.64D-03 OVMax= 3.86D-03

 Cycle 110  Pass 1  IDiag  1:
 RMSU=  2.65D-05    CP:  9.99D-01  1.13D+00  3.00D+00  3.00D+00  2.89D+00
                    CP:  3.00D+00  3.00D+00  3.00D+00  2.01D+00
 E= -1178.76811636457     Delta-E=       -0.001061209891 Rises=F Damp=F
 DIIS: error= 3.41D-03 at cycle 110 NSaved=  13.
 NSaved=13 IEnMin=13 EnMin= -1178.76811636457     IErMin= 1 ErrMin= 1.44D-03
 ErrMax= 3.41D-03  0.00D+00 EMaxC= 1.00D-01 BMatC= 1.70D-02 BMatP= 2.90D-03
 IDIUse=1 WtCom= 1.00D+00 WtEn= 0.00D+00
 Coeff-Com:  0.325D+01-0.286D+01 0.117D+01-0.114D+01 0.450D+00-0.357D+00
 Coeff-Com: -0.535D+00-0.383D+01 0.230D+01 0.710D+00 0.838D+00-0.133D+01
 Coeff-Com:  0.234D+01
 Coeff:      0.325D+01-0.286D+01 0.117D+01-0.114D+01 0.450D+00-0.357D+00
 Coeff:     -0.535D+00-0.383D+01 0.230D+01 0.710D+00 0.838D+00-0.133D+01
 Coeff:      0.234D+01
 Gap=     0.031 Goal=   None    Shift=    0.300
 Gap=     0.179 Goal=   None    Shift=    0.300
 RMSDP=3.26D-05 MaxDP=3.54D-03 DE=-1.06D-03 OVMax= 3.71D-03

 Cycle 111  Pass 1  IDiag  1:
 RMSU=  9.96D-06    CP:  9.99D-01  1.13D+00  3.00D+00  3.00D+00  3.00D+00
                    CP:  3.00D+00  3.00D+00  3.00D+00  2.91D+00  1.98D+00
 E= -1178.76899189920     Delta-E=       -0.000875534625 Rises=F Damp=F
 DIIS: error= 3.21D-03 at cycle 111 NSaved=  14.
 NSaved=14 IEnMin=14 EnMin= -1178.76899189920     IErMin= 1 ErrMin= 1.44D-03
 ErrMax= 3.21D-03  0.00D+00 EMaxC= 1.00D-01 BMatC= 1.49D-02 BMatP= 2.90D-03
 IDIUse=1 WtCom= 1.00D+00 WtEn= 0.00D+00
 Coeff-Com:  0.281D+01-0.247D+01 0.121D+01-0.113D+01 0.519D+00-0.556D+00
 Coeff-Com: -0.103D+01-0.199D+01 0.173D+01 0.217D+01-0.247D+00-0.407D+01
 Coeff-Com:  0.407D+00 0.364D+01
 Coeff:      0.281D+01-0.247D+01 0.121D+01-0.113D+01 0.519D+00-0.556D+00
 Coeff:     -0.103D+01-0.199D+01 0.173D+01 0.217D+01-0.247D+00-0.407D+01
 Coeff:      0.407D+00 0.364D+01
 Gap=     0.031 Goal=   None    Shift=    0.300
 Gap=     0.185 Goal=   None    Shift=    0.300
 RMSDP=4.73D-05 MaxDP=4.43D-03 DE=-8.76D-04 OVMax= 4.35D-03

 Cycle 112  Pass 1  IDiag  1:
 RMSU=  2.48D-05    CP:  9.99D-01  1.13D+00  3.00D+00  3.00D+00  3.00D+00
                    CP:  3.00D+00  3.00D+00  3.00D+00  3.00D+00  3.00D+00
                    CP:  2.70D+00
 E= -1178.77016648545     Delta-E=       -0.001174586250 Rises=F Damp=F
 DIIS: error= 2.86D-03 at cycle 112 NSaved=  15.
 NSaved=15 IEnMin=15 EnMin= -1178.77016648545     IErMin= 1 ErrMin= 1.44D-03
 ErrMax= 2.86D-03  0.00D+00 EMaxC= 1.00D-01 BMatC= 1.19D-02 BMatP= 2.90D-03
 IDIUse=1 WtCom= 1.00D+00 WtEn= 0.00D+00
 Coeff-Com:  0.241D+01-0.209D+01 0.153D+01-0.128D+01 0.660D+00-0.130D+01
 Coeff-Com: -0.125D+01-0.277D+01 0.285D+01 0.290D+01 0.420D+00-0.132D+01
 Coeff-Com: -0.616D+01 0.403D+01 0.239D+01
 Coeff:      0.241D+01-0.209D+01 0.153D+01-0.128D+01 0.660D+00-0.130D+01
 Coeff:     -0.125D+01-0.277D+01 0.285D+01 0.290D+01 0.420D+00-0.132D+01
 Coeff:     -0.616D+01 0.403D+01 0.239D+01
 Gap=     0.031 Goal=   None    Shift=    0.300
 Gap=     0.180 Goal=   None    Shift=    0.300
 RMSDP=4.86D-05 MaxDP=4.81D-03 DE=-1.17D-03 OVMax= 4.63D-03

 Cycle 113  Pass 1  IDiag  1:
 RMSU=  2.93D-05    CP:  9.99D-01  1.14D+00  3.00D+00  3.00D+00  3.00D+00
                    CP:  3.00D+00  3.00D+00  3.00D+00  3.00D+00  3.00D+00
                    CP:  3.00D+00  2.51D+00
 E= -1178.77124205942     Delta-E=       -0.001075573974 Rises=F Damp=F
 DIIS: error= 2.47D-03 at cycle 113 NSaved=  16.
 NSaved=16 IEnMin=16 EnMin= -1178.77124205942     IErMin= 1 ErrMin= 1.44D-03
 ErrMax= 2.47D-03  0.00D+00 EMaxC= 1.00D-01 BMatC= 9.26D-03 BMatP= 2.90D-03
 IDIUse=1 WtCom= 1.00D+00 WtEn= 0.00D+00
 Coeff-Com:  0.221D+01-0.191D+01 0.156D+01-0.128D+01 0.641D+00-0.150D+01
 Coeff-Com: -0.755D+00-0.433D+01 0.370D+01 0.203D+01 0.164D+01 0.246D+01
 Coeff-Com: -0.879D+01 0.180D+01 0.192D+01 0.162D+01
 Coeff:      0.221D+01-0.191D+01 0.156D+01-0.128D+01 0.641D+00-0.150D+01
 Coeff:     -0.755D+00-0.433D+01 0.370D+01 0.203D+01 0.164D+01 0.246D+01
 Coeff:     -0.879D+01 0.180D+01 0.192D+01 0.162D+01
 Gap=     0.031 Goal=   None    Shift=    0.300
 Gap=     0.177 Goal=   None    Shift=    0.300
 RMSDP=3.31D-05 MaxDP=4.09D-03 DE=-1.08D-03 OVMax= 3.99D-03

 Cycle 114  Pass 1  IDiag  1:
 RMSU=  1.38D-05    CP:  9.99D-01  1.14D+00  3.00D+00  3.00D+00  3.00D+00
                    CP:  3.00D+00  3.00D+00  3.00D+00  3.00D+00  3.00D+00
                    CP:  3.00D+00  3.00D+00  1.71D+00
 E= -1178.77188776997     Delta-E=       -0.000645710551 Rises=F Damp=F
 DIIS: error= 2.29D-03 at cycle 114 NSaved=  17.
 NSaved=17 IEnMin=17 EnMin= -1178.77188776997     IErMin= 1 ErrMin= 1.44D-03
 ErrMax= 2.29D-03  0.00D+00 EMaxC= 1.00D-01 BMatC= 7.75D-03 BMatP= 2.90D-03
 IDIUse=1 WtCom= 1.00D+00 WtEn= 0.00D+00
 Coeff-Com:  0.163D+01-0.142D+01 0.118D+01-0.977D+00 0.484D+00-0.912D+00
 Coeff-Com: -0.392D+00-0.384D+01 0.242D+01 0.178D-01 0.260D+01 0.397D+01
 Coeff-Com: -0.419D+01-0.226D+01-0.600D+00-0.407D+00 0.368D+01
 Coeff:      0.163D+01-0.142D+01 0.118D+01-0.977D+00 0.484D+00-0.912D+00
 Coeff:     -0.392D+00-0.384D+01 0.242D+01 0.178D-01 0.260D+01 0.397D+01
 Coeff:     -0.419D+01-0.226D+01-0.600D+00-0.407D+00 0.368D+01
 Gap=     0.031 Goal=   None    Shift=    0.300
 Gap=     0.171 Goal=   None    Shift=    0.300
 RMSDP=6.67D-05 MaxDP=5.91D-03 DE=-6.46D-04 OVMax= 5.28D-03

 Cycle 115  Pass 1  IDiag  1:
 RMSU=  2.83D-05    CP:  9.99D-01  1.15D+00  3.00D+00  3.00D+00  3.00D+00
                    CP:  3.00D+00  3.00D+00  3.00D+00  3.00D+00  3.00D+00
                    CP:  3.00D+00  3.00D+00  3.00D+00  3.00D+00
 E= -1178.77301767455     Delta-E=       -0.001129904575 Rises=F Damp=F
 DIIS: error= 1.73D-03 at cycle 115 NSaved=  18.
 NSaved=18 IEnMin=18 EnMin= -1178.77301767455     IErMin= 1 ErrMin= 1.44D-03
 ErrMax= 1.73D-03  0.00D+00 EMaxC= 1.00D-01 BMatC= 4.81D-03 BMatP= 2.90D-03
 IDIUse=1 WtCom= 1.00D+00 WtEn= 0.00D+00
 Coeff-Com:  0.138D+01-0.127D+01 0.259D+00-0.354D+00 0.139D+00 0.748D+00
 Coeff-Com:  0.353D+00-0.237D+01 0.282D+00-0.466D+00 0.103D+01-0.197D+01
 Coeff-Com:  0.585D+01-0.227D+01-0.177D+01-0.350D+01 0.201D+01 0.292D+01
 Coeff:      0.138D+01-0.127D+01 0.259D+00-0.354D+00 0.139D+00 0.748D+00
 Coeff:      0.353D+00-0.237D+01 0.282D+00-0.466D+00 0.103D+01-0.197D+01
 Coeff:      0.585D+01-0.227D+01-0.177D+01-0.350D+01 0.201D+01 0.292D+01
 Gap=     0.030 Goal=   None    Shift=    0.300
 Gap=     0.166 Goal=   None    Shift=    0.300
 RMSDP=6.92D-05 MaxDP=6.50D-03 DE=-1.13D-03 OVMax= 5.77D-03

 Cycle 116  Pass 1  IDiag  1:
 RMSU=  4.22D-05    CP:  9.99D-01  1.16D+00  3.00D+00  3.00D+00  3.00D+00
                    CP:  3.00D+00  3.00D+00  3.00D+00  3.00D+00  3.00D+00
                    CP:  3.00D+00  3.00D+00  3.00D+00  3.00D+00  2.93D+00
 E= -1178.77393545622     Delta-E=       -0.000917781676 Rises=F Damp=F
 DIIS: error= 1.19D-03 at cycle 116 NSaved=  19.
 NSaved=19 IEnMin=19 EnMin= -1178.77393545622     IErMin=19 ErrMin= 1.19D-03
 ErrMax= 1.19D-03  0.00D+00 EMaxC= 1.00D-01 BMatC= 2.53D-03 BMatP= 2.90D-03
 IDIUse=1 WtCom= 1.00D+00 WtEn= 0.00D+00
 Coeff-Com:  0.679D+00-0.664D+00-0.239D+00 0.421D-01-0.555D-01 0.124D+01
 Coeff-Com:  0.554D+00-0.157D+01-0.192D+00 0.531D+00-0.410D+00-0.485D+01
 Coeff-Com:  0.640D+01 0.610D+00-0.745D+00-0.319D+01-0.634D+00 0.126D+01
 Coeff-Com:  0.223D+01
 Coeff:      0.679D+00-0.664D+00-0.239D+00 0.421D-01-0.555D-01 0.124D+01
 Coeff:      0.554D+00-0.157D+01-0.192D+00 0.531D+00-0.410D+00-0.485D+01
 Coeff:      0.640D+01 0.610D+00-0.745D+00-0.319D+01-0.634D+00 0.126D+01
 Coeff:      0.223D+01
 Gap=     0.030 Goal=   None    Shift=    0.300
 Gap=     0.159 Goal=   None    Shift=    0.300
 RMSDP=8.85D-05 MaxDP=7.85D-03 DE=-9.18D-04 OVMax= 6.69D-03

 Cycle 117  Pass 1  IDiag  1:
 RMSU=  6.92D-05    CP:  1.00D+00  1.17D+00  3.00D+00  3.00D+00  3.00D+00
                    CP:  3.00D+00  3.00D+00  3.00D+00  3.00D+00  3.00D+00
                    CP:  3.00D+00  3.00D+00  3.00D+00  3.00D+00  3.00D+00
                    CP:  2.23D+00
 E= -1178.77470647412     Delta-E=       -0.000771017897 Rises=F Damp=F
 DIIS: error= 6.66D-04 at cycle 117 NSaved=  20.
 NSaved=20 IEnMin=20 EnMin= -1178.77470647412     IErMin=20 ErrMin= 6.66D-04
 ErrMax= 6.66D-04  0.00D+00 EMaxC= 1.00D-01 BMatC= 6.79D-04 BMatP= 2.53D-03
 IDIUse=1 WtCom= 1.00D+00 WtEn= 0.00D+00
 Coeff-Com: -0.476D-01 0.805D-03-0.133D+00 0.601D-01-0.462D-01 0.339D+00
 Coeff-Com:  0.708D+00-0.292D+01 0.169D+01 0.846D+00 0.170D+00 0.879D-01
 Coeff-Com: -0.314D+01 0.198D+01 0.908D+00 0.570D+00-0.743D+00-0.225D+01
 Coeff-Com:  0.963D+00 0.197D+01
 Coeff:     -0.476D-01 0.805D-03-0.133D+00 0.601D-01-0.462D-01 0.339D+00
 Coeff:      0.708D+00-0.292D+01 0.169D+01 0.846D+00 0.170D+00 0.879D-01
 Coeff:     -0.314D+01 0.198D+01 0.908D+00 0.570D+00-0.743D+00-0.225D+01
 Coeff:      0.963D+00 0.197D+01
 Gap=     0.030 Goal=   None    Shift=    0.300
 Gap=     0.152 Goal=   None    Shift=    0.300
 RMSDP=8.29D-05 MaxDP=7.88D-03 DE=-7.71D-04 OVMax= 6.56D-03

 Cycle 118  Pass 1  IDiag  1:
 RMSU=  1.84D-05    CP:  1.00D+00  1.19D+00  3.00D+00  3.00D+00  3.00D+00
                    CP:  3.00D+00  3.00D+00  3.00D+00  3.00D+00  3.00D+00
                    CP:  3.00D+00  3.00D+00  3.00D+00  3.00D+00  3.00D+00
                    CP:  3.00D+00  1.95D+00
 E= -1178.77502740929     Delta-E=       -0.000320935172 Rises=F Damp=F
 DIIS: error= 2.66D-04 at cycle 118 NSaved=  20.
 NSaved=20 IEnMin=20 EnMin= -1178.77502740929     IErMin=20 ErrMin= 2.66D-04
 ErrMax= 2.66D-04  0.00D+00 EMaxC= 1.00D-01 BMatC= 4.93D-05 BMatP= 6.79D-04
 IDIUse=1 WtCom= 1.00D+00 WtEn= 0.00D+00
 Coeff-Com: -0.252D+00 0.194D+00-0.389D-02-0.652D-02-0.722D-01 0.598D+00
 Coeff-Com: -0.296D+01 0.191D+01 0.246D+00 0.934D+00 0.199D+01-0.422D+01
 Coeff-Com:  0.629D+00 0.618D+00 0.109D+01 0.376D+00-0.179D+01 0.279D-01
 Coeff-Com:  0.412D+00 0.129D+01
 Coeff:     -0.252D+00 0.194D+00-0.389D-02-0.652D-02-0.722D-01 0.598D+00
 Coeff:     -0.296D+01 0.191D+01 0.246D+00 0.934D+00 0.199D+01-0.422D+01
 Coeff:      0.629D+00 0.618D+00 0.109D+01 0.376D+00-0.179D+01 0.279D-01
 Coeff:      0.412D+00 0.129D+01
 Gap=     0.031 Goal=   None    Shift=    0.300
 Gap=     0.151 Goal=   None    Shift=    0.300
 RMSDP=4.35D-05 MaxDP=5.74D-03 DE=-3.21D-04 OVMax= 5.02D-03

 Cycle 119  Pass 1  IDiag  1:
 RMSU=  6.03D-06    CP:  1.00D+00  1.19D+00  3.00D+00  3.00D+00  3.00D+00
                    CP:  3.00D+00  3.00D+00  3.00D+00  3.00D+00  3.00D+00
                    CP:  3.00D+00  3.00D+00  3.00D+00  3.00D+00  3.00D+00
                    CP:  3.00D+00  2.39D+00  2.66D+00
 E= -1178.77505459380     Delta-E=       -0.000027184506 Rises=F Damp=F
 DIIS: error= 3.30D-04 at cycle 119 NSaved=  20.
 NSaved=20 IEnMin=20 EnMin= -1178.77505459380     IErMin=19 ErrMin= 2.66D-04
 ErrMax= 3.30D-04  0.00D+00 EMaxC= 1.00D-01 BMatC= 8.14D-05 BMatP= 4.93D-05
 IDIUse=1 WtCom= 1.00D+00 WtEn= 0.00D+00
 Coeff-Com: -0.314D+00 0.252D+00 0.167D-02 0.220D-01-0.519D-01-0.613D+00
 Coeff-Com:  0.234D+00 0.629D-01 0.541D+00-0.446D+00 0.857D+00-0.368D+00
 Coeff-Com: -0.317D+00-0.376D+00 0.379D+00 0.618D+00 0.134D-01-0.940D+00
 Coeff-Com: -0.163D+00 0.161D+01
 Coeff:     -0.314D+00 0.252D+00 0.167D-02 0.220D-01-0.519D-01-0.613D+00
 Coeff:      0.234D+00 0.629D-01 0.541D+00-0.446D+00 0.857D+00-0.368D+00
 Coeff:     -0.317D+00-0.376D+00 0.379D+00 0.618D+00 0.134D-01-0.940D+00
 Coeff:     -0.163D+00 0.161D+01
 Gap=     0.031 Goal=   None    Shift=    0.300
 Gap=     0.150 Goal=   None    Shift=    0.300
 RMSDP=2.28D-05 MaxDP=3.96D-03 DE=-2.72D-05 OVMax= 4.02D-03

 Cycle 120  Pass 1  IDiag  1:
 RMSU=  1.18D-05    CP:  1.00D+00  1.18D+00  3.00D+00  3.00D+00  3.00D+00
                    CP:  3.00D+00  3.00D+00  3.00D+00  3.00D+00  3.00D+00
                    CP:  3.00D+00  3.00D+00  3.00D+00  3.00D+00  3.00D+00
                    CP:  3.00D+00  2.57D+00  3.00D+00  1.80D+00
 E= -1178.77503770667     Delta-E=        0.000016887131 Rises=F Damp=F
 DIIS: error= 3.92D-04 at cycle 120 NSaved=  20.
 NSaved=20 IEnMin=19 EnMin= -1178.77505459380     IErMin=18 ErrMin= 2.66D-04
 ErrMax= 3.92D-04  0.00D+00 EMaxC= 1.00D-01 BMatC= 1.59D-04 BMatP= 4.93D-05
 IDIUse=1 WtCom= 1.00D+00 WtEn= 0.00D+00
 Coeff-Com: -0.247D+00 0.186D+00 0.774D-01-0.281D+00 0.488D+00-0.456D+00
 Coeff-Com:  0.362D+00-0.222D+00-0.146D+01 0.216D+01-0.307D-01-0.334D+00
 Coeff-Com: -0.431D+00-0.506D+00 0.941D+00 0.314D+00-0.210D+00-0.802D+00
 Coeff-Com: -0.641D+00 0.209D+01
 Coeff:     -0.247D+00 0.186D+00 0.774D-01-0.281D+00 0.488D+00-0.456D+00
 Coeff:      0.362D+00-0.222D+00-0.146D+01 0.216D+01-0.307D-01-0.334D+00
 Coeff:     -0.431D+00-0.506D+00 0.941D+00 0.314D+00-0.210D+00-0.802D+00
 Coeff:     -0.641D+00 0.209D+01
 Gap=     0.031 Goal=   None    Shift=    0.000
 Gap=     0.150 Goal=   None    Shift=    0.000
 RMSDP=8.24D-05 MaxDP=1.29D-02 DE= 1.69D-05 OVMax= 3.51D-02

 Cycle 121  Pass 1  IDiag  1:
 Restarting incremental Fock formation.
 E= -1178.77511755711     Delta-E=       -0.000079850441 Rises=F Damp=F
 DIIS: error= 2.18D-04 at cycle 121 NSaved=  20.
 NSaved=20 IEnMin=20 EnMin= -1178.77511755711     IErMin=20 ErrMin= 2.18D-04
 ErrMax= 2.18D-04  0.00D+00 EMaxC= 1.00D-01 BMatC= 6.53D-05 BMatP= 4.93D-05
 IDIUse=1 WtCom= 1.00D+00 WtEn= 0.00D+00
 Coeff-Com: -0.207D+00 0.167D+00-0.464D-01-0.260D+00 0.208D+00 0.307D+00
 Coeff-Com: -0.195D+00-0.375D+00 0.202D+00 0.349D+00 0.265D-01 0.182D+00
 Coeff-Com: -0.617D+00 0.128D+00 0.201D+00 0.238D+00-0.114D+00-0.842D+00
 Coeff-Com:  0.102D+01 0.624D+00
 Coeff:     -0.207D+00 0.167D+00-0.464D-01-0.260D+00 0.208D+00 0.307D+00
 Coeff:     -0.195D+00-0.375D+00 0.202D+00 0.349D+00 0.265D-01 0.182D+00
 Coeff:     -0.617D+00 0.128D+00 0.201D+00 0.238D+00-0.114D+00-0.842D+00
 Coeff:      0.102D+01 0.624D+00
 Gap=     0.030 Goal=   None    Shift=    0.300
 Gap=     0.151 Goal=   None    Shift=    0.300
 RMSDP=2.60D-06 MaxDP=3.79D-04 DE=-7.99D-05 OVMax= 9.26D-04

 Cycle 122  Pass 1  IDiag  1:
 RMSU=  2.60D-06    CP:  1.00D+00
 E= -1178.77512126247     Delta-E=       -0.000003705366 Rises=F Damp=F
 DIIS: error= 1.97D-04 at cycle 122 NSaved=  20.
 NSaved=20 IEnMin=20 EnMin= -1178.77512126247     IErMin=20 ErrMin= 1.97D-04
 ErrMax= 1.97D-04  0.00D+00 EMaxC= 1.00D-01 BMatC= 5.61D-05 BMatP= 4.93D-05
 IDIUse=1 WtCom= 1.00D+00 WtEn= 0.00D+00
 Coeff-Com: -0.175D-01 0.584D-01-0.478D+00 0.357D+00-0.429D-01 0.259D-01
 Coeff-Com:  0.349D+00-0.234D+00-0.869D-02-0.109D-01 0.179D+00-0.170D+00
 Coeff-Com: -0.681D-01 0.467D-02 0.110D+00 0.291D+00-0.294D+00-0.199D+00
 Coeff-Com: -0.375D+00 0.152D+01
 Coeff:     -0.175D-01 0.584D-01-0.478D+00 0.357D+00-0.429D-01 0.259D-01
 Coeff:      0.349D+00-0.234D+00-0.869D-02-0.109D-01 0.179D+00-0.170D+00
 Coeff:     -0.681D-01 0.467D-02 0.110D+00 0.291D+00-0.294D+00-0.199D+00
 Coeff:     -0.375D+00 0.152D+01
 Gap=     0.029 Goal=   None    Shift=    0.300
 Gap=     0.151 Goal=   None    Shift=    0.300
 RMSDP=6.87D-06 MaxDP=4.14D-04 DE=-3.71D-06 OVMax= 1.77D-03

 Cycle 123  Pass 1  IDiag  1:
 RMSU=  4.64D-06    CP:  1.00D+00  2.95D+00
 E= -1178.77513265379     Delta-E=       -0.000011391319 Rises=F Damp=F
 DIIS: error= 1.27D-04 at cycle 123 NSaved=  20.
 NSaved=20 IEnMin=20 EnMin= -1178.77513265379     IErMin=20 ErrMin= 1.27D-04
 ErrMax= 1.27D-04  0.00D+00 EMaxC= 1.00D-01 BMatC= 2.89D-05 BMatP= 4.93D-05
 IDIUse=1 WtCom= 1.00D+00 WtEn= 0.00D+00
 Coeff-Com: -0.109D-01-0.828D-01 0.161D+00-0.449D-01-0.111D-01 0.208D+00
 Coeff-Com: -0.446D+00 0.148D+00 0.724D-01 0.815D-01 0.148D+00-0.298D+00
 Coeff-Com: -0.778D-01 0.751D-01 0.412D+00 0.130D+00-0.839D+00-0.480D+00
 Coeff-Com:  0.550D+00 0.130D+01
 Coeff:     -0.109D-01-0.828D-01 0.161D+00-0.449D-01-0.111D-01 0.208D+00
 Coeff:     -0.446D+00 0.148D+00 0.724D-01 0.815D-01 0.148D+00-0.298D+00
 Coeff:     -0.778D-01 0.751D-01 0.412D+00 0.130D+00-0.839D+00-0.480D+00
 Coeff:      0.550D+00 0.130D+01
 Gap=     0.029 Goal=   None    Shift=    0.300
 Gap=     0.152 Goal=   None    Shift=    0.300
 RMSDP=7.12D-06 MaxDP=4.93D-04 DE=-1.14D-05 OVMax= 2.05D-03

 Cycle 124  Pass 1  IDiag  1:
 RMSU=  5.45D-06    CP:  1.00D+00  3.00D+00  1.95D+00
 E= -1178.77514137618     Delta-E=       -0.000008722385 Rises=F Damp=F
 DIIS: error= 7.32D-05 at cycle 124 NSaved=  20.
 NSaved=20 IEnMin=20 EnMin= -1178.77514137618     IErMin=20 ErrMin= 7.32D-05
 ErrMax= 7.32D-05  0.00D+00 EMaxC= 1.00D-01 BMatC= 1.12D-05 BMatP= 2.89D-05
 IDIUse=1 WtCom= 1.00D+00 WtEn= 0.00D+00
 Coeff-Com: -0.911D-01 0.133D+00-0.676D-01 0.278D-01 0.276D+00-0.406D+00
 Coeff-Com:  0.581D-01 0.367D-01 0.307D-01 0.206D+00-0.282D+00-0.793D-01
 Coeff-Com:  0.688D-01 0.367D+00 0.187D+00-0.795D+00-0.273D-01 0.237D+00
 Coeff-Com:  0.137D-01 0.111D+01
 Coeff:     -0.911D-01 0.133D+00-0.676D-01 0.278D-01 0.276D+00-0.406D+00
 Coeff:      0.581D-01 0.367D-01 0.307D-01 0.206D+00-0.282D+00-0.793D-01
 Coeff:      0.688D-01 0.367D+00 0.187D+00-0.795D+00-0.273D-01 0.237D+00
 Coeff:      0.137D-01 0.111D+01
 Gap=     0.029 Goal=   None    Shift=    0.300
 Gap=     0.152 Goal=   None    Shift=    0.300
 RMSDP=4.58D-06 MaxDP=4.42D-04 DE=-8.72D-06 OVMax= 1.88D-03

 Cycle 125  Pass 1  IDiag  1:
 RMSU=  1.60D-06    CP:  1.00D+00  3.00D+00  2.23D+00  1.75D+00
 E= -1178.77514527085     Delta-E=       -0.000003894674 Rises=F Damp=F
 DIIS: error= 5.82D-05 at cycle 125 NSaved=  20.
 NSaved=20 IEnMin=20 EnMin= -1178.77514527085     IErMin=20 ErrMin= 5.82D-05
 ErrMax= 5.82D-05  0.00D+00 EMaxC= 1.00D-01 BMatC= 6.10D-06 BMatP= 1.12D-05
 IDIUse=1 WtCom= 1.00D+00 WtEn= 0.00D+00
 Coeff-Com:  0.565D-01-0.492D-01-0.203D-01 0.857D-01-0.133D+00 0.305D-01
 Coeff-Com:  0.137D-01-0.249D-02 0.134D+00-0.928D-01-0.878D-01-0.576D-01
 Coeff-Com:  0.231D+00 0.224D+00-0.603D+00 0.206D+00 0.210D+00-0.364D+00
 Coeff-Com: -0.684D+00 0.190D+01
 Coeff:      0.565D-01-0.492D-01-0.203D-01 0.857D-01-0.133D+00 0.305D-01
 Coeff:      0.137D-01-0.249D-02 0.134D+00-0.928D-01-0.878D-01-0.576D-01
 Coeff:      0.231D+00 0.224D+00-0.603D+00 0.206D+00 0.210D+00-0.364D+00
 Coeff:     -0.684D+00 0.190D+01
 Gap=     0.029 Goal=   None    Shift=    0.300
 Gap=     0.152 Goal=   None    Shift=    0.300
 RMSDP=4.14D-06 MaxDP=5.11D-04 DE=-3.89D-06 OVMax= 1.81D-03

 Cycle 126  Pass 1  IDiag  1:
 RMSU=  5.24D-07    CP:  1.00D+00  3.00D+00  2.15D+00  2.39D+00  2.32D+00
 E= -1178.77514752719     Delta-E=       -0.000002256339 Rises=F Damp=F
 DIIS: error= 5.34D-05 at cycle 126 NSaved=  20.
 NSaved=20 IEnMin=20 EnMin= -1178.77514752719     IErMin=20 ErrMin= 5.34D-05
 ErrMax= 5.34D-05  0.00D+00 EMaxC= 1.00D-01 BMatC= 4.56D-06 BMatP= 6.10D-06
 IDIUse=1 WtCom= 1.00D+00 WtEn= 0.00D+00
 Coeff-Com: -0.451D-01 0.189D-01-0.852D-01 0.263D+00-0.728D-01-0.878D-01
 Coeff-Com: -0.873D-01 0.876D-01 0.771D-01-0.196D-01-0.120D+00 0.513D-01
 Coeff-Com:  0.227D+00-0.433D+00-0.367D-01 0.526D+00 0.290D+00-0.182D+01
 Coeff-Com: -0.265D+00 0.253D+01
 Coeff:     -0.451D-01 0.189D-01-0.852D-01 0.263D+00-0.728D-01-0.878D-01
 Coeff:     -0.873D-01 0.876D-01 0.771D-01-0.196D-01-0.120D+00 0.513D-01
 Coeff:      0.227D+00-0.433D+00-0.367D-01 0.526D+00 0.290D+00-0.182D+01
 Coeff:     -0.265D+00 0.253D+01
 Gap=     0.029 Goal=   None    Shift=    0.300
 Gap=     0.151 Goal=   None    Shift=    0.300
 RMSDP=4.27D-06 MaxDP=5.64D-04 DE=-2.26D-06 OVMax= 1.78D-03

 Cycle 127  Pass 1  IDiag  1:
 RMSU=  1.39D-06    CP:  1.00D+00  3.00D+00  1.87D+00  2.98D+00  3.00D+00
                    CP:  2.32D+00
 E= -1178.77514907063     Delta-E=       -0.000001543438 Rises=F Damp=F
 DIIS: error= 5.12D-05 at cycle 127 NSaved=  20.
 NSaved=20 IEnMin=20 EnMin= -1178.77514907063     IErMin=20 ErrMin= 5.12D-05
 ErrMax= 5.12D-05  0.00D+00 EMaxC= 1.00D-01 BMatC= 4.43D-06 BMatP= 4.56D-06
 IDIUse=1 WtCom= 1.00D+00 WtEn= 0.00D+00
 Coeff-Com:  0.496D-02-0.104D+00 0.158D+00 0.677D-02-0.793D-01-0.668D-01
 Coeff-Com:  0.836D-01-0.129D-01 0.331D-01 0.614D-02 0.307D-01 0.856D-01
 Coeff-Com: -0.388D+00-0.251D+00 0.679D+00 0.641D+00-0.886D+00-0.212D+01
 Coeff-Com:  0.148D+01 0.170D+01
 Coeff:      0.496D-02-0.104D+00 0.158D+00 0.677D-02-0.793D-01-0.668D-01
 Coeff:      0.836D-01-0.129D-01 0.331D-01 0.614D-02 0.307D-01 0.856D-01
 Coeff:     -0.388D+00-0.251D+00 0.679D+00 0.641D+00-0.886D+00-0.212D+01
 Coeff:      0.148D+01 0.170D+01
 Gap=     0.029 Goal=   None    Shift=    0.300
 Gap=     0.151 Goal=   None    Shift=    0.300
 RMSDP=4.25D-06 MaxDP=5.67D-04 DE=-1.54D-06 OVMax= 1.73D-03

 Cycle 128  Pass 1  IDiag  1:
 RMSU=  2.97D-06    CP:  1.00D+00  3.00D+00  1.53D+00  3.00D+00  3.00D+00
                    CP:  3.00D+00  2.70D+00
 E= -1178.77515029610     Delta-E=       -0.000001225472 Rises=F Damp=F
 DIIS: error= 5.16D-05 at cycle 128 NSaved=  20.
 NSaved=20 IEnMin=20 EnMin= -1178.77515029610     IErMin=19 ErrMin= 5.12D-05
 ErrMax= 5.16D-05  0.00D+00 EMaxC= 1.00D-01 BMatC= 4.65D-06 BMatP= 4.43D-06
 IDIUse=1 WtCom= 1.00D+00 WtEn= 0.00D+00
 Coeff-Com: -0.531D-01 0.110D+00-0.564D-03-0.888D-01-0.775D-01 0.143D+00
 Coeff-Com: -0.668D-01 0.294D-01 0.659D-01 0.834D-01-0.806D-02-0.395D+00
 Coeff-Com: -0.223D+00 0.640D+00 0.355D+00 0.699D+00-0.259D+01-0.506D+00
 Coeff-Com:  0.841D+00 0.204D+01
 Coeff:     -0.531D-01 0.110D+00-0.564D-03-0.888D-01-0.775D-01 0.143D+00
 Coeff:     -0.668D-01 0.294D-01 0.659D-01 0.834D-01-0.806D-02-0.395D+00
 Coeff:     -0.223D+00 0.640D+00 0.355D+00 0.699D+00-0.259D+01-0.506D+00
 Coeff:      0.841D+00 0.204D+01
 Gap=     0.029 Goal=   None    Shift=    0.300
 Gap=     0.151 Goal=   None    Shift=    0.300
 RMSDP=4.37D-06 MaxDP=5.85D-04 DE=-1.23D-06 OVMax= 1.72D-03

 >>>>>>>>>> Convergence criterion not met.
 SCF Done:  E(UPBE1PBE) =  -1178.77515030     A.U. after  129 cycles
            NFock=128  Conv=0.44D-05     -V/T= 2.0933
 <Sx>= 0.0000 <Sy>= 0.0000 <Sz>= 0.5000 <S**2>= 0.7527 S= 0.5014
 <L.S>= 0.000000000000E+00
 KE= 1.078224233548D+03 PE=-7.445056905558D+03 EE= 2.819084589051D+03
 Annihilation of the first spin contaminant:
 S**2 before annihilation     0.7527,   after     0.7500
 Leave Link  502 at Fri Sep 11 21:41:27 2026, MaxMem=  6442450944 cpu:            4112.0 elap:            4111.0
 (Enter C:\G16W\l508.exe)
 Two-electron integral symmetry not used.
 Tight linear equation convergence will be used.
 UPBE1PBE wavefunction.
 Quadratic Convergence SCF Method.
 Line search only if initial step raises energy.
 Fock matrices will be formed incrementally for  20 cycles.
 FoFJK:  IHMeth= 1 ICntrl=       0 DoSepK=F KAlg= 0 I1Cent=           0 FoldK=F
 IRaf= 780000000 NMat=       1 IRICut=       1 DoRegI=T DoRafI=F ISym2E= 0 IDoP0=0 IntGTp=1.
 FoFCou: FMM=F IPFlag=           0 FMFlag=      100000 FMFlg1=           0
         NFxFlg=           0 DoJE=F BraDBF=F KetDBF=F FulRan=T
         wScrn=  0.000000 ICntrl=         0 IOpCl=  1 I1Cent=           0 NGrid=           0
         NMat0=    1 NMatS0=      1 NMatT0=    0 NMatD0=    1 NMtDS0=    0 NMtDT0=    0
 Symmetry not used in FoFCou.
 Defaulting to unpruned grid for atomic number  47.
 Defaulting to unpruned grid for atomic number  47.
 Defaulting to unpruned grid for atomic number  47.
 Defaulting to unpruned grid for atomic number  47.
 Defaulting to unpruned grid for atomic number  47.
 Defaulting to unpruned grid for atomic number  47.
 Defaulting to unpruned grid for atomic number  47.
 Defaulting to unpruned grid for atomic number  47.
 Iteration   1 EE= -1178.77515124158                                    Grad=1.636D-03 Max rot=    0.0304 deg.
 QCNR:  CnvC1=1.64D-08 CnvC2=1.64D-07
 LinEq1:  Iter=  0 NonCon=     1 RMS=6.71D-05 Max=1.79D-02 NDo=     1
 AX will form     1 AO Fock derivatives at one time.
 LinEq1:  Iter=  1 NonCon=     1 RMS=2.66D-05 Max=2.02D-03 NDo=     1
 LinEq1:  Iter=  2 NonCon=     1 RMS=2.15D-05 Max=1.83D-03 NDo=     1
 LinEq1:  Iter=  3 NonCon=     1 RMS=1.33D-05 Max=1.01D-03 NDo=     1
 LinEq1:  Iter=  4 NonCon=     1 RMS=9.10D-06 Max=7.01D-04 NDo=     1
 LinEq1:  Iter=  5 NonCon=     1 RMS=8.42D-06 Max=7.88D-04 NDo=     1
 LinEq1:  Iter=  6 NonCon=     1 RMS=6.83D-06 Max=8.93D-04 NDo=     1
 LinEq1:  Iter=  7 NonCon=     1 RMS=5.70D-06 Max=9.06D-04 NDo=     1
 LinEq1:  Iter=  8 NonCon=     1 RMS=3.16D-06 Max=3.64D-04 NDo=     1
 LinEq1:  Iter=  9 NonCon=     1 RMS=2.50D-06 Max=1.39D-04 NDo=     1
 LinEq1:  Iter= 10 NonCon=     1 RMS=1.69D-06 Max=6.78D-05 NDo=     1
 LinEq1:  Iter= 11 NonCon=     1 RMS=1.04D-06 Max=3.98D-05 NDo=     1
 LinEq1:  Iter= 12 NonCon=     1 RMS=8.07D-07 Max=4.36D-05 NDo=     1
 LinEq1:  Iter= 13 NonCon=     1 RMS=7.78D-07 Max=3.94D-05 NDo=     1
 LinEq1:  Iter= 14 NonCon=     1 RMS=3.95D-07 Max=1.91D-05 NDo=     1
 LinEq1:  Iter= 15 NonCon=     1 RMS=2.66D-07 Max=1.71D-05 NDo=     1
 LinEq1:  Iter= 16 NonCon=     1 RMS=1.54D-07 Max=7.56D-06 NDo=     1
 LinEq1:  Iter= 17 NonCon=     1 RMS=7.21D-08 Max=4.77D-06 NDo=     1
 LinEq1:  Iter= 18 NonCon=     1 RMS=4.99D-08 Max=3.07D-06 NDo=     1
 LinEq1:  Iter= 19 NonCon=     1 RMS=3.56D-08 Max=1.59D-06 NDo=     1
 LinEq1:  Iter= 20 NonCon=     1 RMS=1.99D-08 Max=7.85D-07 NDo=     1
 LinEq1:  Iter= 21 NonCon=     1 RMS=1.36D-08 Max=6.00D-07 NDo=     1
 LinEq1:  Iter= 22 NonCon=     1 RMS=6.42D-09 Max=3.15D-07 NDo=     1
 LinEq1:  Iter= 23 NonCon=     1 RMS=4.35D-09 Max=2.85D-07 NDo=     1
 LinEq1:  Iter= 24 NonCon=     0 RMS=2.36D-09 Max=1.07D-07 NDo=     1
 Linear equations converged to 1.636D-08 1.636D-07 after    24 iterations.
 Angle between quadratic step and gradient=  75.57 degrees.
     ILin= 1 X=0.000D+00 Y=-1.178775151242D+03 DE= 0.00D+00 F= -2.12D-05
 RMSU=  5.90D-05    CP:  1.00D+00
     ILin= 2 X=1.000D+00 Y=-1.178775162597D+03 DE=-1.14D-05 F= -2.25D-06 OKLS=T
     Reject lnstep IMin12=  1  2 Big=T Turn=F Min= 1.136D+00 FVal=-1.178775162750D+03 Lims=  0.00D+00  1.00D+00
 RMSU=  2.98D-06    CP:  1.00D+00  2.00D+00
     ILin= 3 X=2.000D+00 Y=-1.178775157185D+03 DE=-5.94D-06 F=  1.24D-05
     An  expanding polynomial of degree  3 produced  1.1772
 RMSU=  8.77D-10    CP:  1.00D+00  1.18D+00  1.04D-01
 Iteration   2 EE= -1178.77516273690     Delta-E=       -0.000011495314 Grad=1.125D-04 Max rot=    0.0012 deg.
 QCNR:  CnvC1=1.13D-09 CnvC2=1.13D-08
 LinEq1:  Iter=  0 NonCon=     1 RMS=2.83D-06 Max=7.32D-04 NDo=     1
 LinEq1:  Iter=  1 NonCon=     1 RMS=1.21D-06 Max=1.75D-04 NDo=     1
 LinEq1:  Iter=  2 NonCon=     1 RMS=1.29D-06 Max=2.12D-04 NDo=     1
 LinEq1:  Iter=  3 NonCon=     1 RMS=1.01D-06 Max=1.15D-04 NDo=     1
 LinEq1:  Iter=  4 NonCon=     1 RMS=7.83D-07 Max=6.38D-05 NDo=     1
 LinEq1:  Iter=  5 NonCon=     1 RMS=7.66D-07 Max=6.24D-05 NDo=     1
 LinEq1:  Iter=  6 NonCon=     1 RMS=6.19D-07 Max=4.22D-05 NDo=     1
 LinEq1:  Iter=  7 NonCon=     1 RMS=3.99D-07 Max=3.02D-05 NDo=     1
 LinEq1:  Iter=  8 NonCon=     1 RMS=1.71D-07 Max=1.09D-05 NDo=     1
 LinEq1:  Iter=  9 NonCon=     1 RMS=1.09D-07 Max=5.14D-06 NDo=     1
 LinEq1:  Iter= 10 NonCon=     1 RMS=8.12D-08 Max=3.80D-06 NDo=     1
 LinEq1:  Iter= 11 NonCon=     1 RMS=6.51D-08 Max=3.04D-06 NDo=     1
 LinEq1:  Iter= 12 NonCon=     1 RMS=5.13D-08 Max=2.60D-06 NDo=     1
 LinEq1:  Iter= 13 NonCon=     1 RMS=4.49D-08 Max=2.21D-06 NDo=     1
 LinEq1:  Iter= 14 NonCon=     1 RMS=2.53D-08 Max=1.40D-06 NDo=     1
 LinEq1:  Iter= 15 NonCon=     1 RMS=1.68D-08 Max=9.40D-07 NDo=     1
 LinEq1:  Iter= 16 NonCon=     1 RMS=9.55D-09 Max=4.96D-07 NDo=     1
 LinEq1:  Iter= 17 NonCon=     1 RMS=5.54D-09 Max=3.74D-07 NDo=     1
 LinEq1:  Iter= 18 NonCon=     1 RMS=3.48D-09 Max=2.23D-07 NDo=     1
 LinEq1:  Iter= 19 NonCon=     1 RMS=2.49D-09 Max=1.48D-07 NDo=     1
 LinEq1:  Iter= 20 NonCon=     1 RMS=1.35D-09 Max=4.59D-08 NDo=     1
 LinEq1:  Iter= 21 NonCon=     1 RMS=8.68D-10 Max=3.24D-08 NDo=     1
 LinEq1:  Iter= 22 NonCon=     1 RMS=4.06D-10 Max=1.91D-08 NDo=     1
 LinEq1:  Iter= 23 NonCon=     1 RMS=2.79D-10 Max=1.75D-08 NDo=     1
 LinEq1:  Iter= 24 NonCon=     1 RMS=1.92D-10 Max=1.30D-08 NDo=     1
 LinEq1:  Iter= 25 NonCon=     0 RMS=1.01D-10 Max=5.32D-09 NDo=     1
 Linear equations converged to 1.125D-09 1.125D-08 after    25 iterations.
 Angle between quadratic step and gradient=  81.90 degrees.
     ILin= 1 X=0.000D+00 Y=-1.178775162737D+03 DE= 0.00D+00 F= -3.23D-08
 RMSU=  1.23D-06    CP:  1.00D+00  1.14D+00  6.89D-02 -3.00D+00
     ILin= 2 X=1.000D+00 Y=-1.178775162753D+03 DE=-1.62D-08
 Iteration   3 EE= -1178.77516275314     Delta-E=       -0.000000016244 Grad=2.217D-07 Max rot=    0.0000 deg.
 Rotation gradient small -- convergence achieved.
 SCF Done:  E(UPBE1PBE) =  -1178.77516275     a.u. after    3 cycles
            Convg  =    0.2217D-06                    54 Fock formations.
              S**2 =  0.7526                  -V/T =  2.0933
 <Sx>= 0.0000 <Sy>= 0.0000 <Sz>= 0.5000 <S**2>= 0.7526 S= 0.5013
 <L.S>= 0.000000000000E+00
 Annihilation of the first spin contaminant:
 S**2 before annihilation     0.7526,   after     0.7500
 Leave Link  508 at Fri Sep 11 22:07:51 2026, MaxMem=  6442450944 cpu:            1584.0 elap:            1584.2
 (Enter C:\G16W\l601.exe)
 Copying SCF densities to generalized density rwf, IOpCl= 1 IROHF=0.

 **********************************************************************

            Population analysis using the SCF Density.

 **********************************************************************

 Alpha  occ. eigenvalues --  -14.41767 -14.41763 -10.29234 -10.29206 -10.28497
 Alpha  occ. eigenvalues --  -10.28497 -10.27804 -10.27800 -10.26973 -10.26965
 Alpha  occ. eigenvalues --  -10.26320 -10.26318 -10.25926 -10.25924 -10.25583
 Alpha  occ. eigenvalues --  -10.25518 -10.25267 -10.25267 -10.25266 -10.25266
 Alpha  occ. eigenvalues --  -10.25116 -10.25116 -10.25102 -10.25102 -10.25000
 Alpha  occ. eigenvalues --  -10.25000  -3.70476  -2.28667  -2.28319  -2.28313
 Alpha  occ. eigenvalues --   -1.01055  -0.98581  -0.90931  -0.90597  -0.88676
 Alpha  occ. eigenvalues --   -0.85747  -0.85037  -0.79319  -0.78728  -0.78175
 Alpha  occ. eigenvalues --   -0.78174  -0.77757  -0.77157  -0.69565  -0.68563
 Alpha  occ. eigenvalues --   -0.67532  -0.66294  -0.63918  -0.63916  -0.62924
 Alpha  occ. eigenvalues --   -0.60327  -0.58734  -0.57587  -0.56228  -0.54895
 Alpha  occ. eigenvalues --   -0.53463  -0.51655  -0.51606  -0.50646  -0.49458
 Alpha  occ. eigenvalues --   -0.49277  -0.47952  -0.47572  -0.47067  -0.46844
 Alpha  occ. eigenvalues --   -0.45565  -0.45241  -0.45204  -0.44735  -0.44252
 Alpha  occ. eigenvalues --   -0.43590  -0.42775  -0.41092  -0.40508  -0.39307
 Alpha  occ. eigenvalues --   -0.38626  -0.38037  -0.37923  -0.37780  -0.37503
 Alpha  occ. eigenvalues --   -0.37291  -0.33828  -0.33543  -0.33139  -0.32774
 Alpha  occ. eigenvalues --   -0.28776  -0.28564  -0.28218  -0.28120  -0.27940
 Alpha  occ. eigenvalues --   -0.27886  -0.27826  -0.27293  -0.26478  -0.25872
 Alpha  occ. eigenvalues --   -0.22714  -0.10218
 Alpha virt. eigenvalues --   -0.07382  -0.07273  -0.02764  -0.02014  -0.01965
 Alpha virt. eigenvalues --   -0.01947  -0.01459   0.00814   0.03109   0.03973
 Alpha virt. eigenvalues --    0.05187   0.06336   0.06456   0.07328   0.08595
 Alpha virt. eigenvalues --    0.10190   0.10332   0.10337   0.10583   0.11419
 Alpha virt. eigenvalues --    0.11891   0.12130   0.13510   0.14153   0.14332
 Alpha virt. eigenvalues --    0.14935   0.15037   0.15046   0.15228   0.15263
 Alpha virt. eigenvalues --    0.15769   0.17823   0.20287   0.20521   0.21775
 Alpha virt. eigenvalues --    0.23608   0.24311   0.24418   0.25227   0.26787
 Alpha virt. eigenvalues --    0.27599   0.27794   0.28888   0.28903   0.29597
 Alpha virt. eigenvalues --    0.30260   0.30262   0.30699   0.31526   0.31541
 Alpha virt. eigenvalues --    0.31581   0.32991   0.33479   0.34843   0.35051
 Alpha virt. eigenvalues --    0.36856   0.37067   0.37299   0.37901   0.38198
 Alpha virt. eigenvalues --    0.38999   0.40028   0.40236   0.40669   0.41273
 Alpha virt. eigenvalues --    0.41722   0.42344   0.42467   0.42774   0.43687
 Alpha virt. eigenvalues --    0.44064   0.44449   0.44647   0.45496   0.45682
 Alpha virt. eigenvalues --    0.45956   0.46271   0.46419   0.47557   0.47706
 Alpha virt. eigenvalues --    0.47764   0.48706   0.48792   0.49044   0.49555
 Alpha virt. eigenvalues --    0.49707   0.49966   0.50098   0.51000   0.53402
 Alpha virt. eigenvalues --    0.53443   0.53841   0.54168   0.54238   0.54992
 Alpha virt. eigenvalues --    0.55352   0.57208   0.57313   0.57342   0.59422
 Alpha virt. eigenvalues --    0.60089   0.60348   0.61857   0.61983   0.62587
 Alpha virt. eigenvalues --    0.63654   0.64434   0.64840   0.65173   0.65194
 Alpha virt. eigenvalues --    0.65774   0.66829   0.67135   0.67150   0.67473
 Alpha virt. eigenvalues --    0.67790   0.67852   0.68030   0.68132   0.68590
 Alpha virt. eigenvalues --    0.69171   0.69346   0.70094   0.70471   0.70592
 Alpha virt. eigenvalues --    0.71702   0.72111   0.72262   0.72380   0.72529
 Alpha virt. eigenvalues --    0.73478   0.73946   0.74369   0.74982   0.75064
 Alpha virt. eigenvalues --    0.75331   0.76475   0.76971   0.77724   0.77820
 Alpha virt. eigenvalues --    0.78873   0.78955   0.81167   0.81267   0.82234
 Alpha virt. eigenvalues --    0.83124   0.83791   0.84252   0.84413   0.85371
 Alpha virt. eigenvalues --    0.85381   0.87419   0.88141   0.89675   0.90656
 Alpha virt. eigenvalues --    0.92339   0.92937   0.94222   0.94818   0.96607
 Alpha virt. eigenvalues --    0.99424   1.01675   1.02399   1.03185   1.07282
 Alpha virt. eigenvalues --    1.07313   1.08239   1.08621   1.10590   1.10957
 Alpha virt. eigenvalues --    1.13599   1.16573   1.18173   1.19669   1.19890
 Alpha virt. eigenvalues --    1.21070   1.21805   1.22230   1.22417   1.23313
 Alpha virt. eigenvalues --    1.23674   1.23675   1.23934   1.23985   1.24015
 Alpha virt. eigenvalues --    1.24656   1.26073   1.26251   1.27093   1.28632
 Alpha virt. eigenvalues --    1.28636   1.30053   1.30536   1.30762   1.31283
 Alpha virt. eigenvalues --    1.33382   1.33900   1.34723   1.35941   1.37630
 Alpha virt. eigenvalues --    1.39835   1.40599   1.44262   1.45159   1.48307
 Alpha virt. eigenvalues --    1.48355   1.53029   1.53319   1.53559   1.56376
 Alpha virt. eigenvalues --    1.58062   1.60167   1.60874   1.61114   1.62350
 Alpha virt. eigenvalues --    1.63829   1.66706   1.66729   1.68065   1.70196
 Alpha virt. eigenvalues --    1.71242   1.71944   1.72237   1.72625   1.73845
 Alpha virt. eigenvalues --    1.74420   1.74845   1.74970   1.75383   1.75804
 Alpha virt. eigenvalues --    1.76038   1.76082   1.76530   1.76584   1.76702
 Alpha virt. eigenvalues --    1.76926   1.78306   1.78717   1.79919   1.80118
 Alpha virt. eigenvalues --    1.80684   1.80850   1.81270   1.81369   1.82337
 Alpha virt. eigenvalues --    1.83163   1.84772   1.85427   1.87396   1.87601
 Alpha virt. eigenvalues --    1.89084   1.90194   1.90288   1.92009   1.93252
 Alpha virt. eigenvalues --    1.93364   1.94209   1.95108   1.95460   1.95535
 Alpha virt. eigenvalues --    1.96306   1.97546   1.98499   1.98545   1.98546
 Alpha virt. eigenvalues --    1.99557   2.00011   2.00157   2.01382   2.01389
 Alpha virt. eigenvalues --    2.05425   2.07301   2.07372   2.09116   2.09154
 Alpha virt. eigenvalues --    2.10739   2.12830   2.12885   2.12906   2.13148
 Alpha virt. eigenvalues --    2.14763   2.15633   2.17128   2.17248   2.18916
 Alpha virt. eigenvalues --    2.19395   2.21370   2.21555   2.22656   2.25870
 Alpha virt. eigenvalues --    2.27080   2.28128   2.28649   2.29308   2.29669
 Alpha virt. eigenvalues --    2.29739   2.30859   2.31769   2.31976   2.33162
 Alpha virt. eigenvalues --    2.33391   2.34187   2.35501   2.35535   2.36129
 Alpha virt. eigenvalues --    2.36753   2.38635   2.40468   2.41005   2.42091
 Alpha virt. eigenvalues --    2.42237   2.46699   2.48507   2.49309   2.53907
 Alpha virt. eigenvalues --    2.54675   2.55120   2.55160   2.55811   2.56310
 Alpha virt. eigenvalues --    2.58465   2.60674   2.63409   2.63612   2.64732
 Alpha virt. eigenvalues --    2.65071   2.66003   2.66791   2.66923   2.67041
 Alpha virt. eigenvalues --    2.67238   2.67393   2.67867   2.68865   2.70048
 Alpha virt. eigenvalues --    2.70221   2.70242   2.71467   2.75613   2.75657
 Alpha virt. eigenvalues --    2.75809   2.76238   2.76629   2.77061   2.78053
 Alpha virt. eigenvalues --    2.79609   2.81744   2.85653   2.87178   2.88899
 Alpha virt. eigenvalues --    2.90030   2.90211   2.90506   2.90854   2.91527
 Alpha virt. eigenvalues --    2.91692   2.95097   2.97134   2.97521   3.02872
 Alpha virt. eigenvalues --    3.05716   3.06660   3.08750   3.11947   3.15860
 Alpha virt. eigenvalues --    3.15897   3.16498   3.17958   3.26889   3.26927
 Alpha virt. eigenvalues --    3.29488   3.32552   3.55027   3.61974   3.65793
 Alpha virt. eigenvalues --    3.69293   3.72971  53.91076
  Beta  occ. eigenvalues --  -14.41669 -14.41665 -10.29230 -10.29202 -10.28455
  Beta  occ. eigenvalues --  -10.28455 -10.27772 -10.27768 -10.26967 -10.26959
  Beta  occ. eigenvalues --  -10.26322 -10.26320 -10.25940 -10.25939 -10.25558
  Beta  occ. eigenvalues --  -10.25492 -10.25266 -10.25266 -10.25265 -10.25265
  Beta  occ. eigenvalues --  -10.25115 -10.25115 -10.25102 -10.25101 -10.25000
  Beta  occ. eigenvalues --  -10.25000  -3.70408  -2.28570  -2.28354  -2.28314
  Beta  occ. eigenvalues --   -1.00962  -0.98483  -0.90903  -0.90582  -0.88629
  Beta  occ. eigenvalues --   -0.85701  -0.84998  -0.79272  -0.78684  -0.78172
  Beta  occ. eigenvalues --   -0.78172  -0.77741  -0.77125  -0.69532  -0.68469
  Beta  occ. eigenvalues --   -0.67489  -0.66265  -0.63912  -0.63910  -0.62903
  Beta  occ. eigenvalues --   -0.60300  -0.58677  -0.57550  -0.56182  -0.54879
  Beta  occ. eigenvalues --   -0.53413  -0.51616  -0.51570  -0.50595  -0.49434
  Beta  occ. eigenvalues --   -0.49262  -0.47927  -0.47547  -0.47051  -0.46764
  Beta  occ. eigenvalues --   -0.45521  -0.45239  -0.45201  -0.44674  -0.44208
  Beta  occ. eigenvalues --   -0.43546  -0.42652  -0.41067  -0.40495  -0.39276
  Beta  occ. eigenvalues --   -0.38598  -0.37968  -0.37826  -0.37734  -0.37490
  Beta  occ. eigenvalues --   -0.37204  -0.33505  -0.33327  -0.33055  -0.32611
  Beta  occ. eigenvalues --   -0.28750  -0.28556  -0.28213  -0.28116  -0.27740
  Beta  occ. eigenvalues --   -0.27498  -0.27431  -0.27085  -0.25943  -0.25638
  Beta  occ. eigenvalues --   -0.22165
  Beta virt. eigenvalues --   -0.07161  -0.06981  -0.02571  -0.02079  -0.01965
  Beta virt. eigenvalues --   -0.01925  -0.01865  -0.01403   0.00892   0.05251
  Beta virt. eigenvalues --    0.05415   0.05663   0.06401   0.06469   0.08451
  Beta virt. eigenvalues --    0.08693   0.10204   0.10340   0.10412   0.10825
  Beta virt. eigenvalues --    0.11425   0.12005   0.12266   0.14165   0.14281
  Beta virt. eigenvalues --    0.14940   0.14967   0.15061   0.15065   0.15273
  Beta virt. eigenvalues --    0.15389   0.16977   0.18143   0.20406   0.20640
  Beta virt. eigenvalues --    0.21825   0.23696   0.24517   0.24693   0.25259
  Beta virt. eigenvalues --    0.26832   0.27688   0.27885   0.28890   0.28905
  Beta virt. eigenvalues --    0.29632   0.30354   0.30438   0.30767   0.31535
  Beta virt. eigenvalues --    0.31594   0.31625   0.33045   0.33719   0.35034
  Beta virt. eigenvalues --    0.35484   0.36905   0.37574   0.37955   0.38735
  Beta virt. eigenvalues --    0.38739   0.39017   0.40136   0.40260   0.40757
  Beta virt. eigenvalues --    0.42029   0.42265   0.42388   0.42495   0.43215
  Beta virt. eigenvalues --    0.43751   0.44219   0.44721   0.45205   0.46018
  Beta virt. eigenvalues --    0.46039   0.46072   0.46452   0.46754   0.47750
  Beta virt. eigenvalues --    0.47978   0.48225   0.48746   0.48842   0.49069
  Beta virt. eigenvalues --    0.49584   0.49790   0.50090   0.50245   0.51044
  Beta virt. eigenvalues --    0.53506   0.53902   0.53970   0.54725   0.54812
  Beta virt. eigenvalues --    0.55080   0.55412   0.57307   0.57407   0.57595
  Beta virt. eigenvalues --    0.59620   0.60122   0.60412   0.62020   0.62614
  Beta virt. eigenvalues --    0.62712   0.63685   0.64656   0.64865   0.65202
  Beta virt. eigenvalues --    0.65350   0.65819   0.66869   0.67295   0.67325
  Beta virt. eigenvalues --    0.67596   0.67800   0.68061   0.68098   0.68216
  Beta virt. eigenvalues --    0.68946   0.69359   0.69399   0.70151   0.70568
  Beta virt. eigenvalues --    0.70684   0.71807   0.72388   0.72408   0.72464
  Beta virt. eigenvalues --    0.72613   0.73518   0.74361   0.74453   0.75047
  Beta virt. eigenvalues --    0.75093   0.75348   0.76610   0.76988   0.77790
  Beta virt. eigenvalues --    0.77966   0.78904   0.78986   0.81279   0.81317
  Beta virt. eigenvalues --    0.82274   0.83214   0.83816   0.84332   0.84464
  Beta virt. eigenvalues --    0.85398   0.85519   0.87430   0.88223   0.89880
  Beta virt. eigenvalues --    0.90723   0.92463   0.92967   0.94259   0.94846
  Beta virt. eigenvalues --    0.96779   0.99607   1.01855   1.02412   1.03222
  Beta virt. eigenvalues --    1.07312   1.07343   1.08275   1.08674   1.10630
  Beta virt. eigenvalues --    1.10989   1.13692   1.16604   1.18200   1.19718
  Beta virt. eigenvalues --    1.19899   1.21087   1.21835   1.22271   1.22457
  Beta virt. eigenvalues --    1.23330   1.23693   1.23716   1.23954   1.24008
  Beta virt. eigenvalues --    1.24056   1.24695   1.26108   1.26287   1.27171
  Beta virt. eigenvalues --    1.28639   1.28663   1.30060   1.30544   1.30772
  Beta virt. eigenvalues --    1.31312   1.33417   1.33956   1.34791   1.36002
  Beta virt. eigenvalues --    1.37687   1.39984   1.40625   1.44294   1.45279
  Beta virt. eigenvalues --    1.48383   1.48580   1.53133   1.53361   1.53613
  Beta virt. eigenvalues --    1.56435   1.58076   1.60223   1.60930   1.61182
  Beta virt. eigenvalues --    1.62359   1.63868   1.66708   1.66732   1.68084
  Beta virt. eigenvalues --    1.70208   1.71250   1.71990   1.72246   1.72645
  Beta virt. eigenvalues --    1.73855   1.74453   1.74864   1.74982   1.75389
  Beta virt. eigenvalues --    1.75821   1.76046   1.76158   1.76536   1.76589
  Beta virt. eigenvalues --    1.76722   1.76956   1.78365   1.78784   1.79923
  Beta virt. eigenvalues --    1.80166   1.80701   1.80947   1.81308   1.81410
  Beta virt. eigenvalues --    1.82382   1.83229   1.84795   1.85453   1.87455
  Beta virt. eigenvalues --    1.87662   1.89121   1.90216   1.90346   1.92048
  Beta virt. eigenvalues --    1.93296   1.93404   1.94302   1.95126   1.95466
  Beta virt. eigenvalues --    1.95591   1.96324   1.97583   1.98500   1.98547
  Beta virt. eigenvalues --    1.98568   1.99611   2.00016   2.00159   2.01446
  Beta virt. eigenvalues --    2.01463   2.05458   2.07318   2.07395   2.09122
  Beta virt. eigenvalues --    2.09167   2.10798   2.12947   2.12951   2.13040
  Beta virt. eigenvalues --    2.13321   2.14767   2.15663   2.17174   2.17380
  Beta virt. eigenvalues --    2.18958   2.19398   2.21423   2.21765   2.22693
  Beta virt. eigenvalues --    2.25910   2.27094   2.28196   2.28666   2.29336
  Beta virt. eigenvalues --    2.29678   2.29783   2.30968   2.31822   2.31995
  Beta virt. eigenvalues --    2.33175   2.33402   2.34245   2.35507   2.35539
  Beta virt. eigenvalues --    2.36152   2.36808   2.38693   2.40494   2.41047
  Beta virt. eigenvalues --    2.42154   2.42311   2.46749   2.48552   2.49395
  Beta virt. eigenvalues --    2.53931   2.54691   2.55185   2.55241   2.55951
  Beta virt. eigenvalues --    2.56339   2.58507   2.60719   2.63416   2.63618
  Beta virt. eigenvalues --    2.64784   2.65120   2.66012   2.66800   2.66930
  Beta virt. eigenvalues --    2.67022   2.67230   2.67461   2.67861   2.68966
  Beta virt. eigenvalues --    2.70073   2.70247   2.70327   2.71488   2.75614
  Beta virt. eigenvalues --    2.75659   2.75820   2.76247   2.76697   2.77080
  Beta virt. eigenvalues --    2.78105   2.79735   2.81774   2.85699   2.87287
  Beta virt. eigenvalues --    2.88928   2.90045   2.90215   2.90517   2.90868
  Beta virt. eigenvalues --    2.91531   2.91696   2.95175   2.97198   2.97557
  Beta virt. eigenvalues --    3.02904   3.05758   3.06729   3.08759   3.11979
  Beta virt. eigenvalues --    3.15863   3.15900   3.16524   3.17998   3.26894
  Beta virt. eigenvalues --    3.26932   3.29592   3.32636   3.55085   3.62027
  Beta virt. eigenvalues --    3.65817   3.69298   3.73008  53.91174
          Condensed to atoms (all electrons):
               1          2          3          4          5          6
     1  C    5.109145   0.271990   0.088243  -0.162985   0.000372   0.000058
     2  C    0.271990   5.058284   0.298502   0.093723   0.012075   0.000276
     3  C    0.088243   0.298502   5.045179   0.291743  -0.074175  -0.006933
     4  C   -0.162985   0.093723   0.291743   5.470768   0.311222  -0.086791
     5  C    0.000372   0.012075  -0.074175   0.311222   5.249935   0.474284
     6  C    0.000058   0.000276  -0.006933  -0.086791   0.474284   4.962442
     7  C    0.000001   0.000011   0.000118   0.008242   0.012469   0.399283
     8  N    0.000000   0.000000  -0.000005  -0.000155  -0.045796  -0.022700
     9  C   -0.000005   0.000041  -0.000929   0.019682  -0.112203  -0.058923
    10  C   -0.000102   0.000487  -0.009786  -0.071392   0.396059   0.004767
    11  C    0.000069  -0.000296  -0.000129  -0.021829  -0.101860   0.011659
    12  C    0.000006  -0.000020   0.000091  -0.002719   0.019921  -0.000660
    13  C    0.000000   0.000001  -0.000037   0.000166  -0.000800  -0.000231
    14  C    0.000000   0.000000   0.000000   0.000000   0.000054  -0.000003
    15  C    0.000000   0.000000   0.000000   0.000000   0.000000   0.000000
    16  C    0.000000   0.000000   0.000000   0.000000   0.000000   0.000000
    17  C    0.000000   0.000000   0.000000   0.000000   0.000000   0.000000
    18  C    0.000000   0.000000   0.000000   0.000000   0.000000   0.000000
    19  C    0.000000   0.000000   0.000000   0.000000   0.000000   0.000000
    20  C    0.000000   0.000000   0.000000   0.000000   0.000000   0.000000
    21  C    0.000000   0.000000   0.000000   0.000000  -0.000003   0.000000
    22  C    0.000000   0.000000   0.000000   0.000000   0.000010  -0.000002
    23  N    0.000000   0.000000   0.000000   0.000001  -0.000054  -0.000087
    24  C    0.000000  -0.000001   0.000038  -0.000576   0.022699  -0.000994
    25  C    0.088132  -0.144456   0.068101   0.291857  -0.073135  -0.007152
    26  C    0.272194   0.090000  -0.144445   0.093680   0.011998   0.000289
    27  H    0.450628  -0.068869   0.014385  -0.001545   0.000021  -0.000001
    28  H   -0.072078   0.452936  -0.070888   0.016277  -0.000372  -0.000009
    29  H    0.014423  -0.067938   0.456876  -0.070100  -0.012267   0.000646
    30  H   -0.000035  -0.000156   0.000818  -0.011936  -0.050128   0.427057
    31  H    0.000000   0.000000   0.000000  -0.000489   0.007557  -0.073081
    32  H    0.000018   0.000633  -0.001707   0.014993  -0.039731   0.000430
    33  H    0.000000  -0.000001   0.000012  -0.000012  -0.000334   0.000009
    34  H    0.000000   0.000000   0.000000   0.000000   0.000000   0.000000
    35  H    0.000000   0.000000   0.000000   0.000000   0.000000   0.000000
    36  H    0.000000   0.000000   0.000000   0.000000   0.000000   0.000000
    37  H    0.000000   0.000000   0.000000   0.000000   0.000000   0.000000
    38  H    0.000000   0.000000   0.000000   0.000000   0.000000   0.000000
    39  H    0.000000   0.000000   0.000000   0.000000   0.000000   0.000000
    40  H    0.000000   0.000000   0.000000   0.000000   0.000000   0.000000
    41  H    0.014425  -0.002053   0.014729  -0.070145  -0.012173   0.000653
    42  H   -0.072089   0.014484  -0.001817   0.016282  -0.000370  -0.000009
    43  Ag   0.000000   0.000002  -0.000007   0.000277  -0.000180   0.006969
               7          8          9         10         11         12
     1  C    0.000001   0.000000  -0.000005  -0.000102   0.000069   0.000006
     2  C    0.000011   0.000000   0.000041   0.000487  -0.000296  -0.000020
     3  C    0.000118  -0.000005  -0.000929  -0.009786  -0.000129   0.000091
     4  C    0.008242  -0.000155   0.019682  -0.071392  -0.021829  -0.002719
     5  C    0.012469  -0.045796  -0.112203   0.396059  -0.101860   0.019921
     6  C    0.399283  -0.022700  -0.058923   0.004767   0.011659  -0.000660
     7  C    4.741819   0.483610  -0.043911  -0.088730   0.000110   0.000169
     8  N    0.483610   6.457144   0.517579  -0.060344   0.005226  -0.000700
     9  C   -0.043911   0.517579   5.423278   0.258385   0.049871  -0.128759
    10  C   -0.088730  -0.060344   0.258385   5.355389   0.250027   0.084473
    11  C    0.000110   0.005226   0.049871   0.250027   5.152531   0.301618
    12  C    0.000169  -0.000700  -0.128759   0.084473   0.301618   5.152532
    13  C   -0.000465   0.007048  -0.001869  -0.116403   0.084471   0.250022
    14  C    0.000010  -0.000054   0.022698  -0.000799   0.019921  -0.101858
    15  C    0.000000   0.000001  -0.000576   0.000166  -0.002719  -0.021828
    16  C    0.000000   0.000000   0.000034  -0.000031   0.000081  -0.000225
    17  C    0.000000   0.000000  -0.000001   0.000001  -0.000020  -0.000289
    18  C    0.000000   0.000000   0.000000   0.000000   0.000006   0.000069
    19  C    0.000000   0.000000  -0.000001   0.000001  -0.000020  -0.000297
    20  C    0.000000   0.000000   0.000038  -0.000037   0.000091  -0.000130
    21  C   -0.000002  -0.000087  -0.000994  -0.000231  -0.000660   0.011660
    22  C    0.000047  -0.000452   0.014766  -0.000465   0.000169   0.000110
    23  N   -0.000452  -0.016404  -0.110115   0.007048  -0.000700   0.005226
    24  C    0.014766  -0.110116   0.085250  -0.001870  -0.128758   0.049872
    25  C    0.000109  -0.000007  -0.001032  -0.010230  -0.000226   0.000081
    26  C    0.000011   0.000000   0.000044   0.000522  -0.000289  -0.000020
    27  H    0.000000   0.000000   0.000000   0.000001  -0.000001   0.000000
    28  H    0.000000   0.000000   0.000000   0.000000  -0.000002   0.000000
    29  H   -0.000126  -0.000019  -0.000388  -0.000371   0.000346   0.000021
    30  H   -0.049385   0.005042   0.001051   0.014127  -0.000320   0.000011
    31  H    0.425245  -0.050494   0.007441   0.001017   0.000106   0.000001
    32  H   -0.000166  -0.000013   0.018658  -0.049610   0.463228  -0.081631
    33  H   -0.000001   0.000003  -0.003456   0.016658  -0.081630   0.463228
    34  H    0.000000   0.000000   0.000023  -0.000010   0.000023   0.000325
    35  H    0.000000   0.000000   0.000000   0.000000   0.000000  -0.000002
    36  H    0.000000   0.000000   0.000000   0.000000   0.000000  -0.000001
    37  H    0.000000   0.000000   0.000000   0.000000   0.000000  -0.000002
    38  H    0.000000   0.000000   0.000023  -0.000010   0.000021   0.000346
    39  H    0.000000   0.000000   0.000095  -0.000003   0.000011  -0.000320
    40  H    0.000003   0.000048  -0.000001   0.000003   0.000001   0.000106
    41  H   -0.000131  -0.000019  -0.000384  -0.000391   0.000326   0.000023
    42  H    0.000000   0.000000   0.000000  -0.000001  -0.000002   0.000000
    43  Ag  -0.018877   0.039989  -0.024010   0.005372  -0.000877  -0.000877
              13         14         15         16         17         18
     1  C    0.000000   0.000000   0.000000   0.000000   0.000000   0.000000
     2  C    0.000001   0.000000   0.000000   0.000000   0.000000   0.000000
     3  C   -0.000037   0.000000   0.000000   0.000000   0.000000   0.000000
     4  C    0.000166   0.000000   0.000000   0.000000   0.000000   0.000000
     5  C   -0.000800   0.000054   0.000000   0.000000   0.000000   0.000000
     6  C   -0.000231  -0.000003   0.000000   0.000000   0.000000   0.000000
     7  C   -0.000465   0.000010   0.000000   0.000000   0.000000   0.000000
     8  N    0.007048  -0.000054   0.000001   0.000000   0.000000   0.000000
     9  C   -0.001869   0.022698  -0.000576   0.000034  -0.000001   0.000000
    10  C   -0.116403  -0.000799   0.000166  -0.000031   0.000001   0.000000
    11  C    0.084471   0.019921  -0.002719   0.000081  -0.000020   0.000006
    12  C    0.250022  -0.101858  -0.021828  -0.000225  -0.000289   0.000069
    13  C    5.355400   0.396056  -0.071392  -0.010227   0.000521  -0.000102
    14  C    0.396056   5.249926   0.311223  -0.073137   0.011999   0.000372
    15  C   -0.071392   0.311223   5.470778   0.291861   0.093681  -0.162986
    16  C   -0.010227  -0.073137   0.291861   5.045167   0.298472   0.088133
    17  C    0.000521   0.011999   0.093681   0.298472   5.058118   0.272192
    18  C   -0.000102   0.000372  -0.162986   0.088133   0.272192   5.109145
    19  C    0.000487   0.012075   0.093726  -0.144457   0.090001   0.271989
    20  C   -0.009789  -0.074175   0.291735   0.068103  -0.144447   0.088243
    21  C    0.004768   0.474282  -0.086794  -0.007157   0.000290   0.000058
    22  C   -0.088732   0.012471   0.008242   0.000110   0.000011   0.000001
    23  N   -0.060343  -0.045796  -0.000155  -0.000007   0.000000   0.000000
    24  C    0.258392  -0.112205   0.019681  -0.001032   0.000044  -0.000005
    25  C   -0.000031   0.000000   0.000000   0.000000   0.000000   0.000000
    26  C    0.000001   0.000000   0.000000   0.000000   0.000000   0.000000
    27  H    0.000000   0.000000   0.000000   0.000000   0.000000   0.000000
    28  H    0.000000   0.000000   0.000000   0.000000   0.000000   0.000000
    29  H   -0.000010   0.000000   0.000000   0.000000   0.000000   0.000000
    30  H   -0.000003   0.000000   0.000000   0.000000   0.000000   0.000000
    31  H    0.000003   0.000000   0.000000   0.000000   0.000000   0.000000
    32  H    0.016658  -0.000334  -0.000012   0.000014  -0.000001   0.000000
    33  H   -0.049610  -0.039730   0.014993  -0.001520   0.000592   0.000018
    34  H   -0.000391  -0.012173  -0.070145   0.456784  -0.067874   0.014425
    35  H   -0.000001  -0.000370   0.016282  -0.070860   0.452895  -0.072089
    36  H    0.000001   0.000021  -0.001545   0.014387  -0.068866   0.450628
    37  H    0.000000  -0.000372   0.016277  -0.001812   0.014479  -0.072078
    38  H   -0.000371  -0.012268  -0.070100   0.014715  -0.002050   0.014423
    39  H    0.014127  -0.050129  -0.011936   0.000688  -0.000147  -0.000035
    40  H    0.001017   0.007557  -0.000489  -0.000004   0.000000   0.000000
    41  H   -0.000010   0.000000   0.000000   0.000000   0.000000   0.000000
    42  H    0.000000   0.000000   0.000000   0.000000   0.000000   0.000000
    43  Ag   0.005372  -0.000180   0.000277   0.000006   0.000001   0.000000
              19         20         21         22         23         24
     1  C    0.000000   0.000000   0.000000   0.000000   0.000000   0.000000
     2  C    0.000000   0.000000   0.000000   0.000000   0.000000  -0.000001
     3  C    0.000000   0.000000   0.000000   0.000000   0.000000   0.000038
     4  C    0.000000   0.000000   0.000000   0.000000   0.000001  -0.000576
     5  C    0.000000   0.000000  -0.000003   0.000010  -0.000054   0.022699
     6  C    0.000000   0.000000   0.000000  -0.000002  -0.000087  -0.000994
     7  C    0.000000   0.000000  -0.000002   0.000047  -0.000452   0.014766
     8  N    0.000000   0.000000  -0.000087  -0.000452  -0.016404  -0.110116
     9  C   -0.000001   0.000038  -0.000994   0.014766  -0.110115   0.085250
    10  C    0.000001  -0.000037  -0.000231  -0.000465   0.007048  -0.001870
    11  C   -0.000020   0.000091  -0.000660   0.000169  -0.000700  -0.128758
    12  C   -0.000297  -0.000130   0.011660   0.000110   0.005226   0.049872
    13  C    0.000487  -0.009789   0.004768  -0.088732  -0.060343   0.258392
    14  C    0.012075  -0.074175   0.474282   0.012471  -0.045796  -0.112205
    15  C    0.093726   0.291735  -0.086794   0.008242  -0.000155   0.019681
    16  C   -0.144457   0.068103  -0.007157   0.000110  -0.000007  -0.001032
    17  C    0.090001  -0.144447   0.000290   0.000011   0.000000   0.000044
    18  C    0.271989   0.088243   0.000058   0.000001   0.000000  -0.000005
    19  C    5.058284   0.298502   0.000276   0.000011   0.000000   0.000041
    20  C    0.298502   5.045194  -0.006928   0.000118  -0.000005  -0.000929
    21  C    0.000276  -0.006928   4.962445   0.399285  -0.022701  -0.058920
    22  C    0.000011   0.000118   0.399285   4.741826   0.483609  -0.043912
    23  N    0.000000  -0.000005  -0.022701   0.483609   6.457139   0.517582
    24  C    0.000041  -0.000929  -0.058920  -0.043912   0.517582   5.423260
    25  C    0.000000   0.000000   0.000000   0.000000   0.000000   0.000034
    26  C    0.000000   0.000000   0.000000   0.000000   0.000000  -0.000001
    27  H    0.000000   0.000000   0.000000   0.000000   0.000000   0.000000
    28  H    0.000000   0.000000   0.000000   0.000000   0.000000   0.000000
    29  H    0.000000   0.000000   0.000000   0.000000   0.000000   0.000023
    30  H    0.000000   0.000000   0.000000   0.000000   0.000000   0.000095
    31  H    0.000000   0.000000   0.000000   0.000003   0.000048  -0.000001
    32  H   -0.000001   0.000012   0.000009  -0.000001   0.000003  -0.003456
    33  H    0.000633  -0.001706   0.000430  -0.000166  -0.000013   0.018657
    34  H   -0.002053   0.014730   0.000654  -0.000131  -0.000019  -0.000384
    35  H    0.014484  -0.001817  -0.000009   0.000000   0.000000   0.000000
    36  H   -0.068869   0.014385  -0.000001   0.000000   0.000000   0.000000
    37  H    0.452936  -0.070888  -0.000009   0.000000   0.000000   0.000000
    38  H   -0.067936   0.456877   0.000645  -0.000126  -0.000019  -0.000388
    39  H   -0.000156   0.000818   0.427058  -0.049385   0.005042   0.001051
    40  H    0.000000   0.000000  -0.073080   0.425244  -0.050493   0.007441
    41  H    0.000000   0.000000   0.000000   0.000000   0.000000   0.000023
    42  H    0.000000   0.000000   0.000000   0.000000   0.000000   0.000000
    43  Ag   0.000002  -0.000007   0.006970  -0.018878   0.039995  -0.024011
              25         26         27         28         29         30
     1  C    0.088132   0.272194   0.450628  -0.072078   0.014423  -0.000035
     2  C   -0.144456   0.090000  -0.068869   0.452936  -0.067938  -0.000156
     3  C    0.068101  -0.144445   0.014385  -0.070888   0.456876   0.000818
     4  C    0.291857   0.093680  -0.001545   0.016277  -0.070100  -0.011936
     5  C   -0.073135   0.011998   0.000021  -0.000372  -0.012267  -0.050128
     6  C   -0.007152   0.000289  -0.000001  -0.000009   0.000646   0.427057
     7  C    0.000109   0.000011   0.000000   0.000000  -0.000126  -0.049385
     8  N   -0.000007   0.000000   0.000000   0.000000  -0.000019   0.005042
     9  C   -0.001032   0.000044   0.000000   0.000000  -0.000388   0.001051
    10  C   -0.010230   0.000522   0.000001   0.000000  -0.000371   0.014127
    11  C   -0.000226  -0.000289  -0.000001  -0.000002   0.000346  -0.000320
    12  C    0.000081  -0.000020   0.000000   0.000000   0.000021   0.000011
    13  C   -0.000031   0.000001   0.000000   0.000000  -0.000010  -0.000003
    14  C    0.000000   0.000000   0.000000   0.000000   0.000000   0.000000
    15  C    0.000000   0.000000   0.000000   0.000000   0.000000   0.000000
    16  C    0.000000   0.000000   0.000000   0.000000   0.000000   0.000000
    17  C    0.000000   0.000000   0.000000   0.000000   0.000000   0.000000
    18  C    0.000000   0.000000   0.000000   0.000000   0.000000   0.000000
    19  C    0.000000   0.000000   0.000000   0.000000   0.000000   0.000000
    20  C    0.000000   0.000000   0.000000   0.000000   0.000000   0.000000
    21  C    0.000000   0.000000   0.000000   0.000000   0.000000   0.000000
    22  C    0.000000   0.000000   0.000000   0.000000   0.000000   0.000000
    23  N    0.000000   0.000000   0.000000   0.000000   0.000000   0.000000
    24  C    0.000034  -0.000001   0.000000   0.000000   0.000023   0.000095
    25  C    5.045179   0.298481   0.014388  -0.001812   0.014715   0.000687
    26  C    0.298481   5.058104  -0.068866   0.014479  -0.002050  -0.000147
    27  H    0.014388  -0.068866   0.664442  -0.012305  -0.000267  -0.000001
    28  H   -0.001812   0.014479  -0.012305   0.665443  -0.012136   0.000003
    29  H    0.014715  -0.002050  -0.000267  -0.012136   0.664513   0.000223
    30  H    0.000687  -0.000147  -0.000001   0.000003   0.000223   0.645442
    31  H   -0.000004   0.000000   0.000000   0.000000   0.000003  -0.005517
    32  H   -0.001518   0.000593  -0.000004  -0.000007  -0.000084  -0.000008
    33  H    0.000014  -0.000001   0.000000   0.000000   0.000000   0.000000
    34  H    0.000000   0.000000   0.000000   0.000000   0.000000   0.000000
    35  H    0.000000   0.000000   0.000000   0.000000   0.000000   0.000000
    36  H    0.000000   0.000000   0.000000   0.000000   0.000000   0.000000
    37  H    0.000000   0.000000   0.000000   0.000000   0.000000   0.000000
    38  H    0.000000   0.000000   0.000000   0.000000   0.000000   0.000000
    39  H    0.000000   0.000000   0.000000   0.000000   0.000000   0.000000
    40  H    0.000000   0.000000   0.000000   0.000000   0.000000   0.000000
    41  H    0.456784  -0.067871  -0.000267   0.000037  -0.000233   0.000226
    42  H   -0.070860   0.452894  -0.012304  -0.000281   0.000037   0.000002
    43  Ag   0.000006   0.000001   0.000000   0.000000  -0.000006  -0.000278
              31         32         33         34         35         36
     1  C    0.000000   0.000018   0.000000   0.000000   0.000000   0.000000
     2  C    0.000000   0.000633  -0.000001   0.000000   0.000000   0.000000
     3  C    0.000000  -0.001707   0.000012   0.000000   0.000000   0.000000
     4  C   -0.000489   0.014993  -0.000012   0.000000   0.000000   0.000000
     5  C    0.007557  -0.039731  -0.000334   0.000000   0.000000   0.000000
     6  C   -0.073081   0.000430   0.000009   0.000000   0.000000   0.000000
     7  C    0.425245  -0.000166  -0.000001   0.000000   0.000000   0.000000
     8  N   -0.050494  -0.000013   0.000003   0.000000   0.000000   0.000000
     9  C    0.007441   0.018658  -0.003456   0.000023   0.000000   0.000000
    10  C    0.001017  -0.049610   0.016658  -0.000010   0.000000   0.000000
    11  C    0.000106   0.463228  -0.081630   0.000023   0.000000   0.000000
    12  C    0.000001  -0.081631   0.463228   0.000325  -0.000002  -0.000001
    13  C    0.000003   0.016658  -0.049610  -0.000391  -0.000001   0.000001
    14  C    0.000000  -0.000334  -0.039730  -0.012173  -0.000370   0.000021
    15  C    0.000000  -0.000012   0.014993  -0.070145   0.016282  -0.001545
    16  C    0.000000   0.000014  -0.001520   0.456784  -0.070860   0.014387
    17  C    0.000000  -0.000001   0.000592  -0.067874   0.452895  -0.068866
    18  C    0.000000   0.000000   0.000018   0.014425  -0.072089   0.450628
    19  C    0.000000  -0.000001   0.000633  -0.002053   0.014484  -0.068869
    20  C    0.000000   0.000012  -0.001706   0.014730  -0.001817   0.014385
    21  C    0.000000   0.000009   0.000430   0.000654  -0.000009  -0.000001
    22  C    0.000003  -0.000001  -0.000166  -0.000131   0.000000   0.000000
    23  N    0.000048   0.000003  -0.000013  -0.000019   0.000000   0.000000
    24  C   -0.000001  -0.003456   0.018657  -0.000384   0.000000   0.000000
    25  C   -0.000004  -0.001518   0.000014   0.000000   0.000000   0.000000
    26  C    0.000000   0.000593  -0.000001   0.000000   0.000000   0.000000
    27  H    0.000000  -0.000004   0.000000   0.000000   0.000000   0.000000
    28  H    0.000000  -0.000007   0.000000   0.000000   0.000000   0.000000
    29  H    0.000003  -0.000084   0.000000   0.000000   0.000000   0.000000
    30  H   -0.005517  -0.000008   0.000000   0.000000   0.000000   0.000000
    31  H    0.642130  -0.000003   0.000000   0.000000   0.000000   0.000000
    32  H   -0.000003   0.648652  -0.011636   0.000000   0.000000   0.000000
    33  H    0.000000  -0.011636   0.648648  -0.000084  -0.000006  -0.000004
    34  H    0.000000   0.000000  -0.000084   0.664592  -0.012144  -0.000267
    35  H    0.000000   0.000000  -0.000006  -0.012144   0.665485  -0.012304
    36  H    0.000000   0.000000  -0.000004  -0.000267  -0.012304   0.664442
    37  H    0.000000   0.000000  -0.000007   0.000037  -0.000281  -0.012305
    38  H    0.000000   0.000000  -0.000084  -0.000233   0.000037  -0.000267
    39  H    0.000000   0.000000  -0.000008   0.000226   0.000002  -0.000001
    40  H    0.000000   0.000000  -0.000003   0.000003   0.000000   0.000000
    41  H    0.000003  -0.000084   0.000000   0.000000   0.000000   0.000000
    42  H    0.000000  -0.000006   0.000000   0.000000   0.000000   0.000000
    43  Ag   0.000838   0.000091   0.000091  -0.000006   0.000000   0.000000
              37         38         39         40         41         42
     1  C    0.000000   0.000000   0.000000   0.000000   0.014425  -0.072089
     2  C    0.000000   0.000000   0.000000   0.000000  -0.002053   0.014484
     3  C    0.000000   0.000000   0.000000   0.000000   0.014729  -0.001817
     4  C    0.000000   0.000000   0.000000   0.000000  -0.070145   0.016282
     5  C    0.000000   0.000000   0.000000   0.000000  -0.012173  -0.000370
     6  C    0.000000   0.000000   0.000000   0.000000   0.000653  -0.000009
     7  C    0.000000   0.000000   0.000000   0.000003  -0.000131   0.000000
     8  N    0.000000   0.000000   0.000000   0.000048  -0.000019   0.000000
     9  C    0.000000   0.000023   0.000095  -0.000001  -0.000384   0.000000
    10  C    0.000000  -0.000010  -0.000003   0.000003  -0.000391  -0.000001
    11  C    0.000000   0.000021   0.000011   0.000001   0.000326  -0.000002
    12  C   -0.000002   0.000346  -0.000320   0.000106   0.000023   0.000000
    13  C    0.000000  -0.000371   0.014127   0.001017  -0.000010   0.000000
    14  C   -0.000372  -0.012268  -0.050129   0.007557   0.000000   0.000000
    15  C    0.016277  -0.070100  -0.011936  -0.000489   0.000000   0.000000
    16  C   -0.001812   0.014715   0.000688  -0.000004   0.000000   0.000000
    17  C    0.014479  -0.002050  -0.000147   0.000000   0.000000   0.000000
    18  C   -0.072078   0.014423  -0.000035   0.000000   0.000000   0.000000
    19  C    0.452936  -0.067936  -0.000156   0.000000   0.000000   0.000000
    20  C   -0.070888   0.456877   0.000818   0.000000   0.000000   0.000000
    21  C   -0.000009   0.000645   0.427058  -0.073080   0.000000   0.000000
    22  C    0.000000  -0.000126  -0.049385   0.425244   0.000000   0.000000
    23  N    0.000000  -0.000019   0.005042  -0.050493   0.000000   0.000000
    24  C    0.000000  -0.000388   0.001051   0.007441   0.000023   0.000000
    25  C    0.000000   0.000000   0.000000   0.000000   0.456784  -0.070860
    26  C    0.000000   0.000000   0.000000   0.000000  -0.067871   0.452894
    27  H    0.000000   0.000000   0.000000   0.000000  -0.000267  -0.012304
    28  H    0.000000   0.000000   0.000000   0.000000   0.000037  -0.000281
    29  H    0.000000   0.000000   0.000000   0.000000  -0.000233   0.000037
    30  H    0.000000   0.000000   0.000000   0.000000   0.000226   0.000002
    31  H    0.000000   0.000000   0.000000   0.000000   0.000003   0.000000
    32  H    0.000000   0.000000   0.000000   0.000000  -0.000084  -0.000006
    33  H   -0.000007  -0.000084  -0.000008  -0.000003   0.000000   0.000000
    34  H    0.000037  -0.000233   0.000226   0.000003   0.000000   0.000000
    35  H   -0.000281   0.000037   0.000002   0.000000   0.000000   0.000000
    36  H   -0.012305  -0.000267  -0.000001   0.000000   0.000000   0.000000
    37  H    0.665444  -0.012135   0.000003   0.000000   0.000000   0.000000
    38  H   -0.012135   0.664508   0.000223   0.000003   0.000000   0.000000
    39  H    0.000003   0.000223   0.645440  -0.005517   0.000000   0.000000
    40  H    0.000000   0.000003  -0.005517   0.642129   0.000000   0.000000
    41  H    0.000000   0.000000   0.000000   0.000000   0.664587  -0.012144
    42  H    0.000000   0.000000   0.000000   0.000000  -0.012144   0.665485
    43  Ag   0.000000  -0.000006  -0.000278   0.000837  -0.000006   0.000000
              43
     1  C    0.000000
     2  C    0.000002
     3  C   -0.000007
     4  C    0.000277
     5  C   -0.000180
     6  C    0.006969
     7  C   -0.018877
     8  N    0.039989
     9  C   -0.024010
    10  C    0.005372
    11  C   -0.000877
    12  C   -0.000877
    13  C    0.005372
    14  C   -0.000180
    15  C    0.000277
    16  C    0.000006
    17  C    0.000001
    18  C    0.000000
    19  C    0.000002
    20  C   -0.000007
    21  C    0.006970
    22  C   -0.018878
    23  N    0.039995
    24  C   -0.024011
    25  C    0.000006
    26  C    0.000001
    27  H    0.000000
    28  H    0.000000
    29  H   -0.000006
    30  H   -0.000278
    31  H    0.000838
    32  H    0.000091
    33  H    0.000091
    34  H   -0.000006
    35  H    0.000000
    36  H    0.000000
    37  H    0.000000
    38  H   -0.000006
    39  H   -0.000278
    40  H    0.000837
    41  H   -0.000006
    42  H    0.000000
    43  Ag  19.112408
          Atomic-Atomic Spin Densities.
               1          2          3          4          5          6
     1  C   -0.000081  -0.000116   0.000050  -0.000009   0.000003   0.000000
     2  C   -0.000116   0.001126  -0.000572   0.000020   0.000111  -0.000008
     3  C    0.000050  -0.000572   0.001889   0.000003  -0.001518   0.000131
     4  C   -0.000009   0.000020   0.000003  -0.002254   0.000091   0.000123
     5  C    0.000003   0.000111  -0.001518   0.000091   0.035234  -0.000650
     6  C    0.000000  -0.000008   0.000131   0.000123  -0.000650  -0.011945
     7  C    0.000000   0.000000   0.000019  -0.000015  -0.002321   0.002029
     8  N    0.000000   0.000000   0.000001   0.000006   0.000590   0.000338
     9  C    0.000000  -0.000001   0.000053  -0.000053  -0.002357   0.000950
    10  C    0.000001  -0.000028   0.000378  -0.000032  -0.003481  -0.000512
    11  C    0.000001  -0.000018   0.000214   0.000040  -0.003070   0.000079
    12  C    0.000000   0.000000  -0.000004   0.000010   0.000107   0.000010
    13  C    0.000000   0.000000  -0.000003  -0.000003   0.000271  -0.000023
    14  C    0.000000   0.000000   0.000000   0.000000   0.000003   0.000000
    15  C    0.000000   0.000000   0.000000   0.000000   0.000000   0.000000
    16  C    0.000000   0.000000   0.000000   0.000000   0.000000   0.000000
    17  C    0.000000   0.000000   0.000000   0.000000   0.000000   0.000000
    18  C    0.000000   0.000000   0.000000   0.000000   0.000000   0.000000
    19  C    0.000000   0.000000   0.000000   0.000000   0.000000   0.000000
    20  C    0.000000   0.000000   0.000000   0.000000   0.000000   0.000000
    21  C    0.000000   0.000000   0.000000   0.000000   0.000000   0.000000
    22  C    0.000000   0.000000   0.000000   0.000000  -0.000001   0.000000
    23  N    0.000000   0.000000   0.000000   0.000000   0.000027  -0.000009
    24  C    0.000000   0.000000   0.000003   0.000004  -0.000240   0.000110
    25  C   -0.000043   0.000167  -0.000617   0.000259  -0.000281  -0.000111
    26  C    0.000060  -0.000107   0.000163  -0.000030   0.000031   0.000007
    27  H    0.000001   0.000000  -0.000001   0.000000   0.000000   0.000000
    28  H   -0.000003  -0.000037   0.000030  -0.000003  -0.000005   0.000000
    29  H    0.000000  -0.000022   0.000059   0.000010  -0.000080  -0.000008
    30  H    0.000000  -0.000004   0.000096  -0.000008  -0.000874  -0.000327
    31  H    0.000000   0.000000   0.000003  -0.000006  -0.000395  -0.000821
    32  H   -0.000002   0.000020  -0.000086  -0.000082   0.000180  -0.000015
    33  H    0.000000   0.000000  -0.000001   0.000000   0.000009  -0.000001
    34  H    0.000000   0.000000   0.000000   0.000000   0.000000   0.000000
    35  H    0.000000   0.000000   0.000000   0.000000   0.000000   0.000000
    36  H    0.000000   0.000000   0.000000   0.000000   0.000000   0.000000
    37  H    0.000000   0.000000   0.000000   0.000000   0.000000   0.000000
    38  H    0.000000   0.000000   0.000000   0.000000   0.000000   0.000000
    39  H    0.000000   0.000000   0.000000   0.000000   0.000000   0.000000
    40  H    0.000000   0.000000   0.000000   0.000000   0.000000   0.000000
    41  H    0.000001  -0.000002   0.000009   0.000007   0.000014   0.000000
    42  H   -0.000021   0.000008  -0.000011   0.000003  -0.000003   0.000000
    43  Ag   0.000000   0.000001  -0.000007  -0.000005  -0.000418  -0.000117
               7          8          9         10         11         12
     1  C    0.000000   0.000000   0.000000   0.000001   0.000001   0.000000
     2  C    0.000000   0.000000  -0.000001  -0.000028  -0.000018   0.000000
     3  C    0.000019   0.000001   0.000053   0.000378   0.000214  -0.000004
     4  C   -0.000015   0.000006  -0.000053  -0.000032   0.000040   0.000010
     5  C   -0.002321   0.000590  -0.002357  -0.003481  -0.003070   0.000107
     6  C    0.002029   0.000338   0.000950  -0.000512   0.000079   0.000010
     7  C    0.037175  -0.004473  -0.000068  -0.000157   0.000134   0.000003
     8  N   -0.004473   0.077380  -0.006219   0.001911  -0.000116  -0.000032
     9  C   -0.000068  -0.006219   0.005609  -0.015522   0.001433   0.001308
    10  C   -0.000157   0.001911  -0.015522   0.016525   0.001905  -0.002214
    11  C    0.000134  -0.000116   0.001433   0.001905   0.026339  -0.010343
    12  C    0.000003  -0.000032   0.001308  -0.002214  -0.010343   0.026341
    13  C   -0.000072   0.000823  -0.000998   0.004296  -0.002214   0.001904
    14  C   -0.000001   0.000027  -0.000240   0.000271   0.000107  -0.003071
    15  C    0.000000   0.000000   0.000004  -0.000003   0.000010   0.000040
    16  C    0.000000   0.000000  -0.000002   0.000002  -0.000015   0.000098
    17  C    0.000000   0.000000   0.000000   0.000000   0.000001  -0.000011
    18  C    0.000000   0.000000   0.000000   0.000000   0.000000   0.000001
    19  C    0.000000   0.000000   0.000000   0.000000   0.000000  -0.000018
    20  C    0.000000   0.000000   0.000003  -0.000003  -0.000004   0.000214
    21  C    0.000000  -0.000009   0.000110  -0.000023   0.000010   0.000079
    22  C   -0.000002  -0.000002   0.000443  -0.000072   0.000003   0.000134
    23  N   -0.000002   0.006318  -0.001019   0.000823  -0.000032  -0.000116
    24  C    0.000443  -0.001020   0.012542  -0.000999   0.001308   0.001435
    25  C   -0.000003  -0.000001  -0.000048  -0.000085   0.000098  -0.000015
    26  C    0.000000   0.000000   0.000002   0.000010  -0.000011   0.000001
    27  H    0.000000   0.000000   0.000000   0.000000   0.000000   0.000000
    28  H    0.000000   0.000000   0.000000   0.000001   0.000001   0.000000
    29  H    0.000002   0.000000   0.000003   0.000006   0.000013  -0.000001
    30  H   -0.000919  -0.000055   0.000165   0.000038   0.000012   0.000001
    31  H   -0.004234  -0.003997   0.000647  -0.000171   0.000008   0.000001
    32  H   -0.000004   0.000002  -0.000144  -0.000142   0.000389  -0.000239
    33  H    0.000000   0.000001  -0.000048   0.000111  -0.000239   0.000389
    34  H    0.000000   0.000000   0.000000   0.000000   0.000001  -0.000006
    35  H    0.000000   0.000000   0.000000   0.000000   0.000000   0.000001
    36  H    0.000000   0.000000   0.000000   0.000000   0.000000   0.000000
    37  H    0.000000   0.000000   0.000000   0.000000   0.000000   0.000001
    38  H    0.000000   0.000000   0.000000   0.000000  -0.000001   0.000013
    39  H    0.000000  -0.000001  -0.000002  -0.000002   0.000001   0.000012
    40  H    0.000000  -0.000065  -0.000001  -0.000010   0.000001   0.000008
    41  H   -0.000002   0.000000   0.000005  -0.000011  -0.000006   0.000001
    42  H    0.000000   0.000000   0.000000   0.000000   0.000001   0.000000
    43  Ag  -0.006059  -0.059414   0.005721  -0.001280  -0.000053  -0.000053
              13         14         15         16         17         18
     1  C    0.000000   0.000000   0.000000   0.000000   0.000000   0.000000
     2  C    0.000000   0.000000   0.000000   0.000000   0.000000   0.000000
     3  C   -0.000003   0.000000   0.000000   0.000000   0.000000   0.000000
     4  C   -0.000003   0.000000   0.000000   0.000000   0.000000   0.000000
     5  C    0.000271   0.000003   0.000000   0.000000   0.000000   0.000000
     6  C   -0.000023   0.000000   0.000000   0.000000   0.000000   0.000000
     7  C   -0.000072  -0.000001   0.000000   0.000000   0.000000   0.000000
     8  N    0.000823   0.000027   0.000000   0.000000   0.000000   0.000000
     9  C   -0.000998  -0.000240   0.000004  -0.000002   0.000000   0.000000
    10  C    0.004296   0.000271  -0.000003   0.000002   0.000000   0.000000
    11  C   -0.002214   0.000107   0.000010  -0.000015   0.000001   0.000000
    12  C    0.001904  -0.003071   0.000040   0.000098  -0.000011   0.000001
    13  C    0.016528  -0.003481  -0.000032  -0.000085   0.000010   0.000001
    14  C   -0.003481   0.035242   0.000093  -0.000281   0.000031   0.000003
    15  C   -0.000032   0.000093  -0.002254   0.000260  -0.000030  -0.000009
    16  C   -0.000085  -0.000281   0.000260   0.001823  -0.000625  -0.000043
    17  C    0.000010   0.000031  -0.000030  -0.000625   0.000958   0.000061
    18  C    0.000001   0.000003  -0.000009  -0.000043   0.000061  -0.000081
    19  C   -0.000028   0.000111   0.000020   0.000167  -0.000107  -0.000117
    20  C    0.000378  -0.001519   0.000002  -0.000617   0.000163   0.000050
    21  C   -0.000512  -0.000653   0.000123  -0.000111   0.000007   0.000000
    22  C   -0.000157  -0.002321  -0.000015  -0.000003   0.000000   0.000000
    23  N    0.001910   0.000590   0.000006  -0.000001   0.000000   0.000000
    24  C   -0.015526  -0.002359  -0.000053  -0.000048   0.000002   0.000000
    25  C    0.000002   0.000000   0.000000   0.000000   0.000000   0.000000
    26  C    0.000000   0.000000   0.000000   0.000000   0.000000   0.000000
    27  H    0.000000   0.000000   0.000000   0.000000   0.000000   0.000000
    28  H    0.000000   0.000000   0.000000   0.000000   0.000000   0.000000
    29  H    0.000000   0.000000   0.000000   0.000000   0.000000   0.000000
    30  H   -0.000002   0.000000   0.000000   0.000000   0.000000   0.000000
    31  H   -0.000010   0.000000   0.000000   0.000000   0.000000   0.000000
    32  H    0.000111   0.000009   0.000000   0.000001   0.000000   0.000000
    33  H   -0.000142   0.000180  -0.000082   0.000123  -0.000022  -0.000002
    34  H   -0.000011   0.000014   0.000007  -0.000026   0.000014   0.000001
    35  H    0.000000  -0.000003   0.000003   0.000052  -0.000065  -0.000021
    36  H    0.000000   0.000000   0.000000   0.000001  -0.000002   0.000001
    37  H    0.000001  -0.000005  -0.000003  -0.000006   0.000003  -0.000003
    38  H    0.000006  -0.000080   0.000010  -0.000008   0.000001   0.000000
    39  H    0.000038  -0.000875  -0.000008  -0.000050   0.000005   0.000000
    40  H   -0.000171  -0.000395  -0.000006  -0.000002   0.000000   0.000000
    41  H    0.000000   0.000000   0.000000   0.000000   0.000000   0.000000
    42  H    0.000000   0.000000   0.000000   0.000000   0.000000   0.000000
    43  Ag  -0.001280  -0.000419  -0.000005   0.000007  -0.000001   0.000000
              19         20         21         22         23         24
     1  C    0.000000   0.000000   0.000000   0.000000   0.000000   0.000000
     2  C    0.000000   0.000000   0.000000   0.000000   0.000000   0.000000
     3  C    0.000000   0.000000   0.000000   0.000000   0.000000   0.000003
     4  C    0.000000   0.000000   0.000000   0.000000   0.000000   0.000004
     5  C    0.000000   0.000000   0.000000  -0.000001   0.000027  -0.000240
     6  C    0.000000   0.000000   0.000000   0.000000  -0.000009   0.000110
     7  C    0.000000   0.000000   0.000000  -0.000002  -0.000002   0.000443
     8  N    0.000000   0.000000  -0.000009  -0.000002   0.006318  -0.001020
     9  C    0.000000   0.000003   0.000110   0.000443  -0.001019   0.012542
    10  C    0.000000  -0.000003  -0.000023  -0.000072   0.000823  -0.000999
    11  C    0.000000  -0.000004   0.000010   0.000003  -0.000032   0.001308
    12  C   -0.000018   0.000214   0.000079   0.000134  -0.000116   0.001435
    13  C   -0.000028   0.000378  -0.000512  -0.000157   0.001910  -0.015526
    14  C    0.000111  -0.001519  -0.000653  -0.002321   0.000590  -0.002359
    15  C    0.000020   0.000002   0.000123  -0.000015   0.000006  -0.000053
    16  C    0.000167  -0.000617  -0.000111  -0.000003  -0.000001  -0.000048
    17  C   -0.000107   0.000163   0.000007   0.000000   0.000000   0.000002
    18  C   -0.000117   0.000050   0.000000   0.000000   0.000000   0.000000
    19  C    0.001126  -0.000572  -0.000008   0.000000   0.000000  -0.000001
    20  C   -0.000572   0.001890   0.000131   0.000019   0.000001   0.000053
    21  C   -0.000008   0.000131  -0.011947   0.002031   0.000337   0.000951
    22  C    0.000000   0.000019   0.002031   0.037176  -0.004473  -0.000068
    23  N    0.000000   0.000001   0.000337  -0.004473   0.077373  -0.006216
    24  C   -0.000001   0.000053   0.000951  -0.000068  -0.006216   0.005611
    25  C    0.000000   0.000000   0.000000   0.000000   0.000000  -0.000002
    26  C    0.000000   0.000000   0.000000   0.000000   0.000000   0.000000
    27  H    0.000000   0.000000   0.000000   0.000000   0.000000   0.000000
    28  H    0.000000   0.000000   0.000000   0.000000   0.000000   0.000000
    29  H    0.000000   0.000000   0.000000   0.000000   0.000000   0.000000
    30  H    0.000000   0.000000   0.000000   0.000000  -0.000001  -0.000002
    31  H    0.000000   0.000000   0.000000   0.000000  -0.000065  -0.000001
    32  H    0.000000  -0.000001  -0.000001   0.000000   0.000001  -0.000048
    33  H    0.000020  -0.000086  -0.000015  -0.000004   0.000002  -0.000144
    34  H   -0.000002   0.000009   0.000000  -0.000002   0.000000   0.000005
    35  H    0.000008  -0.000011   0.000000   0.000000   0.000000   0.000000
    36  H    0.000000  -0.000001   0.000000   0.000000   0.000000   0.000000
    37  H   -0.000037   0.000030   0.000000   0.000000   0.000000   0.000000
    38  H   -0.000022   0.000060  -0.000008   0.000002   0.000000   0.000003
    39  H   -0.000004   0.000096  -0.000326  -0.000919  -0.000055   0.000165
    40  H    0.000000   0.000003  -0.000820  -0.004234  -0.003996   0.000647
    41  H    0.000000   0.000000   0.000000   0.000000   0.000000   0.000000
    42  H    0.000000   0.000000   0.000000   0.000000   0.000000   0.000000
    43  Ag   0.000001  -0.000007  -0.000116  -0.006061  -0.059410   0.005721
              25         26         27         28         29         30
     1  C   -0.000043   0.000060   0.000001  -0.000003   0.000000   0.000000
     2  C    0.000167  -0.000107   0.000000  -0.000037  -0.000022  -0.000004
     3  C   -0.000617   0.000163  -0.000001   0.000030   0.000059   0.000096
     4  C    0.000259  -0.000030   0.000000  -0.000003   0.000010  -0.000008
     5  C   -0.000281   0.000031   0.000000  -0.000005  -0.000080  -0.000874
     6  C   -0.000111   0.000007   0.000000   0.000000  -0.000008  -0.000327
     7  C   -0.000003   0.000000   0.000000   0.000000   0.000002  -0.000919
     8  N   -0.000001   0.000000   0.000000   0.000000   0.000000  -0.000055
     9  C   -0.000048   0.000002   0.000000   0.000000   0.000003   0.000165
    10  C   -0.000085   0.000010   0.000000   0.000001   0.000006   0.000038
    11  C    0.000098  -0.000011   0.000000   0.000001   0.000013   0.000012
    12  C   -0.000015   0.000001   0.000000   0.000000  -0.000001   0.000001
    13  C    0.000002   0.000000   0.000000   0.000000   0.000000  -0.000002
    14  C    0.000000   0.000000   0.000000   0.000000   0.000000   0.000000
    15  C    0.000000   0.000000   0.000000   0.000000   0.000000   0.000000
    16  C    0.000000   0.000000   0.000000   0.000000   0.000000   0.000000
    17  C    0.000000   0.000000   0.000000   0.000000   0.000000   0.000000
    18  C    0.000000   0.000000   0.000000   0.000000   0.000000   0.000000
    19  C    0.000000   0.000000   0.000000   0.000000   0.000000   0.000000
    20  C    0.000000   0.000000   0.000000   0.000000   0.000000   0.000000
    21  C    0.000000   0.000000   0.000000   0.000000   0.000000   0.000000
    22  C    0.000000   0.000000   0.000000   0.000000   0.000000   0.000000
    23  N    0.000000   0.000000   0.000000   0.000000   0.000000  -0.000001
    24  C   -0.000002   0.000000   0.000000   0.000000   0.000000  -0.000002
    25  C    0.001823  -0.000625   0.000001  -0.000006  -0.000008  -0.000050
    26  C   -0.000625   0.000958  -0.000002   0.000003   0.000001   0.000005
    27  H    0.000001  -0.000002   0.000003   0.000000   0.000000   0.000000
    28  H   -0.000006   0.000003   0.000000   0.000016   0.000003   0.000000
    29  H   -0.000008   0.000001   0.000000   0.000003  -0.000027   0.000003
    30  H   -0.000050   0.000005   0.000000   0.000000   0.000003   0.002318
    31  H   -0.000002   0.000000   0.000000   0.000000   0.000000   0.000560
    32  H    0.000123  -0.000022   0.000000  -0.000001  -0.000002  -0.000002
    33  H    0.000001   0.000000   0.000000   0.000000   0.000000   0.000000
    34  H    0.000000   0.000000   0.000000   0.000000   0.000000   0.000000
    35  H    0.000000   0.000000   0.000000   0.000000   0.000000   0.000000
    36  H    0.000000   0.000000   0.000000   0.000000   0.000000   0.000000
    37  H    0.000000   0.000000   0.000000   0.000000   0.000000   0.000000
    38  H    0.000000   0.000000   0.000000   0.000000   0.000000   0.000000
    39  H    0.000000   0.000000   0.000000   0.000000   0.000000   0.000000
    40  H    0.000000   0.000000   0.000000   0.000000   0.000000   0.000000
    41  H   -0.000026   0.000014   0.000000   0.000000   0.000000   0.000006
    42  H    0.000052  -0.000065   0.000001  -0.000001   0.000000  -0.000001
    43  Ag   0.000007  -0.000001   0.000000   0.000000   0.000000   0.000282
              31         32         33         34         35         36
     1  C    0.000000  -0.000002   0.000000   0.000000   0.000000   0.000000
     2  C    0.000000   0.000020   0.000000   0.000000   0.000000   0.000000
     3  C    0.000003  -0.000086  -0.000001   0.000000   0.000000   0.000000
     4  C   -0.000006  -0.000082   0.000000   0.000000   0.000000   0.000000
     5  C   -0.000395   0.000180   0.000009   0.000000   0.000000   0.000000
     6  C   -0.000821  -0.000015  -0.000001   0.000000   0.000000   0.000000
     7  C   -0.004234  -0.000004   0.000000   0.000000   0.000000   0.000000
     8  N   -0.003997   0.000002   0.000001   0.000000   0.000000   0.000000
     9  C    0.000647  -0.000144  -0.000048   0.000000   0.000000   0.000000
    10  C   -0.000171  -0.000142   0.000111   0.000000   0.000000   0.000000
    11  C    0.000008   0.000389  -0.000239   0.000001   0.000000   0.000000
    12  C    0.000001  -0.000239   0.000389  -0.000006   0.000001   0.000000
    13  C   -0.000010   0.000111  -0.000142  -0.000011   0.000000   0.000000
    14  C    0.000000   0.000009   0.000180   0.000014  -0.000003   0.000000
    15  C    0.000000   0.000000  -0.000082   0.000007   0.000003   0.000000
    16  C    0.000000   0.000001   0.000123  -0.000026   0.000052   0.000001
    17  C    0.000000   0.000000  -0.000022   0.000014  -0.000065  -0.000002
    18  C    0.000000   0.000000  -0.000002   0.000001  -0.000021   0.000001
    19  C    0.000000   0.000000   0.000020  -0.000002   0.000008   0.000000
    20  C    0.000000  -0.000001  -0.000086   0.000009  -0.000011  -0.000001
    21  C    0.000000  -0.000001  -0.000015   0.000000   0.000000   0.000000
    22  C    0.000000   0.000000  -0.000004  -0.000002   0.000000   0.000000
    23  N   -0.000065   0.000001   0.000002   0.000000   0.000000   0.000000
    24  C   -0.000001  -0.000048  -0.000144   0.000005   0.000000   0.000000
    25  C   -0.000002   0.000123   0.000001   0.000000   0.000000   0.000000
    26  C    0.000000  -0.000022   0.000000   0.000000   0.000000   0.000000
    27  H    0.000000   0.000000   0.000000   0.000000   0.000000   0.000000
    28  H    0.000000  -0.000001   0.000000   0.000000   0.000000   0.000000
    29  H    0.000000  -0.000002   0.000000   0.000000   0.000000   0.000000
    30  H    0.000560  -0.000002   0.000000   0.000000   0.000000   0.000000
    31  H    0.004160   0.000000   0.000000   0.000000   0.000000   0.000000
    32  H    0.000000  -0.000869   0.000078   0.000000   0.000000   0.000000
    33  H    0.000000   0.000078  -0.000869  -0.000003   0.000001   0.000000
    34  H    0.000000   0.000000  -0.000003  -0.000040  -0.000004   0.000000
    35  H    0.000000   0.000000   0.000001  -0.000004   0.000049   0.000001
    36  H    0.000000   0.000000   0.000000   0.000000   0.000001   0.000003
    37  H    0.000000   0.000000  -0.000001   0.000000  -0.000001   0.000000
    38  H    0.000000   0.000000  -0.000002   0.000000   0.000000   0.000000
    39  H    0.000000   0.000000  -0.000002   0.000006  -0.000001   0.000000
    40  H    0.000001   0.000000   0.000000   0.000000   0.000000   0.000000
    41  H    0.000000  -0.000003   0.000000   0.000000   0.000000   0.000000
    42  H    0.000000   0.000001   0.000000   0.000000   0.000000   0.000000
    43  Ag   0.010097   0.000013   0.000013   0.000000   0.000000   0.000000
              37         38         39         40         41         42
     1  C    0.000000   0.000000   0.000000   0.000000   0.000001  -0.000021
     2  C    0.000000   0.000000   0.000000   0.000000  -0.000002   0.000008
     3  C    0.000000   0.000000   0.000000   0.000000   0.000009  -0.000011
     4  C    0.000000   0.000000   0.000000   0.000000   0.000007   0.000003
     5  C    0.000000   0.000000   0.000000   0.000000   0.000014  -0.000003
     6  C    0.000000   0.000000   0.000000   0.000000   0.000000   0.000000
     7  C    0.000000   0.000000   0.000000   0.000000  -0.000002   0.000000
     8  N    0.000000   0.000000  -0.000001  -0.000065   0.000000   0.000000
     9  C    0.000000   0.000000  -0.000002  -0.000001   0.000005   0.000000
    10  C    0.000000   0.000000  -0.000002  -0.000010  -0.000011   0.000000
    11  C    0.000000  -0.000001   0.000001   0.000001  -0.000006   0.000001
    12  C    0.000001   0.000013   0.000012   0.000008   0.000001   0.000000
    13  C    0.000001   0.000006   0.000038  -0.000171   0.000000   0.000000
    14  C   -0.000005  -0.000080  -0.000875  -0.000395   0.000000   0.000000
    15  C   -0.000003   0.000010  -0.000008  -0.000006   0.000000   0.000000
    16  C   -0.000006  -0.000008  -0.000050  -0.000002   0.000000   0.000000
    17  C    0.000003   0.000001   0.000005   0.000000   0.000000   0.000000
    18  C   -0.000003   0.000000   0.000000   0.000000   0.000000   0.000000
    19  C   -0.000037  -0.000022  -0.000004   0.000000   0.000000   0.000000
    20  C    0.000030   0.000060   0.000096   0.000003   0.000000   0.000000
    21  C    0.000000  -0.000008  -0.000326  -0.000820   0.000000   0.000000
    22  C    0.000000   0.000002  -0.000919  -0.004234   0.000000   0.000000
    23  N    0.000000   0.000000  -0.000055  -0.003996   0.000000   0.000000
    24  C    0.000000   0.000003   0.000165   0.000647   0.000000   0.000000
    25  C    0.000000   0.000000   0.000000   0.000000  -0.000026   0.000052
    26  C    0.000000   0.000000   0.000000   0.000000   0.000014  -0.000065
    27  H    0.000000   0.000000   0.000000   0.000000   0.000000   0.000001
    28  H    0.000000   0.000000   0.000000   0.000000   0.000000  -0.000001
    29  H    0.000000   0.000000   0.000000   0.000000   0.000000   0.000000
    30  H    0.000000   0.000000   0.000000   0.000000   0.000006  -0.000001
    31  H    0.000000   0.000000   0.000000   0.000001   0.000000   0.000000
    32  H    0.000000   0.000000   0.000000   0.000000  -0.000003   0.000001
    33  H   -0.000001  -0.000002  -0.000002   0.000000   0.000000   0.000000
    34  H    0.000000   0.000000   0.000006   0.000000   0.000000   0.000000
    35  H   -0.000001   0.000000  -0.000001   0.000000   0.000000   0.000000
    36  H    0.000000   0.000000   0.000000   0.000000   0.000000   0.000000
    37  H    0.000016   0.000003   0.000000   0.000000   0.000000   0.000000
    38  H    0.000003  -0.000027   0.000003   0.000000   0.000000   0.000000
    39  H    0.000000   0.000003   0.002319   0.000560   0.000000   0.000000
    40  H    0.000000   0.000000   0.000560   0.004159   0.000000   0.000000
    41  H    0.000000   0.000000   0.000000   0.000000  -0.000040  -0.000004
    42  H    0.000000   0.000000   0.000000   0.000000  -0.000004   0.000049
    43  Ag   0.000000   0.000000   0.000282   0.010096   0.000000   0.000000
              43
     1  C    0.000000
     2  C    0.000001
     3  C   -0.000007
     4  C   -0.000005
     5  C   -0.000418
     6  C   -0.000117
     7  C   -0.006059
     8  N   -0.059414
     9  C    0.005721
    10  C   -0.001280
    11  C   -0.000053
    12  C   -0.000053
    13  C   -0.001280
    14  C   -0.000419
    15  C   -0.000005
    16  C    0.000007
    17  C   -0.000001
    18  C    0.000000
    19  C    0.000001
    20  C   -0.000007
    21  C   -0.000116
    22  C   -0.006061
    23  N   -0.059410
    24  C    0.005721
    25  C    0.000007
    26  C   -0.000001
    27  H    0.000000
    28  H    0.000000
    29  H    0.000000
    30  H    0.000282
    31  H    0.010097
    32  H    0.000013
    33  H    0.000013
    34  H    0.000000
    35  H    0.000000
    36  H    0.000000
    37  H    0.000000
    38  H    0.000000
    39  H    0.000282
    40  H    0.010096
    41  H    0.000000
    42  H    0.000000
    43  Ag   0.963613
 Mulliken charges and spin densities:
               1          2
     1  C   -0.002408  -0.000158
     2  C   -0.009651   0.000539
     3  C    0.032022   0.000280
     4  C   -0.128238  -0.001922
     5  C    0.004907   0.020977
     6  C   -0.031250  -0.010770
     7  C    0.116224   0.021474
     8  N   -0.208326   0.011994
     9  C    0.068600   0.002275
    10  C    0.016315   0.001528
    11  C    0.000427   0.015989
    12  C    0.000428   0.015989
    13  C    0.016304   0.001528
    14  C    0.004921   0.020979
    15  C   -0.128245  -0.001922
    16  C    0.031913   0.000611
    17  C   -0.009601   0.000394
    18  C   -0.002407  -0.000158
    19  C   -0.009656   0.000539
    20  C    0.032014   0.000279
    21  C   -0.031254  -0.010770
    22  C    0.116219   0.021475
    23  N   -0.208331   0.011994
    24  C    0.068609   0.002274
    25  C    0.031898   0.000610
    26  C   -0.009600   0.000394
    27  H    0.020566   0.000004
    28  H    0.020715  -0.000001
    29  H    0.014167  -0.000045
    30  H    0.023128   0.001242
    31  H    0.045194   0.005775
    32  H    0.026021  -0.000736
    33  H    0.026025  -0.000736
    34  H    0.014093  -0.000035
    35  H    0.020701   0.000010
    36  H    0.020566   0.000004
    37  H    0.020715  -0.000001
    38  H    0.014171  -0.000045
    39  H    0.023131   0.001242
    40  H    0.045195   0.005774
    41  H    0.014097  -0.000035
    42  H    0.020700   0.000010
    43  Ag  -0.131019   0.861151
 Sum of Mulliken charges =   0.00000   1.00000
 Mulliken charges and spin densities with hydrogens summed into heavy atoms:
               1          2
     1  C    0.018157  -0.000154
     2  C    0.011063   0.000538
     3  C    0.046189   0.000235
     4  C   -0.128238  -0.001922
     5  C    0.004907   0.020977
     6  C   -0.008121  -0.009528
     7  C    0.161419   0.027249
     8  N   -0.208326   0.011994
     9  C    0.068600   0.002275
    10  C    0.016315   0.001528
    11  C    0.026448   0.015253
    12  C    0.026453   0.015254
    13  C    0.016304   0.001528
    14  C    0.004921   0.020979
    15  C   -0.128245  -0.001922
    16  C    0.046006   0.000577
    17  C    0.011100   0.000403
    18  C    0.018159  -0.000154
    19  C    0.011059   0.000538
    20  C    0.046185   0.000235
    21  C   -0.008123  -0.009528
    22  C    0.161414   0.027249
    23  N   -0.208331   0.011994
    24  C    0.068609   0.002274
    25  C    0.045995   0.000576
    26  C    0.011101   0.000403
    43  Ag  -0.131019   0.861151
 Electronic spatial extent (au):  <R**2>=          12676.3381
 Charge=              0.0000 electrons
 Dipole moment (field-independent basis, Debye):
    X=              0.2706    Y=              8.2309    Z=             -2.8592  Tot=              8.7176
 Quadrupole moment (field-independent basis, Debye-Ang):
   XX=           -140.8606   YY=           -209.7983   ZZ=           -169.3725
   XY=             -2.0992   XZ=              1.0433   YZ=             16.8796
 Traceless Quadrupole moment (field-independent basis, Debye-Ang):
   XX=             32.4832   YY=            -36.4545   ZZ=              3.9713
   XY=             -2.0992   XZ=              1.0433   YZ=             16.8796
 Octapole moment (field-independent basis, Debye-Ang**2):
  XXX=             16.2450  YYY=            763.1349  ZZZ=           -227.2154  XYY=             13.8516
  XXY=            164.8991  XXZ=            -69.6861  XZZ=              7.0708  YZZ=            199.8532
  YYZ=           -169.2756  XYZ=             -3.7877
 Hexadecapole moment (field-independent basis, Debye-Ang**3):
 XXXX=         -10345.3571 YYYY=          -8656.1120 ZZZZ=          -1496.4723 XXXY=             68.1146
 XXXZ=            -55.6292 YYYX=            -58.7667 YYYZ=           1769.5958 ZZZX=            -31.5273
 ZZZY=           1208.2557 XXYY=          -2472.7272 XXZZ=          -1845.4040 YYZZ=          -1621.2311
 XXYZ=            267.6350 YYXZ=             21.7654 ZZXY=             -6.3390
 N-N= 2.368972932662D+03 E-N=-7.444944797343D+03  KE= 1.078215692048D+03
                          Isotropic Fermi Contact Couplings
        Atom                 a.u.       MegaHertz       Gauss      10(-4) cm-1
     1  C(13)             -0.00005      -0.05706      -0.02036      -0.01903
     2  C(13)              0.00023       0.26046       0.09294       0.08688
     3  C(13)              0.00082       0.91761       0.32742       0.30608
     4  C(13)             -0.00102      -1.14821      -0.40971      -0.38300
     5  C(13)              0.00416       4.67295       1.66742       1.55873
     6  C(13)             -0.00294      -3.30569      -1.17955      -1.10266
     7  C(13)              0.00441       4.95302       1.76736       1.65215
     8  N(14)              0.08316      26.87000       9.58788       8.96287
     9  C(13)              0.00263       2.95703       1.05514       0.98636
    10  C(13)              0.00232       2.60415       0.92922       0.86865
    11  C(13)              0.00267       3.00429       1.07200       1.00212
    12  C(13)              0.00267       3.00414       1.07195       1.00207
    13  C(13)              0.00232       2.60398       0.92917       0.86860
    14  C(13)              0.00416       4.67339       1.66758       1.55888
    15  C(13)             -0.00102      -1.14833      -0.40975      -0.38304
    16  C(13)              0.00094       1.06211       0.37899       0.35428
    17  C(13)              0.00020       0.22951       0.08190       0.07656
    18  C(13)             -0.00005      -0.05701      -0.02034      -0.01902
    19  C(13)              0.00023       0.26047       0.09294       0.08688
    20  C(13)              0.00082       0.91758       0.32742       0.30607
    21  C(13)             -0.00294      -3.30604      -1.17968      -1.10278
    22  C(13)              0.00441       4.95294       1.76733       1.65212
    23  N(14)              0.08316      26.86989       9.58785       8.96283
    24  C(13)              0.00263       2.95706       1.05515       0.98637
    25  C(13)              0.00094       1.06171       0.37884       0.35415
    26  C(13)              0.00020       0.22954       0.08191       0.07657
    27  H(1)               0.00000       0.00389       0.00139       0.00130
    28  H(1)               0.00000      -0.00525      -0.00187      -0.00175
    29  H(1)              -0.00001      -0.03317      -0.01184      -0.01107
    30  H(1)               0.00029       1.29525       0.46218       0.43205
    31  H(1)              -0.00040      -1.78766      -0.63788      -0.59630
    32  H(1)              -0.00025      -1.09686      -0.39139      -0.36587
    33  H(1)              -0.00025      -1.09685      -0.39139      -0.36587
    34  H(1)              -0.00001      -0.05055      -0.01804      -0.01686
    35  H(1)               0.00000       0.00141       0.00050       0.00047
    36  H(1)               0.00000       0.00387       0.00138       0.00129
    37  H(1)               0.00000      -0.00526      -0.00188      -0.00175
    38  H(1)              -0.00001      -0.03312      -0.01182      -0.01105
    39  H(1)               0.00029       1.29526       0.46218       0.43205
    40  H(1)              -0.00040      -1.78814      -0.63805      -0.59646
    41  H(1)              -0.00001      -0.05047      -0.01801      -0.01684
    42  H(1)               0.00000       0.00140       0.00050       0.00047
    43  Ag(107             0.00019      -0.03427      -0.01223      -0.01143
 --------------------------------------------------------
       Center         ----  Spin Dipole Couplings  ----
                      3XX-RR        3YY-RR        3ZZ-RR
 --------------------------------------------------------
     1   Atom       -0.000053      0.000157     -0.000104
     2   Atom        0.000514     -0.000006     -0.000508
     3   Atom        0.000041      0.000436     -0.000477
     4   Atom       -0.000056      0.000353     -0.000297
     5   Atom       -0.011088     -0.008014      0.019102
     6   Atom        0.003474      0.004295     -0.007769
     7   Atom       -0.009650     -0.000093      0.009743
     8   Atom       -0.009438     -0.008412      0.017850
     9   Atom       -0.002711      0.005469     -0.002759
    10   Atom       -0.002163      0.004928     -0.002765
    11   Atom       -0.009264     -0.007882      0.017147
    12   Atom       -0.009267     -0.003072      0.012338
    13   Atom       -0.001996     -0.002076      0.004072
    14   Atom       -0.010987     -0.004924      0.015912
    15   Atom        0.000035      0.000282     -0.000317
    16   Atom        0.000305      0.000183     -0.000488
    17   Atom        0.000460     -0.000003     -0.000457
    18   Atom       -0.000012      0.000133     -0.000121
    19   Atom        0.000534     -0.000126     -0.000408
    20   Atom        0.000140     -0.000171      0.000031
    21   Atom        0.003654      0.003514     -0.007167
    22   Atom       -0.009748     -0.014391      0.024139
    23   Atom       -0.005262      0.050754     -0.045492
    24   Atom       -0.002663      0.000439      0.002223
    25   Atom        0.000213     -0.000205     -0.000008
    26   Atom        0.000435     -0.000083     -0.000352
    27   Atom       -0.000012      0.000116     -0.000104
    28   Atom       -0.000018      0.000207     -0.000189
    29   Atom       -0.000143      0.000480     -0.000337
    30   Atom        0.000379      0.000483     -0.000861
    31   Atom        0.001314      0.000356     -0.001670
    32   Atom       -0.001107      0.001363     -0.000257
    33   Atom       -0.000965      0.001353     -0.000388
    34   Atom       -0.000088      0.000388     -0.000300
    35   Atom        0.000008      0.000176     -0.000184
    36   Atom        0.000012      0.000095     -0.000106
    37   Atom        0.000011      0.000008     -0.000019
    38   Atom       -0.000083     -0.000047      0.000130
    39   Atom        0.000505      0.000417     -0.000922
    40   Atom        0.001555      0.002054     -0.003610
    41   Atom       -0.000144     -0.000002      0.000146
    42   Atom       -0.000021      0.000030     -0.000009
    43   Atom       -0.010400     -0.021667      0.032067
 --------------------------------------------------------
                        XY            XZ            YZ
 --------------------------------------------------------
     1   Atom       -0.000306      0.000096     -0.000115
     2   Atom       -0.000200     -0.000033     -0.000089
     3   Atom       -0.000919     -0.000209      0.000192
     4   Atom       -0.000644      0.000329     -0.000271
     5   Atom       -0.001314     -0.001405      0.007509
     6   Atom       -0.001392      0.000199     -0.004116
     7   Atom        0.005944      0.014796      0.018054
     8   Atom       -0.019208      0.043870     -0.055725
     9   Atom       -0.000795     -0.001702      0.001956
    10   Atom       -0.002436     -0.003268      0.004169
    11   Atom       -0.000340     -0.001131      0.004986
    12   Atom       -0.000297     -0.000891      0.011072
    13   Atom       -0.000021     -0.004471     -0.004457
    14   Atom        0.000285     -0.001793      0.011568
    15   Atom        0.000734     -0.000149     -0.000231
    16   Atom        0.000894      0.000365      0.000193
    17   Atom        0.000215      0.000048     -0.000078
    18   Atom        0.000312     -0.000118     -0.000087
    19   Atom        0.000103     -0.000144     -0.000213
    20   Atom        0.000588     -0.000760     -0.000433
    21   Atom        0.001317     -0.000774     -0.004847
    22   Atom        0.004245      0.014623     -0.000179
    23   Atom        0.045311      0.024797      0.025178
    24   Atom       -0.000159     -0.002187     -0.004343
    25   Atom       -0.000496      0.000823     -0.000430
    26   Atom       -0.000166      0.000175     -0.000216
    27   Atom       -0.000177      0.000062     -0.000087
    28   Atom       -0.000244     -0.000015      0.000026
    29   Atom       -0.000552     -0.000170      0.000178
    30   Atom       -0.000964      0.000295     -0.000578
    31   Atom       -0.001796      0.000715     -0.002773
    32   Atom       -0.001056      0.000179     -0.000752
    33   Atom        0.001095     -0.000563     -0.000562
    34   Atom        0.000547      0.000185      0.000167
    35   Atom        0.000253      0.000019      0.000030
    36   Atom        0.000185     -0.000064     -0.000080
    37   Atom        0.000187     -0.000174     -0.000185
    38   Atom        0.000341     -0.000505     -0.000403
    39   Atom        0.000951     -0.000368     -0.000479
    40   Atom        0.001902     -0.000468     -0.000276
    41   Atom       -0.000301      0.000457     -0.000408
    42   Atom       -0.000181      0.000161     -0.000196
    43   Atom        0.000374      0.002836      0.021117
 --------------------------------------------------------


 ---------------------------------------------------------------------------------
              Anisotropic Spin Dipole Couplings in Principal Axis System
 ---------------------------------------------------------------------------------

       Atom             a.u.   MegaHertz   Gauss  10(-4) cm-1        Axes

              Baa    -0.0003    -0.037    -0.013    -0.012  0.8219  0.5634 -0.0837
     1 C(13)  Bbb    -0.0001    -0.020    -0.007    -0.007 -0.0902  0.2738  0.9575
              Bcc     0.0004     0.056     0.020     0.019 -0.5624  0.7795 -0.2759
 
              Baa    -0.0005    -0.071    -0.025    -0.024  0.0682  0.1935  0.9787
     2 C(13)  Bbb    -0.0001    -0.007    -0.003    -0.002  0.3146  0.9268 -0.2051
              Bcc     0.0006     0.078     0.028     0.026  0.9468 -0.3219 -0.0023
 
              Baa    -0.0007    -0.095    -0.034    -0.032  0.7795  0.5894  0.2123
     3 C(13)  Bbb    -0.0005    -0.069    -0.025    -0.023 -0.0664 -0.2592  0.9635
              Bcc     0.0012     0.164     0.059     0.055 -0.6229  0.7651  0.1630
 
              Baa    -0.0006    -0.079    -0.028    -0.026  0.7703  0.3786 -0.5131
     4 C(13)  Bbb    -0.0004    -0.050    -0.018    -0.017  0.2677  0.5383  0.7991
              Bcc     0.0010     0.129     0.046     0.043 -0.5787  0.7529 -0.3133
 
              Baa    -0.0117    -1.566    -0.559    -0.522  0.8801  0.4690 -0.0742
     5 C(13)  Bbb    -0.0095    -1.270    -0.453    -0.424 -0.4719  0.8467 -0.2458
              Bcc     0.0211     2.836     1.012     0.946 -0.0524  0.2514  0.9665
 
              Baa    -0.0090    -1.214    -0.433    -0.405  0.0178  0.2965  0.9549
     6 C(13)  Bbb     0.0028     0.374     0.133     0.125  0.8945  0.4221 -0.1477
              Bcc     0.0063     0.840     0.300     0.280 -0.4468  0.8567 -0.2577
 
              Baa    -0.0189    -2.531    -0.903    -0.844  0.7325  0.3370 -0.5915
     7 C(13)  Bbb    -0.0108    -1.443    -0.515    -0.481 -0.5730  0.7743 -0.2685
              Bcc     0.0296     3.974     1.418     1.326  0.3676  0.5356  0.7603
 
              Baa    -0.0575    -2.216    -0.791    -0.739 -0.3714  0.6297  0.6823
     8 N(14)  Bbb    -0.0275    -1.061    -0.378    -0.354  0.8153  0.5728 -0.0848
              Bcc     0.0850     3.277     1.169     1.093  0.4442 -0.5248  0.7261
 
              Baa    -0.0045    -0.606    -0.216    -0.202  0.6611 -0.0932  0.7445
     9 C(13)  Bbb    -0.0016    -0.208    -0.074    -0.069  0.7383  0.2573 -0.6234
              Bcc     0.0061     0.814     0.290     0.271 -0.1335  0.9618  0.2389
 
              Baa    -0.0060    -0.807    -0.288    -0.269  0.5685 -0.1794  0.8029
    10 C(13)  Bbb    -0.0020    -0.270    -0.096    -0.090  0.7503  0.5133 -0.4166
              Bcc     0.0080     1.077     0.384     0.359 -0.3374  0.8392  0.4264
 
              Baa    -0.0093    -1.254    -0.447    -0.418  0.9716  0.2368 -0.0031
    11 C(13)  Bbb    -0.0088    -1.182    -0.422    -0.394 -0.2329  0.9531 -0.1932
              Bcc     0.0182     2.436     0.869     0.813 -0.0428  0.1885  0.9811
 
              Baa    -0.0093    -1.254    -0.447    -0.418  0.9557 -0.2442  0.1640
    12 C(13)  Bbb    -0.0088    -1.182    -0.422    -0.394  0.2923  0.8523 -0.4339
              Bcc     0.0182     2.436     0.869     0.813 -0.0338  0.4626  0.8859
 
              Baa    -0.0060    -0.807    -0.288    -0.269  0.5942  0.6044  0.5307
    13 C(13)  Bbb    -0.0020    -0.270    -0.096    -0.090  0.7103 -0.7039  0.0063
              Bcc     0.0080     1.077     0.384     0.359 -0.3773 -0.3732  0.8476
 
              Baa    -0.0117    -1.566    -0.559    -0.522  0.8494 -0.4647  0.2501
    14 C(13)  Bbb    -0.0095    -1.270    -0.453    -0.424  0.5257  0.7875 -0.3219
              Bcc     0.0211     2.836     1.012     0.946 -0.0474  0.4049  0.9131
 
              Baa    -0.0006    -0.079    -0.028    -0.026  0.7359 -0.6594 -0.1537
    15 C(13)  Bbb    -0.0004    -0.050    -0.018    -0.017  0.2528  0.0570  0.9658
              Bcc     0.0010     0.129     0.046     0.043  0.6281  0.7496 -0.2086
 
              Baa    -0.0007    -0.098    -0.035    -0.033  0.6441 -0.5118 -0.5685
    16 C(13)  Bbb    -0.0005    -0.068    -0.024    -0.023  0.2568 -0.5554  0.7909
              Bcc     0.0012     0.165     0.059     0.055  0.7206  0.6554  0.2263
 
              Baa    -0.0005    -0.064    -0.023    -0.021 -0.0970  0.2046  0.9740
    17 C(13)  Bbb    -0.0001    -0.009    -0.003    -0.003 -0.3508  0.9088 -0.2258
              Bcc     0.0005     0.073     0.026     0.024  0.9314  0.3636  0.0164
 
              Baa    -0.0003    -0.036    -0.013    -0.012  0.7856 -0.5410  0.3003
    18 C(13)  Bbb    -0.0001    -0.020    -0.007    -0.007 -0.0869  0.3841  0.9192
              Bcc     0.0004     0.056     0.020     0.019  0.6127  0.7482 -0.2547
 
              Baa    -0.0005    -0.071    -0.025    -0.024  0.0769  0.4505  0.8894
    19 C(13)  Bbb    -0.0001    -0.007    -0.003    -0.002 -0.2552  0.8713 -0.4193
              Bcc     0.0006     0.078     0.028     0.026  0.9638  0.1948 -0.1820
 
              Baa    -0.0007    -0.095    -0.034    -0.032  0.7481 -0.3768  0.5463
    20 C(13)  Bbb    -0.0005    -0.069    -0.025    -0.023 -0.0303  0.8030  0.5953
              Bcc     0.0012     0.164     0.059     0.055  0.6629  0.4618 -0.5893
 
              Baa    -0.0090    -1.214    -0.433    -0.405  0.0198  0.3582  0.9334
    21 C(13)  Bbb     0.0028     0.374     0.133     0.125  0.8650 -0.4743  0.1637
              Bcc     0.0063     0.840     0.300     0.280  0.5014  0.8042 -0.3193
 
              Baa    -0.0189    -2.532    -0.903    -0.844  0.6993 -0.6731 -0.2406
    22 C(13)  Bbb    -0.0108    -1.443    -0.515    -0.481  0.6228  0.7389 -0.2572
              Bcc     0.0296     3.974     1.418     1.326  0.3509  0.0300  0.9359
 
              Baa    -0.0575    -2.216    -0.791    -0.739 -0.3938 -0.0487  0.9179
    23 N(14)  Bbb    -0.0275    -1.061    -0.378    -0.354  0.7784 -0.5488  0.3048
              Bcc     0.0850     3.277     1.169     1.093  0.4889  0.8345  0.2540
 
              Baa    -0.0045    -0.606    -0.216    -0.202  0.6804  0.4953  0.5401
    24 C(13)  Bbb    -0.0016    -0.208    -0.074    -0.069  0.7092 -0.6308 -0.3149
              Bcc     0.0061     0.814     0.290     0.271 -0.1847 -0.5973  0.7805
 
              Baa    -0.0007    -0.098    -0.035    -0.033 -0.6621 -0.0121  0.7494
    25 C(13)  Bbb    -0.0005    -0.068    -0.024    -0.023  0.3041  0.9095  0.2834
              Bcc     0.0012     0.165     0.059     0.055  0.6850 -0.4155  0.5985
 
              Baa    -0.0005    -0.064    -0.023    -0.021 -0.0892  0.4486  0.8893
    26 C(13)  Bbb    -0.0001    -0.009    -0.003    -0.003  0.4077  0.8310 -0.3784
              Bcc     0.0005     0.073     0.026     0.024  0.9087 -0.3288  0.2571
 
              Baa    -0.0001    -0.073    -0.026    -0.024  0.8219  0.4604 -0.3355
    27 H(1)   Bbb    -0.0001    -0.071    -0.025    -0.024  0.1380  0.4105  0.9014
              Bcc     0.0003     0.144     0.051     0.048 -0.5527  0.7871 -0.2738
 
              Baa    -0.0002    -0.102    -0.036    -0.034 -0.0225 -0.0789  0.9966
    28 H(1)   Bbb    -0.0002    -0.093    -0.033    -0.031  0.8423  0.5355  0.0614
              Bcc     0.0004     0.195     0.069     0.065 -0.5385  0.8409  0.0544
 
              Baa    -0.0005    -0.263    -0.094    -0.088  0.8096  0.3763  0.4504
    29 H(1)   Bbb    -0.0004    -0.190    -0.068    -0.064 -0.3048 -0.3863  0.8706
              Bcc     0.0009     0.454     0.162     0.151 -0.5016  0.8421  0.1981
 
              Baa    -0.0011    -0.576    -0.205    -0.192  0.0662  0.3819  0.9218
    30 H(1)   Bbb    -0.0005    -0.255    -0.091    -0.085  0.7573  0.5823 -0.2956
              Bcc     0.0016     0.831     0.296     0.277 -0.6497  0.7177 -0.2506
 
              Baa    -0.0037    -1.950    -0.696    -0.650  0.1008  0.5960  0.7967
    31 H(1)   Bbb    -0.0001    -0.056    -0.020    -0.019  0.7831  0.4464 -0.4330
              Bcc     0.0038     2.006     0.716     0.669 -0.6136  0.6675 -0.4217
 
              Baa    -0.0015    -0.803    -0.287    -0.268  0.9272  0.3643  0.0868
    32 H(1)   Bbb    -0.0005    -0.271    -0.097    -0.090 -0.1941  0.2695  0.9432
              Bcc     0.0020     1.074     0.383     0.358 -0.3202  0.8915 -0.3206
 
              Baa    -0.0015    -0.803    -0.287    -0.268  0.9059 -0.2858  0.3126
    33 H(1)   Bbb    -0.0005    -0.271    -0.097    -0.090 -0.1903  0.3846  0.9032
              Bcc     0.0020     1.074     0.383     0.358  0.3784  0.8777 -0.2940
 
              Baa    -0.0005    -0.255    -0.091    -0.085  0.7958 -0.4186 -0.4376
    34 H(1)   Bbb    -0.0003    -0.172    -0.061    -0.057  0.2650 -0.4090  0.8732
              Bcc     0.0008     0.427     0.152     0.142  0.5445  0.8109  0.2145
 
              Baa    -0.0002    -0.100    -0.036    -0.033  0.1041 -0.1542  0.9825
    35 H(1)   Bbb    -0.0002    -0.093    -0.033    -0.031  0.8054 -0.5666 -0.1742
              Bcc     0.0004     0.192     0.069     0.064  0.5835  0.8095  0.0653
 
              Baa    -0.0001    -0.073    -0.026    -0.024  0.7859 -0.6173  0.0347
    36 H(1)   Bbb    -0.0001    -0.071    -0.025    -0.024  0.1352  0.2264  0.9646
              Bcc     0.0003     0.144     0.051     0.048  0.6033  0.7534 -0.2614
 
              Baa    -0.0002    -0.102    -0.036    -0.034  0.0025  0.6803  0.7329
    37 H(1)   Bbb    -0.0002    -0.093    -0.033    -0.031  0.8106 -0.4306  0.3969
              Bcc     0.0004     0.195     0.069     0.065  0.5856  0.5931 -0.5525
 
              Baa    -0.0005    -0.263    -0.094    -0.088  0.7953 -0.0632  0.6030
    38 H(1)   Bbb    -0.0004    -0.190    -0.068    -0.064 -0.2637  0.8595  0.4379
              Bcc     0.0009     0.454     0.162     0.151 -0.5459 -0.5073  0.6668
 
              Baa    -0.0011    -0.576    -0.205    -0.192  0.0624  0.2681  0.9614
    39 H(1)   Bbb    -0.0005    -0.255    -0.091    -0.085  0.7157 -0.6834  0.1441
              Bcc     0.0016     0.831     0.296     0.277  0.6956  0.6791 -0.2345
 
              Baa    -0.0037    -1.949    -0.696    -0.650  0.0818  0.0209  0.9964
    40 H(1)   Bbb    -0.0001    -0.056    -0.020    -0.019  0.7466 -0.6635 -0.0474
              Bcc     0.0038     2.006     0.716     0.669  0.6602  0.7479 -0.0699
 
              Baa    -0.0005    -0.255    -0.091    -0.085  0.8099  0.0100 -0.5864
    41 H(1)   Bbb    -0.0003    -0.172    -0.061    -0.057  0.3063  0.8454  0.4375
              Bcc     0.0008     0.427     0.152     0.142  0.5002 -0.5340  0.6817
 
              Baa    -0.0002    -0.100    -0.036    -0.033  0.1324  0.7230  0.6781
    42 H(1)   Bbb    -0.0002    -0.093    -0.033    -0.031  0.8336  0.2889 -0.4707
              Bcc     0.0004     0.192     0.069     0.064 -0.5362  0.6276 -0.5645
 
              Baa    -0.0290     0.629     0.224     0.210  0.0310  0.9442 -0.3280
    43 Ag(107 Bbb    -0.0105     0.229     0.082     0.076  0.9979 -0.0476 -0.0428
              Bcc     0.0395    -0.858    -0.306    -0.286  0.0560  0.3260  0.9437
 

 ---------------------------------------------------------------------------------

 No NMR shielding tensors so no spin-rotation constants.
 Leave Link  601 at Fri Sep 11 22:07:57 2026, MaxMem=  6442450944 cpu:               6.0 elap:               5.7
 (Enter C:\G16W\l9999.exe)
 Unable to Open any file for archive entry.
 1|1|UNPC-DESKTOP-2JKEGCA|SP|UPBE1PBE|def2SVP|C24H16Ag1N2(2)|JHKIM|11-S
 ep-2026|0||#P PBE1PBE/Def2SVP EmpiricalDispersion=GD3BJ SP SCF=(XQC,Ma
 xCycle=128,VShift=300) NoSymm||Bphen t=0.000 dz=+0.00 class=toface||0,
 2|C,0,-5.075104,2.596057,-0.848582|C,0,-4.715716,2.434163,0.478857|C,0
 ,-3.985648,1.326254,0.870754|C,0,-3.608814,0.370482,-0.0652|C,0,-2.849
 893,-0.827816,0.356392|C,0,-3.512903,-1.97087,0.7492|C,0,-2.764008,-3.
 084836,1.14144|N,0,-1.457428,-3.11297,1.160054|C,0,-0.787031,-2.018643
 ,0.784213|C,0,-1.437298,-0.832182,0.367434|C,0,-0.667287,0.300298,-0.0
 21018|C,0,0.685824,0.263426,0.000908|C,0,1.380055,-0.908949,0.413101|C
 ,0,2.790408,-0.981482,0.44787|C,0,3.626694,0.173326,0.052066|C,0,4.025
 328,1.1075,1.000707|C,0,4.826918,2.173661,0.633555|C,0,5.236571,2.3150
 29,-0.681611|C,0,4.841079,1.387397,-1.630584|C,0,4.039486,0.320062,-1.
 266868|C,0,3.377135,-2.158548,0.861055|C,0,2.556396,-3.229745,1.227851
 |N,0,1.250307,-3.186722,1.204024|C,0,0.653004,-2.057874,0.807573|C,0,-
 3.970941,0.537891,-1.396496|C,0,-4.70102,1.647,-1.784966|H,0,-5.646599
 ,3.460423,-1.152844|H,0,-5.005817,3.172287,1.212213|H,0,-3.703341,1.19
 5908,1.905798|H,0,-4.592243,-2.003673,0.753324|H,0,-3.258742,-3.995483
 ,1.454638|H,0,-1.191655,1.191943,-0.334479|H,0,1.267832,1.124926,-0.29
 4617|H,0,3.703614,0.993274,2.026112|H,0,5.133493,2.89518,1.376669|H,0,
 5.863825,3.146713,-0.966506|H,0,5.158745,1.49424,-2.657458|H,0,3.72879
 3,-0.40634,-2.004305|H,0,4.452389,-2.250041,0.900153|H,0,2.990418,-4.1
 65689,1.556131|H,0,-3.677198,-0.205338,-2.124046|H,0,-4.979626,1.76976
 2,-2.821356|Ag,0,-0.162542,-4.94378,1.805193||Version=EM64W-G16RevC.01
 |HF=-1178.7751628|S2=0.752647|S2-1=0.|S2A=0.750006|RMSD=8.204e-010|Dip
 ole=0.1064623,3.2382991,-1.1248901|Quadrupole=24.1504534,-27.1030282,2
 .9525748,-1.5606949,0.7756695,12.5495375|PG=C01 [X(C24H16Ag1N2)]||@
 The archive entry for this job was punched.


 Age does not diminish the extreme disappointment of
 having a scoop of ice cream fall from the cone.
 -- Jim Fiebig
 Job cpu time:       0 days  1 hours 35 minutes 23.0 seconds.
 Elapsed time:       0 days  1 hours 35 minutes 21.8 seconds.
 File lengths (MBytes):  RWF=    210 Int=      0 D2E=      0 Chk=     17 Scr=      1
 Normal termination of Gaussian 16 at Fri Sep 11 22:07:58 2026.
