 Entering Gaussian System, Link 0=C:\G16W\g16.exe
 Input=Bphen_t3_z1.gjf
 Output=Bphen_t3_z1.out
 Initial command:
 C:\G16W\l1.exe ".\Gau-10392.inp" "Bphen_t3_z1.out" /scrdir=".\"
 Entering Link 1 = C:\G16W\l1.exe PID=     62188.
  
 Copyright (c) 1988-2019, Gaussian, Inc.  All Rights Reserved.
  
 This is part of the Gaussian(R) 16 program.  It is based on
 the Gaussian(R) 09 system (copyright 2009, Gaussian, Inc.),
 the Gaussian(R) 03 system (copyright 2003, Gaussian, Inc.),
 the Gaussian(R) 98 system (copyright 1998, Gaussian, Inc.),
 the Gaussian(R) 94 system (copyright 1995, Gaussian, Inc.),
 the Gaussian 92(TM) system (copyright 1992, Gaussian, Inc.),
 the Gaussian 90(TM) system (copyright 1990, Gaussian, Inc.),
 the Gaussian 88(TM) system (copyright 1988, Gaussian, Inc.),
 the Gaussian 86(TM) system (copyright 1986, Carnegie Mellon
 University), and the Gaussian 82(TM) system (copyright 1983,
 Carnegie Mellon University). Gaussian is a federally registered
 trademark of Gaussian, Inc.
  
 This software contains proprietary and confidential information,
 including trade secrets, belonging to Gaussian, Inc.
  
 This software is provided under written license and may be
 used, copied, transmitted, or stored only in accord with that
 written license.
  
 The following legend is applicable only to US Government
 contracts under FAR:
  
                    RESTRICTED RIGHTS LEGEND
  
 Use, reproduction and disclosure by the US Government is
 subject to restrictions as set forth in subparagraphs (a)
 and (c) of the Commercial Computer Software - Restricted
 Rights clause in FAR 52.227-19.
  
 Gaussian, Inc.
 340 Quinnipiac St., Bldg. 40, Wallingford CT 06492
  
  
 ---------------------------------------------------------------
 Warning -- This program may not be used in any manner that
 competes with the business of Gaussian, Inc. or will provide
 assistance to any competitor of Gaussian, Inc.  The licensee
 of this program is prohibited from giving any competitor of
 Gaussian, Inc. access to this program.  By using this program,
 the user acknowledges that Gaussian, Inc. is engaged in the
 business of creating and licensing software in the field of
 computational chemistry and represents and warrants to the
 licensee that it is not a competitor of Gaussian, Inc. and that
 it will not use this program in any manner prohibited above.
 ---------------------------------------------------------------
  

 Cite this work as:
 Gaussian 16, Revision C.01,
 M. J. Frisch, G. W. Trucks, H. B. Schlegel, G. E. Scuseria, 
 M. A. Robb, J. R. Cheeseman, G. Scalmani, V. Barone, 
 G. A. Petersson, H. Nakatsuji, X. Li, M. Caricato, A. V. Marenich, 
 J. Bloino, B. G. Janesko, R. Gomperts, B. Mennucci, H. P. Hratchian, 
 J. V. Ortiz, A. F. Izmaylov, J. L. Sonnenberg, D. Williams-Young, 
 F. Ding, F. Lipparini, F. Egidi, J. Goings, B. Peng, A. Petrone, 
 T. Henderson, D. Ranasinghe, V. G. Zakrzewski, J. Gao, N. Rega, 
 G. Zheng, W. Liang, M. Hada, M. Ehara, K. Toyota, R. Fukuda, 
 J. Hasegawa, M. Ishida, T. Nakajima, Y. Honda, O. Kitao, H. Nakai, 
 T. Vreven, K. Throssell, J. A. Montgomery, Jr., J. E. Peralta, 
 F. Ogliaro, M. J. Bearpark, J. J. Heyd, E. N. Brothers, K. N. Kudin, 
 V. N. Staroverov, T. A. Keith, R. Kobayashi, J. Normand, 
 K. Raghavachari, A. P. Rendell, J. C. Burant, S. S. Iyengar, 
 J. Tomasi, M. Cossi, J. M. Millam, M. Klene, C. Adamo, R. Cammi, 
 J. W. Ochterski, R. L. Martin, K. Morokuma, O. Farkas, 
 J. B. Foresman, and D. J. Fox, Gaussian, Inc., Wallingford CT, 2019.
 
 ******************************************
 Gaussian 16:  EM64W-G16RevC.01 30-May-2019
                11-Sep-2026 
 ******************************************
 %Chk=Bphen.chk
 %NProcShared=8
 Will use up to    8 processors via shared memory.
 %Mem=48GB
 ----------------------------------------------------------------------
 #P PBE1PBE/Def2SVP EmpiricalDispersion=GD3BJ SP SCF=(XQC,MaxCycle=128)
  NoSymm Guess=Read
 ----------------------------------------------------------------------
 1/38=1,172=1/1;
 2/12=2,15=1,17=6,18=5,40=1/2;
 3/5=43,7=101,11=2,25=1,30=1,74=-13,116=-2,124=41/1,2,3;
 4/5=1/1;
 5/5=2,7=128,8=3,13=1,38=6/2,8;
 6/7=2,8=2,9=2,10=2,28=1/1;
 99/5=1,9=1/99;
 Leave Link    1 at Fri Sep 11 23:21:36 2026, MaxMem=  6442450944 cpu:               0.0 elap:               0.3
 (Enter C:\G16W\l101.exe)
 -----------------------------------
 Bphen t=0.750 dz=+0.40 class=toface
 -----------------------------------
 Symbolic Z-matrix:
 Charge =  0 Multiplicity = 2
 C                    -5.0751    2.59606  -0.84858 
 C                    -4.71572   2.43416   0.47886 
 C                    -3.98565   1.32625   0.87075 
 C                    -3.60881   0.37048  -0.0652 
 C                    -2.84989  -0.82782   0.35639 
 C                    -3.5129   -1.97087   0.7492 
 C                    -2.76401  -3.08484   1.14144 
 N                    -1.45743  -3.11297   1.16005 
 C                    -0.78703  -2.01864   0.78421 
 C                    -1.4373   -0.83218   0.36743 
 C                    -0.66729   0.3003   -0.02102 
 C                     0.68582   0.26343   0.00091 
 C                     1.38006  -0.90895   0.4131 
 C                     2.79041  -0.98148   0.44787 
 C                     3.62669   0.17333   0.05207 
 C                     4.02533   1.1075    1.00071 
 C                     4.82692   2.17366   0.63356 
 C                     5.23657   2.31503  -0.68161 
 C                     4.84108   1.3874   -1.63058 
 C                     4.03949   0.32006  -1.26687 
 C                     3.37714  -2.15855   0.86106 
 C                     2.5564   -3.22975   1.22785 
 N                     1.25031  -3.18672   1.20402 
 C                     0.653    -2.05787   0.80757 
 C                    -3.97094   0.53789  -1.3965 
 C                    -4.70102   1.647    -1.78497 
 H                    -5.6466    3.46042  -1.15284 
 H                    -5.00582   3.17229   1.21221 
 H                    -3.70334   1.19591   1.9058 
 H                    -4.59224  -2.00367   0.75332 
 H                    -3.25874  -3.99548   1.45464 
 H                    -1.19166   1.19194  -0.33448 
 H                     1.26783   1.12493  -0.29462 
 H                     3.70361   0.99327   2.02611 
 H                     5.13349   2.89518   1.37667 
 H                     5.86383   3.14671  -0.96651 
 H                     5.15874   1.49424  -2.65746 
 H                     3.72879  -0.40634  -2.00431 
 H                     4.45239  -2.25004   0.90015 
 H                     2.99042  -4.16569   1.55613 
 H                    -3.6772   -0.20534  -2.12405 
 H                    -4.97963   1.76976  -2.82136 
 Ag                   -0.2706   -1.34544   3.19519 
 
 ITRead=  0  0  0  0  0  0  0  0  0  0  0  0  0  0  0  0  0  0  0  0
 ITRead=  0  0  0  0  0  0  0  0  0  0  0  0  0  0  0  0  0  0  0  0
 ITRead=  0  0  0
 MicOpt= -1 -1 -1 -1 -1 -1 -1 -1 -1 -1 -1 -1 -1 -1 -1 -1 -1 -1 -1 -1
 MicOpt= -1 -1 -1 -1 -1 -1 -1 -1 -1 -1 -1 -1 -1 -1 -1 -1 -1 -1 -1 -1
 MicOpt= -1 -1 -1
 NAtoms=     43 NQM=       43 NQMF=       0 NMMI=      0 NMMIF=      0
                NMic=       0 NMicF=      0.
                    Isotopes and Nuclear Properties:
 (Nuclear quadrupole moments (NQMom) in fm**2, nuclear magnetic moments (NMagM)
  in nuclear magnetons)

  Atom         1           2           3           4           5           6           7           8           9          10
 IAtWgt=          12          12          12          12          12          12          12          14          12          12
 AtmWgt=  12.0000000  12.0000000  12.0000000  12.0000000  12.0000000  12.0000000  12.0000000  14.0030740  12.0000000  12.0000000
 NucSpn=           0           0           0           0           0           0           0           2           0           0
 AtZEff=   0.0000000   0.0000000   0.0000000   0.0000000   0.0000000   0.0000000   0.0000000   0.0000000   0.0000000   0.0000000
 NQMom=    0.0000000   0.0000000   0.0000000   0.0000000   0.0000000   0.0000000   0.0000000   2.0440000   0.0000000   0.0000000
 NMagM=    0.0000000   0.0000000   0.0000000   0.0000000   0.0000000   0.0000000   0.0000000   0.4037610   0.0000000   0.0000000
 AtZNuc=   6.0000000   6.0000000   6.0000000   6.0000000   6.0000000   6.0000000   6.0000000   7.0000000   6.0000000   6.0000000

  Atom        11          12          13          14          15          16          17          18          19          20
 IAtWgt=          12          12          12          12          12          12          12          12          12          12
 AtmWgt=  12.0000000  12.0000000  12.0000000  12.0000000  12.0000000  12.0000000  12.0000000  12.0000000  12.0000000  12.0000000
 NucSpn=           0           0           0           0           0           0           0           0           0           0
 AtZEff=   0.0000000   0.0000000   0.0000000   0.0000000   0.0000000   0.0000000   0.0000000   0.0000000   0.0000000   0.0000000
 NQMom=    0.0000000   0.0000000   0.0000000   0.0000000   0.0000000   0.0000000   0.0000000   0.0000000   0.0000000   0.0000000
 NMagM=    0.0000000   0.0000000   0.0000000   0.0000000   0.0000000   0.0000000   0.0000000   0.0000000   0.0000000   0.0000000
 AtZNuc=   6.0000000   6.0000000   6.0000000   6.0000000   6.0000000   6.0000000   6.0000000   6.0000000   6.0000000   6.0000000

  Atom        21          22          23          24          25          26          27          28          29          30
 IAtWgt=          12          12          14          12          12          12           1           1           1           1
 AtmWgt=  12.0000000  12.0000000  14.0030740  12.0000000  12.0000000  12.0000000   1.0078250   1.0078250   1.0078250   1.0078250
 NucSpn=           0           0           2           0           0           0           1           1           1           1
 AtZEff=   0.0000000   0.0000000   0.0000000   0.0000000   0.0000000   0.0000000   0.0000000   0.0000000   0.0000000   0.0000000
 NQMom=    0.0000000   0.0000000   2.0440000   0.0000000   0.0000000   0.0000000   0.0000000   0.0000000   0.0000000   0.0000000
 NMagM=    0.0000000   0.0000000   0.4037610   0.0000000   0.0000000   0.0000000   2.7928460   2.7928460   2.7928460   2.7928460
 AtZNuc=   6.0000000   6.0000000   7.0000000   6.0000000   6.0000000   6.0000000   1.0000000   1.0000000   1.0000000   1.0000000

  Atom        31          32          33          34          35          36          37          38          39          40
 IAtWgt=           1           1           1           1           1           1           1           1           1           1
 AtmWgt=   1.0078250   1.0078250   1.0078250   1.0078250   1.0078250   1.0078250   1.0078250   1.0078250   1.0078250   1.0078250
 NucSpn=           1           1           1           1           1           1           1           1           1           1
 AtZEff=   0.0000000   0.0000000   0.0000000   0.0000000   0.0000000   0.0000000   0.0000000   0.0000000   0.0000000   0.0000000
 NQMom=    0.0000000   0.0000000   0.0000000   0.0000000   0.0000000   0.0000000   0.0000000   0.0000000   0.0000000   0.0000000
 NMagM=    2.7928460   2.7928460   2.7928460   2.7928460   2.7928460   2.7928460   2.7928460   2.7928460   2.7928460   2.7928460
 AtZNuc=   1.0000000   1.0000000   1.0000000   1.0000000   1.0000000   1.0000000   1.0000000   1.0000000   1.0000000   1.0000000

  Atom        41          42          43
 IAtWgt=           1           1         107
 AtmWgt=   1.0078250   1.0078250 106.9050900
 NucSpn=           1           1           1
 AtZEff=   0.0000000   0.0000000   0.0000000
 NQMom=    0.0000000   0.0000000   0.0000000
 NMagM=    2.7928460   2.7928460  -0.1135700
 AtZNuc=   1.0000000   1.0000000  47.0000000
 Leave Link  101 at Fri Sep 11 23:21:37 2026, MaxMem=  6442450944 cpu:               0.0 elap:               0.3
 (Enter C:\G16W\l202.exe)
                          Input orientation:                          
 ---------------------------------------------------------------------
 Center     Atomic      Atomic             Coordinates (Angstroms)
 Number     Number       Type             X           Y           Z
 ---------------------------------------------------------------------
      1          6           0       -5.075104    2.596057   -0.848582
      2          6           0       -4.715716    2.434163    0.478857
      3          6           0       -3.985648    1.326254    0.870754
      4          6           0       -3.608814    0.370482   -0.065200
      5          6           0       -2.849893   -0.827816    0.356392
      6          6           0       -3.512903   -1.970870    0.749200
      7          6           0       -2.764008   -3.084836    1.141440
      8          7           0       -1.457428   -3.112970    1.160054
      9          6           0       -0.787031   -2.018643    0.784213
     10          6           0       -1.437298   -0.832182    0.367434
     11          6           0       -0.667287    0.300298   -0.021018
     12          6           0        0.685824    0.263426    0.000908
     13          6           0        1.380055   -0.908949    0.413101
     14          6           0        2.790408   -0.981482    0.447870
     15          6           0        3.626694    0.173326    0.052066
     16          6           0        4.025328    1.107500    1.000707
     17          6           0        4.826918    2.173661    0.633555
     18          6           0        5.236571    2.315029   -0.681611
     19          6           0        4.841079    1.387397   -1.630584
     20          6           0        4.039486    0.320062   -1.266868
     21          6           0        3.377135   -2.158548    0.861055
     22          6           0        2.556396   -3.229745    1.227851
     23          7           0        1.250307   -3.186722    1.204024
     24          6           0        0.653004   -2.057874    0.807573
     25          6           0       -3.970941    0.537891   -1.396496
     26          6           0       -4.701020    1.647000   -1.784966
     27          1           0       -5.646599    3.460423   -1.152844
     28          1           0       -5.005817    3.172287    1.212213
     29          1           0       -3.703341    1.195908    1.905798
     30          1           0       -4.592243   -2.003673    0.753324
     31          1           0       -3.258742   -3.995483    1.454638
     32          1           0       -1.191655    1.191943   -0.334479
     33          1           0        1.267832    1.124926   -0.294617
     34          1           0        3.703614    0.993274    2.026112
     35          1           0        5.133493    2.895180    1.376669
     36          1           0        5.863825    3.146713   -0.966506
     37          1           0        5.158745    1.494240   -2.657458
     38          1           0        3.728793   -0.406340   -2.004305
     39          1           0        4.452389   -2.250041    0.900153
     40          1           0        2.990418   -4.165689    1.556131
     41          1           0       -3.677198   -0.205338   -2.124046
     42          1           0       -4.979626    1.769762   -2.821356
     43         47           0       -0.270603   -1.345439    3.195189
 ---------------------------------------------------------------------
                    Distance matrix (angstroms):
                    1          2          3          4          5
     1  C    0.000000
     2  C    1.384725   0.000000
     3  C    2.399048   1.383490   0.000000
     4  C    2.777927   2.404165   1.389789   0.000000
     5  C    4.257515   3.759894   2.488880   1.479736   0.000000
     6  C    5.084309   4.574293   3.333060   2.480801   1.378569
     7  C    6.447782   5.891310   4.585127   3.756182   2.391195
     8  N    7.050900   6.469247   5.116864   4.273657   2.794058
     9  C    6.507614   5.946031   4.628928   3.793663   2.420021
    10  C    5.144429   4.629195   3.377316   2.519733   1.412645
    11  C    5.038276   4.603589   3.585995   2.942696   2.485729
    12  C    6.273045   5.840990   4.869177   4.296481   3.717321
    13  C    7.452918   6.952636   5.830639   5.172478   4.231106
    14  C    8.737611   8.246787   7.170733   6.560571   5.643135
    15  C    9.077559   8.653863   7.742561   7.239143   6.560570
    16  C    9.404974   8.856535   8.015016   7.743351   7.171419
    17  C   10.021237   9.547442   8.856392   8.654553   8.247370
    18  C   10.316855  10.020424   9.404086   9.077558   8.737610
    19  C   10.020133   9.842652   9.174505   8.653626   8.246593
    20  C    9.403769   9.174450   8.365681   7.742289   7.170505
    21  C    9.847308   9.313072   8.145828   7.487151   6.387598
    22  C    9.823000   9.247943   7.980162   7.255579   5.979688
    23  N    8.812749   8.228830   6.920495   6.154323   4.805680
    24  C    7.563937   7.007825   5.742248   4.982142   3.739906
    25  C    2.399048   2.769023   2.400449   1.389788   2.488879
    26  C    1.384725   2.396818   2.769022   2.404165   3.759894
    27  H    1.079959   2.140608   3.377630   3.857884   5.337448
    28  H    2.140962   1.080184   2.136627   3.381348   4.623988
    29  H    3.380645   2.143441   1.080742   2.138948   2.687841
    30  H    4.894566   4.448029   3.386763   2.696985   2.139154
    31  H    7.214734   6.664478   5.402795   4.636174   3.377487
    32  H    4.161372   3.824086   3.045821   2.567093   2.703051
    33  H    6.534825   6.173752   5.384949   4.939989   4.603550
    34  H    9.375429   8.680742   7.782704   7.631059   7.003770
    35  H   10.452592   9.900784   9.266942   9.213089   8.867701
    36  H   10.953415  10.701565  10.183404   9.912149   9.668289
    37  H   10.450727  10.403120   9.802878   9.211554   8.866426
    38  H    9.373296   9.249015   8.413112   7.629158   7.002117
    39  H   10.831245  10.304048   9.164672   8.531239   7.459338
    40  H   10.796134  10.203091   8.904868   8.170399   6.833008
    41  H    3.380645   3.849752   3.377831   2.138946   2.687840
    42  H    2.140962   3.376756   3.849204   3.381347   4.623987
    43  Ag   7.414223   6.436061   5.132495   4.971738   3.870328
                    6          7          8          9         10
     6  C    0.000000
     7  C    1.398433   0.000000
     8  N    2.387084   1.307015   0.000000
     9  C    2.726515   2.274383   1.337251   0.000000
    10  C    2.398018   2.726480   2.414673   1.415712   0.000000
    11  C    3.721420   4.148094   3.697249   2.457687   1.423490
    12  C    4.814699   4.940953   4.163796   2.826784   2.417094
    13  C    5.018135   4.736900   3.669735   2.462805   2.818769
    14  C    6.387599   5.979688   4.805680   3.739906   4.231106
    15  C    7.487150   7.255579   6.154322   4.982142   5.172477
    16  C    8.146444   7.980637   6.920865   5.742686   5.831268
    17  C    9.313599   9.248346   8.229136   7.008176   6.953151
    18  C    9.847307   9.823000   8.812748   7.563936   7.452916
    19  C    9.312913   9.247829   8.228740   7.007708   6.952455
    20  C    8.145642   7.980026   6.920385   5.742102   5.830418
    21  C    6.893501   6.216934   4.936934   4.167224   5.018134
    22  C    6.216934   5.323078   4.016095   3.583586   4.736900
    23  N    4.936935   4.016095   2.709096   2.385665   3.669736
    24  C    4.167224   3.583586   2.385664   1.440759   2.462804
    25  C    3.332820   4.584971   5.116882   4.629108   3.377558
    26  C    4.574123   5.891192   6.469262   5.946169   4.629368
    27  H    6.137538   7.510891   8.130692   7.575471   6.201284
    28  H    5.375429   6.646977   7.217911   6.702768   5.429894
    29  H    3.376754   4.448748   4.915963   4.482874   3.408029
    30  H    1.079846   2.159164   3.350080   3.805367   3.387474
    31  H    2.159004   1.082651   2.027398   3.235231   3.808693
    32  H    4.070128   4.789725   4.564706   3.423895   2.156410
    33  H    5.790417   6.003340   5.244318   3.907475   3.403867
    34  H    7.905363   7.696997   6.651891   5.547959   5.701971
    35  H    9.941445   9.908907   8.921044   7.716817   7.621488
    36  H   10.819257  10.849661   9.864413   8.601151   8.421247
    37  H    9.940311   9.908056   8.920399   7.716068   7.620367
    38  H    7.903904   7.695877   6.651008   5.546893   5.700437
    39  H    7.971612   7.268527   5.978138   5.245809   6.081326
    40  H    6.910973   5.869721   4.587857   4.413024   5.668328
    41  H    3.376335   4.448463   4.915996   4.483203   3.408454
    42  H    5.375172   6.646791   7.217934   6.702984   5.430155
    43  Ag   4.109323   3.668850   2.945250   2.555917   3.101743
                   11         12         13         14         15
    11  C    0.000000
    12  C    1.353791   0.000000
    13  C    2.417095   1.423490   0.000000
    14  C    3.717320   2.485728   1.412645   0.000000
    15  C    4.296479   2.942695   2.519733   1.479735   0.000000
    16  C    4.869921   3.586690   3.377694   2.488876   1.389788
    17  C    5.841596   4.604118   4.629465   3.759891   2.404165
    18  C    6.273043   5.038274   5.144428   4.257514   2.777927
    19  C    5.840769   4.603392   4.629097   3.759895   2.404165
    20  C    4.868906   3.585737   3.377179   2.488883   1.389790
    21  C    4.814699   3.721420   2.398018   1.378570   2.480802
    22  C    4.940952   4.148093   2.726479   2.391196   3.756182
    23  N    4.163797   3.697249   2.414673   2.794059   4.273657
    24  C    2.826784   2.457686   1.415712   2.420021   3.793663
    25  C    3.586436   4.869654   5.831050   7.171194   7.743081
    26  C    4.603924   5.841379   6.952974   8.247179   8.654318
    27  H    6.005079   7.186899   8.421251   9.668293   9.912153
    28  H    5.347151   6.505652   7.620658   8.866744   9.211946
    29  H    3.705720   4.874720   5.700832   7.002525   7.629640
    30  H    4.616619   5.793432   6.081325   7.459337   8.531237
    31  H    5.229430   5.984249   5.668327   6.833008   8.170398
    32  H    1.080856   2.121216   3.403868   4.603550   4.939988
    33  H    2.121215   1.080856   2.156411   2.703050   2.567092
    34  H    4.876037   3.706911   3.408692   2.687834   2.138946
    35  H    6.506611   5.347954   5.430300   4.623983   3.381347
    36  H    7.186894   6.005075   6.201282   5.337447   3.857885
    37  H    6.505303   5.346853   5.429747   4.623990   3.381348
    38  H    4.874247   3.705284   3.407791   2.687846   2.138948
    39  H    5.793433   4.616619   3.387475   2.139155   2.696986
    40  H    5.984250   5.229429   3.808693   3.377487   4.636174
    41  H    3.706475   4.875565   5.701578   7.003362   7.630576
    42  H    5.347662   6.506270   7.621204   8.867390   9.212704
    43  Ag   3.634528   3.702247   3.264232   4.129167   5.232093
                   16         17         18         19         20
    16  C    0.000000
    17  C    1.383491   0.000000
    18  C    2.399048   1.384725   0.000000
    19  C    2.769022   2.396818   1.384726   0.000000
    20  C    2.400449   2.769023   2.399048   1.383490   0.000000
    21  C    3.332676   4.574020   5.084310   4.574399   3.333208
    22  C    4.584872   5.891117   6.447783   5.891386   4.585227
    23  N    5.116876   6.469257   7.050900   6.469251   5.116870
    24  C    4.629197   5.946237   6.507614   5.945963   4.628838
    25  C    8.367279   9.176011   9.404656   8.855967   8.014437
    26  C    9.176066   9.844197  10.020947   9.546878   8.855825
    27  H   10.184311  10.702408  10.953419  10.701265  10.183080
    28  H    9.266588   9.900241  10.451219  10.403302   9.802986
    29  H    7.781988   8.679857   9.373854   9.249312   8.413340
    30  H    9.165322  10.304613  10.831242  10.303880   9.164478
    31  H    8.905289  10.203451  10.796132  10.202994   8.904755
    32  H    5.385793   6.174470   6.534823   6.173489   5.384641
    33  H    3.046630   3.824715   4.161370   3.823845   3.045512
    34  H    1.080742   2.143441   3.380645   3.849751   3.377831
    35  H    2.136627   1.080183   2.140962   3.376757   3.849204
    36  H    3.377631   2.140608   1.079959   2.140608   3.377630
    37  H    3.849204   3.376757   2.140963   1.080184   2.136627
    38  H    3.377831   3.849752   3.380645   2.143441   1.080742
    39  H    3.386085   4.447526   4.894567   4.448220   3.387019
    40  H    5.402412   6.664176   7.214735   6.664598   5.402946
    41  H    8.415256   9.251161   9.374868   8.679940   7.781903
    42  H    9.804894  10.405184  10.452105   9.900020   9.266199
    43  Ag   5.411810   6.703040   7.665349   7.542266   6.423450
                   21         22         23         24         25
    21  C    0.000000
    22  C    1.398433   0.000000
    23  N    2.387083   1.307015   0.000000
    24  C    2.726515   2.274383   1.337252   0.000000
    25  C    8.146259   7.980502   6.920757   5.742542   0.000000
    26  C    9.313442   9.248232   8.229047   7.008061   1.383491
    27  H   10.819261  10.849663   9.864415   8.601153   3.377631
    28  H    9.940573   9.908245   8.920547   7.716254   3.849204
    29  H    7.904240   7.696124   6.651207   5.547156   3.377831
    30  H    7.971611   7.268526   5.978137   5.245808   3.386339
    31  H    6.910972   5.869720   4.587856   4.413024   5.402562
    32  H    5.790417   6.003340   5.244319   3.907475   3.046325
    33  H    4.070128   4.789725   4.564706   3.423894   5.385489
    34  H    3.376082   4.448283   4.915985   4.483365   8.415487
    35  H    5.375018   6.646675   7.217927   6.703089   9.804997
    36  H    6.137540   7.510892   8.130692   7.575469  10.183981
    37  H    5.375586   6.647096   7.217918   6.702660   9.265840
    38  H    3.377008   4.448928   4.915973   4.482711   7.781189
    39  H    1.079848   2.159165   3.350080   3.805368   9.165132
    40  H    2.159003   1.082651   2.027398   3.235232   8.905178
    41  H    7.905028   7.696749   6.651692   5.547696   1.080742
    42  H    9.941188   9.908722   8.920901   7.716634   2.136628
    43  Ag   4.406282   3.925934   3.109378   2.657316   6.190558
                   26         27         28         29         30
    26  C    0.000000
    27  H    2.140608   0.000000
    28  H    3.376756   2.467209   0.000000
    29  H    3.849751   4.273122   2.466491   0.000000
    30  H    4.447714   5.882303   5.212695   3.515062   0.000000
    31  H    6.664294   8.251749   7.381597   5.229890   2.497473
    32  H    3.824478   5.065792   4.567477   3.365624   4.791584
    33  H    6.174212   7.348500   6.769113   5.436858   6.725087
    34  H    9.251462  10.179345   9.014695   7.410703   8.911954
    35  H   10.405361  11.087304  10.144429   9.014274  10.907670
    36  H   10.702101  11.516206  11.085873  10.177742  11.781920
    37  H    9.899472  11.085360  11.004931   9.972406  10.906447
    38  H    8.679059  10.177171   9.972260   8.549428   8.910423
    39  H   10.304450  11.781925  10.906727   8.910770   9.049178
    40  H   10.203357  11.836139  10.858358   8.583437   7.925627
    41  H    2.143442   4.273123   4.929929   4.266593   3.514338
    42  H    1.080183   2.467209   4.270532   4.929929   5.212218
    43  Ag   7.306520   8.420394   6.838442   4.461464   5.007250
                   31         32         33         34         35
    31  H    0.000000
    32  H    5.863717   0.000000
    33  H    7.054669   2.460723   0.000000
    34  H    8.584211   5.438338   3.366920   0.000000
    35  H   10.858956   6.770269   4.568406   2.466491   0.000000
    36  H   11.836137   7.348495   5.065788   4.273122   2.467210
    37  H   10.858199   6.768692   4.567123   4.929929   4.270533
    38  H    8.583232   5.436326   3.365136   4.266593   4.929929
    39  H    7.925627   6.725088   4.791584   3.513907   5.211935
    40  H    6.252301   7.054669   5.863717   5.229190   7.381114
    41  H    5.229463   3.366433   5.437806   8.552010   9.974793
    42  H    7.381302   4.568058   6.769856   9.974945  11.007505
    43  Ag   4.356745   4.443557   4.544033   4.757175   7.105921
                   36         37         38         39         40
    36  H    0.000000
    37  H    2.467210   0.000000
    38  H    4.273122   2.466491   0.000000
    39  H    5.882306   5.212981   3.515494   0.000000
    40  H    8.251751   7.381786   5.230163   2.497473   0.000000
    41  H   10.178765   9.013711   7.409686   8.911609   8.584008
    42  H   11.086789  10.143438   9.013299  10.907399  10.858802
    43  Ag   8.667776   8.473197   6.626599   5.328429   4.612438
                   41         42         43
    41  H    0.000000
    42  H    2.466491   0.000000
    43  Ag   6.418643   8.250951   0.000000
 Symmetry turned off by external request.
 Stoichiometry    C24H16AgN2(2)
 Framework group  C1[X(C24H16AgN2)]
 Deg. of freedom   123
 Full point group                 C1      NOp   1
 Rotational constants (GHZ):           0.2178792           0.1145546           0.0891673
 Leave Link  202 at Fri Sep 11 23:21:37 2026, MaxMem=  6442450944 cpu:               0.0 elap:               0.1
 (Enter C:\G16W\l301.exe)
 Standard basis: def2SVP (5D, 7F)
 Ernie: Thresh=  0.10000D-02 Tol=  0.10000D-05 Strict=F.
   475 basis functions,   827 primitive gaussians,   506 cartesian basis functions
    97 alpha electrons       96 beta electrons
       nuclear repulsion energy      2417.9072106212 Hartrees.
 IExCor= 1009 DFT=T Ex+Corr=PBE1PBE ExCW=0 ScaHFX=  0.250000
 ScaDFX=  0.750000  0.750000  1.000000  1.000000 ScalE2=  1.000000  1.000000
 IRadAn=      5 IRanWt=     -1 IRanGd=            0 ICorTp=0 IEmpDi=141
 NAtoms=   43 NActive=   43 NUniq=   43 SFac= 1.00D+00 NAtFMM=   60 NAOKFM=F Big=F
 Integral buffers will be    131072 words long.
 Raffenetti 2 integral format.
 Two-electron integral symmetry is turned off.
 R6Disp:  Grimme-D3(BJ) Dispersion energy=       -0.0633466071 Hartrees.
 Nuclear repulsion after empirical dispersion term =     2417.8438640141 Hartrees.
 Leave Link  301 at Fri Sep 11 23:21:38 2026, MaxMem=  6442450944 cpu:               1.0 elap:               0.2
 (Enter C:\G16W\l302.exe)
 NPDir=0 NMtPBC=     1 NCelOv=     1 NCel=       1 NClECP=     1 NCelD=      1
         NCelK=      1 NCelE2=     1 NClLst=     1 CellRange=     0.0.
 One-electron integrals computed using PRISM.
   1 Symmetry operations used in ECPInt.
 ECPInt:  NShTT=   23220 NPrTT=   85067 LenC2=   19998 LenP2D=   50174.
 LDataN:  DoStor=T MaxTD1= 7 Len=  274
 NBasis=   475 RedAO= T EigKep=  1.31D-04  NBF=   475
 NBsUse=   475 1.00D-06 EigRej= -1.00D+00 NBFU=   475
 Precomputing XC quadrature grid using
 IXCGrd= 4 IRadAn=           5 IRanWt=          -1 IRanGd=           0 AccXCQ= 0.00D+00.
 Defaulting to unpruned grid for atomic number  47.
 Generated NRdTot=       0 NPtTot=           0 NUsed=           0 NTot=          32
 NSgBfM=   500   500   500   500   500 MxSgAt=    43 MxSgA2=    43.
 Leave Link  302 at Fri Sep 11 23:21:50 2026, MaxMem=  6442450944 cpu:              12.0 elap:              12.6
 (Enter C:\G16W\l303.exe)
 DipDrv:  MaxL=1.
 Leave Link  303 at Fri Sep 11 23:21:52 2026, MaxMem=  6442450944 cpu:               1.0 elap:               1.5
 (Enter C:\G16W\l401.exe)
 Initial guess from the checkpoint file:  "Bphen.chk"
 B after Tr=    -0.029319   -0.031632    0.148413
         Rot=    0.999989    0.004515    0.000947    0.000414 Ang=   0.53 deg.
 Guess basis will be translated and rotated to current coordinates.
 JPrj=2 DoOrth=T DoCkMO=T.
 Initial guess <Sx>= 0.0000 <Sy>= 0.0000 <Sz>= 0.5000 <S**2>= 0.7523 S= 0.5011
 Leave Link  401 at Fri Sep 11 23:22:21 2026, MaxMem=  6442450944 cpu:              29.0 elap:              28.2
 (Enter C:\G16W\l502.exe)
 Two-electron integral symmetry not used.
 UHF open shell SCF:
 Using DIIS extrapolation, IDIIS=  1040.
 NGot=  6442450944 LenX=  6441929892 LenY=  6441673350
 Requested convergence on RMS density matrix=1.00D-08 within 128 cycles.
 Requested convergence on MAX density matrix=1.00D-06.
 Requested convergence on             energy=1.00D-06.
 No special actions if energy rises.
 Fock matrices will be formed incrementally for  20 cycles.

 Cycle   1  Pass 1  IDiag  1:
 FoFJK:  IHMeth= 1 ICntrl=       0 DoSepK=F KAlg= 0 I1Cent=           0 FoldK=F
 IRaf= 790000000 NMat=       1 IRICut=       1 DoRegI=T DoRafI=F ISym2E= 0 IDoP0=0 IntGTp=1.
 FoFCou: FMM=F IPFlag=           0 FMFlag=      100000 FMFlg1=           0
         NFxFlg=           0 DoJE=F BraDBF=F KetDBF=F FulRan=T
         wScrn=  0.000000 ICntrl=         0 IOpCl=  1 I1Cent=           0 NGrid=           0
         NMat0=    1 NMatS0=      1 NMatT0=    0 NMatD0=    1 NMtDS0=    0 NMtDT0=    0
 Symmetry not used in FoFCou.
 Defaulting to unpruned grid for atomic number  47.
 Defaulting to unpruned grid for atomic number  47.
 Defaulting to unpruned grid for atomic number  47.
 Defaulting to unpruned grid for atomic number  47.
 Defaulting to unpruned grid for atomic number  47.
 Defaulting to unpruned grid for atomic number  47.
 Defaulting to unpruned grid for atomic number  47.
 Defaulting to unpruned grid for atomic number  47.
 E= -1178.74606395961    
 DIIS: error= 1.89D-02 at cycle   1 NSaved=   1.
 NSaved= 1 IEnMin= 1 EnMin= -1178.74606395961     IErMin= 1 ErrMin= 1.89D-02
 ErrMax= 1.89D-02  0.00D+00 EMaxC= 1.00D-01 BMatC= 2.98D-01 BMatP= 2.98D-01
 IDIUse=3 WtCom= 8.11D-01 WtEn= 1.89D-01
 Coeff-Com:  0.100D+01
 Coeff-En:   0.100D+01
 Coeff:      0.100D+01
 Gap=     0.102 Goal=   None    Shift=    0.000
 Gap=     0.190 Goal=   None    Shift=    0.000
 GapD=    0.102 DampG=1.000 DampE=0.250 DampFc=0.2500 IDamp=-1.
 Damping current iteration by 2.50D-01
 RMSDP=1.70D-03 MaxDP=2.59D-01              OVMax= 7.01D-02

 Cycle   2  Pass 1  IDiag  1:
 RMSU=  4.14D-04    CP:  9.94D-01
 E= -1178.74960473326     Delta-E=       -0.003540773658 Rises=F Damp=T
 DIIS: error= 1.41D-02 at cycle   2 NSaved=   2.
 NSaved= 2 IEnMin= 2 EnMin= -1178.74960473326     IErMin= 2 ErrMin= 1.41D-02
 ErrMax= 1.41D-02  0.00D+00 EMaxC= 1.00D-01 BMatC= 1.66D-01 BMatP= 2.98D-01
 IDIUse=3 WtCom= 8.59D-01 WtEn= 1.41D-01
 Coeff-Com: -0.282D+01 0.382D+01
 Coeff-En:   0.000D+00 0.100D+01
 Coeff:     -0.243D+01 0.343D+01
 Gap=     0.085 Goal=   None    Shift=    0.000
 Gap=     0.184 Goal=   None    Shift=    0.000
 RMSDP=1.07D-03 MaxDP=1.50D-01 DE=-3.54D-03 OVMax= 3.64D-02

 Cycle   3  Pass 1  IDiag  1:
 RMSU=  3.73D-04    CP:  9.81D-01  3.00D+00
 E= -1178.75691368540     Delta-E=       -0.007308952132 Rises=F Damp=F
 DIIS: error= 2.67D-03 at cycle   3 NSaved=   3.
 NSaved= 3 IEnMin= 3 EnMin= -1178.75691368540     IErMin= 3 ErrMin= 2.67D-03
 ErrMax= 2.67D-03  0.00D+00 EMaxC= 1.00D-01 BMatC= 1.55D-02 BMatP= 1.66D-01
 IDIUse=3 WtCom= 9.73D-01 WtEn= 2.67D-02
 Coeff-Com: -0.168D+01 0.224D+01 0.439D+00
 Coeff-En:   0.000D+00 0.000D+00 0.100D+01
 Coeff:     -0.164D+01 0.218D+01 0.454D+00
 Gap=     0.088 Goal=   None    Shift=    0.000
 Gap=     0.181 Goal=   None    Shift=    0.000
 RMSDP=2.83D-04 MaxDP=3.32D-02 DE=-7.31D-03 OVMax= 1.96D-02

 Cycle   4  Pass 1  IDiag  1:
 RMSU=  2.65D-04    CP:  9.78D-01  3.00D+00  7.68D-01
 E= -1178.76045119704     Delta-E=       -0.003537511646 Rises=F Damp=F
 DIIS: error= 6.37D-04 at cycle   4 NSaved=   4.
 NSaved= 4 IEnMin= 4 EnMin= -1178.76045119704     IErMin= 4 ErrMin= 6.37D-04
 ErrMax= 6.37D-04  0.00D+00 EMaxC= 1.00D-01 BMatC= 9.75D-04 BMatP= 1.55D-02
 IDIUse=3 WtCom= 9.94D-01 WtEn= 6.37D-03
 Coeff-Com: -0.883D+00 0.118D+01 0.283D+00 0.425D+00
 Coeff-En:   0.000D+00 0.000D+00 0.739D-02 0.993D+00
 Coeff:     -0.877D+00 0.117D+01 0.281D+00 0.428D+00
 Gap=     0.088 Goal=   None    Shift=    0.000
 Gap=     0.180 Goal=   None    Shift=    0.000
 RMSDP=5.03D-05 MaxDP=5.64D-03 DE=-3.54D-03 OVMax= 5.69D-03

 Cycle   5  Pass 1  IDiag  1:
 RMSU=  4.40D-05    CP:  9.78D-01  3.00D+00  8.20D-01  9.44D-01
 E= -1178.76071061727     Delta-E=       -0.000259420232 Rises=F Damp=F
 DIIS: error= 1.13D-04 at cycle   5 NSaved=   5.
 NSaved= 5 IEnMin= 5 EnMin= -1178.76071061727     IErMin= 5 ErrMin= 1.13D-04
 ErrMax= 1.13D-04  0.00D+00 EMaxC= 1.00D-01 BMatC= 3.62D-05 BMatP= 9.75D-04
 IDIUse=3 WtCom= 9.99D-01 WtEn= 1.13D-03
 Coeff-Com: -0.275D+00 0.365D+00 0.938D-01 0.214D+00 0.602D+00
 Coeff-En:   0.000D+00 0.000D+00 0.000D+00 0.000D+00 0.100D+01
 Coeff:     -0.274D+00 0.365D+00 0.937D-01 0.213D+00 0.603D+00
 Gap=     0.088 Goal=   None    Shift=    0.000
 Gap=     0.180 Goal=   None    Shift=    0.000
 RMSDP=1.60D-05 MaxDP=1.28D-03 DE=-2.59D-04 OVMax= 2.76D-03

 Cycle   6  Pass 1  IDiag  1:
 RMSU=  1.34D-05    CP:  9.78D-01  3.00D+00  8.30D-01  9.73D-01  9.51D-01
 E= -1178.76072123802     Delta-E=       -0.000010620750 Rises=F Damp=F
 DIIS: error= 8.90D-05 at cycle   6 NSaved=   6.
 NSaved= 6 IEnMin= 6 EnMin= -1178.76072123802     IErMin= 6 ErrMin= 8.90D-05
 ErrMax= 8.90D-05  0.00D+00 EMaxC= 1.00D-01 BMatC= 9.60D-06 BMatP= 3.62D-05
 IDIUse=1 WtCom= 1.00D+00 WtEn= 0.00D+00
 Coeff-Com:  0.814D-01-0.109D+00-0.238D-01 0.198D-01 0.362D+00 0.669D+00
 Coeff:      0.814D-01-0.109D+00-0.238D-01 0.198D-01 0.362D+00 0.669D+00
 Gap=     0.088 Goal=   None    Shift=    0.000
 Gap=     0.180 Goal=   None    Shift=    0.000
 RMSDP=1.05D-05 MaxDP=9.11D-04 DE=-1.06D-05 OVMax= 2.48D-03

 Cycle   7  Pass 1  IDiag  1:
 RMSU=  8.41D-06    CP:  9.78D-01  3.00D+00  8.36D-01  9.91D-01  1.02D+00
                    CP:  1.05D+00
 E= -1178.76072493237     Delta-E=       -0.000003694345 Rises=F Damp=F
 DIIS: error= 3.66D-05 at cycle   7 NSaved=   7.
 NSaved= 7 IEnMin= 7 EnMin= -1178.76072493237     IErMin= 7 ErrMin= 3.66D-05
 ErrMax= 3.66D-05  0.00D+00 EMaxC= 1.00D-01 BMatC= 2.84D-06 BMatP= 9.60D-06
 IDIUse=1 WtCom= 1.00D+00 WtEn= 0.00D+00
 Coeff-Com:  0.956D-01-0.127D+00-0.301D-01-0.194D-01 0.129D+00 0.433D+00
 Coeff-Com:  0.519D+00
 Coeff:      0.956D-01-0.127D+00-0.301D-01-0.194D-01 0.129D+00 0.433D+00
 Coeff:      0.519D+00
 Gap=     0.088 Goal=   None    Shift=    0.000
 Gap=     0.180 Goal=   None    Shift=    0.000
 RMSDP=4.32D-06 MaxDP=3.52D-04 DE=-3.69D-06 OVMax= 1.01D-03

 Cycle   8  Pass 1  IDiag  1:
 RMSU=  3.42D-06    CP:  9.78D-01  3.00D+00  8.38D-01  9.92D-01  1.02D+00
                    CP:  1.24D+00  1.06D+00
 E= -1178.76072608035     Delta-E=       -0.000001147978 Rises=F Damp=F
 DIIS: error= 1.43D-05 at cycle   8 NSaved=   8.
 NSaved= 8 IEnMin= 8 EnMin= -1178.76072608035     IErMin= 8 ErrMin= 1.43D-05
 ErrMax= 1.43D-05  0.00D+00 EMaxC= 1.00D-01 BMatC= 2.95D-07 BMatP= 2.84D-06
 IDIUse=1 WtCom= 1.00D+00 WtEn= 0.00D+00
 Coeff-Com:  0.187D-01-0.249D-01-0.590D-02-0.101D-01-0.251D-01 0.139D-01
 Coeff-Com:  0.199D+00 0.835D+00
 Coeff:      0.187D-01-0.249D-01-0.590D-02-0.101D-01-0.251D-01 0.139D-01
 Coeff:      0.199D+00 0.835D+00
 Gap=     0.088 Goal=   None    Shift=    0.000
 Gap=     0.180 Goal=   None    Shift=    0.000
 RMSDP=2.41D-06 MaxDP=2.24D-04 DE=-1.15D-06 OVMax= 7.04D-04

 Cycle   9  Pass 1  IDiag  1:
 RMSU=  1.42D-06    CP:  9.78D-01  3.00D+00  8.38D-01  9.93D-01  1.03D+00
                    CP:  1.31D+00  1.25D+00  1.08D+00
 E= -1178.76072636703     Delta-E=       -0.000000286686 Rises=F Damp=F
 DIIS: error= 9.88D-06 at cycle   9 NSaved=   9.
 NSaved= 9 IEnMin= 9 EnMin= -1178.76072636703     IErMin= 9 ErrMin= 9.88D-06
 ErrMax= 9.88D-06  0.00D+00 EMaxC= 1.00D-01 BMatC= 1.13D-07 BMatP= 2.95D-07
 IDIUse=1 WtCom= 1.00D+00 WtEn= 0.00D+00
 Coeff-Com: -0.132D-01 0.176D-01 0.426D-02-0.130D-02-0.462D-01-0.111D+00
 Coeff-Com: -0.550D-01 0.399D+00 0.805D+00
 Coeff:     -0.132D-01 0.176D-01 0.426D-02-0.130D-02-0.462D-01-0.111D+00
 Coeff:     -0.550D-01 0.399D+00 0.805D+00
 Gap=     0.088 Goal=   None    Shift=    0.000
 Gap=     0.180 Goal=   None    Shift=    0.000
 RMSDP=1.51D-06 MaxDP=1.14D-04 DE=-2.87D-07 OVMax= 3.81D-04

 Cycle  10  Pass 1  IDiag  1:
 RMSU=  8.41D-07    CP:  9.78D-01  3.00D+00  8.39D-01  9.93D-01  1.03D+00
                    CP:  1.36D+00  1.33D+00  1.27D+00  1.22D+00
 E= -1178.76072648386     Delta-E=       -0.000000116831 Rises=F Damp=F
 DIIS: error= 5.05D-06 at cycle  10 NSaved=  10.
 NSaved=10 IEnMin=10 EnMin= -1178.76072648386     IErMin=10 ErrMin= 5.05D-06
 ErrMax= 5.05D-06  0.00D+00 EMaxC= 1.00D-01 BMatC= 3.56D-08 BMatP= 1.13D-07
 IDIUse=1 WtCom= 1.00D+00 WtEn= 0.00D+00
 Coeff-Com: -0.140D-01 0.187D-01 0.448D-02 0.439D-02-0.385D-02-0.468D-01
 Coeff-Com: -0.993D-01-0.156D+00 0.353D+00 0.939D+00
 Coeff:     -0.140D-01 0.187D-01 0.448D-02 0.439D-02-0.385D-02-0.468D-01
 Coeff:     -0.993D-01-0.156D+00 0.353D+00 0.939D+00
 Gap=     0.088 Goal=   None    Shift=    0.000
 Gap=     0.180 Goal=   None    Shift=    0.000
 RMSDP=8.71D-07 MaxDP=6.20D-05 DE=-1.17D-07 OVMax= 1.57D-04

 Cycle  11  Pass 1  IDiag  1:
 RMSU=  5.22D-07    CP:  9.78D-01  3.00D+00  8.39D-01  9.93D-01  1.03D+00
                    CP:  1.37D+00  1.37D+00  1.34D+00  1.53D+00  1.37D+00
 E= -1178.76072652925     Delta-E=       -0.000000045382 Rises=F Damp=F
 DIIS: error= 2.35D-06 at cycle  11 NSaved=  11.
 NSaved=11 IEnMin=11 EnMin= -1178.76072652925     IErMin=11 ErrMin= 2.35D-06
 ErrMax= 2.35D-06  0.00D+00 EMaxC= 1.00D-01 BMatC= 7.42D-09 BMatP= 3.56D-08
 IDIUse=1 WtCom= 1.00D+00 WtEn= 0.00D+00
 Coeff-Com:  0.659D-03-0.888D-03-0.205D-03 0.146D-02 0.122D-01 0.206D-01
 Coeff-Com: -0.132D-01-0.173D+00-0.147D+00 0.284D+00 0.102D+01
 Coeff:      0.659D-03-0.888D-03-0.205D-03 0.146D-02 0.122D-01 0.206D-01
 Coeff:     -0.132D-01-0.173D+00-0.147D+00 0.284D+00 0.102D+01
 Gap=     0.088 Goal=   None    Shift=    0.000
 Gap=     0.180 Goal=   None    Shift=    0.000
 RMSDP=5.07D-07 MaxDP=3.44D-05 DE=-4.54D-08 OVMax= 7.95D-05

 Cycle  12  Pass 1  IDiag  1:
 RMSU=  2.42D-07    CP:  9.78D-01  3.00D+00  8.39D-01  9.93D-01  1.03D+00
                    CP:  1.37D+00  1.37D+00  1.36D+00  1.75D+00  1.72D+00
                    CP:  1.20D+00
 E= -1178.76072654169     Delta-E=       -0.000000012447 Rises=F Damp=F
 DIIS: error= 9.40D-07 at cycle  12 NSaved=  12.
 NSaved=12 IEnMin=12 EnMin= -1178.76072654169     IErMin=12 ErrMin= 9.40D-07
 ErrMax= 9.40D-07  0.00D+00 EMaxC= 1.00D-01 BMatC= 1.50D-09 BMatP= 7.42D-09
 IDIUse=1 WtCom= 1.00D+00 WtEn= 0.00D+00
 Coeff-Com:  0.303D-02-0.403D-02-0.915D-03-0.185D-03 0.509D-02 0.173D-01
 Coeff-Com:  0.157D-01-0.289D-01-0.125D+00-0.844D-01 0.335D+00 0.867D+00
 Coeff:      0.303D-02-0.403D-02-0.915D-03-0.185D-03 0.509D-02 0.173D-01
 Coeff:      0.157D-01-0.289D-01-0.125D+00-0.844D-01 0.335D+00 0.867D+00
 Gap=     0.088 Goal=   None    Shift=    0.000
 Gap=     0.180 Goal=   None    Shift=    0.000
 RMSDP=1.98D-07 MaxDP=1.60D-05 DE=-1.24D-08 OVMax= 3.27D-05

 Cycle  13  Pass 1  IDiag  1:
 RMSU=  1.06D-07    CP:  9.78D-01  3.00D+00  8.39D-01  9.93D-01  1.03D+00
                    CP:  1.37D+00  1.37D+00  1.36D+00  1.78D+00  1.81D+00
                    CP:  1.42D+00  1.28D+00
 E= -1178.76072654312     Delta-E=       -0.000000001424 Rises=F Damp=F
 DIIS: error= 7.52D-07 at cycle  13 NSaved=  13.
 NSaved=13 IEnMin=13 EnMin= -1178.76072654312     IErMin=13 ErrMin= 7.52D-07
 ErrMax= 7.52D-07  0.00D+00 EMaxC= 1.00D-01 BMatC= 1.09D-09 BMatP= 1.50D-09
 IDIUse=1 WtCom= 1.00D+00 WtEn= 0.00D+00
 Coeff-Com:  0.185D-02-0.246D-02-0.563D-03-0.350D-03 0.122D-02 0.815D-02
 Coeff-Com:  0.130D-01 0.900D-02-0.608D-01-0.102D+00 0.479D-01 0.592D+00
 Coeff-Com:  0.492D+00
 Coeff:      0.185D-02-0.246D-02-0.563D-03-0.350D-03 0.122D-02 0.815D-02
 Coeff:      0.130D-01 0.900D-02-0.608D-01-0.102D+00 0.479D-01 0.592D+00
 Coeff:      0.492D+00
 Gap=     0.088 Goal=   None    Shift=    0.000
 Gap=     0.180 Goal=   None    Shift=    0.000
 RMSDP=7.93D-08 MaxDP=5.44D-06 DE=-1.42D-09 OVMax= 1.05D-05

 Cycle  14  Pass 1  IDiag  1:
 RMSU=  4.56D-08    CP:  9.78D-01  3.00D+00  8.39D-01  9.93D-01  1.03D+00
                    CP:  1.37D+00  1.37D+00  1.36D+00  1.78D+00  1.84D+00
                    CP:  1.47D+00  1.44D+00  6.38D-01
 E= -1178.76072654350     Delta-E=       -0.000000000379 Rises=F Damp=F
 DIIS: error= 2.39D-07 at cycle  14 NSaved=  14.
 NSaved=14 IEnMin=14 EnMin= -1178.76072654350     IErMin=14 ErrMin= 2.39D-07
 ErrMax= 2.39D-07  0.00D+00 EMaxC= 1.00D-01 BMatC= 1.43D-10 BMatP= 1.09D-09
 IDIUse=1 WtCom= 1.00D+00 WtEn= 0.00D+00
 Coeff-Com:  0.164D-04-0.213D-04-0.229D-04-0.154D-03-0.104D-02-0.796D-03
 Coeff-Com:  0.266D-02 0.126D-01 0.359D-02-0.268D-01-0.757D-01 0.619D-01
 Coeff-Com:  0.277D+00 0.747D+00
 Coeff:      0.164D-04-0.213D-04-0.229D-04-0.154D-03-0.104D-02-0.796D-03
 Coeff:      0.266D-02 0.126D-01 0.359D-02-0.268D-01-0.757D-01 0.619D-01
 Coeff:      0.277D+00 0.747D+00
 Gap=     0.088 Goal=   None    Shift=    0.000
 Gap=     0.180 Goal=   None    Shift=    0.000
 RMSDP=3.64D-08 MaxDP=2.87D-06 DE=-3.79D-10 OVMax= 5.41D-06

 Cycle  15  Pass 1  IDiag  1:
 RMSU=  2.01D-08    CP:  9.78D-01  3.00D+00  8.39D-01  9.93D-01  1.03D+00
                    CP:  1.37D+00  1.37D+00  1.36D+00  1.79D+00  1.85D+00
                    CP:  1.48D+00  1.51D+00  8.25D-01  9.59D-01
 E= -1178.76072654369     Delta-E=       -0.000000000196 Rises=F Damp=F
 DIIS: error= 1.01D-07 at cycle  15 NSaved=  15.
 NSaved=15 IEnMin=15 EnMin= -1178.76072654369     IErMin=15 ErrMin= 1.01D-07
 ErrMax= 1.01D-07  0.00D+00 EMaxC= 1.00D-01 BMatC= 2.22D-11 BMatP= 1.43D-10
 IDIUse=1 WtCom= 1.00D+00 WtEn= 0.00D+00
 Coeff-Com: -0.291D-03 0.389D-03 0.738D-04-0.296D-04-0.632D-03-0.152D-02
 Coeff-Com: -0.684D-03 0.392D-02 0.108D-01 0.394D-02-0.402D-01-0.684D-01
 Coeff-Com:  0.505D-01 0.353D+00 0.689D+00
 Coeff:     -0.291D-03 0.389D-03 0.738D-04-0.296D-04-0.632D-03-0.152D-02
 Coeff:     -0.684D-03 0.392D-02 0.108D-01 0.394D-02-0.402D-01-0.684D-01
 Coeff:      0.505D-01 0.353D+00 0.689D+00
 Gap=     0.088 Goal=   None    Shift=    0.000
 Gap=     0.180 Goal=   None    Shift=    0.000
 RMSDP=1.25D-08 MaxDP=8.77D-07 DE=-1.96D-10 OVMax= 1.85D-06

 Cycle  16  Pass 1  IDiag  1:
 RMSU=  8.03D-09    CP:  9.78D-01  3.00D+00  8.39D-01  9.93D-01  1.03D+00
                    CP:  1.37D+00  1.37D+00  1.36D+00  1.79D+00  1.85D+00
                    CP:  1.49D+00  1.53D+00  8.41D-01  1.09D+00  1.09D+00
 E= -1178.76072654355     Delta-E=        0.000000000145 Rises=F Damp=F
 DIIS: error= 6.08D-08 at cycle  16 NSaved=  16.
 NSaved=16 IEnMin=15 EnMin= -1178.76072654369     IErMin=16 ErrMin= 6.08D-08
 ErrMax= 6.08D-08  0.00D+00 EMaxC= 1.00D-01 BMatC= 3.77D-12 BMatP= 2.22D-11
 IDIUse=1 WtCom= 1.00D+00 WtEn= 0.00D+00
 Coeff-Com: -0.108D-03 0.144D-03 0.299D-04 0.170D-04 0.337D-04-0.348D-03
 Coeff-Com: -0.106D-02-0.211D-02 0.325D-02 0.905D-02 0.689D-02-0.464D-01
 Coeff-Com: -0.577D-01-0.655D-01 0.262D+00 0.892D+00
 Coeff:     -0.108D-03 0.144D-03 0.299D-04 0.170D-04 0.337D-04-0.348D-03
 Coeff:     -0.106D-02-0.211D-02 0.325D-02 0.905D-02 0.689D-02-0.464D-01
 Coeff:     -0.577D-01-0.655D-01 0.262D+00 0.892D+00
 Gap=     0.088 Goal=   None    Shift=    0.000
 Gap=     0.180 Goal=   None    Shift=    0.000
 RMSDP=7.46D-09 MaxDP=5.28D-07 DE= 1.45D-10 OVMax= 1.06D-06

 SCF Done:  E(UPBE1PBE) =  -1178.76072654     A.U. after   16 cycles
            NFock= 16  Conv=0.75D-08     -V/T= 2.0932
 <Sx>= 0.0000 <Sy>= 0.0000 <Sz>= 0.5000 <S**2>= 0.7518 S= 0.5009
 <L.S>= 0.000000000000E+00
 KE= 1.078276008854D+03 PE=-7.543420536130D+03 EE= 2.868539936718D+03
 Annihilation of the first spin contaminant:
 S**2 before annihilation     0.7518,   after     0.7500
 Leave Link  502 at Fri Sep 11 23:31:49 2026, MaxMem=  6442450944 cpu:             568.0 elap:             567.9
 (Enter C:\G16W\l508.exe)
 QCSCF skips out because SCF is already converged.
 Leave Link  508 at Fri Sep 11 23:31:49 2026, MaxMem=  6442450944 cpu:               0.0 elap:               0.1
 (Enter C:\G16W\l601.exe)
 Copying SCF densities to generalized density rwf, IOpCl= 1 IROHF=0.

 **********************************************************************

            Population analysis using the SCF Density.

 **********************************************************************

 Alpha  occ. eigenvalues --  -14.38976 -14.38803 -10.28712 -10.28529 -10.27473
 Alpha  occ. eigenvalues --  -10.27380 -10.27062 -10.26990 -10.26392 -10.26254
 Alpha  occ. eigenvalues --  -10.25761 -10.25746 -10.25210 -10.25142 -10.25124
 Alpha  occ. eigenvalues --  -10.25051 -10.24769 -10.24758 -10.24683 -10.24680
 Alpha  occ. eigenvalues --  -10.24642 -10.24638 -10.24594 -10.24592 -10.24520
 Alpha  occ. eigenvalues --  -10.24517  -3.74178  -2.32237  -2.32104  -2.32038
 Alpha  occ. eigenvalues --   -0.99560  -0.96984  -0.90266  -0.89987  -0.88024
 Alpha  occ. eigenvalues --   -0.84902  -0.84272  -0.78588  -0.78004  -0.77658
 Alpha  occ. eigenvalues --   -0.77656  -0.77036  -0.76416  -0.68850  -0.67617
 Alpha  occ. eigenvalues --   -0.66524  -0.65481  -0.63392  -0.63388  -0.62287
 Alpha  occ. eigenvalues --   -0.59596  -0.57822  -0.56806  -0.55308  -0.54312
 Alpha  occ. eigenvalues --   -0.52497  -0.50983  -0.50670  -0.49732  -0.48974
 Alpha  occ. eigenvalues --   -0.48741  -0.47227  -0.46835  -0.46719  -0.46346
 Alpha  occ. eigenvalues --   -0.44840  -0.44724  -0.44691  -0.43613  -0.43309
 Alpha  occ. eigenvalues --   -0.42783  -0.41913  -0.40409  -0.39931  -0.38560
 Alpha  occ. eigenvalues --   -0.37940  -0.37257  -0.36974  -0.36948  -0.36791
 Alpha  occ. eigenvalues --   -0.36730  -0.33908  -0.32384  -0.32036  -0.31536
 Alpha  occ. eigenvalues --   -0.31438  -0.30573  -0.30351  -0.28144  -0.28041
 Alpha  occ. eigenvalues --   -0.27879  -0.27756  -0.27591  -0.26357  -0.25908
 Alpha  occ. eigenvalues --   -0.25073  -0.15158
 Alpha virt. eigenvalues --   -0.06333  -0.06213  -0.02003  -0.01505  -0.01445
 Alpha virt. eigenvalues --   -0.01399  -0.00889   0.00918   0.02056   0.02247
 Alpha virt. eigenvalues --    0.05613   0.06167   0.07028   0.07158   0.08695
 Alpha virt. eigenvalues --    0.09848   0.10298   0.10864   0.10940   0.11651
 Alpha virt. eigenvalues --    0.12523   0.13052   0.14176   0.14435   0.14765
 Alpha virt. eigenvalues --    0.14927   0.15239   0.15495   0.15667   0.15877
 Alpha virt. eigenvalues --    0.16509   0.18758   0.20963   0.21255   0.22547
 Alpha virt. eigenvalues --    0.24277   0.24677   0.25965   0.26120   0.27330
 Alpha virt. eigenvalues --    0.27908   0.28153   0.29377   0.29406   0.29779
 Alpha virt. eigenvalues --    0.30472   0.30625   0.31107   0.31476   0.32080
 Alpha virt. eigenvalues --    0.32213   0.32897   0.33673   0.34087   0.34505
 Alpha virt. eigenvalues --    0.35593   0.36601   0.38150   0.38278   0.38693
 Alpha virt. eigenvalues --    0.39007   0.39686   0.40444   0.40761   0.41140
 Alpha virt. eigenvalues --    0.42756   0.42986   0.43051   0.43388   0.43958
 Alpha virt. eigenvalues --    0.44195   0.45488   0.45844   0.46427   0.46815
 Alpha virt. eigenvalues --    0.47260   0.47454   0.47503   0.48102   0.48498
 Alpha virt. eigenvalues --    0.48775   0.49495   0.49716   0.49892   0.50088
 Alpha virt. eigenvalues --    0.50305   0.51195   0.51420   0.51791   0.52361
 Alpha virt. eigenvalues --    0.53744   0.54179   0.55359   0.55797   0.56404
 Alpha virt. eigenvalues --    0.57137   0.57603   0.58515   0.60367   0.60421
 Alpha virt. eigenvalues --    0.60585   0.61093   0.63358   0.63657   0.63905
 Alpha virt. eigenvalues --    0.64154   0.64822   0.65528   0.65956   0.66600
 Alpha virt. eigenvalues --    0.66676   0.67105   0.67369   0.67812   0.67889
 Alpha virt. eigenvalues --    0.68540   0.68843   0.69022   0.69298   0.69412
 Alpha virt. eigenvalues --    0.70014   0.70380   0.71144   0.71406   0.71795
 Alpha virt. eigenvalues --    0.72220   0.72721   0.72891   0.73741   0.75485
 Alpha virt. eigenvalues --    0.75706   0.75836   0.75970   0.76741   0.76821
 Alpha virt. eigenvalues --    0.77380   0.77679   0.78223   0.78771   0.79519
 Alpha virt. eigenvalues --    0.79957   0.80351   0.81214   0.81338   0.83120
 Alpha virt. eigenvalues --    0.84068   0.84651   0.84969   0.85416   0.86261
 Alpha virt. eigenvalues --    0.87950   0.88095   0.88500   0.89922   0.93196
 Alpha virt. eigenvalues --    0.94150   0.95057   0.95900   0.96104   0.98102
 Alpha virt. eigenvalues --    0.99022   1.01341   1.01618   1.04002   1.05560
 Alpha virt. eigenvalues --    1.07462   1.08320   1.08679   1.10353   1.11303
 Alpha virt. eigenvalues --    1.13217   1.14825   1.16957   1.18689   1.19657
 Alpha virt. eigenvalues --    1.20458   1.21489   1.22716   1.22838   1.23236
 Alpha virt. eigenvalues --    1.23677   1.23889   1.24277   1.24493   1.24778
 Alpha virt. eigenvalues --    1.25261   1.26754   1.26860   1.27056   1.28887
 Alpha virt. eigenvalues --    1.29402   1.29697   1.31054   1.31382   1.31511
 Alpha virt. eigenvalues --    1.31883   1.32771   1.35501   1.36112   1.37029
 Alpha virt. eigenvalues --    1.37601   1.39234   1.42599   1.45128   1.45273
 Alpha virt. eigenvalues --    1.48575   1.49982   1.51026   1.53681   1.56042
 Alpha virt. eigenvalues --    1.59052   1.59543   1.61499   1.61730   1.63157
 Alpha virt. eigenvalues --    1.64916   1.67245   1.67257   1.68274   1.70779
 Alpha virt. eigenvalues --    1.71025   1.71823   1.72718   1.72991   1.73287
 Alpha virt. eigenvalues --    1.74225   1.75582   1.75600   1.75957   1.76004
 Alpha virt. eigenvalues --    1.76433   1.76772   1.77057   1.77133   1.77584
 Alpha virt. eigenvalues --    1.77761   1.78887   1.80382   1.80437   1.80990
 Alpha virt. eigenvalues --    1.81429   1.81453   1.81700   1.82468   1.83433
 Alpha virt. eigenvalues --    1.83927   1.85123   1.86050   1.88158   1.88923
 Alpha virt. eigenvalues --    1.89039   1.89417   1.90586   1.92731   1.93873
 Alpha virt. eigenvalues --    1.94334   1.95523   1.95886   1.96930   1.97128
 Alpha virt. eigenvalues --    1.97515   1.97976   1.99023   1.99063   1.99084
 Alpha virt. eigenvalues --    2.00491   2.00684   2.01028   2.02286   2.02707
 Alpha virt. eigenvalues --    2.06397   2.08377   2.08833   2.09733   2.09863
 Alpha virt. eigenvalues --    2.11929   2.13486   2.13750   2.14687   2.15257
 Alpha virt. eigenvalues --    2.15692   2.17141   2.17595   2.17741   2.19005
 Alpha virt. eigenvalues --    2.20194   2.20855   2.22098   2.25081   2.26554
 Alpha virt. eigenvalues --    2.27822   2.28373   2.29303   2.30232   2.30376
 Alpha virt. eigenvalues --    2.30427   2.30905   2.32698   2.32886   2.33937
 Alpha virt. eigenvalues --    2.34099   2.34339   2.36038   2.36102   2.36927
 Alpha virt. eigenvalues --    2.38414   2.39599   2.41193   2.41994   2.42997
 Alpha virt. eigenvalues --    2.44288   2.47208   2.49062   2.50130   2.54606
 Alpha virt. eigenvalues --    2.55225   2.55799   2.56248   2.57880   2.58262
 Alpha virt. eigenvalues --    2.58972   2.61252   2.62596   2.63600   2.63813
 Alpha virt. eigenvalues --    2.63952   2.64116   2.64156   2.64489   2.65472
 Alpha virt. eigenvalues --    2.66128   2.67181   2.67264   2.67489   2.67957
 Alpha virt. eigenvalues --    2.70145   2.71226   2.71364   2.74079   2.76236
 Alpha virt. eigenvalues --    2.76320   2.76458   2.76903   2.78841   2.79132
 Alpha virt. eigenvalues --    2.82032   2.83318   2.86671   2.88886   2.89841
 Alpha virt. eigenvalues --    2.90708   2.91084   2.91180   2.91454   2.92236
 Alpha virt. eigenvalues --    2.92291   2.97091   2.98029   2.98611   3.03434
 Alpha virt. eigenvalues --    3.06916   3.08222   3.09403   3.12879   3.16519
 Alpha virt. eigenvalues --    3.16562   3.17230   3.19017   3.27424   3.27462
 Alpha virt. eigenvalues --    3.31447   3.34188   3.56025   3.62944   3.66516
 Alpha virt. eigenvalues --    3.69921   3.73797  53.88536
  Beta  occ. eigenvalues --  -14.38922 -14.38769 -10.28710 -10.28522 -10.27486
  Beta  occ. eigenvalues --  -10.27388 -10.27066 -10.26991 -10.26358 -10.26234
  Beta  occ. eigenvalues --  -10.25760 -10.25746 -10.25212 -10.25144 -10.25109
  Beta  occ. eigenvalues --  -10.25042 -10.24769 -10.24758 -10.24683 -10.24680
  Beta  occ. eigenvalues --  -10.24642 -10.24638 -10.24594 -10.24592 -10.24520
  Beta  occ. eigenvalues --  -10.24517  -3.74056  -2.32214  -2.32051  -2.31994
  Beta  occ. eigenvalues --   -0.99494  -0.96926  -0.90255  -0.89983  -0.87993
  Beta  occ. eigenvalues --   -0.84875  -0.84257  -0.78581  -0.77969  -0.77657
  Beta  occ. eigenvalues --   -0.77656  -0.77021  -0.76398  -0.68820  -0.67609
  Beta  occ. eigenvalues --   -0.66496  -0.65467  -0.63392  -0.63388  -0.62280
  Beta  occ. eigenvalues --   -0.59586  -0.57799  -0.56800  -0.55293  -0.54307
  Beta  occ. eigenvalues --   -0.52489  -0.50963  -0.50654  -0.49722  -0.48942
  Beta  occ. eigenvalues --   -0.48738  -0.47222  -0.46830  -0.46523  -0.46333
  Beta  occ. eigenvalues --   -0.44829  -0.44722  -0.44687  -0.43607  -0.43298
  Beta  occ. eigenvalues --   -0.42776  -0.41788  -0.40401  -0.39930  -0.38552
  Beta  occ. eigenvalues --   -0.37929  -0.37204  -0.36968  -0.36940  -0.36786
  Beta  occ. eigenvalues --   -0.36652  -0.33664  -0.32041  -0.31502  -0.30943
  Beta  occ. eigenvalues --   -0.30866  -0.30215  -0.29876  -0.28131  -0.28038
  Beta  occ. eigenvalues --   -0.27838  -0.27751  -0.27568  -0.26180  -0.25853
  Beta  occ. eigenvalues --   -0.24973
  Beta virt. eigenvalues --   -0.06941  -0.06319  -0.05422  -0.01889  -0.01499
  Beta virt. eigenvalues --   -0.01443  -0.01387  -0.00827   0.01457   0.03714
  Beta virt. eigenvalues --    0.04379   0.06223   0.07181   0.07280   0.08227
  Beta virt. eigenvalues --    0.08790   0.09872   0.10394   0.10950   0.11041
  Beta virt. eigenvalues --    0.11982   0.12660   0.13183   0.14393   0.14441
  Beta virt. eigenvalues --    0.14830   0.14930   0.15378   0.15506   0.15690
  Beta virt. eigenvalues --    0.15880   0.16698   0.19404   0.21106   0.21354
  Beta virt. eigenvalues --    0.22561   0.24455   0.24761   0.26123   0.26233
  Beta virt. eigenvalues --    0.27586   0.28301   0.28588   0.29381   0.29416
  Beta virt. eigenvalues --    0.30064   0.30617   0.30866   0.31398   0.31787
  Beta virt. eigenvalues --    0.32124   0.32320   0.33493   0.34506   0.34648
  Beta virt. eigenvalues --    0.34857   0.36455   0.36897   0.38439   0.38542
  Beta virt. eigenvalues --    0.39049   0.39148   0.40007   0.40784   0.40841
  Beta virt. eigenvalues --    0.41335   0.42874   0.43038   0.43221   0.43868
  Beta virt. eigenvalues --    0.44005   0.44368   0.45705   0.45938   0.46636
  Beta virt. eigenvalues --    0.46899   0.47306   0.47754   0.47931   0.48596
  Beta virt. eigenvalues --    0.48828   0.48995   0.49554   0.49807   0.50012
  Beta virt. eigenvalues --    0.50104   0.50346   0.51257   0.51684   0.52266
  Beta virt. eigenvalues --    0.52909   0.54201   0.54241   0.55567   0.55953
  Beta virt. eigenvalues --    0.56559   0.57202   0.57877   0.59119   0.60384
  Beta virt. eigenvalues --    0.60546   0.60650   0.61254   0.63791   0.63885
  Beta virt. eigenvalues --    0.64142   0.64327   0.65414   0.65629   0.65997
  Beta virt. eigenvalues --    0.66656   0.66721   0.67214   0.67572   0.67826
  Beta virt. eigenvalues --    0.67976   0.68601   0.68880   0.69051   0.69333
  Beta virt. eigenvalues --    0.69451   0.70143   0.70407   0.71230   0.71437
  Beta virt. eigenvalues --    0.71866   0.72353   0.72859   0.72925   0.73792
  Beta virt. eigenvalues --    0.75528   0.75751   0.75846   0.76029   0.76796
  Beta virt. eigenvalues --    0.76933   0.77544   0.77683   0.78327   0.78911
  Beta virt. eigenvalues --    0.79537   0.80086   0.80421   0.81312   0.81600
  Beta virt. eigenvalues --    0.83171   0.84124   0.84718   0.85105   0.85445
  Beta virt. eigenvalues --    0.86399   0.87953   0.88114   0.88554   0.89956
  Beta virt. eigenvalues --    0.93268   0.94254   0.95240   0.96044   0.96227
  Beta virt. eigenvalues --    0.98236   0.99217   1.01399   1.01803   1.04246
  Beta virt. eigenvalues --    1.05604   1.07504   1.08333   1.08687   1.10487
  Beta virt. eigenvalues --    1.11340   1.13272   1.14927   1.17020   1.18739
  Beta virt. eigenvalues --    1.19715   1.20464   1.21523   1.22742   1.22853
  Beta virt. eigenvalues --    1.23250   1.23710   1.23893   1.24279   1.24496
  Beta virt. eigenvalues --    1.24798   1.25287   1.26776   1.26889   1.27099
  Beta virt. eigenvalues --    1.28896   1.29427   1.29784   1.31064   1.31391
  Beta virt. eigenvalues --    1.31538   1.31905   1.32849   1.35553   1.36197
  Beta virt. eigenvalues --    1.37075   1.37653   1.39242   1.42683   1.45153
  Beta virt. eigenvalues --    1.45349   1.48606   1.50019   1.51069   1.53702
  Beta virt. eigenvalues --    1.56063   1.59078   1.59553   1.61528   1.61759
  Beta virt. eigenvalues --    1.63163   1.64940   1.67247   1.67259   1.68288
  Beta virt. eigenvalues --    1.70784   1.71038   1.71828   1.72742   1.72995
  Beta virt. eigenvalues --    1.73297   1.74230   1.75590   1.75602   1.75962
  Beta virt. eigenvalues --    1.76016   1.76438   1.76778   1.77059   1.77134
  Beta virt. eigenvalues --    1.77587   1.77779   1.78898   1.80391   1.80453
  Beta virt. eigenvalues --    1.80994   1.81437   1.81463   1.81719   1.82483
  Beta virt. eigenvalues --    1.83461   1.83940   1.85149   1.86066   1.88169
  Beta virt. eigenvalues --    1.88930   1.89058   1.89450   1.90618   1.92742
  Beta virt. eigenvalues --    1.93882   1.94349   1.95531   1.95888   1.96944
  Beta virt. eigenvalues --    1.97138   1.97561   1.98005   1.99023   1.99064
  Beta virt. eigenvalues --    1.99085   2.00496   2.00685   2.01051   2.02303
  Beta virt. eigenvalues --    2.02715   2.06413   2.08410   2.08885   2.09735
  Beta virt. eigenvalues --    2.09870   2.11963   2.13577   2.13859   2.14759
  Beta virt. eigenvalues --    2.15264   2.15956   2.17223   2.17715   2.18091
  Beta virt. eigenvalues --    2.19013   2.20207   2.20864   2.22106   2.25156
  Beta virt. eigenvalues --    2.26568   2.27843   2.28390   2.29322   2.30237
  Beta virt. eigenvalues --    2.30390   2.30453   2.30927   2.32703   2.32904
  Beta virt. eigenvalues --    2.33939   2.34108   2.34347   2.36039   2.36104
  Beta virt. eigenvalues --    2.36938   2.38468   2.39620   2.41203   2.42019
  Beta virt. eigenvalues --    2.43016   2.44338   2.47229   2.49072   2.50162
  Beta virt. eigenvalues --    2.54619   2.55232   2.55815   2.56286   2.57929
  Beta virt. eigenvalues --    2.58329   2.59008   2.61282   2.62625   2.63611
  Beta virt. eigenvalues --    2.63829   2.63955   2.64122   2.64196   2.64533
  Beta virt. eigenvalues --    2.65503   2.66164   2.67199   2.67275   2.67491
  Beta virt. eigenvalues --    2.67996   2.70155   2.71249   2.71415   2.74133
  Beta virt. eigenvalues --    2.76238   2.76322   2.76463   2.76907   2.78863
  Beta virt. eigenvalues --    2.79154   2.82104   2.83338   2.86700   2.88954
  Beta virt. eigenvalues --    2.89847   2.90711   2.91088   2.91190   2.91456
  Beta virt. eigenvalues --    2.92239   2.92294   2.97140   2.98055   2.98622
  Beta virt. eigenvalues --    3.03445   3.06934   3.08254   3.09407   3.12896
  Beta virt. eigenvalues --    3.16520   3.16563   3.17240   3.19033   3.27425
  Beta virt. eigenvalues --    3.27462   3.31470   3.34207   3.56039   3.62962
  Beta virt. eigenvalues --    3.66523   3.69922   3.73808  53.88692
          Condensed to atoms (all electrons):
               1          2          3          4          5          6
     1  C    5.112804   0.270232   0.089509  -0.162994   0.000355   0.000061
     2  C    0.270232   5.061890   0.295581   0.092160   0.012384   0.000262
     3  C    0.089509   0.295581   5.051396   0.289465  -0.071748  -0.006190
     4  C   -0.162994   0.092160   0.289465   5.487955   0.306327  -0.092094
     5  C    0.000355   0.012384  -0.071748   0.306327   5.247701   0.485296
     6  C    0.000061   0.000262  -0.006190  -0.092094   0.485296   5.012469
     7  C    0.000001   0.000011   0.000199   0.007423   0.014342   0.362868
     8  N    0.000000   0.000000   0.000013  -0.000411  -0.044349  -0.028468
     9  C   -0.000005   0.000048  -0.000973   0.021004  -0.134905  -0.074120
    10  C   -0.000110   0.000647  -0.010762  -0.076733   0.411507   0.011850
    11  C    0.000068  -0.000292  -0.000219  -0.023715  -0.101650   0.012272
    12  C    0.000006  -0.000021   0.000093  -0.003092   0.020869  -0.000576
    13  C    0.000000   0.000001  -0.000040   0.000284  -0.000999  -0.000265
    14  C    0.000000   0.000000   0.000000   0.000001   0.000054  -0.000002
    15  C    0.000000   0.000000   0.000000   0.000000   0.000001   0.000000
    16  C    0.000000   0.000000   0.000000   0.000000   0.000000   0.000000
    17  C    0.000000   0.000000   0.000000   0.000000   0.000000   0.000000
    18  C    0.000000   0.000000   0.000000   0.000000   0.000000   0.000000
    19  C    0.000000   0.000000   0.000000   0.000000   0.000000   0.000000
    20  C    0.000000   0.000000   0.000000   0.000000   0.000000   0.000000
    21  C    0.000000   0.000000   0.000000   0.000000  -0.000002   0.000000
    22  C    0.000000   0.000000   0.000000   0.000000   0.000008  -0.000003
    23  N    0.000000   0.000000   0.000000   0.000002   0.000065  -0.000059
    24  C    0.000000  -0.000001   0.000046  -0.000747   0.027569  -0.002473
    25  C    0.088678  -0.144809   0.067249   0.294628  -0.074211  -0.007325
    26  C    0.271173   0.090221  -0.144641   0.093268   0.012101   0.000268
    27  H    0.450566  -0.069137   0.014402  -0.001574   0.000023  -0.000001
    28  H   -0.072930   0.453073  -0.070454   0.016316  -0.000379  -0.000008
    29  H    0.014159  -0.067561   0.456994  -0.066869  -0.012123   0.000543
    30  H   -0.000037  -0.000147   0.000855  -0.013061  -0.050330   0.420146
    31  H    0.000000   0.000000   0.000002  -0.000554   0.007555  -0.081112
    32  H   -0.000001   0.000657  -0.002075   0.016122  -0.040692   0.000289
    33  H    0.000000  -0.000001   0.000011  -0.000006  -0.000339   0.000008
    34  H    0.000000   0.000000   0.000000   0.000000   0.000000   0.000000
    35  H    0.000000   0.000000   0.000000   0.000000   0.000000   0.000000
    36  H    0.000000   0.000000   0.000000   0.000000   0.000000   0.000000
    37  H    0.000000   0.000000   0.000000   0.000000   0.000000   0.000000
    38  H    0.000000   0.000000   0.000000   0.000000   0.000000   0.000000
    39  H    0.000000   0.000000   0.000000   0.000000   0.000000   0.000000
    40  H    0.000000   0.000000   0.000000   0.000000   0.000000   0.000000
    41  H    0.014504  -0.002085   0.014907  -0.070155  -0.012004   0.000741
    42  H   -0.072420   0.014571  -0.001857   0.016371  -0.000380  -0.000009
    43  Ag  -0.000005   0.000037   0.000599  -0.001039  -0.008269   0.008166
               7          8          9         10         11         12
     1  C    0.000001   0.000000  -0.000005  -0.000110   0.000068   0.000006
     2  C    0.000011   0.000000   0.000048   0.000647  -0.000292  -0.000021
     3  C    0.000199   0.000013  -0.000973  -0.010762  -0.000219   0.000093
     4  C    0.007423  -0.000411   0.021004  -0.076733  -0.023715  -0.003092
     5  C    0.014342  -0.044349  -0.134905   0.411507  -0.101650   0.020869
     6  C    0.362868  -0.028468  -0.074120   0.011850   0.012272  -0.000576
     7  C    4.762647   0.520678  -0.042458  -0.095506   0.000043   0.000223
     8  N    0.520678   6.296792   0.551982  -0.066336   0.005386  -0.000632
     9  C   -0.042458   0.551982   6.245284   0.185335   0.063158  -0.144125
    10  C   -0.095506  -0.066336   0.185335   5.430928   0.234419   0.082979
    11  C    0.000043   0.005386   0.063158   0.234419   5.165370   0.304300
    12  C    0.000223  -0.000632  -0.144125   0.082979   0.304300   5.165414
    13  C   -0.000624   0.006339  -0.066372  -0.105769   0.081398   0.236441
    14  C    0.000007   0.000057   0.025675  -0.000630   0.020445  -0.101896
    15  C    0.000000   0.000002  -0.000852   0.000293  -0.003119  -0.023316
    16  C    0.000000   0.000000   0.000043  -0.000039   0.000092  -0.000175
    17  C    0.000000   0.000000  -0.000001   0.000001  -0.000021  -0.000291
    18  C    0.000000   0.000000   0.000000   0.000000   0.000006   0.000067
    19  C    0.000000   0.000000  -0.000001   0.000001  -0.000021  -0.000278
    20  C    0.000000   0.000000   0.000044  -0.000034   0.000093  -0.000444
    21  C   -0.000003  -0.000056  -0.002202  -0.000258  -0.000589   0.012190
    22  C    0.000025  -0.000568   0.013113  -0.000604   0.000215   0.000017
    23  N   -0.000616   0.005501  -0.138184   0.006380  -0.000731   0.005245
    24  C    0.013957  -0.128892  -0.366509  -0.064267  -0.138421   0.062361
    25  C    0.000151  -0.000011  -0.000830  -0.010633  -0.000416   0.000091
    26  C    0.000010   0.000000   0.000046   0.000591  -0.000282  -0.000022
    27  H    0.000000   0.000000   0.000000   0.000001  -0.000001   0.000000
    28  H    0.000000   0.000000   0.000000  -0.000003  -0.000001   0.000000
    29  H   -0.000125  -0.000013  -0.000360  -0.000695   0.000123   0.000010
    30  H   -0.047463   0.005503   0.001705   0.014120  -0.000332   0.000010
    31  H    0.432374  -0.046180   0.007737   0.001334   0.000112   0.000002
    32  H   -0.000162  -0.000023   0.020121  -0.049450   0.461497  -0.082650
    33  H   -0.000001   0.000000  -0.003729   0.017220  -0.082483   0.461402
    34  H    0.000000   0.000000   0.000030  -0.000012   0.000009   0.000178
    35  H    0.000000   0.000000   0.000000   0.000000   0.000000  -0.000001
    36  H    0.000000   0.000000   0.000000   0.000000   0.000000  -0.000001
    37  H    0.000000   0.000000   0.000000   0.000000   0.000000  -0.000003
    38  H    0.000000   0.000000   0.000026  -0.000011   0.000022   0.000338
    39  H    0.000000   0.000000   0.000186  -0.000002   0.000011  -0.000345
    40  H    0.000003  -0.000008  -0.000076   0.000012   0.000002   0.000109
    41  H   -0.000119  -0.000018  -0.000409  -0.000377   0.000355   0.000023
    42  H    0.000000   0.000000   0.000000  -0.000003  -0.000003   0.000000
    43  Ag  -0.002991  -0.002071   0.007785  -0.011109  -0.005168  -0.004579
              13         14         15         16         17         18
     1  C    0.000000   0.000000   0.000000   0.000000   0.000000   0.000000
     2  C    0.000001   0.000000   0.000000   0.000000   0.000000   0.000000
     3  C   -0.000040   0.000000   0.000000   0.000000   0.000000   0.000000
     4  C    0.000284   0.000001   0.000000   0.000000   0.000000   0.000000
     5  C   -0.000999   0.000054   0.000001   0.000000   0.000000   0.000000
     6  C   -0.000265  -0.000002   0.000000   0.000000   0.000000   0.000000
     7  C   -0.000624   0.000007   0.000000   0.000000   0.000000   0.000000
     8  N    0.006339   0.000057   0.000002   0.000000   0.000000   0.000000
     9  C   -0.066372   0.025675  -0.000852   0.000043  -0.000001   0.000000
    10  C   -0.105769  -0.000630   0.000293  -0.000039   0.000001   0.000000
    11  C    0.081398   0.020445  -0.003119   0.000092  -0.000021   0.000006
    12  C    0.236441  -0.101896  -0.023316  -0.000175  -0.000291   0.000067
    13  C    5.397474   0.414042  -0.075801  -0.010382   0.000607  -0.000105
    14  C    0.414042   5.241654   0.308730  -0.072614   0.012257   0.000359
    15  C   -0.075801   0.308730   5.483316   0.290335   0.092635  -0.162929
    16  C   -0.010382  -0.072614   0.290335   5.049694   0.296046   0.089125
    17  C    0.000607   0.012257   0.092635   0.296046   5.061693   0.270655
    18  C   -0.000105   0.000359  -0.162929   0.089125   0.270655   5.112414
    19  C    0.000574   0.012072   0.093454  -0.144559   0.090172   0.271246
    20  C   -0.010724  -0.074117   0.294000   0.067164  -0.144741   0.088623
    21  C    0.008668   0.488485  -0.091298  -0.006312   0.000250   0.000061
    22  C   -0.092687   0.011352   0.007453   0.000186   0.000011   0.000001
    23  N   -0.068483  -0.045383  -0.000429   0.000013   0.000000   0.000000
    24  C    0.232568  -0.133144   0.020717  -0.000974   0.000047  -0.000005
    25  C   -0.000033   0.000000   0.000000   0.000000   0.000000   0.000000
    26  C    0.000001   0.000000   0.000000   0.000000   0.000000   0.000000
    27  H    0.000000   0.000000   0.000000   0.000000   0.000000   0.000000
    28  H    0.000000   0.000000   0.000000   0.000000   0.000000   0.000000
    29  H   -0.000012   0.000000   0.000000   0.000000   0.000000   0.000000
    30  H   -0.000002   0.000000   0.000000   0.000000   0.000000   0.000000
    31  H    0.000011   0.000000   0.000000   0.000000   0.000000   0.000000
    32  H    0.017151  -0.000333  -0.000008   0.000011  -0.000001   0.000000
    33  H   -0.049538  -0.040391   0.015980  -0.002007   0.000656   0.000001
    34  H   -0.000565  -0.011989  -0.067582   0.456885  -0.067728   0.014212
    35  H   -0.000002  -0.000376   0.016286  -0.070571   0.452983  -0.072767
    36  H    0.000001   0.000022  -0.001569   0.014404  -0.069131   0.450536
    37  H   -0.000003  -0.000377   0.016350  -0.001851   0.014566  -0.072416
    38  H   -0.000357  -0.012069  -0.070024   0.014899  -0.002085   0.014501
    39  H    0.014038  -0.050274  -0.013050   0.000887  -0.000154  -0.000035
    40  H    0.001527   0.007424  -0.000549   0.000002   0.000000   0.000000
    41  H   -0.000011   0.000000   0.000000   0.000000   0.000000   0.000000
    42  H    0.000000   0.000000   0.000000   0.000000   0.000000   0.000000
    43  Ag  -0.005516  -0.004842  -0.000112   0.000512   0.000002   0.000000
              19         20         21         22         23         24
     1  C    0.000000   0.000000   0.000000   0.000000   0.000000   0.000000
     2  C    0.000000   0.000000   0.000000   0.000000   0.000000  -0.000001
     3  C    0.000000   0.000000   0.000000   0.000000   0.000000   0.000046
     4  C    0.000000   0.000000   0.000000   0.000000   0.000002  -0.000747
     5  C    0.000000   0.000000  -0.000002   0.000008   0.000065   0.027569
     6  C    0.000000   0.000000   0.000000  -0.000003  -0.000059  -0.002473
     7  C    0.000000   0.000000  -0.000003   0.000025  -0.000616   0.013957
     8  N    0.000000   0.000000  -0.000056  -0.000568   0.005501  -0.128892
     9  C   -0.000001   0.000044  -0.002202   0.013113  -0.138184  -0.366509
    10  C    0.000001  -0.000034  -0.000258  -0.000604   0.006380  -0.064267
    11  C   -0.000021   0.000093  -0.000589   0.000215  -0.000731  -0.138421
    12  C   -0.000278  -0.000444   0.012190   0.000017   0.005245   0.062361
    13  C    0.000574  -0.010724   0.008668  -0.092687  -0.068483   0.232568
    14  C    0.012072  -0.074117   0.488485   0.011352  -0.045383  -0.133144
    15  C    0.093454   0.294000  -0.091298   0.007453  -0.000429   0.020717
    16  C   -0.144559   0.067164  -0.006312   0.000186   0.000013  -0.000974
    17  C    0.090172  -0.144741   0.000250   0.000011   0.000000   0.000047
    18  C    0.271246   0.088623   0.000061   0.000001   0.000000  -0.000005
    19  C    5.062055   0.296999   0.000273   0.000010   0.000000   0.000044
    20  C    0.296999   5.048585  -0.007249   0.000153  -0.000008  -0.000822
    21  C    0.000273  -0.007249   5.011183   0.367521  -0.028163  -0.071775
    22  C    0.000010   0.000153   0.367521   4.753918   0.524963  -0.043323
    23  N    0.000000  -0.000008  -0.028163   0.524963   6.280151   0.579008
    24  C    0.000044  -0.000822  -0.071775  -0.043323   0.579008   6.083944
    25  C    0.000000   0.000000   0.000000   0.000000   0.000000   0.000041
    26  C    0.000000   0.000000   0.000000   0.000000   0.000000  -0.000001
    27  H    0.000000   0.000000   0.000000   0.000000   0.000000   0.000000
    28  H    0.000000   0.000000   0.000000   0.000000   0.000000   0.000000
    29  H    0.000000   0.000000   0.000000   0.000000   0.000000   0.000033
    30  H    0.000000   0.000000   0.000000   0.000000   0.000000   0.000181
    31  H    0.000000   0.000000   0.000000   0.000003  -0.000016  -0.000036
    32  H   -0.000001   0.000013   0.000009  -0.000001   0.000001  -0.003826
    33  H    0.000648  -0.001563   0.000306  -0.000161  -0.000021   0.019699
    34  H   -0.002025   0.014548   0.000677  -0.000121  -0.000013  -0.000346
    35  H    0.014538  -0.001825  -0.000008   0.000000   0.000000   0.000000
    36  H   -0.069197   0.014437  -0.000001   0.000000   0.000000   0.000000
    37  H    0.452642  -0.071239  -0.000009   0.000000   0.000000   0.000000
    38  H   -0.068740   0.456301   0.000741  -0.000121  -0.000018  -0.000407
    39  H   -0.000149   0.000730   0.419026  -0.046887   0.005477   0.001765
    40  H    0.000000  -0.000002  -0.081058   0.431417  -0.045536   0.007466
    41  H    0.000000   0.000000   0.000000   0.000000   0.000000   0.000027
    42  H    0.000000   0.000000   0.000000   0.000000   0.000000   0.000000
    43  Ag  -0.000002   0.000036   0.005497  -0.001432   0.004898  -0.013650
              25         26         27         28         29         30
     1  C    0.088678   0.271173   0.450566  -0.072930   0.014159  -0.000037
     2  C   -0.144809   0.090221  -0.069137   0.453073  -0.067561  -0.000147
     3  C    0.067249  -0.144641   0.014402  -0.070454   0.456994   0.000855
     4  C    0.294628   0.093268  -0.001574   0.016316  -0.066869  -0.013061
     5  C   -0.074211   0.012101   0.000023  -0.000379  -0.012123  -0.050330
     6  C   -0.007325   0.000268  -0.000001  -0.000008   0.000543   0.420146
     7  C    0.000151   0.000010   0.000000   0.000000  -0.000125  -0.047463
     8  N   -0.000011   0.000000   0.000000   0.000000  -0.000013   0.005503
     9  C   -0.000830   0.000046   0.000000   0.000000  -0.000360   0.001705
    10  C   -0.010633   0.000591   0.000001  -0.000003  -0.000695   0.014120
    11  C   -0.000416  -0.000282  -0.000001  -0.000001   0.000123  -0.000332
    12  C    0.000091  -0.000022   0.000000   0.000000   0.000010   0.000010
    13  C   -0.000033   0.000001   0.000000   0.000000  -0.000012  -0.000002
    14  C    0.000000   0.000000   0.000000   0.000000   0.000000   0.000000
    15  C    0.000000   0.000000   0.000000   0.000000   0.000000   0.000000
    16  C    0.000000   0.000000   0.000000   0.000000   0.000000   0.000000
    17  C    0.000000   0.000000   0.000000   0.000000   0.000000   0.000000
    18  C    0.000000   0.000000   0.000000   0.000000   0.000000   0.000000
    19  C    0.000000   0.000000   0.000000   0.000000   0.000000   0.000000
    20  C    0.000000   0.000000   0.000000   0.000000   0.000000   0.000000
    21  C    0.000000   0.000000   0.000000   0.000000   0.000000   0.000000
    22  C    0.000000   0.000000   0.000000   0.000000   0.000000   0.000000
    23  N    0.000000   0.000000   0.000000   0.000000   0.000000   0.000000
    24  C    0.000041  -0.000001   0.000000   0.000000   0.000033   0.000181
    25  C    5.048082   0.297218   0.014441  -0.001822   0.014428   0.000725
    26  C    0.297218   5.061862  -0.069206   0.014535  -0.002006  -0.000146
    27  H    0.014441  -0.069206   0.666865  -0.012365  -0.000255  -0.000001
    28  H   -0.001822   0.014535  -0.012365   0.666801  -0.012106   0.000003
    29  H    0.014428  -0.002006  -0.000255  -0.012106   0.650508   0.000219
    30  H    0.000725  -0.000146  -0.000001   0.000003   0.000219   0.656250
    31  H   -0.000002   0.000000   0.000000   0.000000   0.000005  -0.005413
    32  H   -0.001572   0.000659  -0.000003  -0.000005  -0.000214  -0.000012
    33  H    0.000013  -0.000001   0.000000   0.000000   0.000000   0.000000
    34  H    0.000000   0.000000   0.000000   0.000000   0.000000   0.000000
    35  H    0.000000   0.000000   0.000000   0.000000   0.000000   0.000000
    36  H    0.000000   0.000000   0.000000   0.000000   0.000000   0.000000
    37  H    0.000000   0.000000   0.000000   0.000000   0.000000   0.000000
    38  H    0.000000   0.000000   0.000000   0.000000   0.000000   0.000000
    39  H    0.000000   0.000000   0.000000   0.000000   0.000000   0.000000
    40  H    0.000000   0.000000   0.000000   0.000000   0.000000   0.000000
    41  H    0.456262  -0.068683  -0.000270   0.000037  -0.000224   0.000238
    42  H   -0.071267   0.452663  -0.012387  -0.000281   0.000034   0.000003
    43  Ag   0.000096  -0.000002  -0.000001   0.000025   0.001896  -0.000538
              31         32         33         34         35         36
     1  C    0.000000  -0.000001   0.000000   0.000000   0.000000   0.000000
     2  C    0.000000   0.000657  -0.000001   0.000000   0.000000   0.000000
     3  C    0.000002  -0.002075   0.000011   0.000000   0.000000   0.000000
     4  C   -0.000554   0.016122  -0.000006   0.000000   0.000000   0.000000
     5  C    0.007555  -0.040692  -0.000339   0.000000   0.000000   0.000000
     6  C   -0.081112   0.000289   0.000008   0.000000   0.000000   0.000000
     7  C    0.432374  -0.000162  -0.000001   0.000000   0.000000   0.000000
     8  N   -0.046180  -0.000023   0.000000   0.000000   0.000000   0.000000
     9  C    0.007737   0.020121  -0.003729   0.000030   0.000000   0.000000
    10  C    0.001334  -0.049450   0.017220  -0.000012   0.000000   0.000000
    11  C    0.000112   0.461497  -0.082483   0.000009   0.000000   0.000000
    12  C    0.000002  -0.082650   0.461402   0.000178  -0.000001  -0.000001
    13  C    0.000011   0.017151  -0.049538  -0.000565  -0.000002   0.000001
    14  C    0.000000  -0.000333  -0.040391  -0.011989  -0.000376   0.000022
    15  C    0.000000  -0.000008   0.015980  -0.067582   0.016286  -0.001569
    16  C    0.000000   0.000011  -0.002007   0.456885  -0.070571   0.014404
    17  C    0.000000  -0.000001   0.000656  -0.067728   0.452983  -0.069131
    18  C    0.000000   0.000000   0.000001   0.014212  -0.072767   0.450536
    19  C    0.000000  -0.000001   0.000648  -0.002025   0.014538  -0.069197
    20  C    0.000000   0.000013  -0.001563   0.014548  -0.001825   0.014437
    21  C    0.000000   0.000009   0.000306   0.000677  -0.000008  -0.000001
    22  C    0.000003  -0.000001  -0.000161  -0.000121   0.000000   0.000000
    23  N   -0.000016   0.000001  -0.000021  -0.000013   0.000000   0.000000
    24  C   -0.000036  -0.003826   0.019699  -0.000346   0.000000   0.000000
    25  C   -0.000002  -0.001572   0.000013   0.000000   0.000000   0.000000
    26  C    0.000000   0.000659  -0.000001   0.000000   0.000000   0.000000
    27  H    0.000000  -0.000003   0.000000   0.000000   0.000000   0.000000
    28  H    0.000000  -0.000005   0.000000   0.000000   0.000000   0.000000
    29  H    0.000005  -0.000214   0.000000   0.000000   0.000000   0.000000
    30  H   -0.005413  -0.000012   0.000000   0.000000   0.000000   0.000000
    31  H    0.656312  -0.000002   0.000000   0.000000   0.000000   0.000000
    32  H   -0.000002   0.649801  -0.011576   0.000000   0.000000   0.000000
    33  H    0.000000  -0.011576   0.650057  -0.000186  -0.000005  -0.000004
    34  H    0.000000   0.000000  -0.000186   0.653913  -0.012086  -0.000258
    35  H    0.000000   0.000000  -0.000005  -0.012086   0.666787  -0.012368
    36  H    0.000000   0.000000  -0.000004  -0.000258  -0.012368   0.666921
    37  H    0.000000   0.000000  -0.000007   0.000035  -0.000282  -0.012388
    38  H    0.000000   0.000000  -0.000100  -0.000228   0.000037  -0.000271
    39  H    0.000000   0.000000  -0.000012   0.000246   0.000003  -0.000001
    40  H    0.000000   0.000000  -0.000002   0.000006   0.000000   0.000000
    41  H    0.000003  -0.000101   0.000000   0.000000   0.000000   0.000000
    42  H    0.000000  -0.000007   0.000000   0.000000   0.000000   0.000000
    43  Ag  -0.004198   0.000890   0.000859   0.001198   0.000012  -0.000001
              37         38         39         40         41         42
     1  C    0.000000   0.000000   0.000000   0.000000   0.014504  -0.072420
     2  C    0.000000   0.000000   0.000000   0.000000  -0.002085   0.014571
     3  C    0.000000   0.000000   0.000000   0.000000   0.014907  -0.001857
     4  C    0.000000   0.000000   0.000000   0.000000  -0.070155   0.016371
     5  C    0.000000   0.000000   0.000000   0.000000  -0.012004  -0.000380
     6  C    0.000000   0.000000   0.000000   0.000000   0.000741  -0.000009
     7  C    0.000000   0.000000   0.000000   0.000003  -0.000119   0.000000
     8  N    0.000000   0.000000   0.000000  -0.000008  -0.000018   0.000000
     9  C    0.000000   0.000026   0.000186  -0.000076  -0.000409   0.000000
    10  C    0.000000  -0.000011  -0.000002   0.000012  -0.000377  -0.000003
    11  C    0.000000   0.000022   0.000011   0.000002   0.000355  -0.000003
    12  C   -0.000003   0.000338  -0.000345   0.000109   0.000023   0.000000
    13  C   -0.000003  -0.000357   0.014038   0.001527  -0.000011   0.000000
    14  C   -0.000377  -0.012069  -0.050274   0.007424   0.000000   0.000000
    15  C    0.016350  -0.070024  -0.013050  -0.000549   0.000000   0.000000
    16  C   -0.001851   0.014899   0.000887   0.000002   0.000000   0.000000
    17  C    0.014566  -0.002085  -0.000154   0.000000   0.000000   0.000000
    18  C   -0.072416   0.014501  -0.000035   0.000000   0.000000   0.000000
    19  C    0.452642  -0.068740  -0.000149   0.000000   0.000000   0.000000
    20  C   -0.071239   0.456301   0.000730  -0.000002   0.000000   0.000000
    21  C   -0.000009   0.000741   0.419026  -0.081058   0.000000   0.000000
    22  C    0.000000  -0.000121  -0.046887   0.431417   0.000000   0.000000
    23  N    0.000000  -0.000018   0.005477  -0.045536   0.000000   0.000000
    24  C    0.000000  -0.000407   0.001765   0.007466   0.000027   0.000000
    25  C    0.000000   0.000000   0.000000   0.000000   0.456262  -0.071267
    26  C    0.000000   0.000000   0.000000   0.000000  -0.068683   0.452663
    27  H    0.000000   0.000000   0.000000   0.000000  -0.000270  -0.012387
    28  H    0.000000   0.000000   0.000000   0.000000   0.000037  -0.000281
    29  H    0.000000   0.000000   0.000000   0.000000  -0.000224   0.000034
    30  H    0.000000   0.000000   0.000000   0.000000   0.000238   0.000003
    31  H    0.000000   0.000000   0.000000   0.000000   0.000003   0.000000
    32  H    0.000000   0.000000   0.000000   0.000000  -0.000101  -0.000007
    33  H   -0.000007  -0.000100  -0.000012  -0.000002   0.000000   0.000000
    34  H    0.000035  -0.000228   0.000246   0.000006   0.000000   0.000000
    35  H   -0.000282   0.000037   0.000003   0.000000   0.000000   0.000000
    36  H   -0.012388  -0.000271  -0.000001   0.000000   0.000000   0.000000
    37  H    0.668614  -0.012234   0.000003   0.000000   0.000000   0.000000
    38  H   -0.012234   0.667646   0.000238   0.000003   0.000000   0.000000
    39  H    0.000003   0.000238   0.656711  -0.005382   0.000000   0.000000
    40  H    0.000000   0.000003  -0.005382   0.657122   0.000000   0.000000
    41  H    0.000000   0.000000   0.000000   0.000000   0.667759  -0.012239
    42  H    0.000000   0.000000   0.000000   0.000000  -0.012239   0.668606
    43  Ag   0.000000   0.000005  -0.000491  -0.003297   0.000011   0.000000
              43
     1  C   -0.000005
     2  C    0.000037
     3  C    0.000599
     4  C   -0.001039
     5  C   -0.008269
     6  C    0.008166
     7  C   -0.002991
     8  N   -0.002071
     9  C    0.007785
    10  C   -0.011109
    11  C   -0.005168
    12  C   -0.004579
    13  C   -0.005516
    14  C   -0.004842
    15  C   -0.000112
    16  C    0.000512
    17  C    0.000002
    18  C    0.000000
    19  C   -0.000002
    20  C    0.000036
    21  C    0.005497
    22  C   -0.001432
    23  N    0.004898
    24  C   -0.013650
    25  C    0.000096
    26  C   -0.000002
    27  H   -0.000001
    28  H    0.000025
    29  H    0.001896
    30  H   -0.000538
    31  H   -0.004198
    32  H    0.000890
    33  H    0.000859
    34  H    0.001198
    35  H    0.000012
    36  H   -0.000001
    37  H    0.000000
    38  H    0.000005
    39  H   -0.000491
    40  H   -0.003297
    41  H    0.000011
    42  H    0.000000
    43  Ag  19.086895
          Atomic-Atomic Spin Densities.
               1          2          3          4          5          6
     1  C   -0.000267   0.000136  -0.000018   0.000105  -0.000016   0.000000
     2  C    0.000136   0.000160  -0.000303  -0.000326   0.000089   0.000007
     3  C   -0.000018  -0.000303   0.001045  -0.000573   0.000493   0.000050
     4  C    0.000105  -0.000326  -0.000573   0.008705  -0.002856  -0.000096
     5  C   -0.000016   0.000089   0.000493  -0.002856  -0.001290  -0.002410
     6  C    0.000000   0.000007   0.000050  -0.000096  -0.002410   0.014000
     7  C    0.000000   0.000000   0.000005  -0.000135  -0.000218   0.000299
     8  N    0.000000   0.000000  -0.000002   0.000080   0.001612  -0.000902
     9  C    0.000000   0.000000  -0.000007   0.000000   0.000920  -0.000512
    10  C   -0.000001   0.000004   0.000048  -0.001914   0.003626  -0.000989
    11  C    0.000000   0.000000  -0.000017   0.000125   0.000032  -0.000018
    12  C    0.000000   0.000000   0.000002  -0.000029  -0.000092   0.000001
    13  C    0.000000   0.000000  -0.000001   0.000019   0.000125  -0.000004
    14  C    0.000000   0.000000   0.000000   0.000001   0.000007   0.000000
    15  C    0.000000   0.000000   0.000000   0.000000   0.000000   0.000000
    16  C    0.000000   0.000000   0.000000   0.000000   0.000000   0.000000
    17  C    0.000000   0.000000   0.000000   0.000000   0.000000   0.000000
    18  C    0.000000   0.000000   0.000000   0.000000   0.000000   0.000000
    19  C    0.000000   0.000000   0.000000   0.000000   0.000000   0.000000
    20  C    0.000000   0.000000   0.000000   0.000000   0.000000   0.000000
    21  C    0.000000   0.000000   0.000000   0.000000   0.000000   0.000000
    22  C    0.000000   0.000000   0.000000   0.000000  -0.000001   0.000000
    23  N    0.000000   0.000000   0.000000   0.000000   0.000025  -0.000002
    24  C    0.000000   0.000000   0.000000   0.000020   0.000250  -0.000064
    25  C   -0.000012  -0.000043  -0.000173   0.000573  -0.000267   0.000011
    26  C    0.000034  -0.000006   0.000030  -0.000144   0.000091  -0.000005
    27  H    0.000017  -0.000016  -0.000001  -0.000001   0.000000   0.000000
    28  H    0.000026   0.000044  -0.000066  -0.000016   0.000003   0.000000
    29  H   -0.000036   0.000107  -0.000129   0.000043  -0.000081   0.000041
    30  H    0.000000   0.000002   0.000011  -0.000150   0.000034   0.000194
    31  H    0.000000   0.000000   0.000000   0.000001   0.000033  -0.000015
    32  H    0.000001  -0.000004  -0.000014   0.000140   0.000034   0.000001
    33  H    0.000000   0.000000   0.000000   0.000002   0.000002   0.000000
    34  H    0.000000   0.000000   0.000000   0.000000   0.000000   0.000000
    35  H    0.000000   0.000000   0.000000   0.000000   0.000000   0.000000
    36  H    0.000000   0.000000   0.000000   0.000000   0.000000   0.000000
    37  H    0.000000   0.000000   0.000000   0.000000   0.000000   0.000000
    38  H    0.000000   0.000000   0.000000   0.000000   0.000000   0.000000
    39  H    0.000000   0.000000   0.000000   0.000000   0.000000   0.000000
    40  H    0.000000   0.000000   0.000000   0.000000   0.000000   0.000000
    41  H    0.000000   0.000003   0.000012  -0.000140   0.000094  -0.000026
    42  H   -0.000002   0.000000  -0.000002   0.000004  -0.000005   0.000000
    43  Ag  -0.000009   0.000140  -0.000046  -0.003544  -0.008350   0.003364
               7          8          9         10         11         12
     1  C    0.000000   0.000000   0.000000  -0.000001   0.000000   0.000000
     2  C    0.000000   0.000000   0.000000   0.000004   0.000000   0.000000
     3  C    0.000005  -0.000002  -0.000007   0.000048  -0.000017   0.000002
     4  C   -0.000135   0.000080   0.000000  -0.001914   0.000125  -0.000029
     5  C   -0.000218   0.001612   0.000920   0.003626   0.000032  -0.000092
     6  C    0.000299  -0.000902  -0.000512  -0.000989  -0.000018   0.000001
     7  C   -0.009003  -0.001712   0.000397  -0.000020   0.000014   0.000003
     8  N   -0.001712   0.031784   0.007545   0.000439  -0.000098  -0.000015
     9  C    0.000397   0.007545  -0.013813   0.005603  -0.000011  -0.000191
    10  C   -0.000020   0.000439   0.005603   0.024520  -0.000774  -0.000361
    11  C    0.000014  -0.000098  -0.000011  -0.000774  -0.003561   0.000488
    12  C    0.000003  -0.000015  -0.000191  -0.000361   0.000488   0.001179
    13  C   -0.000020   0.000188   0.001947   0.000692  -0.000094  -0.001399
    14  C   -0.000001   0.000028   0.000293   0.000115  -0.000051  -0.000062
    15  C    0.000000   0.000000   0.000018   0.000017  -0.000020   0.000180
    16  C    0.000000   0.000000   0.000000  -0.000001   0.000002  -0.000015
    17  C    0.000000   0.000000   0.000000   0.000000   0.000000   0.000000
    18  C    0.000000   0.000000   0.000000   0.000000   0.000000   0.000000
    19  C    0.000000   0.000000   0.000000   0.000000   0.000000  -0.000002
    20  C    0.000000   0.000000   0.000000   0.000000  -0.000001  -0.000002
    21  C    0.000000   0.000000  -0.000062  -0.000001  -0.000002   0.000008
    22  C    0.000002  -0.000068   0.000136  -0.000023   0.000004   0.000006
    23  N   -0.000058   0.001444  -0.000269   0.000174  -0.000012  -0.000056
    24  C    0.000077  -0.000083   0.012212   0.001580  -0.000251  -0.000167
    25  C   -0.000003   0.000000   0.000004  -0.000026  -0.000011   0.000000
    26  C    0.000000   0.000000   0.000000   0.000015  -0.000001   0.000000
    27  H    0.000000   0.000000   0.000000   0.000000   0.000000   0.000000
    28  H    0.000000   0.000000   0.000000   0.000000   0.000000   0.000000
    29  H    0.000004  -0.000002  -0.000003  -0.000049  -0.000014   0.000001
    30  H   -0.000032  -0.000029   0.000010   0.000015   0.000000   0.000000
    31  H   -0.000006  -0.000007   0.000027  -0.000013   0.000000   0.000000
    32  H   -0.000001   0.000002  -0.000005  -0.000048   0.000093   0.000012
    33  H    0.000000   0.000000  -0.000003   0.000019  -0.000014   0.000158
    34  H    0.000000   0.000000  -0.000001  -0.000001   0.000000  -0.000006
    35  H    0.000000   0.000000   0.000000   0.000000   0.000000   0.000000
    36  H    0.000000   0.000000   0.000000   0.000000   0.000000   0.000000
    37  H    0.000000   0.000000   0.000000   0.000000   0.000000   0.000000
    38  H    0.000000   0.000000   0.000000   0.000000   0.000000  -0.000006
    39  H    0.000000   0.000000  -0.000001   0.000000   0.000000   0.000000
    40  H    0.000000  -0.000001   0.000003   0.000000   0.000000   0.000000
    41  H    0.000002   0.000000   0.000003   0.000061  -0.000005   0.000000
    42  H    0.000000   0.000000   0.000000  -0.000001   0.000000   0.000000
    43  Ag   0.002137  -0.025270  -0.024027  -0.018774   0.001632   0.002230
              13         14         15         16         17         18
     1  C    0.000000   0.000000   0.000000   0.000000   0.000000   0.000000
     2  C    0.000000   0.000000   0.000000   0.000000   0.000000   0.000000
     3  C   -0.000001   0.000000   0.000000   0.000000   0.000000   0.000000
     4  C    0.000019   0.000001   0.000000   0.000000   0.000000   0.000000
     5  C    0.000125   0.000007   0.000000   0.000000   0.000000   0.000000
     6  C   -0.000004   0.000000   0.000000   0.000000   0.000000   0.000000
     7  C   -0.000020  -0.000001   0.000000   0.000000   0.000000   0.000000
     8  N    0.000188   0.000028   0.000000   0.000000   0.000000   0.000000
     9  C    0.001947   0.000293   0.000018   0.000000   0.000000   0.000000
    10  C    0.000692   0.000115   0.000017  -0.000001   0.000000   0.000000
    11  C   -0.000094  -0.000051  -0.000020   0.000002   0.000000   0.000000
    12  C   -0.001399  -0.000062   0.000180  -0.000015   0.000000   0.000000
    13  C    0.014210   0.002483  -0.001853   0.000094   0.000006   0.000000
    14  C    0.002483   0.001900  -0.001971   0.000396   0.000042  -0.000004
    15  C   -0.001853  -0.001971   0.005970  -0.000622  -0.000198   0.000063
    16  C    0.000094   0.000396  -0.000622   0.000677  -0.000125  -0.000035
    17  C    0.000006   0.000042  -0.000198  -0.000125   0.000007   0.000113
    18  C    0.000000  -0.000004   0.000063  -0.000035   0.000113  -0.000170
    19  C    0.000013   0.000063  -0.000095   0.000030  -0.000016   0.000035
    20  C   -0.000049  -0.000281   0.000481  -0.000164  -0.000004  -0.000028
    21  C   -0.000698  -0.001977   0.000309   0.000027   0.000002   0.000000
    22  C   -0.000073  -0.000363  -0.000121   0.000006   0.000000   0.000000
    23  N    0.000394   0.001209   0.000062  -0.000002   0.000000   0.000000
    24  C    0.003276   0.000068  -0.000158  -0.000001   0.000000   0.000000
    25  C    0.000000   0.000000   0.000000   0.000000   0.000000   0.000000
    26  C    0.000000   0.000000   0.000000   0.000000   0.000000   0.000000
    27  H    0.000000   0.000000   0.000000   0.000000   0.000000   0.000000
    28  H    0.000000   0.000000   0.000000   0.000000   0.000000   0.000000
    29  H    0.000000   0.000000   0.000000   0.000000   0.000000   0.000000
    30  H    0.000000   0.000000   0.000000   0.000000   0.000000   0.000000
    31  H    0.000000   0.000000   0.000000   0.000000   0.000000   0.000000
    32  H    0.000014   0.000003   0.000002   0.000000   0.000000   0.000000
    33  H   -0.000085   0.000036   0.000088  -0.000013  -0.000002   0.000000
    34  H   -0.000027  -0.000050  -0.000067  -0.000094   0.000083  -0.000019
    35  H    0.000000   0.000001  -0.000009  -0.000027   0.000015   0.000019
    36  H    0.000000   0.000000  -0.000001   0.000000  -0.000012   0.000014
    37  H   -0.000001  -0.000004   0.000002  -0.000002   0.000002  -0.000004
    38  H    0.000038   0.000051  -0.000076   0.000009   0.000000   0.000001
    39  H    0.000010   0.000063  -0.000103   0.000010   0.000001   0.000000
    40  H   -0.000011   0.000022   0.000000   0.000000   0.000000   0.000000
    41  H    0.000000   0.000000   0.000000   0.000000   0.000000   0.000000
    42  H    0.000000   0.000000   0.000000   0.000000   0.000000   0.000000
    43  Ag  -0.012653  -0.005993  -0.002115   0.000058   0.000064  -0.000002
              19         20         21         22         23         24
     1  C    0.000000   0.000000   0.000000   0.000000   0.000000   0.000000
     2  C    0.000000   0.000000   0.000000   0.000000   0.000000   0.000000
     3  C    0.000000   0.000000   0.000000   0.000000   0.000000   0.000000
     4  C    0.000000   0.000000   0.000000   0.000000   0.000000   0.000020
     5  C    0.000000   0.000000   0.000000  -0.000001   0.000025   0.000250
     6  C    0.000000   0.000000   0.000000   0.000000  -0.000002  -0.000064
     7  C    0.000000   0.000000   0.000000   0.000002  -0.000058   0.000077
     8  N    0.000000   0.000000   0.000000  -0.000068   0.001444  -0.000083
     9  C    0.000000   0.000000  -0.000062   0.000136  -0.000269   0.012212
    10  C    0.000000   0.000000  -0.000001  -0.000023   0.000174   0.001580
    11  C    0.000000  -0.000001  -0.000002   0.000004  -0.000012  -0.000251
    12  C   -0.000002  -0.000002   0.000008   0.000006  -0.000056  -0.000167
    13  C    0.000013  -0.000049  -0.000698  -0.000073   0.000394   0.003276
    14  C    0.000063  -0.000281  -0.001977  -0.000363   0.001209   0.000068
    15  C   -0.000095   0.000481   0.000309  -0.000121   0.000062  -0.000158
    16  C    0.000030  -0.000164   0.000027   0.000006  -0.000002  -0.000001
    17  C   -0.000016  -0.000004   0.000002   0.000000   0.000000   0.000000
    18  C    0.000035  -0.000028   0.000000   0.000000   0.000000   0.000000
    19  C    0.000114  -0.000131  -0.000005   0.000000   0.000000   0.000000
    20  C   -0.000131   0.000227   0.000013  -0.000002   0.000000   0.000007
    21  C   -0.000005   0.000013   0.009190   0.000489  -0.000470  -0.000488
    22  C    0.000000  -0.000002   0.000489  -0.004649  -0.001877   0.000096
    23  N    0.000000   0.000000  -0.000470  -0.001877   0.019741   0.005267
    24  C    0.000000   0.000007  -0.000488   0.000096   0.005267  -0.004081
    25  C    0.000000   0.000000   0.000000   0.000000   0.000000   0.000000
    26  C    0.000000   0.000000   0.000000   0.000000   0.000000   0.000000
    27  H    0.000000   0.000000   0.000000   0.000000   0.000000   0.000000
    28  H    0.000000   0.000000   0.000000   0.000000   0.000000   0.000000
    29  H    0.000000   0.000000   0.000000   0.000000   0.000000  -0.000001
    30  H    0.000000   0.000000   0.000000   0.000000   0.000000  -0.000001
    31  H    0.000000   0.000000   0.000000   0.000000   0.000000   0.000001
    32  H    0.000000   0.000000   0.000000   0.000000   0.000000   0.000004
    33  H   -0.000002   0.000005   0.000002  -0.000001   0.000001  -0.000003
    34  H    0.000007  -0.000027   0.000038   0.000005  -0.000002  -0.000001
    35  H   -0.000001   0.000001   0.000000   0.000000   0.000000   0.000000
    36  H    0.000001  -0.000001   0.000000   0.000000   0.000000   0.000000
    37  H   -0.000033   0.000028   0.000000   0.000000   0.000000   0.000000
    38  H    0.000014  -0.000019  -0.000019   0.000001   0.000000   0.000002
    39  H    0.000001  -0.000005   0.000097  -0.000013  -0.000022   0.000014
    40  H    0.000000   0.000000  -0.000033   0.000045  -0.000032   0.000017
    41  H    0.000000   0.000000   0.000000   0.000000   0.000000   0.000000
    42  H    0.000000   0.000000   0.000000   0.000000   0.000000   0.000000
    43  Ag   0.000008  -0.000024   0.001550   0.002224  -0.016939  -0.021843
              25         26         27         28         29         30
     1  C   -0.000012   0.000034   0.000017   0.000026  -0.000036   0.000000
     2  C   -0.000043  -0.000006  -0.000016   0.000044   0.000107   0.000002
     3  C   -0.000173   0.000030  -0.000001  -0.000066  -0.000129   0.000011
     4  C    0.000573  -0.000144  -0.000001  -0.000016   0.000043  -0.000150
     5  C   -0.000267   0.000091   0.000000   0.000003  -0.000081   0.000034
     6  C    0.000011  -0.000005   0.000000   0.000000   0.000041   0.000194
     7  C   -0.000003   0.000000   0.000000   0.000000   0.000004  -0.000032
     8  N    0.000000   0.000000   0.000000   0.000000  -0.000002  -0.000029
     9  C    0.000004   0.000000   0.000000   0.000000  -0.000003   0.000010
    10  C   -0.000026   0.000015   0.000000   0.000000  -0.000049   0.000015
    11  C   -0.000011  -0.000001   0.000000   0.000000  -0.000014   0.000000
    12  C    0.000000   0.000000   0.000000   0.000000   0.000001   0.000000
    13  C    0.000000   0.000000   0.000000   0.000000   0.000000   0.000000
    14  C    0.000000   0.000000   0.000000   0.000000   0.000000   0.000000
    15  C    0.000000   0.000000   0.000000   0.000000   0.000000   0.000000
    16  C    0.000000   0.000000   0.000000   0.000000   0.000000   0.000000
    17  C    0.000000   0.000000   0.000000   0.000000   0.000000   0.000000
    18  C    0.000000   0.000000   0.000000   0.000000   0.000000   0.000000
    19  C    0.000000   0.000000   0.000000   0.000000   0.000000   0.000000
    20  C    0.000000   0.000000   0.000000   0.000000   0.000000   0.000000
    21  C    0.000000   0.000000   0.000000   0.000000   0.000000   0.000000
    22  C    0.000000   0.000000   0.000000   0.000000   0.000000   0.000000
    23  N    0.000000   0.000000   0.000000   0.000000   0.000000   0.000000
    24  C    0.000000   0.000000   0.000000   0.000000  -0.000001  -0.000001
    25  C    0.000199  -0.000196  -0.000003   0.000000  -0.000038  -0.000005
    26  C   -0.000196   0.000197   0.000003  -0.000002   0.000010   0.000002
    27  H   -0.000003   0.000003   0.000015  -0.000001   0.000001   0.000000
    28  H    0.000000  -0.000002  -0.000001  -0.000013   0.000033   0.000000
    29  H   -0.000038   0.000010   0.000001   0.000033  -0.000448   0.000002
    30  H   -0.000005   0.000002   0.000000   0.000000   0.000002  -0.000712
    31  H    0.000000   0.000000   0.000000   0.000000   0.000000  -0.000002
    32  H    0.000000  -0.000002   0.000000   0.000000  -0.000004   0.000000
    33  H    0.000000   0.000000   0.000000   0.000000   0.000000   0.000000
    34  H    0.000000   0.000000   0.000000   0.000000   0.000000   0.000000
    35  H    0.000000   0.000000   0.000000   0.000000   0.000000   0.000000
    36  H    0.000000   0.000000   0.000000   0.000000   0.000000   0.000000
    37  H    0.000000   0.000000   0.000000   0.000000   0.000000   0.000000
    38  H    0.000000   0.000000   0.000000   0.000000   0.000000   0.000000
    39  H    0.000000   0.000000   0.000000   0.000000   0.000000   0.000000
    40  H    0.000000   0.000000   0.000000   0.000000   0.000000   0.000000
    41  H   -0.000041   0.000028   0.000000   0.000000   0.000002   0.000001
    42  H    0.000039  -0.000045  -0.000003   0.000000   0.000000   0.000000
    43  Ag  -0.000031   0.000016   0.000000   0.000009   0.000595   0.000135
              31         32         33         34         35         36
     1  C    0.000000   0.000001   0.000000   0.000000   0.000000   0.000000
     2  C    0.000000  -0.000004   0.000000   0.000000   0.000000   0.000000
     3  C    0.000000  -0.000014   0.000000   0.000000   0.000000   0.000000
     4  C    0.000001   0.000140   0.000002   0.000000   0.000000   0.000000
     5  C    0.000033   0.000034   0.000002   0.000000   0.000000   0.000000
     6  C   -0.000015   0.000001   0.000000   0.000000   0.000000   0.000000
     7  C   -0.000006  -0.000001   0.000000   0.000000   0.000000   0.000000
     8  N   -0.000007   0.000002   0.000000   0.000000   0.000000   0.000000
     9  C    0.000027  -0.000005  -0.000003  -0.000001   0.000000   0.000000
    10  C   -0.000013  -0.000048   0.000019  -0.000001   0.000000   0.000000
    11  C    0.000000   0.000093  -0.000014   0.000000   0.000000   0.000000
    12  C    0.000000   0.000012   0.000158  -0.000006   0.000000   0.000000
    13  C    0.000000   0.000014  -0.000085  -0.000027   0.000000   0.000000
    14  C    0.000000   0.000003   0.000036  -0.000050   0.000001   0.000000
    15  C    0.000000   0.000002   0.000088  -0.000067  -0.000009  -0.000001
    16  C    0.000000   0.000000  -0.000013  -0.000094  -0.000027   0.000000
    17  C    0.000000   0.000000  -0.000002   0.000083   0.000015  -0.000012
    18  C    0.000000   0.000000   0.000000  -0.000019   0.000019   0.000014
    19  C    0.000000   0.000000  -0.000002   0.000007  -0.000001   0.000001
    20  C    0.000000   0.000000   0.000005  -0.000027   0.000001  -0.000001
    21  C    0.000000   0.000000   0.000002   0.000038   0.000000   0.000000
    22  C    0.000000   0.000000  -0.000001   0.000005   0.000000   0.000000
    23  N    0.000000   0.000000   0.000001  -0.000002   0.000000   0.000000
    24  C    0.000001   0.000004  -0.000003  -0.000001   0.000000   0.000000
    25  C    0.000000   0.000000   0.000000   0.000000   0.000000   0.000000
    26  C    0.000000  -0.000002   0.000000   0.000000   0.000000   0.000000
    27  H    0.000000   0.000000   0.000000   0.000000   0.000000   0.000000
    28  H    0.000000   0.000000   0.000000   0.000000   0.000000   0.000000
    29  H    0.000000  -0.000004   0.000000   0.000000   0.000000   0.000000
    30  H   -0.000002   0.000000   0.000000   0.000000   0.000000   0.000000
    31  H    0.000405   0.000000   0.000000   0.000000   0.000000   0.000000
    32  H    0.000000   0.000154   0.000012   0.000000   0.000000   0.000000
    33  H    0.000000   0.000012  -0.000064  -0.000004   0.000000   0.000000
    34  H    0.000000   0.000000  -0.000004  -0.000191   0.000019   0.000000
    35  H    0.000000   0.000000   0.000000   0.000019  -0.000011  -0.000001
    36  H    0.000000   0.000000   0.000000   0.000000  -0.000001   0.000008
    37  H    0.000000   0.000000   0.000000   0.000000   0.000000  -0.000002
    38  H    0.000000   0.000000  -0.000001   0.000001   0.000000   0.000000
    39  H    0.000000   0.000000   0.000000   0.000002   0.000000   0.000000
    40  H    0.000000   0.000000   0.000000   0.000000   0.000000   0.000000
    41  H    0.000000  -0.000002   0.000000   0.000000   0.000000   0.000000
    42  H    0.000000   0.000000   0.000000   0.000000   0.000000   0.000000
    43  Ag  -0.000081  -0.000304  -0.000212   0.000434   0.000003   0.000000
              37         38         39         40         41         42
     1  C    0.000000   0.000000   0.000000   0.000000   0.000000  -0.000002
     2  C    0.000000   0.000000   0.000000   0.000000   0.000003   0.000000
     3  C    0.000000   0.000000   0.000000   0.000000   0.000012  -0.000002
     4  C    0.000000   0.000000   0.000000   0.000000  -0.000140   0.000004
     5  C    0.000000   0.000000   0.000000   0.000000   0.000094  -0.000005
     6  C    0.000000   0.000000   0.000000   0.000000  -0.000026   0.000000
     7  C    0.000000   0.000000   0.000000   0.000000   0.000002   0.000000
     8  N    0.000000   0.000000   0.000000  -0.000001   0.000000   0.000000
     9  C    0.000000   0.000000  -0.000001   0.000003   0.000003   0.000000
    10  C    0.000000   0.000000   0.000000   0.000000   0.000061  -0.000001
    11  C    0.000000   0.000000   0.000000   0.000000  -0.000005   0.000000
    12  C    0.000000  -0.000006   0.000000   0.000000   0.000000   0.000000
    13  C   -0.000001   0.000038   0.000010  -0.000011   0.000000   0.000000
    14  C   -0.000004   0.000051   0.000063   0.000022   0.000000   0.000000
    15  C    0.000002  -0.000076  -0.000103   0.000000   0.000000   0.000000
    16  C   -0.000002   0.000009   0.000010   0.000000   0.000000   0.000000
    17  C    0.000002   0.000000   0.000001   0.000000   0.000000   0.000000
    18  C   -0.000004   0.000001   0.000000   0.000000   0.000000   0.000000
    19  C   -0.000033   0.000014   0.000001   0.000000   0.000000   0.000000
    20  C    0.000028  -0.000019  -0.000005   0.000000   0.000000   0.000000
    21  C    0.000000  -0.000019   0.000097  -0.000033   0.000000   0.000000
    22  C    0.000000   0.000001  -0.000013   0.000045   0.000000   0.000000
    23  N    0.000000   0.000000  -0.000022  -0.000032   0.000000   0.000000
    24  C    0.000000   0.000002   0.000014   0.000017   0.000000   0.000000
    25  C    0.000000   0.000000   0.000000   0.000000  -0.000041   0.000039
    26  C    0.000000   0.000000   0.000000   0.000000   0.000028  -0.000045
    27  H    0.000000   0.000000   0.000000   0.000000   0.000000  -0.000003
    28  H    0.000000   0.000000   0.000000   0.000000   0.000000   0.000000
    29  H    0.000000   0.000000   0.000000   0.000000   0.000002   0.000000
    30  H    0.000000   0.000000   0.000000   0.000000   0.000001   0.000000
    31  H    0.000000   0.000000   0.000000   0.000000   0.000000   0.000000
    32  H    0.000000   0.000000   0.000000   0.000000  -0.000002   0.000000
    33  H    0.000000  -0.000001   0.000000   0.000000   0.000000   0.000000
    34  H    0.000000   0.000001   0.000002   0.000000   0.000000   0.000000
    35  H    0.000000   0.000000   0.000000   0.000000   0.000000   0.000000
    36  H   -0.000002   0.000000   0.000000   0.000000   0.000000   0.000000
    37  H    0.000018  -0.000004   0.000000   0.000000   0.000000   0.000000
    38  H   -0.000004   0.000009   0.000001   0.000000   0.000000   0.000000
    39  H    0.000000   0.000001  -0.000473   0.000000   0.000000   0.000000
    40  H    0.000000   0.000000   0.000000   0.000198   0.000000   0.000000
    41  H    0.000000   0.000000   0.000000   0.000000   0.000026  -0.000006
    42  H    0.000000   0.000000   0.000000   0.000000  -0.000006   0.000018
    43  Ag  -0.000001   0.000008   0.000073  -0.000038   0.000017  -0.000001
              43
     1  C   -0.000009
     2  C    0.000140
     3  C   -0.000046
     4  C   -0.003544
     5  C   -0.008350
     6  C    0.003364
     7  C    0.002137
     8  N   -0.025270
     9  C   -0.024027
    10  C   -0.018774
    11  C    0.001632
    12  C    0.002230
    13  C   -0.012653
    14  C   -0.005993
    15  C   -0.002115
    16  C    0.000058
    17  C    0.000064
    18  C   -0.000002
    19  C    0.000008
    20  C   -0.000024
    21  C    0.001550
    22  C    0.002224
    23  N   -0.016939
    24  C   -0.021843
    25  C   -0.000031
    26  C    0.000016
    27  H    0.000000
    28  H    0.000009
    29  H    0.000595
    30  H    0.000135
    31  H   -0.000081
    32  H   -0.000304
    33  H   -0.000212
    34  H    0.000434
    35  H    0.000003
    36  H    0.000000
    37  H   -0.000001
    38  H    0.000008
    39  H    0.000073
    40  H   -0.000038
    41  H    0.000017
    42  H   -0.000001
    43  Ag   1.099927
 Mulliken charges and spin densities:
               1          2
     1  C   -0.003615  -0.000044
     2  C   -0.007722  -0.000007
     3  C    0.027640   0.000346
     4  C   -0.128279  -0.000106
     5  C    0.006222  -0.008118
     6  C   -0.022534   0.012925
     7  C    0.075107  -0.008270
     8  N   -0.074219   0.014933
     9  C   -0.167208  -0.009786
    10  C    0.095723   0.013933
    11  C    0.008065  -0.002561
    12  C    0.010079   0.001865
    13  C    0.077163   0.006540
    14  C    0.005798  -0.003975
    15  C   -0.128915  -0.000215
    16  C    0.029184   0.000208
    17  C   -0.008430  -0.000022
    18  C   -0.003551  -0.000017
    19  C   -0.009753  -0.000002
    20  C    0.031041   0.000023
    21  C   -0.025903   0.007969
    22  C    0.075542  -0.004178
    23  N   -0.084042   0.008577
    24  C   -0.079854  -0.004252
    25  C    0.030828  -0.000024
    26  C   -0.009628   0.000025
    27  H    0.018904   0.000012
    28  H    0.019566   0.000017
    29  H    0.023611   0.000033
    30  H    0.017522  -0.000526
    31  H    0.032066   0.000343
    32  H    0.025493   0.000087
    33  H    0.025271  -0.000077
    34  H    0.021201   0.000100
    35  H    0.019647   0.000009
    36  H    0.018868   0.000006
    37  H    0.018598   0.000001
    38  H    0.011906   0.000010
    39  H    0.017461  -0.000345
    40  H    0.030820   0.000170
    41  H    0.011830   0.000030
    42  H    0.018606  -0.000004
    43  Ag  -0.050110   0.974369
 Sum of Mulliken charges =   0.00000   1.00000
 Mulliken charges and spin densities with hydrogens summed into heavy atoms:
               1          2
     1  C    0.015289  -0.000032
     2  C    0.011844   0.000011
     3  C    0.051251   0.000379
     4  C   -0.128279  -0.000106
     5  C    0.006222  -0.008118
     6  C   -0.005012   0.012398
     7  C    0.107174  -0.007927
     8  N   -0.074219   0.014933
     9  C   -0.167208  -0.009786
    10  C    0.095723   0.013933
    11  C    0.033559  -0.002475
    12  C    0.035350   0.001788
    13  C    0.077163   0.006540
    14  C    0.005798  -0.003975
    15  C   -0.128915  -0.000215
    16  C    0.050385   0.000308
    17  C    0.011217  -0.000013
    18  C    0.015318  -0.000011
    19  C    0.008845  -0.000001
    20  C    0.042946   0.000033
    21  C   -0.008442   0.007624
    22  C    0.106362  -0.004008
    23  N   -0.084042   0.008577
    24  C   -0.079854  -0.004252
    25  C    0.042658   0.000006
    26  C    0.008978   0.000021
    43  Ag  -0.050110   0.974369
 Electronic spatial extent (au):  <R**2>=          11591.1614
 Charge=              0.0000 electrons
 Dipole moment (field-independent basis, Debye):
    X=              0.1826    Y=              3.1036    Z=             -3.3580  Tot=              4.5762
 Quadrupole moment (field-independent basis, Debye-Ang):
   XX=           -143.5788   YY=           -168.9529   ZZ=           -174.6211
   XY=             -0.6713   XZ=              1.0903   YZ=              3.8198
 Traceless Quadrupole moment (field-independent basis, Debye-Ang):
   XX=             18.8055   YY=             -6.5686   ZZ=            -12.2368
   XY=             -0.6713   XZ=              1.0903   YZ=              3.8198
 Octapole moment (field-independent basis, Debye-Ang**2):
  XXX=             21.7162  YYY=            236.0289  ZZZ=           -343.1365  XYY=              6.4599
  XXY=             83.9886  XXZ=            -96.1408  XZZ=             10.7513  YZZ=             85.4927
  YYZ=            -97.6718  XYZ=             -0.2369
 Hexadecapole moment (field-independent basis, Debye-Ang**3):
 XXXX=         -10432.1029 YYYY=          -3691.7515 ZZZZ=          -2532.0064 XXXY=            101.9259
 XXXZ=            -21.8182 YYYX=             33.6234 YYYZ=            780.9723 ZZZX=             13.0324
 ZZZY=            797.2990 XXYY=          -1962.6836 XXZZ=          -2000.4135 YYZZ=          -1000.1611
 XXYZ=            158.6476 YYXZ=              8.8925 ZZXY=             13.0505
 N-N= 2.417843864014D+03 E-N=-7.543420547399D+03  KE= 1.078276008854D+03
                          Isotropic Fermi Contact Couplings
        Atom                 a.u.       MegaHertz       Gauss      10(-4) cm-1
     1  C(13)              0.00003       0.03088       0.01102       0.01030
     2  C(13)             -0.00007      -0.08224      -0.02934      -0.02743
     3  C(13)             -0.00020      -0.22757      -0.08120      -0.07591
     4  C(13)              0.00010       0.11208       0.03999       0.03739
     5  C(13)             -0.00067      -0.74936      -0.26739      -0.24996
     6  C(13)              0.00248       2.78392       0.99337       0.92861
     7  C(13)             -0.00227      -2.55588      -0.91200      -0.85255
     8  N(14)              0.02017       6.51825       2.32587       2.17425
     9  C(13)              0.00669       7.51995       2.68331       2.50839
    10  C(13)              0.00887       9.97003       3.55755       3.32564
    11  C(13)             -0.00043      -0.48420      -0.17277      -0.16151
    12  C(13)              0.00025       0.28350       0.10116       0.09457
    13  C(13)              0.00532       5.97781       2.13303       1.99398
    14  C(13)             -0.00022      -0.24219      -0.08642      -0.08079
    15  C(13)              0.00000      -0.00468      -0.00167      -0.00156
    16  C(13)             -0.00015      -0.16771      -0.05984      -0.05594
    17  C(13)             -0.00005      -0.05159      -0.01841      -0.01721
    18  C(13)              0.00001       0.01588       0.00567       0.00530
    19  C(13)             -0.00001      -0.00891      -0.00318      -0.00297
    20  C(13)              0.00004       0.04830       0.01723       0.01611
    21  C(13)              0.00142       1.59829       0.57031       0.53313
    22  C(13)             -0.00139      -1.55947      -0.55646      -0.52018
    23  N(14)              0.01290       4.16787       1.48720       1.39025
    24  C(13)              0.00635       7.13686       2.54661       2.38060
    25  C(13)             -0.00001      -0.00882      -0.00315      -0.00294
    26  C(13)             -0.00002      -0.02353      -0.00840      -0.00785
    27  H(1)               0.00000       0.01848       0.00660       0.00617
    28  H(1)               0.00001       0.02650       0.00945       0.00884
    29  H(1)               0.00003       0.11451       0.04086       0.03820
    30  H(1)              -0.00017      -0.76497      -0.27296      -0.25517
    31  H(1)               0.00009       0.38870       0.13870       0.12966
    32  H(1)               0.00007       0.29854       0.10653       0.09958
    33  H(1)               0.00001       0.02988       0.01066       0.00997
    34  H(1)               0.00001       0.05191       0.01852       0.01731
    35  H(1)               0.00000       0.01778       0.00635       0.00593
    36  H(1)               0.00000       0.00949       0.00338       0.00316
    37  H(1)               0.00000      -0.00201      -0.00072      -0.00067
    38  H(1)               0.00000       0.00017       0.00006       0.00006
    39  H(1)              -0.00011      -0.49201      -0.17556      -0.16412
    40  H(1)               0.00004       0.16632       0.05935       0.05548
    41  H(1)               0.00000       0.00472       0.00168       0.00157
    42  H(1)               0.00000      -0.00839      -0.00299      -0.00280
    43  Ag(107             0.00032      -0.05729      -0.02044      -0.01911
 --------------------------------------------------------
       Center         ----  Spin Dipole Couplings  ----
                      3XX-RR        3YY-RR        3ZZ-RR
 --------------------------------------------------------
     1   Atom        0.000043     -0.000090      0.000047
     2   Atom        0.000236     -0.000056     -0.000179
     3   Atom        0.000181     -0.000773      0.000592
     4   Atom        0.000441     -0.000776      0.000336
     5   Atom        0.001893     -0.001670     -0.000223
     6   Atom       -0.003346     -0.004179      0.007525
     7   Atom        0.005237      0.001342     -0.006579
     8   Atom       -0.022843     -0.020052      0.042895
     9   Atom       -0.002364      0.000090      0.002274
    10   Atom       -0.011481     -0.011920      0.023401
    11   Atom       -0.001046     -0.000491      0.001536
    12   Atom       -0.002175     -0.001447      0.003622
    13   Atom       -0.006333     -0.008060      0.014393
    14   Atom        0.001081     -0.001948      0.000866
    15   Atom        0.000607     -0.000755      0.000148
    16   Atom        0.000536     -0.000657      0.000121
    17   Atom        0.000341     -0.000134     -0.000207
    18   Atom        0.000152     -0.000129     -0.000023
    19   Atom        0.000099     -0.000202      0.000103
    20   Atom        0.000113     -0.000391      0.000278
    21   Atom       -0.001741     -0.002915      0.004656
    22   Atom        0.003261      0.000511     -0.003772
    23   Atom       -0.013537     -0.012430      0.025967
    24   Atom       -0.002700     -0.001378      0.004078
    25   Atom       -0.000036     -0.000359      0.000396
    26   Atom        0.000011     -0.000179      0.000168
    27   Atom        0.000045     -0.000023     -0.000023
    28   Atom        0.000205      0.000104     -0.000309
    29   Atom        0.001172     -0.000348     -0.000824
    30   Atom        0.001647     -0.001513     -0.000134
    31   Atom        0.000727     -0.000017     -0.000710
    32   Atom       -0.001260     -0.000215      0.001476
    33   Atom       -0.000993     -0.000295      0.001288
    34   Atom        0.001432     -0.000564     -0.000868
    35   Atom        0.000308     -0.000005     -0.000303
    36   Atom        0.000105     -0.000057     -0.000048
    37   Atom        0.000044     -0.000161      0.000117
    38   Atom        0.000035     -0.000456      0.000421
    39   Atom        0.001404     -0.001130     -0.000274
    40   Atom        0.000602      0.000089     -0.000691
    41   Atom       -0.000073     -0.000484      0.000557
    42   Atom       -0.000016     -0.000152      0.000168
    43   Atom        0.011863      0.003256     -0.015119
 --------------------------------------------------------
                        XY            XZ            YZ
 --------------------------------------------------------
     1   Atom       -0.000375      0.000422     -0.000295
     2   Atom       -0.000586      0.000529     -0.000418
     3   Atom       -0.000963      0.001267     -0.000661
     4   Atom       -0.000674      0.001322     -0.000668
     5   Atom        0.000147      0.004222     -0.001996
     6   Atom        0.000249      0.001034      0.006008
     7   Atom        0.001734      0.002888     -0.001919
     8   Atom        0.005139      0.013643      0.018564
     9   Atom        0.002460      0.003985      0.002890
    10   Atom        0.000025      0.005358      0.004308
    11   Atom       -0.000079      0.000350     -0.003193
    12   Atom        0.000543     -0.001149     -0.001552
    13   Atom       -0.000100     -0.005466      0.002460
    14   Atom       -0.000190     -0.003476     -0.000462
    15   Atom        0.000532     -0.001205     -0.000441
    16   Atom        0.000806     -0.001010     -0.000411
    17   Atom        0.000525     -0.000467     -0.000297
    18   Atom        0.000323     -0.000385     -0.000221
    19   Atom        0.000222     -0.000430     -0.000221
    20   Atom        0.000272     -0.000713     -0.000292
    21   Atom       -0.000477     -0.001042      0.004028
    22   Atom       -0.001769     -0.002359     -0.000536
    23   Atom       -0.004737     -0.011303      0.012384
    24   Atom       -0.002769     -0.005268      0.004195
    25   Atom       -0.000328      0.000726     -0.000379
    26   Atom       -0.000219      0.000433     -0.000296
    27   Atom       -0.000252      0.000251     -0.000215
    28   Atom       -0.000616      0.000326     -0.000299
    29   Atom       -0.001937      0.001497     -0.001022
    30   Atom        0.000385      0.001265      0.000565
    31   Atom        0.001418      0.001247      0.001174
    32   Atom       -0.000255      0.000656     -0.001730
    33   Atom        0.000641     -0.001046     -0.001493
    34   Atom        0.001492     -0.001139     -0.000603
    35   Atom        0.000542     -0.000285     -0.000213
    36   Atom        0.000233     -0.000239     -0.000167
    37   Atom        0.000139     -0.000310     -0.000155
    38   Atom        0.000119     -0.000669     -0.000150
    39   Atom       -0.000454     -0.000970      0.000431
    40   Atom       -0.001386     -0.000991      0.000910
    41   Atom       -0.000154      0.000686     -0.000228
    42   Atom       -0.000151      0.000315     -0.000200
    43   Atom       -0.000044     -0.001497     -0.010985
 --------------------------------------------------------


 ---------------------------------------------------------------------------------
              Anisotropic Spin Dipole Couplings in Principal Axis System
 ---------------------------------------------------------------------------------

       Atom             a.u.   MegaHertz   Gauss  10(-4) cm-1        Axes

              Baa    -0.0004    -0.056    -0.020    -0.019  0.7558  0.5695 -0.3233
     1 C(13)  Bbb    -0.0003    -0.043    -0.015    -0.014 -0.1790  0.6545  0.7346
              Bcc     0.0007     0.099     0.035     0.033  0.6299 -0.4973  0.5966
 
              Baa    -0.0005    -0.073    -0.026    -0.024 -0.3033  0.3822  0.8729
     2 C(13)  Bbb    -0.0005    -0.069    -0.025    -0.023  0.6556  0.7485 -0.0999
              Bcc     0.0011     0.142     0.051     0.047  0.6915 -0.5419  0.4776
 
              Baa    -0.0014    -0.185    -0.066    -0.062  0.5806  0.8077 -0.1022
     3 C(13)  Bbb    -0.0007    -0.098    -0.035    -0.033 -0.5149  0.4615  0.7224
              Bcc     0.0021     0.284     0.101     0.095  0.6307 -0.3668  0.6838
 
              Baa    -0.0011    -0.147    -0.053    -0.049  0.1719  0.9441  0.2812
     4 C(13)  Bbb    -0.0009    -0.125    -0.045    -0.042  0.7109  0.0787 -0.6989
              Bcc     0.0020     0.273     0.097     0.091  0.6820 -0.3200  0.6576
 
              Baa    -0.0045    -0.608    -0.217    -0.203 -0.4777  0.5191  0.7087
     5 C(13)  Bbb    -0.0008    -0.113    -0.040    -0.038  0.4430  0.8390 -0.3160
              Bcc     0.0054     0.721     0.257     0.240  0.7587 -0.1630  0.6308
 
              Baa    -0.0067    -0.902    -0.322    -0.301  0.0521  0.9188 -0.3912
     6 C(13)  Bbb    -0.0034    -0.459    -0.164    -0.153  0.9956 -0.0782 -0.0512
              Bcc     0.0101     1.361     0.486     0.454  0.0776  0.3868  0.9189
 
              Baa    -0.0078    -1.048    -0.374    -0.350 -0.2402  0.2426  0.9399
     7 C(13)  Bbb     0.0016     0.209     0.075     0.070 -0.2089  0.9327 -0.2941
              Bcc     0.0063     0.839     0.299     0.280  0.9480  0.2670  0.1734
 
              Baa    -0.0268    -1.033    -0.369    -0.345  0.7644 -0.6444  0.0220
     8 N(14)  Bbb    -0.0240    -0.927    -0.331    -0.309  0.6151  0.7185 -0.3246
              Bcc     0.0508     1.960     0.699     0.654  0.1934  0.2617  0.9456
 
              Baa    -0.0048    -0.644    -0.230    -0.215  0.8863 -0.1988 -0.4182
     9 C(13)  Bbb    -0.0019    -0.254    -0.091    -0.085 -0.0600  0.8462 -0.5295
              Bcc     0.0067     0.898     0.320     0.299  0.4592  0.4944  0.7381
 
              Baa    -0.0130    -1.740    -0.621    -0.580  0.6484  0.7390 -0.1831
    10 C(13)  Bbb    -0.0117    -1.575    -0.562    -0.525  0.7472 -0.6637 -0.0326
              Bcc     0.0247     3.315     1.183     1.106  0.1456  0.1157  0.9826
 
              Baa    -0.0028    -0.381    -0.136    -0.127 -0.0800  0.8021  0.5918
    11 C(13)  Bbb    -0.0011    -0.142    -0.051    -0.047  0.9946  0.1038 -0.0063
              Bcc     0.0039     0.523     0.186     0.174  0.0665 -0.5881  0.8061
 
              Baa    -0.0025    -0.334    -0.119    -0.111  0.9290 -0.3607  0.0830
    12 C(13)  Bbb    -0.0018    -0.243    -0.087    -0.081  0.3176  0.8920  0.3218
              Bcc     0.0043     0.577     0.206     0.193 -0.1901 -0.2725  0.9432
 
              Baa    -0.0086    -1.151    -0.411    -0.384 -0.4495  0.8706 -0.2002
    13 C(13)  Bbb    -0.0074    -0.995    -0.355    -0.332  0.8612  0.4818  0.1615
              Bcc     0.0160     2.145     0.766     0.716 -0.2371  0.0998  0.9663
 
              Baa    -0.0028    -0.371    -0.133    -0.124  0.5958  0.4946  0.6328
    14 C(13)  Bbb    -0.0017    -0.227    -0.081    -0.076 -0.3632  0.8687 -0.3369
              Bcc     0.0045     0.598     0.213     0.199  0.7163  0.0291 -0.6972
 
              Baa    -0.0009    -0.126    -0.045    -0.042 -0.1957  0.9651  0.1742
    15 C(13)  Bbb    -0.0008    -0.114    -0.041    -0.038  0.6396 -0.0091  0.7687
              Bcc     0.0018     0.240     0.086     0.080  0.7434  0.2618 -0.6154
 
              Baa    -0.0011    -0.144    -0.051    -0.048 -0.5119  0.8474 -0.1410
    16 C(13)  Bbb    -0.0006    -0.083    -0.030    -0.028  0.4322  0.3960  0.8102
              Bcc     0.0017     0.227     0.081     0.076  0.7424  0.3538 -0.5689
 
              Baa    -0.0005    -0.064    -0.023    -0.021  0.6432 -0.4487  0.6205
    17 C(13)  Bbb    -0.0005    -0.063    -0.022    -0.021 -0.1086  0.7487  0.6540
              Bcc     0.0009     0.127     0.045     0.042  0.7580  0.4880 -0.4328
 
              Baa    -0.0004    -0.047    -0.017    -0.016  0.6923 -0.5943  0.4092
    18 C(13)  Bbb    -0.0003    -0.040    -0.014    -0.013  0.1429  0.6687  0.7296
              Bcc     0.0007     0.088     0.031     0.029  0.7073  0.4467 -0.5479
 
              Baa    -0.0003    -0.044    -0.016    -0.015  0.7307 -0.1022  0.6750
    19 C(13)  Bbb    -0.0003    -0.043    -0.015    -0.014 -0.1659  0.9325  0.3208
              Bcc     0.0006     0.087     0.031     0.029 -0.6622 -0.3464  0.6644
 
              Baa    -0.0005    -0.070    -0.025    -0.024  0.7616 -0.3367  0.5537
    20 C(13)  Bbb    -0.0005    -0.067    -0.024    -0.022  0.0915  0.9017  0.4225
              Bcc     0.0010     0.138     0.049     0.046 -0.6416 -0.2711  0.7176
 
              Baa    -0.0047    -0.625    -0.223    -0.208  0.0086  0.9181 -0.3962
    21 C(13)  Bbb    -0.0019    -0.255    -0.091    -0.085  0.9906  0.0464  0.1290
              Bcc     0.0066     0.880     0.314     0.293 -0.1368  0.3935  0.9091
 
              Baa    -0.0047    -0.631    -0.225    -0.211  0.3193  0.2034  0.9256
    22 C(13)  Bbb     0.0001     0.017     0.006     0.006  0.2881  0.9096 -0.2993
              Bcc     0.0046     0.614     0.219     0.205  0.9028 -0.3622 -0.2318
 
              Baa    -0.0178    -0.685    -0.244    -0.228  0.7639  0.6452  0.0147
    23 N(14)  Bbb    -0.0151    -0.581    -0.207    -0.194 -0.5931  0.7109 -0.3780
              Bcc     0.0328     1.266     0.452     0.422 -0.2543  0.2800  0.9257
 
              Baa    -0.0057    -0.759    -0.271    -0.253  0.8954  0.1809  0.4068
    24 C(13)  Bbb    -0.0037    -0.490    -0.175    -0.163  0.0302  0.8870 -0.4608
              Bcc     0.0093     1.249     0.446     0.416 -0.4442  0.4249  0.7888
 
              Baa    -0.0006    -0.080    -0.029    -0.027  0.7959  0.4422 -0.4134
    25 C(13)  Bbb    -0.0005    -0.069    -0.025    -0.023 -0.2002  0.8367  0.5097
              Bcc     0.0011     0.149     0.053     0.050  0.5713 -0.3229  0.7545
 
              Baa    -0.0004    -0.049    -0.017    -0.016 -0.4972  0.5207  0.6940
    26 C(13)  Bbb    -0.0003    -0.043    -0.015    -0.014  0.6423  0.7587 -0.1091
              Bcc     0.0007     0.092     0.033     0.031  0.5833 -0.3915  0.7117
 
              Baa    -0.0002    -0.131    -0.047    -0.044  0.7734  0.4954 -0.3955
    27 H(1)   Bbb    -0.0002    -0.127    -0.045    -0.042 -0.0543  0.6734  0.7373
              Bcc     0.0005     0.258     0.092     0.086  0.6316 -0.5487  0.5477
 
              Baa    -0.0005    -0.249    -0.089    -0.083 -0.4338  0.0041  0.9010
    28 H(1)   Bbb    -0.0005    -0.247    -0.088    -0.082  0.5761  0.7701  0.2739
              Bcc     0.0009     0.497     0.177     0.166  0.6927 -0.6379  0.3364
 
              Baa    -0.0017    -0.890    -0.318    -0.297  0.5556  0.8312  0.0212
    29 H(1)   Bbb    -0.0016    -0.866    -0.309    -0.289 -0.3461  0.2079  0.9149
              Bcc     0.0033     1.756     0.627     0.586  0.7560 -0.5156  0.4032
 
              Baa    -0.0017    -0.916    -0.327    -0.306  0.0267  0.9345 -0.3551
    30 H(1)   Bbb    -0.0007    -0.363    -0.129    -0.121 -0.4927  0.3213  0.8087
              Bcc     0.0024     1.279     0.456     0.427  0.8698  0.1534  0.4690
 
              Baa    -0.0016    -0.860    -0.307    -0.287 -0.1621 -0.4872  0.8581
    31 H(1)   Bbb    -0.0011    -0.569    -0.203    -0.190  0.7006 -0.6692 -0.2475
              Bcc     0.0027     1.430     0.510     0.477  0.6948  0.5611  0.4499
 
              Baa    -0.0015    -0.787    -0.281    -0.263  0.7992 -0.4238 -0.4262
    32 H(1)   Bbb    -0.0012    -0.641    -0.229    -0.214  0.5756  0.7439  0.3396
              Bcc     0.0027     1.428     0.510     0.476  0.1731 -0.5168  0.8385
 
              Baa    -0.0014    -0.753    -0.269    -0.251  0.9457 -0.2018  0.2549
    33 H(1)   Bbb    -0.0012    -0.636    -0.227    -0.212  0.0390  0.8488  0.5272
              Bcc     0.0026     1.389     0.496     0.463 -0.3228 -0.4887  0.8106
 
              Baa    -0.0014    -0.727    -0.259    -0.242 -0.5145  0.8429 -0.1577
    34 H(1)   Bbb    -0.0013    -0.712    -0.254    -0.237  0.2169  0.3058  0.9271
              Bcc     0.0027     1.438     0.513     0.480  0.8296  0.4428 -0.3401
 
              Baa    -0.0004    -0.222    -0.079    -0.074  0.4786 -0.1866  0.8580
    35 H(1)   Bbb    -0.0004    -0.220    -0.078    -0.073 -0.4356  0.7980  0.4166
              Bcc     0.0008     0.442     0.158     0.147  0.7623  0.5731 -0.3006
 
              Baa    -0.0002    -0.119    -0.043    -0.040  0.7107 -0.5298  0.4628
    36 H(1)   Bbb    -0.0002    -0.117    -0.042    -0.039  0.0401  0.6873  0.7253
              Bcc     0.0004     0.236     0.084     0.079  0.7024  0.4969 -0.5097
 
              Baa    -0.0002    -0.124    -0.044    -0.041  0.7580 -0.4472  0.4748
    37 H(1)   Bbb    -0.0002    -0.123    -0.044    -0.041  0.1663  0.8364  0.5222
              Bcc     0.0005     0.247     0.088     0.082 -0.6307 -0.3169  0.7084
 
              Baa    -0.0005    -0.258    -0.092    -0.086 -0.3250  0.9419 -0.0844
    38 H(1)   Bbb    -0.0005    -0.249    -0.089    -0.083  0.7343  0.3076  0.6051
              Bcc     0.0010     0.507     0.181     0.169 -0.5959 -0.1347  0.7917
 
              Baa    -0.0013    -0.699    -0.249    -0.233  0.0261  0.9315 -0.3628
    39 H(1)   Bbb    -0.0007    -0.347    -0.124    -0.116  0.4610  0.3108  0.8312
              Bcc     0.0020     1.047     0.373     0.349  0.8870 -0.1890 -0.4213
 
              Baa    -0.0013    -0.694    -0.248    -0.231  0.1434 -0.4381  0.8874
    40 H(1)   Bbb    -0.0010    -0.560    -0.200    -0.187  0.7015  0.6775  0.2211
              Bcc     0.0023     1.253     0.447     0.418  0.6981 -0.5908 -0.4045
 
              Baa    -0.0005    -0.286    -0.102    -0.095  0.3329  0.9429 -0.0127
    41 H(1)   Bbb    -0.0005    -0.273    -0.097    -0.091  0.7785 -0.2824 -0.5605
              Bcc     0.0010     0.558     0.199     0.186  0.5321 -0.1767  0.8280
 
              Baa    -0.0003    -0.134    -0.048    -0.045  0.8284  0.2426 -0.5049
    42 H(1)   Bbb    -0.0002    -0.133    -0.047    -0.044  0.0000  0.9014  0.4331
              Bcc     0.0005     0.267     0.095     0.089  0.5601 -0.3587  0.7467
 
              Baa    -0.0203     0.441     0.157     0.147  0.0427  0.4222  0.9055
    43 Ag(107 Bbb     0.0083    -0.180    -0.064    -0.060 -0.1612  0.8974 -0.4108
              Bcc     0.0120    -0.261    -0.093    -0.087  0.9860  0.1284 -0.1064
 

 ---------------------------------------------------------------------------------

 No NMR shielding tensors so no spin-rotation constants.
 Leave Link  601 at Fri Sep 11 23:31:51 2026, MaxMem=  6442450944 cpu:               2.0 elap:               2.5
 (Enter C:\G16W\l9999.exe)
 Unable to Open any file for archive entry.
 1|1|UNPC-DESKTOP-2JKEGCA|SP|UPBE1PBE|def2SVP|C24H16Ag1N2(2)|JHKIM|11-S
 ep-2026|0||#P PBE1PBE/Def2SVP EmpiricalDispersion=GD3BJ SP SCF=(XQC,Ma
 xCycle=128) NoSymm Guess=Read||Bphen t=0.750 dz=+0.40 class=toface||0,
 2|C,0,-5.075104,2.596057,-0.848582|C,0,-4.715716,2.434163,0.478857|C,0
 ,-3.985648,1.326254,0.870754|C,0,-3.608814,0.370482,-0.0652|C,0,-2.849
 893,-0.827816,0.356392|C,0,-3.512903,-1.97087,0.7492|C,0,-2.764008,-3.
 084836,1.14144|N,0,-1.457428,-3.11297,1.160054|C,0,-0.787031,-2.018643
 ,0.784213|C,0,-1.437298,-0.832182,0.367434|C,0,-0.667287,0.300298,-0.0
 21018|C,0,0.685824,0.263426,0.000908|C,0,1.380055,-0.908949,0.413101|C
 ,0,2.790408,-0.981482,0.44787|C,0,3.626694,0.173326,0.052066|C,0,4.025
 328,1.1075,1.000707|C,0,4.826918,2.173661,0.633555|C,0,5.236571,2.3150
 29,-0.681611|C,0,4.841079,1.387397,-1.630584|C,0,4.039486,0.320062,-1.
 266868|C,0,3.377135,-2.158548,0.861055|C,0,2.556396,-3.229745,1.227851
 |N,0,1.250307,-3.186722,1.204024|C,0,0.653004,-2.057874,0.807573|C,0,-
 3.970941,0.537891,-1.396496|C,0,-4.70102,1.647,-1.784966|H,0,-5.646599
 ,3.460423,-1.152844|H,0,-5.005817,3.172287,1.212213|H,0,-3.703341,1.19
 5908,1.905798|H,0,-4.592243,-2.003673,0.753324|H,0,-3.258742,-3.995483
 ,1.454638|H,0,-1.191655,1.191943,-0.334479|H,0,1.267832,1.124926,-0.29
 4617|H,0,3.703614,0.993274,2.026112|H,0,5.133493,2.89518,1.376669|H,0,
 5.863825,3.146713,-0.966506|H,0,5.158745,1.49424,-2.657458|H,0,3.72879
 3,-0.40634,-2.004305|H,0,4.452389,-2.250041,0.900153|H,0,2.990418,-4.1
 65689,1.556131|H,0,-3.677198,-0.205338,-2.124046|H,0,-4.979626,1.76976
 2,-2.821356|Ag,0,-0.27060295,-1.34543851,3.19518937||Version=EM64W-G16
 RevC.01|HF=-1178.7607265|S2=0.751826|S2-1=0.|S2A=0.750003|RMSD=7.461e-
 009|Dipole=0.0718276,1.2210442,-1.3211547|Quadrupole=13.9813923,-4.883
 6,-9.0977923,-0.4991005,0.8106281,2.8399089|PG=C01 [X(C24H16Ag1N2)]||@
 The archive entry for this job was punched.


 THE ONLY TROUBLE WITH A SURE THING IS THE UNCERTAINTY.
     -- FROM A TEABAG (BELONGING TO W.H.?)
 Job cpu time:       0 days  0 hours 10 minutes 16.0 seconds.
 Elapsed time:       0 days  0 hours 10 minutes 14.2 seconds.
 File lengths (MBytes):  RWF=    212 Int=      0 D2E=      0 Chk=     17 Scr=      1
 Normal termination of Gaussian 16 at Fri Sep 11 23:31:52 2026.
