 Entering Gaussian System, Link 0=C:\G16W\g16.exe
 Input=Bphen_t0_z1.gjf
 Output=Bphen_t0_z1.out
 Initial command:
 C:\G16W\l1.exe ".\Gau-51968.inp" "Bphen_t0_z1.out" /scrdir=".\"
 Entering Link 1 = C:\G16W\l1.exe PID=     21352.
  
 Copyright (c) 1988-2019, Gaussian, Inc.  All Rights Reserved.
  
 This is part of the Gaussian(R) 16 program.  It is based on
 the Gaussian(R) 09 system (copyright 2009, Gaussian, Inc.),
 the Gaussian(R) 03 system (copyright 2003, Gaussian, Inc.),
 the Gaussian(R) 98 system (copyright 1998, Gaussian, Inc.),
 the Gaussian(R) 94 system (copyright 1995, Gaussian, Inc.),
 the Gaussian 92(TM) system (copyright 1992, Gaussian, Inc.),
 the Gaussian 90(TM) system (copyright 1990, Gaussian, Inc.),
 the Gaussian 88(TM) system (copyright 1988, Gaussian, Inc.),
 the Gaussian 86(TM) system (copyright 1986, Carnegie Mellon
 University), and the Gaussian 82(TM) system (copyright 1983,
 Carnegie Mellon University). Gaussian is a federally registered
 trademark of Gaussian, Inc.
  
 This software contains proprietary and confidential information,
 including trade secrets, belonging to Gaussian, Inc.
  
 This software is provided under written license and may be
 used, copied, transmitted, or stored only in accord with that
 written license.
  
 The following legend is applicable only to US Government
 contracts under FAR:
  
                    RESTRICTED RIGHTS LEGEND
  
 Use, reproduction and disclosure by the US Government is
 subject to restrictions as set forth in subparagraphs (a)
 and (c) of the Commercial Computer Software - Restricted
 Rights clause in FAR 52.227-19.
  
 Gaussian, Inc.
 340 Quinnipiac St., Bldg. 40, Wallingford CT 06492
  
  
 ---------------------------------------------------------------
 Warning -- This program may not be used in any manner that
 competes with the business of Gaussian, Inc. or will provide
 assistance to any competitor of Gaussian, Inc.  The licensee
 of this program is prohibited from giving any competitor of
 Gaussian, Inc. access to this program.  By using this program,
 the user acknowledges that Gaussian, Inc. is engaged in the
 business of creating and licensing software in the field of
 computational chemistry and represents and warrants to the
 licensee that it is not a competitor of Gaussian, Inc. and that
 it will not use this program in any manner prohibited above.
 ---------------------------------------------------------------
  

 Cite this work as:
 Gaussian 16, Revision C.01,
 M. J. Frisch, G. W. Trucks, H. B. Schlegel, G. E. Scuseria, 
 M. A. Robb, J. R. Cheeseman, G. Scalmani, V. Barone, 
 G. A. Petersson, H. Nakatsuji, X. Li, M. Caricato, A. V. Marenich, 
 J. Bloino, B. G. Janesko, R. Gomperts, B. Mennucci, H. P. Hratchian, 
 J. V. Ortiz, A. F. Izmaylov, J. L. Sonnenberg, D. Williams-Young, 
 F. Ding, F. Lipparini, F. Egidi, J. Goings, B. Peng, A. Petrone, 
 T. Henderson, D. Ranasinghe, V. G. Zakrzewski, J. Gao, N. Rega, 
 G. Zheng, W. Liang, M. Hada, M. Ehara, K. Toyota, R. Fukuda, 
 J. Hasegawa, M. Ishida, T. Nakajima, Y. Honda, O. Kitao, H. Nakai, 
 T. Vreven, K. Throssell, J. A. Montgomery, Jr., J. E. Peralta, 
 F. Ogliaro, M. J. Bearpark, J. J. Heyd, E. N. Brothers, K. N. Kudin, 
 V. N. Staroverov, T. A. Keith, R. Kobayashi, J. Normand, 
 K. Raghavachari, A. P. Rendell, J. C. Burant, S. S. Iyengar, 
 J. Tomasi, M. Cossi, J. M. Millam, M. Klene, C. Adamo, R. Cammi, 
 J. W. Ochterski, R. L. Martin, K. Morokuma, O. Farkas, 
 J. B. Foresman, and D. J. Fox, Gaussian, Inc., Wallingford CT, 2019.
 
 ******************************************
 Gaussian 16:  EM64W-G16RevC.01 30-May-2019
                11-Sep-2026 
 ******************************************
 %Chk=Bphen.chk
 %NProcShared=8
 Will use up to    8 processors via shared memory.
 %Mem=48GB
 ----------------------------------------------------------------------
 #P PBE1PBE/Def2SVP EmpiricalDispersion=GD3BJ SP SCF=(XQC,MaxCycle=128)
  NoSymm Guess=Read
 ----------------------------------------------------------------------
 1/38=1,172=1/1;
 2/12=2,15=1,17=6,18=5,40=1/2;
 3/5=43,7=101,11=2,25=1,30=1,74=-13,116=-2,124=41/1,2,3;
 4/5=1/1;
 5/5=2,7=128,8=3,13=1,38=6/2,8;
 6/7=2,8=2,9=2,10=2,28=1/1;
 99/5=1,9=1/99;
 Leave Link    1 at Fri Sep 11 22:07:59 2026, MaxMem=  6442450944 cpu:               1.0 elap:               0.3
 (Enter C:\G16W\l101.exe)
 -----------------------------------
 Bphen t=0.000 dz=+0.40 class=toface
 -----------------------------------
 Symbolic Z-matrix:
 Charge =  0 Multiplicity = 2
 C                    -5.0751    2.59606  -0.84858 
 C                    -4.71572   2.43416   0.47886 
 C                    -3.98565   1.32625   0.87075 
 C                    -3.60881   0.37048  -0.0652 
 C                    -2.84989  -0.82782   0.35639 
 C                    -3.5129   -1.97087   0.7492 
 C                    -2.76401  -3.08484   1.14144 
 N                    -1.45743  -3.11297   1.16005 
 C                    -0.78703  -2.01864   0.78421 
 C                    -1.4373   -0.83218   0.36743 
 C                    -0.66729   0.3003   -0.02102 
 C                     0.68582   0.26343   0.00091 
 C                     1.38006  -0.90895   0.4131 
 C                     2.79041  -0.98148   0.44787 
 C                     3.62669   0.17333   0.05207 
 C                     4.02533   1.1075    1.00071 
 C                     4.82692   2.17366   0.63356 
 C                     5.23657   2.31503  -0.68161 
 C                     4.84108   1.3874   -1.63058 
 C                     4.03949   0.32006  -1.26687 
 C                     3.37714  -2.15855   0.86106 
 C                     2.5564   -3.22975   1.22785 
 N                     1.25031  -3.18672   1.20402 
 C                     0.653    -2.05787   0.80757 
 C                    -3.97094   0.53789  -1.3965 
 C                    -4.70102   1.647    -1.78497 
 H                    -5.6466    3.46042  -1.15284 
 H                    -5.00582   3.17229   1.21221 
 H                    -3.70334   1.19591   1.9058 
 H                    -4.59224  -2.00367   0.75332 
 H                    -3.25874  -3.99548   1.45464 
 H                    -1.19166   1.19194  -0.33448 
 H                     1.26783   1.12493  -0.29462 
 H                     3.70361   0.99327   2.02611 
 H                     5.13349   2.89518   1.37667 
 H                     5.86383   3.14671  -0.96651 
 H                     5.15874   1.49424  -2.65746 
 H                     3.72879  -0.40634  -2.00431 
 H                     4.45239  -2.25004   0.90015 
 H                     2.99042  -4.16569   1.55613 
 H                    -3.6772   -0.20534  -2.12405 
 H                    -4.97963   1.76976  -2.82136 
 Ag                   -0.40474  -5.24498   1.90825 
 
 ITRead=  0  0  0  0  0  0  0  0  0  0  0  0  0  0  0  0  0  0  0  0
 ITRead=  0  0  0  0  0  0  0  0  0  0  0  0  0  0  0  0  0  0  0  0
 ITRead=  0  0  0
 MicOpt= -1 -1 -1 -1 -1 -1 -1 -1 -1 -1 -1 -1 -1 -1 -1 -1 -1 -1 -1 -1
 MicOpt= -1 -1 -1 -1 -1 -1 -1 -1 -1 -1 -1 -1 -1 -1 -1 -1 -1 -1 -1 -1
 MicOpt= -1 -1 -1
 NAtoms=     43 NQM=       43 NQMF=       0 NMMI=      0 NMMIF=      0
                NMic=       0 NMicF=      0.
                    Isotopes and Nuclear Properties:
 (Nuclear quadrupole moments (NQMom) in fm**2, nuclear magnetic moments (NMagM)
  in nuclear magnetons)

  Atom         1           2           3           4           5           6           7           8           9          10
 IAtWgt=          12          12          12          12          12          12          12          14          12          12
 AtmWgt=  12.0000000  12.0000000  12.0000000  12.0000000  12.0000000  12.0000000  12.0000000  14.0030740  12.0000000  12.0000000
 NucSpn=           0           0           0           0           0           0           0           2           0           0
 AtZEff=   0.0000000   0.0000000   0.0000000   0.0000000   0.0000000   0.0000000   0.0000000   0.0000000   0.0000000   0.0000000
 NQMom=    0.0000000   0.0000000   0.0000000   0.0000000   0.0000000   0.0000000   0.0000000   2.0440000   0.0000000   0.0000000
 NMagM=    0.0000000   0.0000000   0.0000000   0.0000000   0.0000000   0.0000000   0.0000000   0.4037610   0.0000000   0.0000000
 AtZNuc=   6.0000000   6.0000000   6.0000000   6.0000000   6.0000000   6.0000000   6.0000000   7.0000000   6.0000000   6.0000000

  Atom        11          12          13          14          15          16          17          18          19          20
 IAtWgt=          12          12          12          12          12          12          12          12          12          12
 AtmWgt=  12.0000000  12.0000000  12.0000000  12.0000000  12.0000000  12.0000000  12.0000000  12.0000000  12.0000000  12.0000000
 NucSpn=           0           0           0           0           0           0           0           0           0           0
 AtZEff=   0.0000000   0.0000000   0.0000000   0.0000000   0.0000000   0.0000000   0.0000000   0.0000000   0.0000000   0.0000000
 NQMom=    0.0000000   0.0000000   0.0000000   0.0000000   0.0000000   0.0000000   0.0000000   0.0000000   0.0000000   0.0000000
 NMagM=    0.0000000   0.0000000   0.0000000   0.0000000   0.0000000   0.0000000   0.0000000   0.0000000   0.0000000   0.0000000
 AtZNuc=   6.0000000   6.0000000   6.0000000   6.0000000   6.0000000   6.0000000   6.0000000   6.0000000   6.0000000   6.0000000

  Atom        21          22          23          24          25          26          27          28          29          30
 IAtWgt=          12          12          14          12          12          12           1           1           1           1
 AtmWgt=  12.0000000  12.0000000  14.0030740  12.0000000  12.0000000  12.0000000   1.0078250   1.0078250   1.0078250   1.0078250
 NucSpn=           0           0           2           0           0           0           1           1           1           1
 AtZEff=   0.0000000   0.0000000   0.0000000   0.0000000   0.0000000   0.0000000   0.0000000   0.0000000   0.0000000   0.0000000
 NQMom=    0.0000000   0.0000000   2.0440000   0.0000000   0.0000000   0.0000000   0.0000000   0.0000000   0.0000000   0.0000000
 NMagM=    0.0000000   0.0000000   0.4037610   0.0000000   0.0000000   0.0000000   2.7928460   2.7928460   2.7928460   2.7928460
 AtZNuc=   6.0000000   6.0000000   7.0000000   6.0000000   6.0000000   6.0000000   1.0000000   1.0000000   1.0000000   1.0000000

  Atom        31          32          33          34          35          36          37          38          39          40
 IAtWgt=           1           1           1           1           1           1           1           1           1           1
 AtmWgt=   1.0078250   1.0078250   1.0078250   1.0078250   1.0078250   1.0078250   1.0078250   1.0078250   1.0078250   1.0078250
 NucSpn=           1           1           1           1           1           1           1           1           1           1
 AtZEff=   0.0000000   0.0000000   0.0000000   0.0000000   0.0000000   0.0000000   0.0000000   0.0000000   0.0000000   0.0000000
 NQMom=    0.0000000   0.0000000   0.0000000   0.0000000   0.0000000   0.0000000   0.0000000   0.0000000   0.0000000   0.0000000
 NMagM=    2.7928460   2.7928460   2.7928460   2.7928460   2.7928460   2.7928460   2.7928460   2.7928460   2.7928460   2.7928460
 AtZNuc=   1.0000000   1.0000000   1.0000000   1.0000000   1.0000000   1.0000000   1.0000000   1.0000000   1.0000000   1.0000000

  Atom        41          42          43
 IAtWgt=           1           1         107
 AtmWgt=   1.0078250   1.0078250 106.9050900
 NucSpn=           1           1           1
 AtZEff=   0.0000000   0.0000000   0.0000000
 NQMom=    0.0000000   0.0000000   0.0000000
 NMagM=    2.7928460   2.7928460  -0.1135700
 AtZNuc=   1.0000000   1.0000000  47.0000000
 Leave Link  101 at Fri Sep 11 22:07:59 2026, MaxMem=  6442450944 cpu:               0.0 elap:               0.4
 (Enter C:\G16W\l202.exe)
                          Input orientation:                          
 ---------------------------------------------------------------------
 Center     Atomic      Atomic             Coordinates (Angstroms)
 Number     Number       Type             X           Y           Z
 ---------------------------------------------------------------------
      1          6           0       -5.075104    2.596057   -0.848582
      2          6           0       -4.715716    2.434163    0.478857
      3          6           0       -3.985648    1.326254    0.870754
      4          6           0       -3.608814    0.370482   -0.065200
      5          6           0       -2.849893   -0.827816    0.356392
      6          6           0       -3.512903   -1.970870    0.749200
      7          6           0       -2.764008   -3.084836    1.141440
      8          7           0       -1.457428   -3.112970    1.160054
      9          6           0       -0.787031   -2.018643    0.784213
     10          6           0       -1.437298   -0.832182    0.367434
     11          6           0       -0.667287    0.300298   -0.021018
     12          6           0        0.685824    0.263426    0.000908
     13          6           0        1.380055   -0.908949    0.413101
     14          6           0        2.790408   -0.981482    0.447870
     15          6           0        3.626694    0.173326    0.052066
     16          6           0        4.025328    1.107500    1.000707
     17          6           0        4.826918    2.173661    0.633555
     18          6           0        5.236571    2.315029   -0.681611
     19          6           0        4.841079    1.387397   -1.630584
     20          6           0        4.039486    0.320062   -1.266868
     21          6           0        3.377135   -2.158548    0.861055
     22          6           0        2.556396   -3.229745    1.227851
     23          7           0        1.250307   -3.186722    1.204024
     24          6           0        0.653004   -2.057874    0.807573
     25          6           0       -3.970941    0.537891   -1.396496
     26          6           0       -4.701020    1.647000   -1.784966
     27          1           0       -5.646599    3.460423   -1.152844
     28          1           0       -5.005817    3.172287    1.212213
     29          1           0       -3.703341    1.195908    1.905798
     30          1           0       -4.592243   -2.003673    0.753324
     31          1           0       -3.258742   -3.995483    1.454638
     32          1           0       -1.191655    1.191943   -0.334479
     33          1           0        1.267832    1.124926   -0.294617
     34          1           0        3.703614    0.993274    2.026112
     35          1           0        5.133493    2.895180    1.376669
     36          1           0        5.863825    3.146713   -0.966506
     37          1           0        5.158745    1.494240   -2.657458
     38          1           0        3.728793   -0.406340   -2.004305
     39          1           0        4.452389   -2.250041    0.900153
     40          1           0        2.990418   -4.165689    1.556131
     41          1           0       -3.677198   -0.205338   -2.124046
     42          1           0       -4.979626    1.769762   -2.821356
     43         47           0       -0.404737   -5.244980    1.908247
 ---------------------------------------------------------------------
                    Distance matrix (angstroms):
                    1          2          3          4          5
     1  C    0.000000
     2  C    1.384725   0.000000
     3  C    2.399048   1.383490   0.000000
     4  C    2.777927   2.404165   1.389789   0.000000
     5  C    4.257515   3.759894   2.488880   1.479736   0.000000
     6  C    5.084309   4.574293   3.333060   2.480801   1.378569
     7  C    6.447782   5.891310   4.585127   3.756182   2.391195
     8  N    7.050900   6.469247   5.116864   4.273657   2.794058
     9  C    6.507614   5.946031   4.628928   3.793663   2.420021
    10  C    5.144429   4.629195   3.377316   2.519733   1.412645
    11  C    5.038276   4.603589   3.585995   2.942696   2.485729
    12  C    6.273045   5.840990   4.869177   4.296481   3.717321
    13  C    7.452918   6.952636   5.830639   5.172478   4.231106
    14  C    8.737611   8.246787   7.170733   6.560571   5.643135
    15  C    9.077559   8.653863   7.742561   7.239143   6.560570
    16  C    9.404974   8.856535   8.015016   7.743351   7.171419
    17  C   10.021237   9.547442   8.856392   8.654553   8.247370
    18  C   10.316855  10.020424   9.404086   9.077558   8.737610
    19  C   10.020133   9.842652   9.174505   8.653626   8.246593
    20  C    9.403769   9.174450   8.365681   7.742289   7.170505
    21  C    9.847308   9.313072   8.145828   7.487151   6.387598
    22  C    9.823000   9.247943   7.980162   7.255579   5.979688
    23  N    8.812749   8.228830   6.920495   6.154323   4.805680
    24  C    7.563937   7.007825   5.742248   4.982142   3.739906
    25  C    2.399048   2.769023   2.400449   1.389788   2.488879
    26  C    1.384725   2.396818   2.769022   2.404165   3.759894
    27  H    1.079959   2.140608   3.377630   3.857884   5.337448
    28  H    2.140962   1.080184   2.136627   3.381348   4.623988
    29  H    3.380645   2.143441   1.080742   2.138948   2.687841
    30  H    4.894566   4.448029   3.386763   2.696985   2.139154
    31  H    7.214734   6.664478   5.402795   4.636174   3.377487
    32  H    4.161372   3.824086   3.045821   2.567093   2.703051
    33  H    6.534825   6.173752   5.384949   4.939989   4.603550
    34  H    9.375429   8.680742   7.782704   7.631059   7.003770
    35  H   10.452592   9.900784   9.266942   9.213089   8.867701
    36  H   10.953415  10.701565  10.183404   9.912149   9.668289
    37  H   10.450727  10.403120   9.802878   9.211554   8.866426
    38  H    9.373296   9.249015   8.413112   7.629158   7.002117
    39  H   10.831245  10.304048   9.164672   8.531239   7.459338
    40  H   10.796134  10.203091   8.904868   8.170399   6.833008
    41  H    3.380645   3.849752   3.377831   2.138946   2.687840
    42  H    2.140962   3.376756   3.849204   3.381347   4.623987
    43  Ag   9.533850   8.921712   7.555160   6.759735   5.281892
                    6          7          8          9         10
     6  C    0.000000
     7  C    1.398433   0.000000
     8  N    2.387084   1.307015   0.000000
     9  C    2.726515   2.274383   1.337251   0.000000
    10  C    2.398018   2.726480   2.414673   1.415712   0.000000
    11  C    3.721420   4.148094   3.697249   2.457687   1.423490
    12  C    4.814699   4.940953   4.163796   2.826784   2.417094
    13  C    5.018135   4.736900   3.669735   2.462805   2.818769
    14  C    6.387599   5.979688   4.805680   3.739906   4.231106
    15  C    7.487150   7.255579   6.154322   4.982142   5.172477
    16  C    8.146444   7.980637   6.920865   5.742686   5.831268
    17  C    9.313599   9.248346   8.229136   7.008176   6.953151
    18  C    9.847307   9.823000   8.812748   7.563936   7.452916
    19  C    9.312913   9.247829   8.228740   7.007708   6.952455
    20  C    8.145642   7.980026   6.920385   5.742102   5.830418
    21  C    6.893501   6.216934   4.936934   4.167224   5.018134
    22  C    6.216934   5.323078   4.016095   3.583586   4.736900
    23  N    4.936935   4.016095   2.709096   2.385665   3.669736
    24  C    4.167224   3.583586   2.385664   1.440759   2.462804
    25  C    3.332820   4.584971   5.116882   4.629108   3.377558
    26  C    4.574123   5.891192   6.469262   5.946169   4.629368
    27  H    6.137538   7.510891   8.130692   7.575471   6.201284
    28  H    5.375429   6.646977   7.217911   6.702768   5.429894
    29  H    3.376754   4.448748   4.915963   4.482874   3.408029
    30  H    1.079846   2.159164   3.350080   3.805367   3.387474
    31  H    2.159004   1.082651   2.027398   3.235231   3.808693
    32  H    4.070128   4.789725   4.564706   3.423895   2.156410
    33  H    5.790417   6.003340   5.244318   3.907475   3.403867
    34  H    7.905363   7.696997   6.651891   5.547959   5.701971
    35  H    9.941445   9.908907   8.921044   7.716817   7.621488
    36  H   10.819257  10.849661   9.864413   8.601151   8.421247
    37  H    9.940311   9.908056   8.920399   7.716068   7.620367
    38  H    7.903904   7.695877   6.651008   5.546893   5.700437
    39  H    7.971612   7.268527   5.978138   5.245809   6.081326
    40  H    6.910973   5.869721   4.587857   4.413024   5.668328
    41  H    3.376335   4.448463   4.915996   4.483203   3.408454
    42  H    5.375172   6.646791   7.217934   6.702984   5.430155
    43  Ag   4.660889   3.289434   2.492673   3.437856   4.786760
                   11         12         13         14         15
    11  C    0.000000
    12  C    1.353791   0.000000
    13  C    2.417095   1.423490   0.000000
    14  C    3.717320   2.485728   1.412645   0.000000
    15  C    4.296479   2.942695   2.519733   1.479735   0.000000
    16  C    4.869921   3.586690   3.377694   2.488876   1.389788
    17  C    5.841596   4.604118   4.629465   3.759891   2.404165
    18  C    6.273043   5.038274   5.144428   4.257514   2.777927
    19  C    5.840769   4.603392   4.629097   3.759895   2.404165
    20  C    4.868906   3.585737   3.377179   2.488883   1.389790
    21  C    4.814699   3.721420   2.398018   1.378570   2.480802
    22  C    4.940952   4.148093   2.726479   2.391196   3.756182
    23  N    4.163797   3.697249   2.414673   2.794059   4.273657
    24  C    2.826784   2.457686   1.415712   2.420021   3.793663
    25  C    3.586436   4.869654   5.831050   7.171194   7.743081
    26  C    4.603924   5.841379   6.952974   8.247179   8.654318
    27  H    6.005079   7.186899   8.421251   9.668293   9.912153
    28  H    5.347151   6.505652   7.620658   8.866744   9.211946
    29  H    3.705720   4.874720   5.700832   7.002525   7.629640
    30  H    4.616619   5.793432   6.081325   7.459337   8.531237
    31  H    5.229430   5.984249   5.668327   6.833008   8.170398
    32  H    1.080856   2.121216   3.403868   4.603550   4.939988
    33  H    2.121215   1.080856   2.156411   2.703050   2.567092
    34  H    4.876037   3.706911   3.408692   2.687834   2.138946
    35  H    6.506611   5.347954   5.430300   4.623983   3.381347
    36  H    7.186894   6.005075   6.201282   5.337447   3.857885
    37  H    6.505303   5.346853   5.429747   4.623990   3.381348
    38  H    4.874247   3.705284   3.407791   2.687846   2.138948
    39  H    5.793433   4.616619   3.387475   2.139155   2.696986
    40  H    5.984250   5.229429   3.808693   3.377487   4.636174
    41  H    3.706475   4.875565   5.701578   7.003362   7.630576
    42  H    5.347662   6.506270   7.621204   8.867390   9.212704
    43  Ag   5.877168   5.930413   4.921596   5.524407   7.003991
                   16         17         18         19         20
    16  C    0.000000
    17  C    1.383491   0.000000
    18  C    2.399048   1.384725   0.000000
    19  C    2.769022   2.396818   1.384726   0.000000
    20  C    2.400449   2.769023   2.399048   1.383490   0.000000
    21  C    3.332676   4.574020   5.084310   4.574399   3.333208
    22  C    4.584872   5.891117   6.447783   5.891386   4.585227
    23  N    5.116876   6.469257   7.050900   6.469251   5.116870
    24  C    4.629197   5.946237   6.507614   5.945963   4.628838
    25  C    8.367279   9.176011   9.404656   8.855967   8.014437
    26  C    9.176066   9.844197  10.020947   9.546878   8.855825
    27  H   10.184311  10.702408  10.953419  10.701265  10.183080
    28  H    9.266588   9.900241  10.451219  10.403302   9.802986
    29  H    7.781988   8.679857   9.373854   9.249312   8.413340
    30  H    9.165322  10.304613  10.831242  10.303880   9.164478
    31  H    8.905289  10.203451  10.796132  10.202994   8.904755
    32  H    5.385793   6.174470   6.534823   6.173489   5.384641
    33  H    3.046630   3.824715   4.161370   3.823845   3.045512
    34  H    1.080742   2.143441   3.380645   3.849751   3.377831
    35  H    2.136627   1.080183   2.140962   3.376757   3.849204
    36  H    3.377631   2.140608   1.079959   2.140608   3.377630
    37  H    3.849204   3.376757   2.140963   1.080184   2.136627
    38  H    3.377831   3.849752   3.380645   2.143441   1.080742
    39  H    3.386085   4.447526   4.894567   4.448220   3.387019
    40  H    5.402412   6.664176   7.214735   6.664598   5.402946
    41  H    8.415256   9.251161   9.374868   8.679940   7.781903
    42  H    9.804894  10.405184  10.452105   9.900020   9.266199
    43  Ag   7.797635   9.166858   9.781894   9.166806   7.797574
                   21         22         23         24         25
    21  C    0.000000
    22  C    1.398433   0.000000
    23  N    2.387083   1.307015   0.000000
    24  C    2.726515   2.274383   1.337252   0.000000
    25  C    8.146259   7.980502   6.920757   5.742542   0.000000
    26  C    9.313442   9.248232   8.229047   7.008061   1.383491
    27  H   10.819261  10.849663   9.864415   8.601153   3.377631
    28  H    9.940573   9.908245   8.920547   7.716254   3.849204
    29  H    7.904240   7.696124   6.651207   5.547156   3.377831
    30  H    7.971611   7.268526   5.978137   5.245808   3.386339
    31  H    6.910972   5.869720   4.587856   4.413024   5.402562
    32  H    5.790417   6.003340   5.244319   3.907475   3.046325
    33  H    4.070128   4.789725   4.564706   3.423894   5.385489
    34  H    3.376082   4.448283   4.915985   4.483365   8.415487
    35  H    5.375018   6.646675   7.217927   6.703089   9.804997
    36  H    6.137540   7.510892   8.130692   7.575469  10.183981
    37  H    5.375586   6.647096   7.217918   6.702660   9.265840
    38  H    3.377008   4.448928   4.915973   4.482711   7.781189
    39  H    1.079848   2.159165   3.350080   3.805368   9.165132
    40  H    2.159003   1.082651   2.027398   3.235232   8.905178
    41  H    7.905028   7.696749   6.651692   5.547696   1.080742
    42  H    9.941188   9.908722   8.920901   7.716634   2.136628
    43  Ag   4.992517   3.645877   2.733409   3.533829   7.555180
                   26         27         28         29         30
    26  C    0.000000
    27  H    2.140608   0.000000
    28  H    3.376756   2.467209   0.000000
    29  H    3.849751   4.273122   2.466491   0.000000
    30  H    4.447714   5.882303   5.212695   3.515062   0.000000
    31  H    6.664294   8.251749   7.381597   5.229890   2.497473
    32  H    3.824478   5.065792   4.567477   3.365624   4.791584
    33  H    6.174212   7.348500   6.769113   5.436858   6.725087
    34  H    9.251462  10.179345   9.014695   7.410703   8.911954
    35  H   10.405361  11.087304  10.144429   9.014274  10.907670
    36  H   10.702101  11.516206  11.085873  10.177742  11.781920
    37  H    9.899472  11.085360  11.004931   9.972406  10.906447
    38  H    8.679059  10.177171   9.972260   8.549428   8.910423
    39  H   10.304450  11.781925  10.906727   8.910770   9.049178
    40  H   10.203357  11.836139  10.858358   8.583437   7.925627
    41  H    2.143442   4.273123   4.929929   4.266593   3.514338
    42  H    1.080183   2.467209   4.270532   4.929929   5.212218
    43  Ag   8.921730  10.612796   9.617941   7.236424   5.419883
                   31         32         33         34         35
    31  H    0.000000
    32  H    5.863717   0.000000
    33  H    7.054669   2.460723   0.000000
    34  H    8.584211   5.438338   3.366920   0.000000
    35  H   10.858956   6.770269   4.568406   2.466491   0.000000
    36  H   11.836137   7.348495   5.065788   4.273122   2.467210
    37  H   10.858199   6.768692   4.567123   4.929929   4.270533
    38  H    8.583232   5.436326   3.365136   4.266593   4.929929
    39  H    7.925627   6.725088   4.791584   3.513907   5.211935
    40  H    6.252301   7.054669   5.863717   5.229190   7.381114
    41  H    5.229463   3.366433   5.437806   8.552010   9.974793
    42  H    7.381302   4.568058   6.769856   9.974945  11.007505
    43  Ag   3.148388   6.861708   6.944480   7.470492   9.859857
                   36         37         38         39         40
    36  H    0.000000
    37  H    2.467210   0.000000
    38  H    4.273122   2.466491   0.000000
    39  H    5.882306   5.212981   3.515494   0.000000
    40  H    8.251751   7.381786   5.230163   2.497473   0.000000
    41  H   10.178765   9.013711   7.409686   8.911609   8.584008
    42  H   11.086789  10.143438   9.013299  10.907399  10.858802
    43  Ag  10.861841   9.859771   7.470380   5.794617   3.579935
                   41         42         43
    41  H    0.000000
    42  H    2.466491   0.000000
    43  Ag   7.236462   9.617971   0.000000
 Symmetry turned off by external request.
 Stoichiometry    C24H16AgN2(2)
 Framework group  C1[X(C24H16AgN2)]
 Deg. of freedom   123
 Full point group                 C1      NOp   1
 Rotational constants (GHZ):           0.1363921           0.1237666           0.0679360
 Leave Link  202 at Fri Sep 11 22:07:59 2026, MaxMem=  6442450944 cpu:               0.0 elap:               0.1
 (Enter C:\G16W\l301.exe)
 Standard basis: def2SVP (5D, 7F)
 Ernie: Thresh=  0.10000D-02 Tol=  0.10000D-05 Strict=F.
   475 basis functions,   827 primitive gaussians,   506 cartesian basis functions
    97 alpha electrons       96 beta electrons
       nuclear repulsion energy      2347.8748987211 Hartrees.
 IExCor= 1009 DFT=T Ex+Corr=PBE1PBE ExCW=0 ScaHFX=  0.250000
 ScaDFX=  0.750000  0.750000  1.000000  1.000000 ScalE2=  1.000000  1.000000
 IRadAn=      5 IRanWt=     -1 IRanGd=            0 ICorTp=0 IEmpDi=141
 NAtoms=   43 NActive=   43 NUniq=   43 SFac= 1.00D+00 NAtFMM=   60 NAOKFM=F Big=F
 Integral buffers will be    131072 words long.
 Raffenetti 2 integral format.
 Two-electron integral symmetry is turned off.
 R6Disp:  Grimme-D3(BJ) Dispersion energy=       -0.0609705162 Hartrees.
 Nuclear repulsion after empirical dispersion term =     2347.8139282050 Hartrees.
 Leave Link  301 at Fri Sep 11 22:08:00 2026, MaxMem=  6442450944 cpu:               0.0 elap:               0.2
 (Enter C:\G16W\l302.exe)
 NPDir=0 NMtPBC=     1 NCelOv=     1 NCel=       1 NClECP=     1 NCelD=      1
         NCelK=      1 NCelE2=     1 NClLst=     1 CellRange=     0.0.
 One-electron integrals computed using PRISM.
   1 Symmetry operations used in ECPInt.
 ECPInt:  NShTT=   23220 NPrTT=   85067 LenC2=   19793 LenP2D=   49458.
 LDataN:  DoStor=T MaxTD1= 7 Len=  274
 NBasis=   475 RedAO= T EigKep=  1.34D-04  NBF=   475
 NBsUse=   475 1.00D-06 EigRej= -1.00D+00 NBFU=   475
 Precomputing XC quadrature grid using
 IXCGrd= 4 IRadAn=           5 IRanWt=          -1 IRanGd=           0 AccXCQ= 0.00D+00.
 Defaulting to unpruned grid for atomic number  47.
 Generated NRdTot=       0 NPtTot=           0 NUsed=           0 NTot=          32
 NSgBfM=   500   500   500   500   500 MxSgAt=    43 MxSgA2=    43.
 Leave Link  302 at Fri Sep 11 22:08:10 2026, MaxMem=  6442450944 cpu:              10.0 elap:               9.5
 (Enter C:\G16W\l303.exe)
 DipDrv:  MaxL=1.
 Leave Link  303 at Fri Sep 11 22:08:12 2026, MaxMem=  6442450944 cpu:               2.0 elap:               2.0
 (Enter C:\G16W\l401.exe)
 Initial guess from the checkpoint file:  "Bphen.chk"
 B after Tr=    -0.068422   -0.121962    0.041930
         Rot=    0.999984   -0.000036    0.001861    0.005355 Ang=  -0.65 deg.
 Guess basis will be translated and rotated to current coordinates.
 JPrj=2 DoOrth=T DoCkMO=T.
 Initial guess <Sx>= 0.0000 <Sy>= 0.0000 <Sz>= 0.5000 <S**2>= 0.7526 S= 0.5013
 Leave Link  401 at Fri Sep 11 22:08:50 2026, MaxMem=  6442450944 cpu:              38.0 elap:              37.8
 (Enter C:\G16W\l502.exe)
 Two-electron integral symmetry not used.
 UHF open shell SCF:
 Using DIIS extrapolation, IDIIS=  1040.
 NGot=  6442450944 LenX=  6441929892 LenY=  6441673350
 Requested convergence on RMS density matrix=1.00D-08 within 128 cycles.
 Requested convergence on MAX density matrix=1.00D-06.
 Requested convergence on             energy=1.00D-06.
 No special actions if energy rises.
 Fock matrices will be formed incrementally for  20 cycles.

 Cycle   1  Pass 1  IDiag  1:
 FoFJK:  IHMeth= 1 ICntrl=       0 DoSepK=F KAlg= 0 I1Cent=           0 FoldK=F
 IRaf= 780000000 NMat=       1 IRICut=       1 DoRegI=T DoRafI=F ISym2E= 0 IDoP0=0 IntGTp=1.
 FoFCou: FMM=F IPFlag=           0 FMFlag=      100000 FMFlg1=           0
         NFxFlg=           0 DoJE=F BraDBF=F KetDBF=F FulRan=T
         wScrn=  0.000000 ICntrl=         0 IOpCl=  1 I1Cent=           0 NGrid=           0
         NMat0=    1 NMatS0=      1 NMatT0=    0 NMatD0=    1 NMtDS0=    0 NMtDT0=    0
 Symmetry not used in FoFCou.
 Defaulting to unpruned grid for atomic number  47.
 Defaulting to unpruned grid for atomic number  47.
 Defaulting to unpruned grid for atomic number  47.
 Defaulting to unpruned grid for atomic number  47.
 Defaulting to unpruned grid for atomic number  47.
 Defaulting to unpruned grid for atomic number  47.
 Defaulting to unpruned grid for atomic number  47.
 Defaulting to unpruned grid for atomic number  47.
 E= -1178.76937437242    
 DIIS: error= 1.15D-02 at cycle   1 NSaved=   1.
 NSaved= 1 IEnMin= 1 EnMin= -1178.76937437242     IErMin= 1 ErrMin= 1.15D-02
 ErrMax= 1.15D-02  0.00D+00 EMaxC= 1.00D-01 BMatC= 9.45D-02 BMatP= 9.45D-02
 IDIUse=3 WtCom= 8.85D-01 WtEn= 1.15D-01
 Coeff-Com:  0.100D+01
 Coeff-En:   0.100D+01
 Coeff:      0.100D+01
 Gap=     0.048 Goal=   None    Shift=    0.000
 Gap=     0.184 Goal=   None    Shift=    0.000
 GapD=    0.048 DampG=0.250 DampE=0.250 DampFc=0.1250 IDamp=-1.
 Damping current iteration by 1.25D-01
 RMSDP=6.98D-04 MaxDP=8.89D-02              OVMax= 1.47D-01

 Cycle   2  Pass 1  IDiag  1:
 RMSU=  8.72D-05    CP:  1.00D+00
 E= -1178.77041745322     Delta-E=       -0.001043080805 Rises=F Damp=T
 DIIS: error= 1.01D-02 at cycle   2 NSaved=   2.
 NSaved= 2 IEnMin= 2 EnMin= -1178.77041745322     IErMin= 2 ErrMin= 1.01D-02
 ErrMax= 1.01D-02  0.00D+00 EMaxC= 1.00D-01 BMatC= 7.20D-02 BMatP= 9.45D-02
 IDIUse=3 WtCom= 8.99D-01 WtEn= 1.01D-01
 Coeff-Com: -0.639D+01 0.739D+01
 Coeff-En:   0.000D+00 0.100D+01
 Coeff:     -0.574D+01 0.674D+01
 Gap=     0.040 Goal=   None    Shift=    0.000
 Gap=     0.169 Goal=   None    Shift=    0.000
 RMSDP=6.52D-04 MaxDP=6.27D-02 DE=-1.04D-03 OVMax= 4.58D-02

 Cycle   3  Pass 1  IDiag  1:
 RMSU=  4.93D-04    CP:  1.00D+00  3.00D+00
 E= -1178.77632884410     Delta-E=       -0.005911390878 Rises=F Damp=F
 DIIS: error= 1.87D-03 at cycle   3 NSaved=   3.
 NSaved= 3 IEnMin= 3 EnMin= -1178.77632884410     IErMin= 3 ErrMin= 1.87D-03
 ErrMax= 1.87D-03  0.00D+00 EMaxC= 1.00D-01 BMatC= 9.32D-03 BMatP= 7.20D-02
 IDIUse=3 WtCom= 9.81D-01 WtEn= 1.87D-02
 Coeff-Com: -0.389D+01 0.444D+01 0.448D+00
 Coeff-En:   0.000D+00 0.000D+00 0.100D+01
 Coeff:     -0.381D+01 0.436D+01 0.458D+00
 Gap=     0.042 Goal=   None    Shift=    0.000
 Gap=     0.167 Goal=   None    Shift=    0.000
 RMSDP=1.49D-04 MaxDP=1.12D-02 DE=-5.91D-03 OVMax= 3.18D-02

 Cycle   4  Pass 1  IDiag  1:
 RMSU=  1.42D-04    CP:  1.00D+00  3.00D+00  1.09D+00
 E= -1178.77850589392     Delta-E=       -0.002177049820 Rises=F Damp=F
 DIIS: error= 5.49D-04 at cycle   4 NSaved=   4.
 NSaved= 4 IEnMin= 4 EnMin= -1178.77850589392     IErMin= 4 ErrMin= 5.49D-04
 ErrMax= 5.49D-04  0.00D+00 EMaxC= 1.00D-01 BMatC= 6.09D-04 BMatP= 9.32D-03
 IDIUse=3 WtCom= 9.95D-01 WtEn= 5.49D-03
 Coeff-Com: -0.202D+01 0.230D+01 0.283D+00 0.432D+00
 Coeff-En:   0.000D+00 0.000D+00 0.000D+00 0.100D+01
 Coeff:     -0.201D+01 0.229D+01 0.282D+00 0.435D+00
 Gap=     0.044 Goal=   None    Shift=    0.000
 Gap=     0.168 Goal=   None    Shift=    0.000
 RMSDP=5.86D-05 MaxDP=6.78D-03 DE=-2.18D-03 OVMax= 1.99D-02

 Cycle   5  Pass 1  IDiag  1:
 RMSU=  5.03D-05    CP:  1.00D+00  3.00D+00  1.15D+00  9.30D-01
 E= -1178.77871787408     Delta-E=       -0.000211980164 Rises=F Damp=F
 DIIS: error= 1.75D-04 at cycle   5 NSaved=   5.
 NSaved= 5 IEnMin= 5 EnMin= -1178.77871787408     IErMin= 5 ErrMin= 1.75D-04
 ErrMax= 1.75D-04  0.00D+00 EMaxC= 1.00D-01 BMatC= 5.09D-05 BMatP= 6.09D-04
 IDIUse=3 WtCom= 9.98D-01 WtEn= 1.75D-03
 Coeff-Com:  0.830D-01-0.959D-01 0.145D-01 0.213D+00 0.785D+00
 Coeff-En:   0.000D+00 0.000D+00 0.000D+00 0.000D+00 0.100D+01
 Coeff:      0.829D-01-0.957D-01 0.145D-01 0.213D+00 0.786D+00
 Gap=     0.044 Goal=   None    Shift=    0.000
 Gap=     0.167 Goal=   None    Shift=    0.000
 RMSDP=6.44D-05 MaxDP=4.38D-03 DE=-2.12D-04 OVMax= 2.80D-02

 Cycle   6  Pass 1  IDiag  1:
 RMSU=  3.45D-05    CP:  1.00D+00  3.00D+00  1.23D+00  1.09D+00  1.55D+00
 E= -1178.77879937482     Delta-E=       -0.000081500741 Rises=F Damp=F
 DIIS: error= 7.79D-05 at cycle   6 NSaved=   6.
 NSaved= 6 IEnMin= 6 EnMin= -1178.77879937482     IErMin= 6 ErrMin= 7.79D-05
 ErrMax= 7.79D-05  0.00D+00 EMaxC= 1.00D-01 BMatC= 1.63D-05 BMatP= 5.09D-05
 IDIUse=1 WtCom= 1.00D+00 WtEn= 0.00D+00
 Coeff-Com:  0.556D+00-0.636D+00-0.582D-01 0.427D-01 0.472D+00 0.622D+00
 Coeff:      0.556D+00-0.636D+00-0.582D-01 0.427D-01 0.472D+00 0.622D+00
 Gap=     0.044 Goal=   None    Shift=    0.000
 Gap=     0.166 Goal=   None    Shift=    0.000
 RMSDP=4.31D-05 MaxDP=3.02D-03 DE=-8.15D-05 OVMax= 1.92D-02

 Cycle   7  Pass 1  IDiag  1:
 RMSU=  9.61D-06    CP:  1.00D+00  3.00D+00  1.28D+00  1.18D+00  2.04D+00
                    CP:  1.54D+00
 E= -1178.77883410265     Delta-E=       -0.000034727828 Rises=F Damp=F
 DIIS: error= 4.19D-05 at cycle   7 NSaved=   7.
 NSaved= 7 IEnMin= 7 EnMin= -1178.77883410265     IErMin= 7 ErrMin= 4.19D-05
 ErrMax= 4.19D-05  0.00D+00 EMaxC= 1.00D-01 BMatC= 4.22D-06 BMatP= 1.63D-05
 IDIUse=1 WtCom= 1.00D+00 WtEn= 0.00D+00
 Coeff-Com:  0.190D+00-0.217D+00-0.264D-01-0.506D-01-0.715D-01 0.311D+00
 Coeff-Com:  0.864D+00
 Coeff:      0.190D+00-0.217D+00-0.264D-01-0.506D-01-0.715D-01 0.311D+00
 Coeff:      0.864D+00
 Gap=     0.044 Goal=   None    Shift=    0.000
 Gap=     0.166 Goal=   None    Shift=    0.000
 RMSDP=3.88D-05 MaxDP=2.81D-03 DE=-3.47D-05 OVMax= 1.75D-02

 Cycle   8  Pass 1  IDiag  1:
 RMSU=  5.21D-06    CP:  1.00D+00  3.00D+00  1.33D+00  1.26D+00  2.49D+00
                    CP:  2.12D+00  1.25D+00
 E= -1178.77885235419     Delta-E=       -0.000018251539 Rises=F Damp=F
 DIIS: error= 3.13D-05 at cycle   8 NSaved=   8.
 NSaved= 8 IEnMin= 8 EnMin= -1178.77885235419     IErMin= 8 ErrMin= 3.13D-05
 ErrMax= 3.13D-05  0.00D+00 EMaxC= 1.00D-01 BMatC= 1.36D-06 BMatP= 4.22D-06
 IDIUse=1 WtCom= 1.00D+00 WtEn= 0.00D+00
 Coeff-Com: -0.160D+00 0.183D+00 0.143D-01-0.364D-01-0.196D+00-0.949D-01
 Coeff-Com:  0.388D+00 0.901D+00
 Coeff:     -0.160D+00 0.183D+00 0.143D-01-0.364D-01-0.196D+00-0.949D-01
 Coeff:      0.388D+00 0.901D+00
 Gap=     0.044 Goal=   None    Shift=    0.000
 Gap=     0.166 Goal=   None    Shift=    0.000
 RMSDP=2.54D-05 MaxDP=1.86D-03 DE=-1.83D-05 OVMax= 1.15D-02

 Cycle   9  Pass 1  IDiag  1:
 RMSU=  3.74D-06    CP:  1.00D+00  3.00D+00  1.35D+00  1.32D+00  2.80D+00
                    CP:  2.48D+00  1.68D+00  1.73D+00
 E= -1178.77885829015     Delta-E=       -0.000005935960 Rises=F Damp=F
 DIIS: error= 1.85D-05 at cycle   9 NSaved=   9.
 NSaved= 9 IEnMin= 9 EnMin= -1178.77885829015     IErMin= 9 ErrMin= 1.85D-05
 ErrMax= 1.85D-05  0.00D+00 EMaxC= 1.00D-01 BMatC= 6.59D-07 BMatP= 1.36D-06
 IDIUse=1 WtCom= 1.00D+00 WtEn= 0.00D+00
 Coeff-Com: -0.152D+00 0.173D+00 0.153D-01-0.136D-01-0.111D+00-0.148D+00
 Coeff-Com:  0.169D-01 0.576D+00 0.644D+00
 Coeff:     -0.152D+00 0.173D+00 0.153D-01-0.136D-01-0.111D+00-0.148D+00
 Coeff:      0.169D-01 0.576D+00 0.644D+00
 Gap=     0.044 Goal=   None    Shift=    0.000
 Gap=     0.166 Goal=   None    Shift=    0.000
 RMSDP=1.24D-05 MaxDP=9.07D-04 DE=-5.94D-06 OVMax= 5.58D-03

 Cycle  10  Pass 1  IDiag  1:
 RMSU=  1.80D-06    CP:  1.00D+00  3.00D+00  1.36D+00  1.34D+00  2.95D+00
                    CP:  2.65D+00  1.86D+00  2.23D+00  1.10D+00
 E= -1178.77885958314     Delta-E=       -0.000001292985 Rises=F Damp=F
 DIIS: error= 9.12D-06 at cycle  10 NSaved=  10.
 NSaved=10 IEnMin=10 EnMin= -1178.77885958314     IErMin=10 ErrMin= 9.12D-06
 ErrMax= 9.12D-06  0.00D+00 EMaxC= 1.00D-01 BMatC= 1.48D-07 BMatP= 6.59D-07
 IDIUse=1 WtCom= 1.00D+00 WtEn= 0.00D+00
 Coeff-Com: -0.295D-01 0.336D-01 0.339D-02 0.512D-02 0.710D-02-0.492D-01
 Coeff-Com: -0.123D+00-0.660D-02 0.363D+00 0.796D+00
 Coeff:     -0.295D-01 0.336D-01 0.339D-02 0.512D-02 0.710D-02-0.492D-01
 Coeff:     -0.123D+00-0.660D-02 0.363D+00 0.796D+00
 Gap=     0.044 Goal=   None    Shift=    0.000
 Gap=     0.166 Goal=   None    Shift=    0.000
 RMSDP=6.03D-06 MaxDP=4.81D-04 DE=-1.29D-06 OVMax= 2.69D-03

 Cycle  11  Pass 1  IDiag  1:
 RMSU=  1.26D-06    CP:  1.00D+00  3.00D+00  1.37D+00  1.36D+00  3.00D+00
                    CP:  2.73D+00  1.96D+00  2.53D+00  1.44D+00  1.26D+00
 E= -1178.77885980396     Delta-E=       -0.000000220827 Rises=F Damp=F
 DIIS: error= 3.91D-06 at cycle  11 NSaved=  11.
 NSaved=11 IEnMin=11 EnMin= -1178.77885980396     IErMin=11 ErrMin= 3.91D-06
 ErrMax= 3.91D-06  0.00D+00 EMaxC= 1.00D-01 BMatC= 2.85D-08 BMatP= 1.48D-07
 IDIUse=1 WtCom= 1.00D+00 WtEn= 0.00D+00
 Coeff-Com:  0.103D-01-0.118D-01-0.724D-03 0.553D-02 0.234D-01-0.184D-04
 Coeff-Com: -0.674D-01-0.955D-01 0.734D-01 0.387D+00 0.676D+00
 Coeff:      0.103D-01-0.118D-01-0.724D-03 0.553D-02 0.234D-01-0.184D-04
 Coeff:     -0.674D-01-0.955D-01 0.734D-01 0.387D+00 0.676D+00
 Gap=     0.044 Goal=   None    Shift=    0.000
 Gap=     0.166 Goal=   None    Shift=    0.000
 RMSDP=1.27D-06 MaxDP=1.10D-04 DE=-2.21D-07 OVMax= 5.36D-04

 Cycle  12  Pass 1  IDiag  1:
 RMSU=  5.56D-07    CP:  1.00D+00  3.00D+00  1.37D+00  1.36D+00  3.00D+00
                    CP:  2.74D+00  1.98D+00  2.63D+00  1.52D+00  1.53D+00
                    CP:  1.52D+00
 E= -1178.77885982880     Delta-E=       -0.000000024838 Rises=F Damp=F
 DIIS: error= 2.63D-06 at cycle  12 NSaved=  12.
 NSaved=12 IEnMin=12 EnMin= -1178.77885982880     IErMin=12 ErrMin= 2.63D-06
 ErrMax= 2.63D-06  0.00D+00 EMaxC= 1.00D-01 BMatC= 1.52D-08 BMatP= 2.85D-08
 IDIUse=1 WtCom= 1.00D+00 WtEn= 0.00D+00
 Coeff-Com:  0.182D-01-0.208D-01-0.170D-02 0.242D-02 0.149D-01 0.159D-01
 Coeff-Com: -0.100D-01-0.616D-01-0.633D-01 0.213D-01 0.483D+00 0.601D+00
 Coeff:      0.182D-01-0.208D-01-0.170D-02 0.242D-02 0.149D-01 0.159D-01
 Coeff:     -0.100D-01-0.616D-01-0.633D-01 0.213D-01 0.483D+00 0.601D+00
 Gap=     0.044 Goal=   None    Shift=    0.000
 Gap=     0.166 Goal=   None    Shift=    0.000
 RMSDP=7.72D-07 MaxDP=5.38D-05 DE=-2.48D-08 OVMax= 3.35D-04

 Cycle  13  Pass 1  IDiag  1:
 RMSU=  4.48D-07    CP:  1.00D+00  3.00D+00  1.37D+00  1.36D+00  3.00D+00
                    CP:  2.74D+00  1.99D+00  2.67D+00  1.57D+00  1.71D+00
                    CP:  1.87D+00  1.05D+00
 E= -1178.77885984409     Delta-E=       -0.000000015286 Rises=F Damp=F
 DIIS: error= 9.97D-07 at cycle  13 NSaved=  13.
 NSaved=13 IEnMin=13 EnMin= -1178.77885984409     IErMin=13 ErrMin= 9.97D-07
 ErrMax= 9.97D-07  0.00D+00 EMaxC= 1.00D-01 BMatC= 2.16D-09 BMatP= 1.52D-08
 IDIUse=1 WtCom= 1.00D+00 WtEn= 0.00D+00
 Coeff-Com:  0.611D-02-0.697D-02-0.608D-03-0.188D-03 0.123D-02 0.721D-02
 Coeff-Com:  0.112D-01-0.270D-02-0.446D-01-0.765D-01 0.657D-01 0.256D+00
 Coeff-Com:  0.785D+00
 Coeff:      0.611D-02-0.697D-02-0.608D-03-0.188D-03 0.123D-02 0.721D-02
 Coeff:      0.112D-01-0.270D-02-0.446D-01-0.765D-01 0.657D-01 0.256D+00
 Coeff:      0.785D+00
 Gap=     0.044 Goal=   None    Shift=    0.000
 Gap=     0.166 Goal=   None    Shift=    0.000
 RMSDP=6.57D-07 MaxDP=5.70D-05 DE=-1.53D-08 OVMax= 2.97D-04

 Cycle  14  Pass 1  IDiag  1:
 RMSU=  1.84D-07    CP:  1.00D+00  3.00D+00  1.37D+00  1.36D+00  3.00D+00
                    CP:  2.74D+00  1.99D+00  2.69D+00  1.60D+00  1.85D+00
                    CP:  2.04D+00  1.30D+00  1.96D+00
 E= -1178.77885985129     Delta-E=       -0.000000007202 Rises=F Damp=F
 DIIS: error= 7.20D-07 at cycle  14 NSaved=  14.
 NSaved=14 IEnMin=14 EnMin= -1178.77885985129     IErMin=14 ErrMin= 7.20D-07
 ErrMax= 7.20D-07  0.00D+00 EMaxC= 1.00D-01 BMatC= 1.09D-09 BMatP= 2.16D-09
 IDIUse=1 WtCom= 1.00D+00 WtEn= 0.00D+00
 Coeff-Com: -0.467D-02 0.534D-02 0.411D-03-0.124D-02-0.606D-02-0.249D-02
 Coeff-Com:  0.128D-01 0.268D-01-0.385D-03-0.613D-01-0.189D+00-0.120D+00
 Coeff-Com:  0.514D+00 0.826D+00
 Coeff:     -0.467D-02 0.534D-02 0.411D-03-0.124D-02-0.606D-02-0.249D-02
 Coeff:      0.128D-01 0.268D-01-0.385D-03-0.613D-01-0.189D+00-0.120D+00
 Coeff:      0.514D+00 0.826D+00
 Gap=     0.044 Goal=   None    Shift=    0.000
 Gap=     0.166 Goal=   None    Shift=    0.000
 RMSDP=6.64D-07 MaxDP=5.79D-05 DE=-7.20D-09 OVMax= 3.02D-04

 Cycle  15  Pass 1  IDiag  1:
 RMSU=  7.49D-08    CP:  1.00D+00  3.00D+00  1.37D+00  1.36D+00  3.00D+00
                    CP:  2.74D+00  1.98D+00  2.71D+00  1.63D+00  1.99D+00
                    CP:  2.23D+00  1.52D+00  2.97D+00  1.56D+00
 E= -1178.77885985546     Delta-E=       -0.000000004174 Rises=F Damp=F
 DIIS: error= 3.49D-07 at cycle  15 NSaved=  15.
 NSaved=15 IEnMin=15 EnMin= -1178.77885985546     IErMin=15 ErrMin= 3.49D-07
 ErrMax= 3.49D-07  0.00D+00 EMaxC= 1.00D-01 BMatC= 2.18D-10 BMatP= 1.09D-09
 IDIUse=1 WtCom= 1.00D+00 WtEn= 0.00D+00
 Coeff-Com: -0.264D-02 0.302D-02 0.247D-03-0.132D-03-0.112D-02-0.243D-02
 Coeff-Com: -0.121D-02 0.337D-02 0.139D-01 0.130D-01-0.608D-01-0.106D+00
 Coeff-Com: -0.122D+00 0.221D+00 0.104D+01
 Coeff:     -0.264D-02 0.302D-02 0.247D-03-0.132D-03-0.112D-02-0.243D-02
 Coeff:     -0.121D-02 0.337D-02 0.139D-01 0.130D-01-0.608D-01-0.106D+00
 Coeff:     -0.122D+00 0.221D+00 0.104D+01
 Gap=     0.044 Goal=   None    Shift=    0.000
 Gap=     0.166 Goal=   None    Shift=    0.000
 RMSDP=3.79D-07 MaxDP=2.97D-05 DE=-4.17D-09 OVMax= 1.72D-04

 Cycle  16  Pass 1  IDiag  1:
 RMSU=  2.13D-07    CP:  1.00D+00  3.00D+00  1.37D+00  1.36D+00  3.00D+00
                    CP:  2.73D+00  1.99D+00  2.73D+00  1.65D+00  2.08D+00
                    CP:  2.37D+00  1.69D+00  3.00D+00  1.89D+00  1.32D+00
 E= -1178.77885985654     Delta-E=       -0.000000001079 Rises=F Damp=F
 DIIS: error= 1.65D-07 at cycle  16 NSaved=  16.
 NSaved=16 IEnMin=16 EnMin= -1178.77885985654     IErMin=16 ErrMin= 1.65D-07
 ErrMax= 1.65D-07  0.00D+00 EMaxC= 1.00D-01 BMatC= 8.17D-11 BMatP= 2.18D-10
 IDIUse=1 WtCom= 1.00D+00 WtEn= 0.00D+00
 Coeff-Com:  0.868D-04-0.101D-03-0.293D-05 0.270D-03 0.998D-03-0.503D-03
 Coeff-Com: -0.430D-02-0.600D-02 0.648D-02 0.244D-01 0.264D-01-0.164D-01
 Coeff-Com: -0.210D+00-0.151D+00 0.515D+00 0.816D+00
 Coeff:      0.868D-04-0.101D-03-0.293D-05 0.270D-03 0.998D-03-0.503D-03
 Coeff:     -0.430D-02-0.600D-02 0.648D-02 0.244D-01 0.264D-01-0.164D-01
 Coeff:     -0.210D+00-0.151D+00 0.515D+00 0.816D+00
 Gap=     0.044 Goal=   None    Shift=    0.000
 Gap=     0.166 Goal=   None    Shift=    0.000
 RMSDP=1.88D-07 MaxDP=1.42D-05 DE=-1.08D-09 OVMax= 8.51D-05

 Cycle  17  Pass 1  IDiag  1:
 RMSU=  2.50D-08    CP:  1.00D+00  3.00D+00  1.37D+00  1.36D+00  3.00D+00
                    CP:  2.73D+00  1.99D+00  2.74D+00  1.66D+00  2.12D+00
                    CP:  2.46D+00  1.78D+00  3.00D+00  1.97D+00  1.65D+00
                    CP:  1.41D+00
 E= -1178.77885985690     Delta-E=       -0.000000000357 Rises=F Damp=F
 DIIS: error= 9.01D-08 at cycle  17 NSaved=  17.
 NSaved=17 IEnMin=17 EnMin= -1178.77885985690     IErMin=17 ErrMin= 9.01D-08
 ErrMax= 9.01D-08  0.00D+00 EMaxC= 1.00D-01 BMatC= 1.95D-11 BMatP= 8.17D-11
 IDIUse=1 WtCom= 1.00D+00 WtEn= 0.00D+00
 Coeff-Com:  0.527D-03-0.603D-03-0.443D-04 0.152D-03 0.613D-03 0.188D-03
 Coeff-Com: -0.177D-02-0.328D-02 0.168D-03 0.874D-02 0.238D-01 0.128D-01
 Coeff-Com: -0.722D-01-0.116D+00 0.233D-01 0.386D+00 0.738D+00
 Coeff:      0.527D-03-0.603D-03-0.443D-04 0.152D-03 0.613D-03 0.188D-03
 Coeff:     -0.177D-02-0.328D-02 0.168D-03 0.874D-02 0.238D-01 0.128D-01
 Coeff:     -0.722D-01-0.116D+00 0.233D-01 0.386D+00 0.738D+00
 Gap=     0.044 Goal=   None    Shift=    0.000
 Gap=     0.166 Goal=   None    Shift=    0.000
 RMSDP=7.12D-08 MaxDP=6.26D-06 DE=-3.57D-10 OVMax= 3.21D-05

 Cycle  18  Pass 1  IDiag  1:
 RMSU=  1.35D-08    CP:  1.00D+00  3.00D+00  1.37D+00  1.36D+00  3.00D+00
                    CP:  2.74D+00  1.99D+00  2.74D+00  1.67D+00  2.13D+00
                    CP:  2.49D+00  1.81D+00  3.00D+00  1.99D+00  1.75D+00
                    CP:  1.51D+00  1.30D+00
 E= -1178.77885985698     Delta-E=       -0.000000000076 Rises=F Damp=F
 DIIS: error= 5.09D-08 at cycle  18 NSaved=  18.
 NSaved=18 IEnMin=18 EnMin= -1178.77885985698     IErMin=18 ErrMin= 5.09D-08
 ErrMax= 5.09D-08  0.00D+00 EMaxC= 1.00D-01 BMatC= 5.42D-12 BMatP= 1.95D-11
 IDIUse=1 WtCom= 1.00D+00 WtEn= 0.00D+00
 Coeff-Com:  0.192D-03-0.219D-03-0.164D-04-0.327D-05 0.713D-05 0.194D-03
 Coeff-Com:  0.357D-03 0.126D-03-0.164D-02-0.270D-02 0.360D-02 0.984D-02
 Coeff-Com:  0.236D-01-0.123D-01-0.132D+00-0.353D-01 0.369D+00 0.777D+00
 Coeff:      0.192D-03-0.219D-03-0.164D-04-0.327D-05 0.713D-05 0.194D-03
 Coeff:      0.357D-03 0.126D-03-0.164D-02-0.270D-02 0.360D-02 0.984D-02
 Coeff:      0.236D-01-0.123D-01-0.132D+00-0.353D-01 0.369D+00 0.777D+00
 Gap=     0.044 Goal=   None    Shift=    0.000
 Gap=     0.166 Goal=   None    Shift=    0.000
 RMSDP=3.33D-08 MaxDP=3.04D-06 DE=-7.59D-11 OVMax= 1.50D-05

 Cycle  19  Pass 1  IDiag  1:
 RMSU=  5.21D-09    CP:  1.00D+00  3.00D+00  1.37D+00  1.36D+00  3.00D+00
                    CP:  2.74D+00  1.99D+00  2.74D+00  1.67D+00  2.14D+00
                    CP:  2.51D+00  1.82D+00  3.00D+00  1.99D+00  1.80D+00
                    CP:  1.54D+00  1.58D+00  1.33D+00
 E= -1178.77885985690     Delta-E=        0.000000000072 Rises=F Damp=F
 DIIS: error= 3.01D-08 at cycle  19 NSaved=  19.
 NSaved=19 IEnMin=18 EnMin= -1178.77885985698     IErMin=19 ErrMin= 3.01D-08
 ErrMax= 3.01D-08  0.00D+00 EMaxC= 1.00D-01 BMatC= 1.31D-12 BMatP= 5.42D-12
 IDIUse=1 WtCom= 1.00D+00 WtEn= 0.00D+00
 Coeff-Com: -0.610D-04 0.698D-04 0.463D-05-0.392D-04-0.143D-03 0.217D-04
 Coeff-Com:  0.550D-03 0.819D-03-0.648D-03-0.316D-02-0.426D-02 0.889D-03
 Coeff-Com:  0.266D-01 0.218D-01-0.635D-01-0.100D+00 0.234D-04 0.360D+00
 Coeff-Com:  0.762D+00
 Coeff:     -0.610D-04 0.698D-04 0.463D-05-0.392D-04-0.143D-03 0.217D-04
 Coeff:      0.550D-03 0.819D-03-0.648D-03-0.316D-02-0.426D-02 0.889D-03
 Coeff:      0.266D-01 0.218D-01-0.635D-01-0.100D+00 0.234D-04 0.360D+00
 Coeff:      0.762D+00
 Gap=     0.044 Goal=   None    Shift=    0.000
 Gap=     0.166 Goal=   None    Shift=    0.000
 RMSDP=1.35D-08 MaxDP=1.23D-06 DE= 7.23D-11 OVMax= 6.00D-06

 Cycle  20  Pass 1  IDiag  1:
 RMSU=  2.45D-09    CP:  1.00D+00  3.00D+00  1.37D+00  1.36D+00  3.00D+00
                    CP:  2.74D+00  1.99D+00  2.74D+00  1.67D+00  2.14D+00
                    CP:  2.52D+00  1.83D+00  3.00D+00  1.99D+00  1.81D+00
                    CP:  1.55D+00  1.67D+00  1.57D+00  1.21D+00
 E= -1178.77885985705     Delta-E=       -0.000000000144 Rises=F Damp=F
 DIIS: error= 1.55D-08 at cycle  20 NSaved=  20.
 NSaved=20 IEnMin=20 EnMin= -1178.77885985705     IErMin=20 ErrMin= 1.55D-08
 ErrMax= 1.55D-08  0.00D+00 EMaxC= 1.00D-01 BMatC= 3.81D-13 BMatP= 1.31D-12
 IDIUse=1 WtCom= 1.00D+00 WtEn= 0.00D+00
 Coeff-Com: -0.952D-04 0.109D-03 0.757D-05-0.225D-04-0.880D-04-0.542D-04
 Coeff-Com:  0.179D-03 0.413D-03 0.163D-03-0.839D-03-0.324D-02-0.246D-02
 Coeff-Com:  0.632D-02 0.135D-01 0.591D-02-0.338D-01-0.935D-01-0.398D-01
 Coeff-Com:  0.314D+00 0.833D+00
 Coeff:     -0.952D-04 0.109D-03 0.757D-05-0.225D-04-0.880D-04-0.542D-04
 Coeff:      0.179D-03 0.413D-03 0.163D-03-0.839D-03-0.324D-02-0.246D-02
 Coeff:      0.632D-02 0.135D-01 0.591D-02-0.338D-01-0.935D-01-0.398D-01
 Coeff:      0.314D+00 0.833D+00
 Gap=     0.044 Goal=   None    Shift=    0.000
 Gap=     0.166 Goal=   None    Shift=    0.000
 RMSDP=7.17D-09 MaxDP=6.18D-07 DE=-1.44D-10 OVMax= 3.14D-06

 SCF Done:  E(UPBE1PBE) =  -1178.77885986     A.U. after   20 cycles
            NFock= 20  Conv=0.72D-08     -V/T= 2.0933
 <Sx>= 0.0000 <Sy>= 0.0000 <Sz>= 0.5000 <S**2>= 0.7520 S= 0.5010
 <L.S>= 0.000000000000E+00
 KE= 1.078187995323D+03 PE=-7.402797414186D+03 EE= 2.798016630802D+03
 Annihilation of the first spin contaminant:
 S**2 before annihilation     0.7520,   after     0.7500
 Leave Link  502 at Fri Sep 11 22:20:14 2026, MaxMem=  6442450944 cpu:             684.0 elap:             684.1
 (Enter C:\G16W\l508.exe)
 QCSCF skips out because SCF is already converged.
 Leave Link  508 at Fri Sep 11 22:20:14 2026, MaxMem=  6442450944 cpu:               0.0 elap:               0.1
 (Enter C:\G16W\l601.exe)
 Copying SCF densities to generalized density rwf, IOpCl= 1 IROHF=0.

 **********************************************************************

            Population analysis using the SCF Density.

 **********************************************************************

 Alpha  occ. eigenvalues --  -14.41378 -14.40597 -10.29139 -10.28950 -10.28523
 Alpha  occ. eigenvalues --  -10.28283 -10.27971 -10.27814 -10.27065 -10.26945
 Alpha  occ. eigenvalues --  -10.26426 -10.26360 -10.25953 -10.25878 -10.25825
 Alpha  occ. eigenvalues --  -10.25812 -10.25367 -10.25366 -10.25311 -10.25311
 Alpha  occ. eigenvalues --  -10.25209 -10.25196 -10.25165 -10.25151 -10.25089
 Alpha  occ. eigenvalues --  -10.25045  -3.69914  -2.28028  -2.27869  -2.27688
 Alpha  occ. eigenvalues --   -1.00619  -0.98156  -0.90965  -0.90637  -0.88706
 Alpha  occ. eigenvalues --   -0.85710  -0.84960  -0.79264  -0.78703  -0.78269
 Alpha  occ. eigenvalues --   -0.78220  -0.77754  -0.77140  -0.69525  -0.68469
 Alpha  occ. eigenvalues --   -0.67343  -0.66240  -0.64011  -0.63960  -0.62923
 Alpha  occ. eigenvalues --   -0.60305  -0.58651  -0.57520  -0.56137  -0.54932
 Alpha  occ. eigenvalues --   -0.53340  -0.51634  -0.51530  -0.50538  -0.49499
 Alpha  occ. eigenvalues --   -0.49333  -0.47931  -0.47519  -0.47067  -0.46550
 Alpha  occ. eigenvalues --   -0.45549  -0.45316  -0.45255  -0.44566  -0.44085
 Alpha  occ. eigenvalues --   -0.43553  -0.42442  -0.41101  -0.40561  -0.39274
 Alpha  occ. eigenvalues --   -0.38623  -0.37863  -0.37825  -0.37543  -0.37533
 Alpha  occ. eigenvalues --   -0.37262  -0.32975  -0.32593  -0.32428  -0.30701
 Alpha  occ. eigenvalues --   -0.28797  -0.28623  -0.28292  -0.28161  -0.27612
 Alpha  occ. eigenvalues --   -0.27427  -0.27345  -0.27257  -0.26233  -0.25825
 Alpha  occ. eigenvalues --   -0.24260  -0.11523
 Alpha virt. eigenvalues --   -0.07120  -0.06996  -0.02587  -0.02098  -0.02025
 Alpha virt. eigenvalues --   -0.01990  -0.01455   0.00929   0.02954   0.03304
 Alpha virt. eigenvalues --    0.05358   0.06357   0.06417   0.07198   0.08496
 Alpha virt. eigenvalues --    0.10143   0.10285   0.10336   0.10494   0.11368
 Alpha virt. eigenvalues --    0.11671   0.12319   0.13002   0.14064   0.14231
 Alpha virt. eigenvalues --    0.14889   0.14934   0.15000   0.15110   0.15212
 Alpha virt. eigenvalues --    0.15674   0.17855   0.20318   0.20698   0.21792
 Alpha virt. eigenvalues --    0.23336   0.23807   0.24480   0.25207   0.26713
 Alpha virt. eigenvalues --    0.27571   0.27901   0.28808   0.28854   0.29584
 Alpha virt. eigenvalues --    0.30014   0.30469   0.30886   0.31455   0.31461
 Alpha virt. eigenvalues --    0.31533   0.32469   0.33019   0.34605   0.35230
 Alpha virt. eigenvalues --    0.36726   0.37151   0.37284   0.37553   0.37940
 Alpha virt. eigenvalues --    0.38997   0.39931   0.40025   0.40175   0.40778
 Alpha virt. eigenvalues --    0.41277   0.42265   0.42421   0.42573   0.43645
 Alpha virt. eigenvalues --    0.44005   0.44174   0.44553   0.45785   0.45794
 Alpha virt. eigenvalues --    0.46160   0.46169   0.46199   0.47283   0.47658
 Alpha virt. eigenvalues --    0.47910   0.48648   0.48772   0.49040   0.49514
 Alpha virt. eigenvalues --    0.49577   0.49834   0.49862   0.50876   0.52683
 Alpha virt. eigenvalues --    0.53226   0.53254   0.53385   0.54090   0.54988
 Alpha virt. eigenvalues --    0.55259   0.57015   0.57146   0.57480   0.58785
 Alpha virt. eigenvalues --    0.60043   0.60466   0.60933   0.61883   0.62364
 Alpha virt. eigenvalues --    0.63540   0.63620   0.64685   0.64931   0.65154
 Alpha virt. eigenvalues --    0.65286   0.66369   0.66436   0.66827   0.67032
 Alpha virt. eigenvalues --    0.67472   0.67683   0.67739   0.67841   0.68354
 Alpha virt. eigenvalues --    0.68456   0.69197   0.69538   0.70166   0.70441
 Alpha virt. eigenvalues --    0.71303   0.71616   0.71894   0.71916   0.72442
 Alpha virt. eigenvalues --    0.72942   0.73473   0.74214   0.74903   0.75028
 Alpha virt. eigenvalues --    0.75292   0.76386   0.76901   0.77426   0.77802
 Alpha virt. eigenvalues --    0.78868   0.78885   0.80646   0.81223   0.82255
 Alpha virt. eigenvalues --    0.82977   0.83634   0.83963   0.84177   0.84833
 Alpha virt. eigenvalues --    0.85314   0.87309   0.87350   0.88772   0.90950
 Alpha virt. eigenvalues --    0.91757   0.93049   0.93913   0.94709   0.95150
 Alpha virt. eigenvalues --    0.98061   1.00799   1.02367   1.03128   1.06979
 Alpha virt. eigenvalues --    1.07192   1.07363   1.08116   1.10681   1.11299
 Alpha virt. eigenvalues --    1.12864   1.16537   1.17993   1.19598   1.19753
 Alpha virt. eigenvalues --    1.20909   1.21319   1.22234   1.22386   1.23187
 Alpha virt. eigenvalues --    1.23231   1.23565   1.23645   1.23883   1.23934
 Alpha virt. eigenvalues --    1.24233   1.25777   1.26030   1.26226   1.28457
 Alpha virt. eigenvalues --    1.28583   1.29852   1.30486   1.30720   1.31189
 Alpha virt. eigenvalues --    1.32814   1.34038   1.34805   1.35152   1.36114
 Alpha virt. eigenvalues --    1.38745   1.39810   1.42590   1.44171   1.45869
 Alpha virt. eigenvalues --    1.47887   1.51082   1.51204   1.52962   1.55303
 Alpha virt. eigenvalues --    1.58033   1.58991   1.60696   1.60769   1.62313
 Alpha virt. eigenvalues --    1.63480   1.66625   1.66675   1.67531   1.70106
 Alpha virt. eigenvalues --    1.71181   1.71804   1.71848   1.72163   1.72575
 Alpha virt. eigenvalues --    1.73782   1.74911   1.74915   1.75081   1.75317
 Alpha virt. eigenvalues --    1.75709   1.75952   1.76415   1.76520   1.76609
 Alpha virt. eigenvalues --    1.76877   1.77947   1.78348   1.79842   1.80141
 Alpha virt. eigenvalues --    1.80677   1.80870   1.81075   1.81352   1.82149
 Alpha virt. eigenvalues --    1.83094   1.84454   1.85281   1.87477   1.88040
 Alpha virt. eigenvalues --    1.89014   1.89674   1.90303   1.91881   1.93151
 Alpha virt. eigenvalues --    1.93784   1.94408   1.95287   1.95383   1.95577
 Alpha virt. eigenvalues --    1.96296   1.97727   1.98422   1.98478   1.98487
 Alpha virt. eigenvalues --    1.99944   2.00096   2.00199   2.01276   2.01395
 Alpha virt. eigenvalues --    2.05304   2.07316   2.07440   2.09038   2.09106
 Alpha virt. eigenvalues --    2.10631   2.12300   2.12897   2.12904   2.14225
 Alpha virt. eigenvalues --    2.14694   2.15590   2.16611   2.17205   2.18790
 Alpha virt. eigenvalues --    2.19336   2.20629   2.22041   2.22639   2.25854
 Alpha virt. eigenvalues --    2.27031   2.27428   2.28620   2.29302   2.29621
 Alpha virt. eigenvalues --    2.29727   2.30316   2.31805   2.31968   2.32977
 Alpha virt. eigenvalues --    2.33355   2.33788   2.35425   2.35484   2.36172
 Alpha virt. eigenvalues --    2.36930   2.38660   2.40467   2.41087   2.42097
 Alpha virt. eigenvalues --    2.42169   2.46700   2.48150   2.49287   2.53983
 Alpha virt. eigenvalues --    2.54652   2.55058   2.55270   2.56365   2.56530
 Alpha virt. eigenvalues --    2.58837   2.60817   2.63359   2.63550   2.64664
 Alpha virt. eigenvalues --    2.64771   2.66288   2.66738   2.66877   2.67511
 Alpha virt. eigenvalues --    2.67593   2.67615   2.67785   2.68333   2.69080
 Alpha virt. eigenvalues --    2.69620   2.70178   2.70370   2.73667   2.75537
 Alpha virt. eigenvalues --    2.75602   2.75733   2.76208   2.76940   2.77974
 Alpha virt. eigenvalues --    2.80085   2.81680   2.85566   2.87628   2.88838
 Alpha virt. eigenvalues --    2.89946   2.90132   2.90437   2.90795   2.91463
 Alpha virt. eigenvalues --    2.91615   2.95245   2.96916   2.97588   3.02761
 Alpha virt. eigenvalues --    3.05428   3.06754   3.08713   3.12006   3.15780
 Alpha virt. eigenvalues --    3.15841   3.16499   3.18094   3.26807   3.26872
 Alpha virt. eigenvalues --    3.29737   3.32812   3.55301   3.62183   3.65816
 Alpha virt. eigenvalues --    3.69241   3.73084  53.89974
  Beta  occ. eigenvalues --  -14.41256 -14.40524 -10.29140 -10.28948 -10.28520
  Beta  occ. eigenvalues --  -10.28283 -10.27974 -10.27816 -10.27057 -10.26941
  Beta  occ. eigenvalues --  -10.26426 -10.26360 -10.25952 -10.25878 -10.25824
  Beta  occ. eigenvalues --  -10.25812 -10.25367 -10.25367 -10.25311 -10.25311
  Beta  occ. eigenvalues --  -10.25209 -10.25196 -10.25165 -10.25151 -10.25089
  Beta  occ. eigenvalues --  -10.25045  -3.69813  -2.27951  -2.27850  -2.27679
  Beta  occ. eigenvalues --   -1.00545  -0.98087  -0.90957  -0.90634  -0.88689
  Beta  occ. eigenvalues --   -0.85695  -0.84953  -0.79254  -0.78692  -0.78269
  Beta  occ. eigenvalues --   -0.78220  -0.77742  -0.77124  -0.69509  -0.68450
  Beta  occ. eigenvalues --   -0.67319  -0.66222  -0.64012  -0.63960  -0.62916
  Beta  occ. eigenvalues --   -0.60295  -0.58627  -0.57498  -0.56116  -0.54925
  Beta  occ. eigenvalues --   -0.53303  -0.51616  -0.51506  -0.50511  -0.49499
  Beta  occ. eigenvalues --   -0.49334  -0.47912  -0.47503  -0.47058  -0.46526
  Beta  occ. eigenvalues --   -0.45527  -0.45316  -0.45254  -0.44513  -0.44061
  Beta  occ. eigenvalues --   -0.43529  -0.42413  -0.41089  -0.40556  -0.39259
  Beta  occ. eigenvalues --   -0.38609  -0.37814  -0.37812  -0.37530  -0.37521
  Beta  occ. eigenvalues --   -0.37249  -0.32972  -0.32395  -0.32167  -0.30390
  Beta  occ. eigenvalues --   -0.28793  -0.28622  -0.28289  -0.28147  -0.27504
  Beta  occ. eigenvalues --   -0.26943  -0.26896  -0.26858  -0.25748  -0.25609
  Beta  occ. eigenvalues --   -0.23695
  Beta virt. eigenvalues --   -0.07108  -0.06947  -0.02801  -0.02568  -0.02084
  Beta virt. eigenvalues --   -0.02023  -0.01989  -0.01452   0.00939   0.05338
  Beta virt. eigenvalues --    0.05346   0.05494   0.06379   0.06428   0.08471
  Beta virt. eigenvalues --    0.08911   0.10147   0.10285   0.10515   0.10714
  Beta virt. eigenvalues --    0.11375   0.11895   0.12342   0.14068   0.14214
  Beta virt. eigenvalues --    0.14700   0.14890   0.14970   0.15001   0.15203
  Beta virt. eigenvalues --    0.15252   0.16330   0.18213   0.20399   0.20722
  Beta virt. eigenvalues --    0.21803   0.23458   0.24101   0.24575   0.25220
  Beta virt. eigenvalues --    0.26758   0.27643   0.27953   0.28808   0.28854
  Beta virt. eigenvalues --    0.29631   0.30189   0.30525   0.30986   0.31456
  Beta virt. eigenvalues --    0.31537   0.31541   0.32729   0.33153   0.34819
  Beta virt. eigenvalues --    0.35623   0.36786   0.37538   0.37960   0.38506
  Beta virt. eigenvalues --    0.39022   0.39342   0.40097   0.40174   0.40745
  Beta virt. eigenvalues --    0.40927   0.42168   0.42290   0.42420   0.42908
  Beta virt. eigenvalues --    0.43693   0.44189   0.44557   0.44667   0.45834
  Beta virt. eigenvalues --    0.46130   0.46218   0.46317   0.46523   0.47505
  Beta virt. eigenvalues --    0.48087   0.48447   0.48745   0.48789   0.49067
  Beta virt. eigenvalues --    0.49551   0.49653   0.49888   0.50080   0.50926
  Beta virt. eigenvalues --    0.53358   0.53426   0.53723   0.53850   0.54418
  Beta virt. eigenvalues --    0.55007   0.55318   0.57055   0.57528   0.57682
  Beta virt. eigenvalues --    0.59170   0.60069   0.60531   0.61525   0.61883
  Beta virt. eigenvalues --    0.62446   0.63584   0.64001   0.64712   0.65155
  Beta virt. eigenvalues --    0.65161   0.65558   0.66505   0.66687   0.67144
  Beta virt. eigenvalues --    0.67156   0.67614   0.67714   0.67785   0.67989
  Beta virt. eigenvalues --    0.68517   0.68518   0.69249   0.69797   0.70232
  Beta virt. eigenvalues --    0.70537   0.71439   0.71781   0.71932   0.71974
  Beta virt. eigenvalues --    0.72442   0.73045   0.73483   0.74264   0.74953
  Beta virt. eigenvalues --    0.75041   0.75306   0.76463   0.76903   0.77457
  Beta virt. eigenvalues --    0.77888   0.78872   0.78895   0.80758   0.81223
  Beta virt. eigenvalues --    0.82283   0.83046   0.83643   0.84027   0.84257
  Beta virt. eigenvalues --    0.84897   0.85323   0.87322   0.87433   0.88845
  Beta virt. eigenvalues --    0.91020   0.91821   0.93068   0.93955   0.94719
  Beta virt. eigenvalues --    0.95217   0.98224   1.00937   1.02381   1.03146
  Beta virt. eigenvalues --    1.07017   1.07197   1.07409   1.08120   1.10697
  Beta virt. eigenvalues --    1.11314   1.13006   1.16552   1.18010   1.19601
  Beta virt. eigenvalues --    1.19762   1.20932   1.21376   1.22238   1.22388
  Beta virt. eigenvalues --    1.23232   1.23266   1.23573   1.23646   1.23887
  Beta virt. eigenvalues --    1.23936   1.24273   1.25859   1.26031   1.26228
  Beta virt. eigenvalues --    1.28469   1.28583   1.29859   1.30487   1.30721
  Beta virt. eigenvalues --    1.31191   1.32862   1.34057   1.34817   1.35298
  Beta virt. eigenvalues --    1.36127   1.38800   1.39881   1.42703   1.44194
  Beta virt. eigenvalues --    1.46001   1.47916   1.51147   1.51275   1.52970
  Beta virt. eigenvalues --    1.55317   1.58036   1.59003   1.60711   1.60783
  Beta virt. eigenvalues --    1.62316   1.63489   1.66625   1.66675   1.67542
  Beta virt. eigenvalues --    1.70111   1.71182   1.71850   1.71851   1.72164
  Beta virt. eigenvalues --    1.72584   1.73789   1.74916   1.74924   1.75094
  Beta virt. eigenvalues --    1.75318   1.75712   1.75953   1.76418   1.76521
  Beta virt. eigenvalues --    1.76614   1.76879   1.77965   1.78353   1.79842
  Beta virt. eigenvalues --    1.80147   1.80681   1.80896   1.81085   1.81372
  Beta virt. eigenvalues --    1.82174   1.83101   1.84465   1.85290   1.87498
  Beta virt. eigenvalues --    1.88060   1.89023   1.89698   1.90327   1.91908
  Beta virt. eigenvalues --    1.93161   1.93794   1.94463   1.95296   1.95386
  Beta virt. eigenvalues --    1.95599   1.96302   1.97738   1.98422   1.98480
  Beta virt. eigenvalues --    1.98487   1.99946   2.00096   2.00223   2.01283
  Beta virt. eigenvalues --    2.01435   2.05341   2.07327   2.07448   2.09039
  Beta virt. eigenvalues --    2.09106   2.10638   2.12479   2.12910   2.12913
  Beta virt. eigenvalues --    2.14473   2.14694   2.15592   2.16759   2.17262
  Beta virt. eigenvalues --    2.18855   2.19337   2.20730   2.22256   2.22652
  Beta virt. eigenvalues --    2.25859   2.27034   2.27490   2.28628   2.29315
  Beta virt. eigenvalues --    2.29626   2.29727   2.30359   2.31814   2.31971
  Beta virt. eigenvalues --    2.32982   2.33357   2.33810   2.35426   2.35484
  Beta virt. eigenvalues --    2.36187   2.36977   2.38669   2.40469   2.41105
  Beta virt. eigenvalues --    2.42148   2.42186   2.46742   2.48174   2.49304
  Beta virt. eigenvalues --    2.54002   2.54657   2.55070   2.55311   2.56463
  Beta virt. eigenvalues --    2.56538   2.58859   2.60853   2.63361   2.63551
  Beta virt. eigenvalues --    2.64701   2.64809   2.66298   2.66742   2.66879
  Beta virt. eigenvalues --    2.67486   2.67595   2.67603   2.67872   2.68421
  Beta virt. eigenvalues --    2.69097   2.69648   2.70186   2.70437   2.73742
  Beta virt. eigenvalues --    2.75537   2.75603   2.75738   2.76211   2.76951
  Beta virt. eigenvalues --    2.77996   2.80159   2.81691   2.85599   2.87693
  Beta virt. eigenvalues --    2.88861   2.89957   2.90134   2.90436   2.90795
  Beta virt. eigenvalues --    2.91465   2.91617   2.95301   2.96963   2.97613
  Beta virt. eigenvalues --    3.02781   3.05459   3.06811   3.08719   3.12033
  Beta virt. eigenvalues --    3.15779   3.15841   3.16514   3.18124   3.26807
  Beta virt. eigenvalues --    3.26872   3.29836   3.32884   3.55351   3.62229
  Beta virt. eigenvalues --    3.65835   3.69244   3.73115  53.90105
          Condensed to atoms (all electrons):
               1          2          3          4          5          6
     1  C    5.108888   0.272093   0.088170  -0.163022   0.000376   0.000058
     2  C    0.272093   5.057089   0.299078   0.093670   0.011967   0.000288
     3  C    0.088170   0.299078   5.044916   0.291099  -0.073312  -0.007118
     4  C   -0.163022   0.093670   0.291099   5.473837   0.311761  -0.086657
     5  C    0.000376   0.011967  -0.073312   0.311761   5.240078   0.476209
     6  C    0.000058   0.000288  -0.007118  -0.086657   0.476209   4.962117
     7  C    0.000001   0.000011   0.000118   0.008360   0.012480   0.399659
     8  N    0.000000   0.000000  -0.000005  -0.000211  -0.046203  -0.025013
     9  C   -0.000005   0.000041  -0.000954   0.019483  -0.113881  -0.060442
    10  C   -0.000103   0.000510  -0.010147  -0.072235   0.401553   0.005594
    11  C    0.000069  -0.000273  -0.000318  -0.021752  -0.101572   0.011507
    12  C    0.000006  -0.000020   0.000095  -0.002725   0.019686  -0.000655
    13  C    0.000000   0.000001  -0.000034   0.000174  -0.000807  -0.000220
    14  C    0.000000   0.000000   0.000000   0.000000   0.000055  -0.000003
    15  C    0.000000   0.000000   0.000000   0.000000   0.000000   0.000000
    16  C    0.000000   0.000000   0.000000   0.000000   0.000000   0.000000
    17  C    0.000000   0.000000   0.000000   0.000000   0.000000   0.000000
    18  C    0.000000   0.000000   0.000000   0.000000   0.000000   0.000000
    19  C    0.000000   0.000000   0.000000   0.000000   0.000000   0.000000
    20  C    0.000000   0.000000   0.000000   0.000000   0.000000   0.000000
    21  C    0.000000   0.000000   0.000000   0.000000  -0.000003   0.000000
    22  C    0.000000   0.000000   0.000000   0.000000   0.000009  -0.000002
    23  N    0.000000   0.000000   0.000000   0.000001  -0.000032  -0.000055
    24  C    0.000000  -0.000001   0.000035  -0.000581   0.022599  -0.001242
    25  C    0.088168  -0.144494   0.068420   0.291114  -0.073310  -0.007123
    26  C    0.272094   0.090071  -0.144497   0.093670   0.011967   0.000288
    27  H    0.450690  -0.068815   0.014380  -0.001546   0.000021  -0.000001
    28  H   -0.071997   0.453015  -0.070860   0.016274  -0.000368  -0.000009
    29  H    0.014407  -0.067701   0.456870  -0.070203  -0.012150   0.000629
    30  H   -0.000035  -0.000150   0.000748  -0.012003  -0.050090   0.426476
    31  H    0.000000   0.000000  -0.000002  -0.000484   0.007423  -0.072316
    32  H    0.000016   0.000610  -0.001590   0.015005  -0.039361   0.000433
    33  H    0.000000  -0.000001   0.000013  -0.000011  -0.000329   0.000009
    34  H    0.000000   0.000000   0.000000   0.000000   0.000000   0.000000
    35  H    0.000000   0.000000   0.000000   0.000000   0.000000   0.000000
    36  H    0.000000   0.000000   0.000000   0.000000   0.000000   0.000000
    37  H    0.000000   0.000000   0.000000   0.000000   0.000000   0.000000
    38  H    0.000000   0.000000   0.000000   0.000000   0.000000   0.000000
    39  H    0.000000   0.000000   0.000000   0.000000   0.000000   0.000000
    40  H    0.000000   0.000000   0.000000   0.000000   0.000000   0.000000
    41  H    0.014407  -0.002051   0.014702  -0.070202  -0.012151   0.000630
    42  H   -0.071997   0.014464  -0.001808   0.016274  -0.000368  -0.000009
    43  Ag   0.000000   0.000001  -0.000003   0.000245  -0.000204   0.006587
               7          8          9         10         11         12
     1  C    0.000001   0.000000  -0.000005  -0.000103   0.000069   0.000006
     2  C    0.000011   0.000000   0.000041   0.000510  -0.000273  -0.000020
     3  C    0.000118  -0.000005  -0.000954  -0.010147  -0.000318   0.000095
     4  C    0.008360  -0.000211   0.019483  -0.072235  -0.021752  -0.002725
     5  C    0.012480  -0.046203  -0.113881   0.401553  -0.101572   0.019686
     6  C    0.399659  -0.025013  -0.060442   0.005594   0.011507  -0.000655
     7  C    4.743378   0.488239  -0.042168  -0.091093   0.000145   0.000189
     8  N    0.488239   6.388815   0.546759  -0.062910   0.005316  -0.000724
     9  C   -0.042168   0.546759   5.480062   0.255344   0.053182  -0.125878
    10  C   -0.091093  -0.062910   0.255344   5.386921   0.238704   0.082169
    11  C    0.000145   0.005316   0.053182   0.238704   5.148633   0.311283
    12  C    0.000189  -0.000724  -0.125878   0.082169   0.311283   5.145914
    13  C   -0.000562   0.006494  -0.032786  -0.113005   0.082556   0.239021
    14  C    0.000009  -0.000040   0.021657  -0.000805   0.019762  -0.099882
    15  C    0.000000   0.000001  -0.000583   0.000174  -0.002736  -0.022272
    16  C    0.000000   0.000000   0.000037  -0.000034   0.000094  -0.000320
    17  C    0.000000   0.000000  -0.000001   0.000001  -0.000020  -0.000276
    18  C    0.000000   0.000000   0.000000   0.000000   0.000006   0.000069
    19  C    0.000000   0.000000  -0.000001   0.000001  -0.000020  -0.000277
    20  C    0.000000   0.000000   0.000037  -0.000034   0.000094  -0.000324
    21  C   -0.000002  -0.000049  -0.001505  -0.000195  -0.000660   0.011453
    22  C    0.000044  -0.000478   0.015036  -0.000502   0.000178   0.000078
    23  N   -0.000565  -0.006362  -0.122072   0.006253  -0.000718   0.005037
    24  C    0.014919  -0.113958   0.051865  -0.018892  -0.128707   0.051209
    25  C    0.000119  -0.000005  -0.000954  -0.010139  -0.000316   0.000095
    26  C    0.000011   0.000000   0.000041   0.000510  -0.000273  -0.000020
    27  H    0.000000   0.000000   0.000000   0.000001  -0.000001   0.000000
    28  H    0.000000   0.000000   0.000000  -0.000001  -0.000003   0.000000
    29  H   -0.000127  -0.000019  -0.000376  -0.000381   0.000327   0.000021
    30  H   -0.049076   0.005044   0.001132   0.014065  -0.000323   0.000010
    31  H    0.422833  -0.052102   0.007121   0.000820   0.000110   0.000001
    32  H   -0.000164  -0.000015   0.018327  -0.049665   0.463115  -0.081058
    33  H   -0.000001   0.000003  -0.003565   0.016713  -0.081143   0.463131
    34  H    0.000000   0.000000   0.000024  -0.000010   0.000020   0.000318
    35  H    0.000000   0.000000   0.000000   0.000000   0.000000  -0.000003
    36  H    0.000000   0.000000   0.000000   0.000000   0.000000  -0.000001
    37  H    0.000000   0.000000   0.000000   0.000000   0.000000  -0.000003
    38  H    0.000000   0.000000   0.000024  -0.000010   0.000020   0.000321
    39  H    0.000000   0.000000   0.000120  -0.000002   0.000010  -0.000330
    40  H    0.000003   0.000003   0.000192   0.000004   0.000002   0.000109
    41  H   -0.000127  -0.000019  -0.000376  -0.000381   0.000326   0.000021
    42  H    0.000000   0.000000   0.000000  -0.000001  -0.000003   0.000000
    43  Ag  -0.018862   0.036406  -0.019090   0.005309  -0.000827  -0.000759
              13         14         15         16         17         18
     1  C    0.000000   0.000000   0.000000   0.000000   0.000000   0.000000
     2  C    0.000001   0.000000   0.000000   0.000000   0.000000   0.000000
     3  C   -0.000034   0.000000   0.000000   0.000000   0.000000   0.000000
     4  C    0.000174   0.000000   0.000000   0.000000   0.000000   0.000000
     5  C   -0.000807   0.000055   0.000000   0.000000   0.000000   0.000000
     6  C   -0.000220  -0.000003   0.000000   0.000000   0.000000   0.000000
     7  C   -0.000562   0.000009   0.000000   0.000000   0.000000   0.000000
     8  N    0.006494  -0.000040   0.000001   0.000000   0.000000   0.000000
     9  C   -0.032786   0.021657  -0.000583   0.000037  -0.000001   0.000000
    10  C   -0.113005  -0.000805   0.000174  -0.000034   0.000001   0.000000
    11  C    0.082556   0.019762  -0.002736   0.000094  -0.000020   0.000006
    12  C    0.239021  -0.099882  -0.022272  -0.000320  -0.000276   0.000069
    13  C    5.398887   0.406522  -0.071992  -0.010146   0.000515  -0.000102
    14  C    0.406522   5.233563   0.312505  -0.073509   0.012003   0.000366
    15  C   -0.071992   0.312505   5.473786   0.291099   0.093792  -0.163054
    16  C   -0.010146  -0.073509   0.291099   5.046060   0.298492   0.088253
    17  C    0.000515   0.012003   0.093792   0.298492   5.058026   0.271939
    18  C   -0.000102   0.000366  -0.163054   0.088253   0.271939   5.109306
    19  C    0.000516   0.012002   0.093794  -0.144499   0.090086   0.271941
    20  C   -0.010161  -0.073510   0.291074   0.068065  -0.144503   0.088253
    21  C    0.006497   0.478902  -0.087043  -0.007127   0.000286   0.000058
    22  C   -0.092848   0.012700   0.008060   0.000129   0.000011   0.000001
    23  N   -0.067485  -0.045490  -0.000260  -0.000004   0.000000   0.000000
    24  C    0.249701  -0.116403   0.019597  -0.000927   0.000042  -0.000005
    25  C   -0.000034   0.000000   0.000000   0.000000   0.000000   0.000000
    26  C    0.000001   0.000000   0.000000   0.000000   0.000000   0.000000
    27  H    0.000000   0.000000   0.000000   0.000000   0.000000   0.000000
    28  H    0.000000   0.000000   0.000000   0.000000   0.000000   0.000000
    29  H   -0.000010   0.000000   0.000000   0.000000   0.000000   0.000000
    30  H   -0.000002   0.000000   0.000000   0.000000   0.000000   0.000000
    31  H    0.000002   0.000000   0.000000   0.000000   0.000000   0.000000
    32  H    0.016595  -0.000332  -0.000010   0.000013  -0.000001   0.000000
    33  H   -0.049778  -0.039273   0.015074  -0.001585   0.000610   0.000016
    34  H   -0.000379  -0.012129  -0.070160   0.456842  -0.067882   0.014422
    35  H   -0.000001  -0.000368   0.016273  -0.070886   0.452970  -0.072045
    36  H    0.000001   0.000021  -0.001546   0.014383  -0.068847   0.450656
    37  H   -0.000001  -0.000368   0.016273  -0.001813   0.014477  -0.072045
    38  H   -0.000378  -0.012127  -0.070162   0.014738  -0.002057   0.014422
    39  H    0.013951  -0.049707  -0.012127   0.000759  -0.000151  -0.000035
    40  H    0.000656   0.007674  -0.000508  -0.000001   0.000000   0.000000
    41  H   -0.000010   0.000000   0.000000   0.000000   0.000000   0.000000
    42  H    0.000000   0.000000   0.000000   0.000000   0.000000   0.000000
    43  Ag   0.006041   0.000139   0.000195  -0.000004   0.000001   0.000000
              19         20         21         22         23         24
     1  C    0.000000   0.000000   0.000000   0.000000   0.000000   0.000000
     2  C    0.000000   0.000000   0.000000   0.000000   0.000000  -0.000001
     3  C    0.000000   0.000000   0.000000   0.000000   0.000000   0.000035
     4  C    0.000000   0.000000   0.000000   0.000000   0.000001  -0.000581
     5  C    0.000000   0.000000  -0.000003   0.000009  -0.000032   0.022599
     6  C    0.000000   0.000000   0.000000  -0.000002  -0.000055  -0.001242
     7  C    0.000000   0.000000  -0.000002   0.000044  -0.000565   0.014919
     8  N    0.000000   0.000000  -0.000049  -0.000478  -0.006362  -0.113958
     9  C   -0.000001   0.000037  -0.001505   0.015036  -0.122072   0.051865
    10  C    0.000001  -0.000034  -0.000195  -0.000502   0.006253  -0.018892
    11  C   -0.000020   0.000094  -0.000660   0.000178  -0.000718  -0.128707
    12  C   -0.000277  -0.000324   0.011453   0.000078   0.005037   0.051209
    13  C    0.000516  -0.010161   0.006497  -0.092848  -0.067485   0.249701
    14  C    0.012002  -0.073510   0.478902   0.012700  -0.045490  -0.116403
    15  C    0.093794   0.291074  -0.087043   0.008060  -0.000260   0.019597
    16  C   -0.144499   0.068065  -0.007127   0.000129  -0.000004  -0.000927
    17  C    0.090086  -0.144503   0.000286   0.000011   0.000000   0.000042
    18  C    0.271941   0.088253   0.000058   0.000001   0.000000  -0.000005
    19  C    5.058012   0.298497   0.000285   0.000010   0.000000   0.000042
    20  C    0.298497   5.046107  -0.007113   0.000128  -0.000004  -0.000926
    21  C    0.000285  -0.007113   4.983029   0.390467  -0.026042  -0.063347
    22  C    0.000010   0.000128   0.390467   4.737157   0.502208  -0.041417
    23  N    0.000000  -0.000004  -0.026042   0.502208   6.338022   0.564706
    24  C    0.000042  -0.000926  -0.063347  -0.041417   0.564706   5.482784
    25  C    0.000000   0.000000   0.000000   0.000000   0.000000   0.000035
    26  C    0.000000   0.000000   0.000000   0.000000   0.000000  -0.000001
    27  H    0.000000   0.000000   0.000000   0.000000   0.000000   0.000000
    28  H    0.000000   0.000000   0.000000   0.000000   0.000000   0.000000
    29  H    0.000000   0.000000   0.000000   0.000000   0.000000   0.000024
    30  H    0.000000   0.000000   0.000000   0.000000   0.000000   0.000106
    31  H    0.000000   0.000000   0.000000   0.000003   0.000004   0.000126
    32  H   -0.000001   0.000013   0.000009  -0.000001   0.000003  -0.003490
    33  H    0.000611  -0.001581   0.000425  -0.000159  -0.000013   0.018278
    34  H   -0.002057   0.014739   0.000640  -0.000122  -0.000019  -0.000371
    35  H    0.014477  -0.001813  -0.000009   0.000000   0.000000   0.000000
    36  H   -0.068848   0.014383  -0.000001   0.000000   0.000000   0.000000
    37  H    0.452970  -0.070888  -0.000009   0.000000   0.000000   0.000000
    38  H   -0.067880   0.456844   0.000637  -0.000122  -0.000019  -0.000372
    39  H   -0.000151   0.000756   0.424583  -0.048625   0.005102   0.001315
    40  H    0.000000  -0.000001  -0.078857   0.427546  -0.050629   0.007318
    41  H    0.000000   0.000000   0.000000   0.000000   0.000000   0.000024
    42  H    0.000000   0.000000   0.000000   0.000000   0.000000   0.000000
    43  Ag   0.000001  -0.000004   0.005285  -0.008191   0.036128  -0.013207
              25         26         27         28         29         30
     1  C    0.088168   0.272094   0.450690  -0.071997   0.014407  -0.000035
     2  C   -0.144494   0.090071  -0.068815   0.453015  -0.067701  -0.000150
     3  C    0.068420  -0.144497   0.014380  -0.070860   0.456870   0.000748
     4  C    0.291114   0.093670  -0.001546   0.016274  -0.070203  -0.012003
     5  C   -0.073310   0.011967   0.000021  -0.000368  -0.012150  -0.050090
     6  C   -0.007123   0.000288  -0.000001  -0.000009   0.000629   0.426476
     7  C    0.000119   0.000011   0.000000   0.000000  -0.000127  -0.049076
     8  N   -0.000005   0.000000   0.000000   0.000000  -0.000019   0.005044
     9  C   -0.000954   0.000041   0.000000   0.000000  -0.000376   0.001132
    10  C   -0.010139   0.000510   0.000001  -0.000001  -0.000381   0.014065
    11  C   -0.000316  -0.000273  -0.000001  -0.000003   0.000327  -0.000323
    12  C    0.000095  -0.000020   0.000000   0.000000   0.000021   0.000010
    13  C   -0.000034   0.000001   0.000000   0.000000  -0.000010  -0.000002
    14  C    0.000000   0.000000   0.000000   0.000000   0.000000   0.000000
    15  C    0.000000   0.000000   0.000000   0.000000   0.000000   0.000000
    16  C    0.000000   0.000000   0.000000   0.000000   0.000000   0.000000
    17  C    0.000000   0.000000   0.000000   0.000000   0.000000   0.000000
    18  C    0.000000   0.000000   0.000000   0.000000   0.000000   0.000000
    19  C    0.000000   0.000000   0.000000   0.000000   0.000000   0.000000
    20  C    0.000000   0.000000   0.000000   0.000000   0.000000   0.000000
    21  C    0.000000   0.000000   0.000000   0.000000   0.000000   0.000000
    22  C    0.000000   0.000000   0.000000   0.000000   0.000000   0.000000
    23  N    0.000000   0.000000   0.000000   0.000000   0.000000   0.000000
    24  C    0.000035  -0.000001   0.000000   0.000000   0.000024   0.000106
    25  C    5.044896   0.299082   0.014380  -0.001809   0.014702   0.000749
    26  C    0.299082   5.057089  -0.068815   0.014464  -0.002051  -0.000150
    27  H    0.014380  -0.068815   0.663856  -0.012287  -0.000266  -0.000001
    28  H   -0.001809   0.014464  -0.012287   0.664811  -0.012125   0.000003
    29  H    0.014702  -0.002051  -0.000266  -0.012125   0.663955   0.000225
    30  H    0.000749  -0.000150  -0.000001   0.000003   0.000225   0.645415
    31  H   -0.000002   0.000000   0.000000   0.000000   0.000004  -0.005372
    32  H   -0.001591   0.000610  -0.000004  -0.000006  -0.000085  -0.000009
    33  H    0.000013  -0.000001   0.000000   0.000000   0.000000   0.000000
    34  H    0.000000   0.000000   0.000000   0.000000   0.000000   0.000000
    35  H    0.000000   0.000000   0.000000   0.000000   0.000000   0.000000
    36  H    0.000000   0.000000   0.000000   0.000000   0.000000   0.000000
    37  H    0.000000   0.000000   0.000000   0.000000   0.000000   0.000000
    38  H    0.000000   0.000000   0.000000   0.000000   0.000000   0.000000
    39  H    0.000000   0.000000   0.000000   0.000000   0.000000   0.000000
    40  H    0.000000   0.000000   0.000000   0.000000   0.000000   0.000000
    41  H    0.456868  -0.067699  -0.000266   0.000037  -0.000232   0.000225
    42  H   -0.070859   0.453014  -0.012287  -0.000279   0.000037   0.000003
    43  Ag  -0.000003   0.000001   0.000000   0.000000  -0.000006  -0.000184
              31         32         33         34         35         36
     1  C    0.000000   0.000016   0.000000   0.000000   0.000000   0.000000
     2  C    0.000000   0.000610  -0.000001   0.000000   0.000000   0.000000
     3  C   -0.000002  -0.001590   0.000013   0.000000   0.000000   0.000000
     4  C   -0.000484   0.015005  -0.000011   0.000000   0.000000   0.000000
     5  C    0.007423  -0.039361  -0.000329   0.000000   0.000000   0.000000
     6  C   -0.072316   0.000433   0.000009   0.000000   0.000000   0.000000
     7  C    0.422833  -0.000164  -0.000001   0.000000   0.000000   0.000000
     8  N   -0.052102  -0.000015   0.000003   0.000000   0.000000   0.000000
     9  C    0.007121   0.018327  -0.003565   0.000024   0.000000   0.000000
    10  C    0.000820  -0.049665   0.016713  -0.000010   0.000000   0.000000
    11  C    0.000110   0.463115  -0.081143   0.000020   0.000000   0.000000
    12  C    0.000001  -0.081058   0.463131   0.000318  -0.000003  -0.000001
    13  C    0.000002   0.016595  -0.049778  -0.000379  -0.000001   0.000001
    14  C    0.000000  -0.000332  -0.039273  -0.012129  -0.000368   0.000021
    15  C    0.000000  -0.000010   0.015074  -0.070160   0.016273  -0.001546
    16  C    0.000000   0.000013  -0.001585   0.456842  -0.070886   0.014383
    17  C    0.000000  -0.000001   0.000610  -0.067882   0.452970  -0.068847
    18  C    0.000000   0.000000   0.000016   0.014422  -0.072045   0.450656
    19  C    0.000000  -0.000001   0.000611  -0.002057   0.014477  -0.068848
    20  C    0.000000   0.000013  -0.001581   0.014739  -0.001813   0.014383
    21  C    0.000000   0.000009   0.000425   0.000640  -0.000009  -0.000001
    22  C    0.000003  -0.000001  -0.000159  -0.000122   0.000000   0.000000
    23  N    0.000004   0.000003  -0.000013  -0.000019   0.000000   0.000000
    24  C    0.000126  -0.003490   0.018278  -0.000371   0.000000   0.000000
    25  C   -0.000002  -0.001591   0.000013   0.000000   0.000000   0.000000
    26  C    0.000000   0.000610  -0.000001   0.000000   0.000000   0.000000
    27  H    0.000000  -0.000004   0.000000   0.000000   0.000000   0.000000
    28  H    0.000000  -0.000006   0.000000   0.000000   0.000000   0.000000
    29  H    0.000004  -0.000085   0.000000   0.000000   0.000000   0.000000
    30  H   -0.005372  -0.000009   0.000000   0.000000   0.000000   0.000000
    31  H    0.640978  -0.000003   0.000000   0.000000   0.000000   0.000000
    32  H   -0.000003   0.646930  -0.011576   0.000000   0.000000   0.000000
    33  H    0.000000  -0.011576   0.646966  -0.000087  -0.000006  -0.000004
    34  H    0.000000   0.000000  -0.000087   0.664344  -0.012137  -0.000267
    35  H    0.000000   0.000000  -0.000006  -0.012137   0.665221  -0.012298
    36  H    0.000000   0.000000  -0.000004  -0.000267  -0.012298   0.664222
    37  H    0.000000   0.000000  -0.000006   0.000037  -0.000280  -0.012298
    38  H    0.000000   0.000000  -0.000087  -0.000233   0.000037  -0.000267
    39  H    0.000000   0.000000  -0.000009   0.000229   0.000003  -0.000001
    40  H    0.000000   0.000000  -0.000003   0.000004   0.000000   0.000000
    41  H    0.000004  -0.000085   0.000000   0.000000   0.000000   0.000000
    42  H    0.000000  -0.000006   0.000000   0.000000   0.000000   0.000000
    43  Ag   0.003651   0.000067   0.000059  -0.000005   0.000000   0.000000
              37         38         39         40         41         42
     1  C    0.000000   0.000000   0.000000   0.000000   0.014407  -0.071997
     2  C    0.000000   0.000000   0.000000   0.000000  -0.002051   0.014464
     3  C    0.000000   0.000000   0.000000   0.000000   0.014702  -0.001808
     4  C    0.000000   0.000000   0.000000   0.000000  -0.070202   0.016274
     5  C    0.000000   0.000000   0.000000   0.000000  -0.012151  -0.000368
     6  C    0.000000   0.000000   0.000000   0.000000   0.000630  -0.000009
     7  C    0.000000   0.000000   0.000000   0.000003  -0.000127   0.000000
     8  N    0.000000   0.000000   0.000000   0.000003  -0.000019   0.000000
     9  C    0.000000   0.000024   0.000120   0.000192  -0.000376   0.000000
    10  C    0.000000  -0.000010  -0.000002   0.000004  -0.000381  -0.000001
    11  C    0.000000   0.000020   0.000010   0.000002   0.000326  -0.000003
    12  C   -0.000003   0.000321  -0.000330   0.000109   0.000021   0.000000
    13  C   -0.000001  -0.000378   0.013951   0.000656  -0.000010   0.000000
    14  C   -0.000368  -0.012127  -0.049707   0.007674   0.000000   0.000000
    15  C    0.016273  -0.070162  -0.012127  -0.000508   0.000000   0.000000
    16  C   -0.001813   0.014738   0.000759  -0.000001   0.000000   0.000000
    17  C    0.014477  -0.002057  -0.000151   0.000000   0.000000   0.000000
    18  C   -0.072045   0.014422  -0.000035   0.000000   0.000000   0.000000
    19  C    0.452970  -0.067880  -0.000151   0.000000   0.000000   0.000000
    20  C   -0.070888   0.456844   0.000756  -0.000001   0.000000   0.000000
    21  C   -0.000009   0.000637   0.424583  -0.078857   0.000000   0.000000
    22  C    0.000000  -0.000122  -0.048625   0.427546   0.000000   0.000000
    23  N    0.000000  -0.000019   0.005102  -0.050629   0.000000   0.000000
    24  C    0.000000  -0.000372   0.001315   0.007318   0.000024   0.000000
    25  C    0.000000   0.000000   0.000000   0.000000   0.456868  -0.070859
    26  C    0.000000   0.000000   0.000000   0.000000  -0.067699   0.453014
    27  H    0.000000   0.000000   0.000000   0.000000  -0.000266  -0.012287
    28  H    0.000000   0.000000   0.000000   0.000000   0.000037  -0.000279
    29  H    0.000000   0.000000   0.000000   0.000000  -0.000232   0.000037
    30  H    0.000000   0.000000   0.000000   0.000000   0.000225   0.000003
    31  H    0.000000   0.000000   0.000000   0.000000   0.000004   0.000000
    32  H    0.000000   0.000000   0.000000   0.000000  -0.000085  -0.000006
    33  H   -0.000006  -0.000087  -0.000009  -0.000003   0.000000   0.000000
    34  H    0.000037  -0.000233   0.000229   0.000004   0.000000   0.000000
    35  H   -0.000280   0.000037   0.000003   0.000000   0.000000   0.000000
    36  H   -0.012298  -0.000267  -0.000001   0.000000   0.000000   0.000000
    37  H    0.665221  -0.012137   0.000003   0.000000   0.000000   0.000000
    38  H   -0.012137   0.664335   0.000228   0.000004   0.000000   0.000000
    39  H    0.000003   0.000228   0.647083  -0.005121   0.000000   0.000000
    40  H    0.000000   0.000004  -0.005121   0.651154   0.000000   0.000000
    41  H    0.000000   0.000000   0.000000   0.000000   0.663954  -0.012125
    42  H    0.000000   0.000000   0.000000   0.000000  -0.012125   0.664812
    43  Ag   0.000000  -0.000005  -0.000324  -0.000948  -0.000006   0.000000
              43
     1  C    0.000000
     2  C    0.000001
     3  C   -0.000003
     4  C    0.000245
     5  C   -0.000204
     6  C    0.006587
     7  C   -0.018862
     8  N    0.036406
     9  C   -0.019090
    10  C    0.005309
    11  C   -0.000827
    12  C   -0.000759
    13  C    0.006041
    14  C    0.000139
    15  C    0.000195
    16  C   -0.000004
    17  C    0.000001
    18  C    0.000000
    19  C    0.000001
    20  C   -0.000004
    21  C    0.005285
    22  C   -0.008191
    23  N    0.036128
    24  C   -0.013207
    25  C   -0.000003
    26  C    0.000001
    27  H    0.000000
    28  H    0.000000
    29  H   -0.000006
    30  H   -0.000184
    31  H    0.003651
    32  H    0.000067
    33  H    0.000059
    34  H   -0.000005
    35  H    0.000000
    36  H    0.000000
    37  H    0.000000
    38  H   -0.000005
    39  H   -0.000324
    40  H   -0.000948
    41  H   -0.000006
    42  H    0.000000
    43  Ag  19.140597
          Atomic-Atomic Spin Densities.
               1          2          3          4          5          6
     1  C    0.000021  -0.000005   0.000001  -0.000004  -0.000003   0.000000
     2  C   -0.000005  -0.000015   0.000027   0.000001  -0.000004   0.000000
     3  C    0.000001   0.000027  -0.000160  -0.000030  -0.000022   0.000034
     4  C   -0.000004   0.000001  -0.000030   0.000276  -0.000117  -0.000007
     5  C   -0.000003  -0.000004  -0.000022  -0.000117   0.003070  -0.001698
     6  C    0.000000   0.000000   0.000034  -0.000007  -0.001698  -0.000504
     7  C    0.000000   0.000000  -0.000003   0.000040  -0.000018   0.003546
     8  N    0.000000   0.000000   0.000000   0.000012   0.000122   0.000391
     9  C    0.000000   0.000000   0.000005   0.000029  -0.002538   0.000641
    10  C    0.000001   0.000000   0.000019   0.000037   0.001447  -0.000267
    11  C    0.000000   0.000000   0.000001   0.000051  -0.000680   0.000143
    12  C    0.000000   0.000000   0.000000   0.000004  -0.000101   0.000013
    13  C    0.000000   0.000000   0.000000  -0.000004   0.000191  -0.000030
    14  C    0.000000   0.000000   0.000000   0.000000   0.000003   0.000000
    15  C    0.000000   0.000000   0.000000   0.000000   0.000000   0.000000
    16  C    0.000000   0.000000   0.000000   0.000000   0.000000   0.000000
    17  C    0.000000   0.000000   0.000000   0.000000   0.000000   0.000000
    18  C    0.000000   0.000000   0.000000   0.000000   0.000000   0.000000
    19  C    0.000000   0.000000   0.000000   0.000000   0.000000   0.000000
    20  C    0.000000   0.000000   0.000000   0.000000   0.000000   0.000000
    21  C    0.000000   0.000000   0.000000   0.000000   0.000000   0.000000
    22  C    0.000000   0.000000   0.000000   0.000000  -0.000001   0.000000
    23  N    0.000000   0.000000   0.000000   0.000000   0.000020  -0.000008
    24  C    0.000000   0.000000   0.000000   0.000003  -0.000233   0.000071
    25  C    0.000001  -0.000011   0.000062  -0.000030  -0.000022   0.000034
    26  C   -0.000005   0.000007  -0.000011   0.000001  -0.000004   0.000000
    27  H    0.000000   0.000000   0.000000   0.000000   0.000000   0.000000
    28  H   -0.000001   0.000004  -0.000003   0.000001   0.000001   0.000000
    29  H    0.000001   0.000000   0.000006  -0.000002  -0.000027   0.000007
    30  H    0.000000   0.000000   0.000026  -0.000019  -0.001063  -0.000107
    31  H    0.000000   0.000000   0.000001  -0.000002  -0.000440  -0.000577
    32  H   -0.000002   0.000001  -0.000001  -0.000023   0.000140  -0.000020
    33  H    0.000000   0.000000   0.000000   0.000000   0.000006   0.000000
    34  H    0.000000   0.000000   0.000000   0.000000   0.000000   0.000000
    35  H    0.000000   0.000000   0.000000   0.000000   0.000000   0.000000
    36  H    0.000000   0.000000   0.000000   0.000000   0.000000   0.000000
    37  H    0.000000   0.000000   0.000000   0.000000   0.000000   0.000000
    38  H    0.000000   0.000000   0.000000   0.000000   0.000000   0.000000
    39  H    0.000000   0.000000   0.000000   0.000000   0.000000   0.000000
    40  H    0.000000   0.000000   0.000000   0.000000   0.000000   0.000000
    41  H    0.000001   0.000000   0.000000  -0.000002  -0.000027   0.000007
    42  H   -0.000001   0.000000   0.000000   0.000001   0.000001   0.000000
    43  Ag   0.000000   0.000000   0.000001  -0.000006  -0.000560  -0.000308
               7          8          9         10         11         12
     1  C    0.000000   0.000000   0.000000   0.000001   0.000000   0.000000
     2  C    0.000000   0.000000   0.000000   0.000000   0.000000   0.000000
     3  C   -0.000003   0.000000   0.000005   0.000019   0.000001   0.000000
     4  C    0.000040   0.000012   0.000029   0.000037   0.000051   0.000004
     5  C   -0.000018   0.000122  -0.002538   0.001447  -0.000680  -0.000101
     6  C    0.003546   0.000391   0.000641  -0.000267   0.000143   0.000013
     7  C    0.004452   0.001621   0.001328  -0.000887   0.000048   0.000009
     8  N    0.001621   0.081626  -0.006027   0.001349  -0.000052  -0.000030
     9  C    0.001328  -0.006027  -0.000594  -0.008756   0.001473   0.000619
    10  C   -0.000887   0.001349  -0.008756   0.013539  -0.002516  -0.001341
    11  C    0.000048  -0.000052   0.001473  -0.002516   0.001251   0.000830
    12  C    0.000009  -0.000030   0.000619  -0.001341   0.000830   0.001636
    13  C   -0.000040   0.000585  -0.000947   0.003978  -0.001298  -0.002191
    14  C   -0.000001   0.000019  -0.000028   0.000189  -0.000104  -0.000614
    15  C    0.000000   0.000000   0.000002  -0.000002   0.000003   0.000025
    16  C    0.000000   0.000000   0.000000   0.000000   0.000000   0.000003
    17  C    0.000000   0.000000   0.000000   0.000000   0.000000   0.000000
    18  C    0.000000   0.000000   0.000000   0.000000   0.000000   0.000000
    19  C    0.000000   0.000000   0.000000   0.000000   0.000000   0.000000
    20  C    0.000000   0.000000   0.000000   0.000000   0.000000   0.000003
    21  C    0.000000  -0.000003   0.000046  -0.000017   0.000007   0.000067
    22  C    0.000001  -0.000065   0.000174  -0.000048   0.000009   0.000051
    23  N   -0.000015   0.005195   0.000378   0.000558  -0.000027  -0.000043
    24  C    0.000348  -0.002137   0.009571  -0.003347   0.000995   0.001642
    25  C   -0.000003   0.000000   0.000005   0.000019   0.000001   0.000000
    26  C    0.000000   0.000000   0.000000   0.000000   0.000000   0.000000
    27  H    0.000000   0.000000   0.000000   0.000000   0.000000   0.000000
    28  H    0.000000   0.000000   0.000000   0.000000   0.000000   0.000000
    29  H    0.000000   0.000000   0.000003   0.000003   0.000003   0.000000
    30  H   -0.000981  -0.000044   0.000148   0.000000   0.000012   0.000001
    31  H   -0.005954  -0.004124   0.000590  -0.000192   0.000008   0.000001
    32  H   -0.000004   0.000001  -0.000117   0.000159  -0.000290  -0.000136
    33  H    0.000000   0.000000  -0.000016   0.000075  -0.000107  -0.000200
    34  H    0.000000   0.000000   0.000000   0.000000   0.000000   0.000003
    35  H    0.000000   0.000000   0.000000   0.000000   0.000000   0.000000
    36  H    0.000000   0.000000   0.000000   0.000000   0.000000   0.000000
    37  H    0.000000   0.000000   0.000000   0.000000   0.000000   0.000000
    38  H    0.000000   0.000000   0.000000   0.000000   0.000000   0.000003
    39  H    0.000000   0.000000  -0.000003  -0.000001   0.000001   0.000009
    40  H    0.000000  -0.000057  -0.000013  -0.000008   0.000001   0.000007
    41  H    0.000000   0.000000   0.000003   0.000003   0.000003   0.000000
    42  H    0.000000   0.000000   0.000000   0.000000   0.000000   0.000000
    43  Ag  -0.008275  -0.059165   0.003069  -0.001286   0.000031   0.000023
              13         14         15         16         17         18
     1  C    0.000000   0.000000   0.000000   0.000000   0.000000   0.000000
     2  C    0.000000   0.000000   0.000000   0.000000   0.000000   0.000000
     3  C    0.000000   0.000000   0.000000   0.000000   0.000000   0.000000
     4  C   -0.000004   0.000000   0.000000   0.000000   0.000000   0.000000
     5  C    0.000191   0.000003   0.000000   0.000000   0.000000   0.000000
     6  C   -0.000030   0.000000   0.000000   0.000000   0.000000   0.000000
     7  C   -0.000040  -0.000001   0.000000   0.000000   0.000000   0.000000
     8  N    0.000585   0.000019   0.000000   0.000000   0.000000   0.000000
     9  C   -0.000947  -0.000028   0.000002   0.000000   0.000000   0.000000
    10  C    0.003978   0.000189  -0.000002   0.000000   0.000000   0.000000
    11  C   -0.001298  -0.000104   0.000003   0.000000   0.000000   0.000000
    12  C   -0.002191  -0.000614   0.000025   0.000003   0.000000   0.000000
    13  C    0.009616   0.000623   0.000038   0.000014   0.000000   0.000001
    14  C    0.000623   0.001595  -0.000041  -0.000006  -0.000002  -0.000001
    15  C    0.000038  -0.000041   0.000151  -0.000020   0.000001   0.000000
    16  C    0.000014  -0.000006  -0.000020  -0.000089   0.000013   0.000000
    17  C    0.000000  -0.000002   0.000001   0.000013  -0.000006  -0.000002
    18  C    0.000001  -0.000001   0.000000   0.000000  -0.000002   0.000004
    19  C    0.000000  -0.000002   0.000001  -0.000007   0.000004  -0.000002
    20  C    0.000014  -0.000006  -0.000020   0.000034  -0.000007   0.000000
    21  C   -0.000054  -0.000699  -0.000006   0.000012   0.000000   0.000000
    22  C   -0.000610   0.000110   0.000008  -0.000002   0.000000   0.000000
    23  N    0.001013   0.000161   0.000009   0.000000   0.000000   0.000000
    24  C   -0.008997  -0.001706   0.000004   0.000003   0.000000   0.000000
    25  C    0.000000   0.000000   0.000000   0.000000   0.000000   0.000000
    26  C    0.000000   0.000000   0.000000   0.000000   0.000000   0.000000
    27  H    0.000000   0.000000   0.000000   0.000000   0.000000   0.000000
    28  H    0.000000   0.000000   0.000000   0.000000   0.000000   0.000000
    29  H    0.000000   0.000000   0.000000   0.000000   0.000000   0.000000
    30  H   -0.000001   0.000000   0.000000   0.000000   0.000000   0.000000
    31  H   -0.000008   0.000000   0.000000   0.000000   0.000000   0.000000
    32  H    0.000102   0.000007   0.000000   0.000000   0.000000   0.000000
    33  H    0.000128   0.000107  -0.000015   0.000000   0.000001  -0.000001
    34  H    0.000004  -0.000019  -0.000003   0.000004   0.000000   0.000000
    35  H    0.000000   0.000000   0.000000  -0.000001   0.000003   0.000000
    36  H    0.000000   0.000000   0.000000   0.000000   0.000000   0.000000
    37  H    0.000000   0.000000   0.000000   0.000000   0.000000   0.000000
    38  H    0.000004  -0.000019  -0.000003   0.000000   0.000000   0.000000
    39  H    0.000040  -0.000435  -0.000021   0.000013   0.000000   0.000000
    40  H   -0.000102  -0.000249  -0.000003   0.000001   0.000000   0.000000
    41  H    0.000000   0.000000   0.000000   0.000000   0.000000   0.000000
    42  H    0.000000   0.000000   0.000000   0.000000   0.000000   0.000000
    43  Ag  -0.000696  -0.000239  -0.000004   0.000000   0.000000   0.000000
              19         20         21         22         23         24
     1  C    0.000000   0.000000   0.000000   0.000000   0.000000   0.000000
     2  C    0.000000   0.000000   0.000000   0.000000   0.000000   0.000000
     3  C    0.000000   0.000000   0.000000   0.000000   0.000000   0.000000
     4  C    0.000000   0.000000   0.000000   0.000000   0.000000   0.000003
     5  C    0.000000   0.000000   0.000000  -0.000001   0.000020  -0.000233
     6  C    0.000000   0.000000   0.000000   0.000000  -0.000008   0.000071
     7  C    0.000000   0.000000   0.000000   0.000001  -0.000015   0.000348
     8  N    0.000000   0.000000  -0.000003  -0.000065   0.005195  -0.002137
     9  C    0.000000   0.000000   0.000046   0.000174   0.000378   0.009571
    10  C    0.000000   0.000000  -0.000017  -0.000048   0.000558  -0.003347
    11  C    0.000000   0.000000   0.000007   0.000009  -0.000027   0.000995
    12  C    0.000000   0.000003   0.000067   0.000051  -0.000043   0.001642
    13  C    0.000000   0.000014  -0.000054  -0.000610   0.001013  -0.008997
    14  C   -0.000002  -0.000006  -0.000699   0.000110   0.000161  -0.001706
    15  C    0.000001  -0.000020  -0.000006   0.000008   0.000009   0.000004
    16  C   -0.000007   0.000034   0.000012  -0.000002   0.000000   0.000003
    17  C    0.000004  -0.000007   0.000000   0.000000   0.000000   0.000000
    18  C   -0.000002   0.000000   0.000000   0.000000   0.000000   0.000000
    19  C   -0.000006   0.000013   0.000000   0.000000   0.000000   0.000000
    20  C    0.000013  -0.000089   0.000012  -0.000002   0.000000   0.000003
    21  C    0.000000   0.000012  -0.000442   0.001715   0.000190   0.000371
    22  C    0.000000  -0.000002   0.001715   0.001547  -0.000902   0.001078
    23  N    0.000000   0.000000   0.000190  -0.000902   0.048483  -0.006669
    24  C    0.000000   0.000003   0.000371   0.001078  -0.006669   0.004510
    25  C    0.000000   0.000000   0.000000   0.000000   0.000000   0.000000
    26  C    0.000000   0.000000   0.000000   0.000000   0.000000   0.000000
    27  H    0.000000   0.000000   0.000000   0.000000   0.000000   0.000000
    28  H    0.000000   0.000000   0.000000   0.000000   0.000000   0.000000
    29  H    0.000000   0.000000   0.000000   0.000000   0.000000   0.000000
    30  H    0.000000   0.000000   0.000000   0.000000   0.000000   0.000003
    31  H    0.000000   0.000000   0.000000   0.000000  -0.000055   0.000047
    32  H    0.000000   0.000000   0.000000   0.000000   0.000000  -0.000045
    33  H    0.000001   0.000000  -0.000007  -0.000002   0.000001  -0.000100
    34  H    0.000000   0.000000   0.000003   0.000000   0.000000   0.000003
    35  H    0.000000   0.000000   0.000000   0.000000   0.000000   0.000000
    36  H    0.000000   0.000000   0.000000   0.000000   0.000000   0.000000
    37  H    0.000003  -0.000001   0.000000   0.000000   0.000000   0.000000
    38  H    0.000000   0.000004   0.000003   0.000000   0.000000   0.000003
    39  H    0.000000   0.000013  -0.000037  -0.000643  -0.000030   0.000071
    40  H    0.000000   0.000001  -0.000528  -0.003058  -0.002611   0.000421
    41  H    0.000000   0.000000   0.000000   0.000000   0.000000   0.000000
    42  H    0.000000   0.000000   0.000000   0.000000   0.000000   0.000000
    43  Ag   0.000000   0.000000  -0.000054  -0.002136  -0.034702   0.005050
              25         26         27         28         29         30
     1  C    0.000001  -0.000005   0.000000  -0.000001   0.000001   0.000000
     2  C   -0.000011   0.000007   0.000000   0.000004   0.000000   0.000000
     3  C    0.000062  -0.000011   0.000000  -0.000003   0.000006   0.000026
     4  C   -0.000030   0.000001   0.000000   0.000001  -0.000002  -0.000019
     5  C   -0.000022  -0.000004   0.000000   0.000001  -0.000027  -0.001063
     6  C    0.000034   0.000000   0.000000   0.000000   0.000007  -0.000107
     7  C   -0.000003   0.000000   0.000000   0.000000   0.000000  -0.000981
     8  N    0.000000   0.000000   0.000000   0.000000   0.000000  -0.000044
     9  C    0.000005   0.000000   0.000000   0.000000   0.000003   0.000148
    10  C    0.000019   0.000000   0.000000   0.000000   0.000003   0.000000
    11  C    0.000001   0.000000   0.000000   0.000000   0.000003   0.000012
    12  C    0.000000   0.000000   0.000000   0.000000   0.000000   0.000001
    13  C    0.000000   0.000000   0.000000   0.000000   0.000000  -0.000001
    14  C    0.000000   0.000000   0.000000   0.000000   0.000000   0.000000
    15  C    0.000000   0.000000   0.000000   0.000000   0.000000   0.000000
    16  C    0.000000   0.000000   0.000000   0.000000   0.000000   0.000000
    17  C    0.000000   0.000000   0.000000   0.000000   0.000000   0.000000
    18  C    0.000000   0.000000   0.000000   0.000000   0.000000   0.000000
    19  C    0.000000   0.000000   0.000000   0.000000   0.000000   0.000000
    20  C    0.000000   0.000000   0.000000   0.000000   0.000000   0.000000
    21  C    0.000000   0.000000   0.000000   0.000000   0.000000   0.000000
    22  C    0.000000   0.000000   0.000000   0.000000   0.000000   0.000000
    23  N    0.000000   0.000000   0.000000   0.000000   0.000000   0.000000
    24  C    0.000000   0.000000   0.000000   0.000000   0.000000   0.000003
    25  C   -0.000160   0.000027   0.000000   0.000000   0.000000   0.000026
    26  C    0.000027  -0.000015   0.000000   0.000000   0.000000   0.000000
    27  H    0.000000   0.000000   0.000000   0.000000   0.000000   0.000000
    28  H    0.000000   0.000000   0.000000  -0.000005   0.000000   0.000000
    29  H    0.000000   0.000000   0.000000   0.000000   0.000005   0.000004
    30  H    0.000026   0.000000   0.000000   0.000000   0.000004   0.001977
    31  H    0.000001   0.000000   0.000000   0.000000   0.000000   0.000571
    32  H   -0.000001   0.000001   0.000000   0.000000  -0.000002  -0.000003
    33  H    0.000000   0.000000   0.000000   0.000000   0.000000   0.000000
    34  H    0.000000   0.000000   0.000000   0.000000   0.000000   0.000000
    35  H    0.000000   0.000000   0.000000   0.000000   0.000000   0.000000
    36  H    0.000000   0.000000   0.000000   0.000000   0.000000   0.000000
    37  H    0.000000   0.000000   0.000000   0.000000   0.000000   0.000000
    38  H    0.000000   0.000000   0.000000   0.000000   0.000000   0.000000
    39  H    0.000000   0.000000   0.000000   0.000000   0.000000   0.000000
    40  H    0.000000   0.000000   0.000000   0.000000   0.000000   0.000000
    41  H    0.000006   0.000000   0.000000   0.000000   0.000000   0.000004
    42  H   -0.000003   0.000004   0.000000   0.000000   0.000000   0.000000
    43  Ag   0.000001   0.000000   0.000000   0.000000   0.000000   0.000341
              31         32         33         34         35         36
     1  C    0.000000  -0.000002   0.000000   0.000000   0.000000   0.000000
     2  C    0.000000   0.000001   0.000000   0.000000   0.000000   0.000000
     3  C    0.000001  -0.000001   0.000000   0.000000   0.000000   0.000000
     4  C   -0.000002  -0.000023   0.000000   0.000000   0.000000   0.000000
     5  C   -0.000440   0.000140   0.000006   0.000000   0.000000   0.000000
     6  C   -0.000577  -0.000020   0.000000   0.000000   0.000000   0.000000
     7  C   -0.005954  -0.000004   0.000000   0.000000   0.000000   0.000000
     8  N   -0.004124   0.000001   0.000000   0.000000   0.000000   0.000000
     9  C    0.000590  -0.000117  -0.000016   0.000000   0.000000   0.000000
    10  C   -0.000192   0.000159   0.000075   0.000000   0.000000   0.000000
    11  C    0.000008  -0.000290  -0.000107   0.000000   0.000000   0.000000
    12  C    0.000001  -0.000136  -0.000200   0.000003   0.000000   0.000000
    13  C   -0.000008   0.000102   0.000128   0.000004   0.000000   0.000000
    14  C    0.000000   0.000007   0.000107  -0.000019   0.000000   0.000000
    15  C    0.000000   0.000000  -0.000015  -0.000003   0.000000   0.000000
    16  C    0.000000   0.000000   0.000000   0.000004  -0.000001   0.000000
    17  C    0.000000   0.000000   0.000001   0.000000   0.000003   0.000000
    18  C    0.000000   0.000000  -0.000001   0.000000   0.000000   0.000000
    19  C    0.000000   0.000000   0.000001   0.000000   0.000000   0.000000
    20  C    0.000000   0.000000   0.000000   0.000000   0.000000   0.000000
    21  C    0.000000   0.000000  -0.000007   0.000003   0.000000   0.000000
    22  C    0.000000   0.000000  -0.000002   0.000000   0.000000   0.000000
    23  N   -0.000055   0.000000   0.000001   0.000000   0.000000   0.000000
    24  C    0.000047  -0.000045  -0.000100   0.000003   0.000000   0.000000
    25  C    0.000001  -0.000001   0.000000   0.000000   0.000000   0.000000
    26  C    0.000000   0.000001   0.000000   0.000000   0.000000   0.000000
    27  H    0.000000   0.000000   0.000000   0.000000   0.000000   0.000000
    28  H    0.000000   0.000000   0.000000   0.000000   0.000000   0.000000
    29  H    0.000000  -0.000002   0.000000   0.000000   0.000000   0.000000
    30  H    0.000571  -0.000003   0.000000   0.000000   0.000000   0.000000
    31  H    0.006420   0.000000   0.000000   0.000000   0.000000   0.000000
    32  H    0.000000   0.000403   0.000048   0.000000   0.000000   0.000000
    33  H    0.000000   0.000048   0.000186  -0.000002   0.000000   0.000000
    34  H    0.000000   0.000000  -0.000002   0.000005   0.000000   0.000000
    35  H    0.000000   0.000000   0.000000   0.000000  -0.000004   0.000000
    36  H    0.000000   0.000000   0.000000   0.000000   0.000000   0.000000
    37  H    0.000000   0.000000   0.000000   0.000000   0.000000   0.000000
    38  H    0.000000   0.000000  -0.000002   0.000000   0.000000   0.000000
    39  H    0.000000   0.000000  -0.000001   0.000003   0.000000   0.000000
    40  H    0.000001   0.000000   0.000000   0.000000   0.000000   0.000000
    41  H    0.000000  -0.000002   0.000000   0.000000   0.000000   0.000000
    42  H    0.000000   0.000000   0.000000   0.000000   0.000000   0.000000
    43  Ag   0.012645   0.000003   0.000003   0.000000   0.000000   0.000000
              37         38         39         40         41         42
     1  C    0.000000   0.000000   0.000000   0.000000   0.000001  -0.000001
     2  C    0.000000   0.000000   0.000000   0.000000   0.000000   0.000000
     3  C    0.000000   0.000000   0.000000   0.000000   0.000000   0.000000
     4  C    0.000000   0.000000   0.000000   0.000000  -0.000002   0.000001
     5  C    0.000000   0.000000   0.000000   0.000000  -0.000027   0.000001
     6  C    0.000000   0.000000   0.000000   0.000000   0.000007   0.000000
     7  C    0.000000   0.000000   0.000000   0.000000   0.000000   0.000000
     8  N    0.000000   0.000000   0.000000  -0.000057   0.000000   0.000000
     9  C    0.000000   0.000000  -0.000003  -0.000013   0.000003   0.000000
    10  C    0.000000   0.000000  -0.000001  -0.000008   0.000003   0.000000
    11  C    0.000000   0.000000   0.000001   0.000001   0.000003   0.000000
    12  C    0.000000   0.000003   0.000009   0.000007   0.000000   0.000000
    13  C    0.000000   0.000004   0.000040  -0.000102   0.000000   0.000000
    14  C    0.000000  -0.000019  -0.000435  -0.000249   0.000000   0.000000
    15  C    0.000000  -0.000003  -0.000021  -0.000003   0.000000   0.000000
    16  C    0.000000   0.000000   0.000013   0.000001   0.000000   0.000000
    17  C    0.000000   0.000000   0.000000   0.000000   0.000000   0.000000
    18  C    0.000000   0.000000   0.000000   0.000000   0.000000   0.000000
    19  C    0.000003   0.000000   0.000000   0.000000   0.000000   0.000000
    20  C   -0.000001   0.000004   0.000013   0.000001   0.000000   0.000000
    21  C    0.000000   0.000003  -0.000037  -0.000528   0.000000   0.000000
    22  C    0.000000   0.000000  -0.000643  -0.003058   0.000000   0.000000
    23  N    0.000000   0.000000  -0.000030  -0.002611   0.000000   0.000000
    24  C    0.000000   0.000003   0.000071   0.000421   0.000000   0.000000
    25  C    0.000000   0.000000   0.000000   0.000000   0.000006  -0.000003
    26  C    0.000000   0.000000   0.000000   0.000000   0.000000   0.000004
    27  H    0.000000   0.000000   0.000000   0.000000   0.000000   0.000000
    28  H    0.000000   0.000000   0.000000   0.000000   0.000000   0.000000
    29  H    0.000000   0.000000   0.000000   0.000000   0.000000   0.000000
    30  H    0.000000   0.000000   0.000000   0.000000   0.000004   0.000000
    31  H    0.000000   0.000000   0.000000   0.000001   0.000000   0.000000
    32  H    0.000000   0.000000   0.000000   0.000000  -0.000002   0.000000
    33  H    0.000000  -0.000002  -0.000001   0.000000   0.000000   0.000000
    34  H    0.000000   0.000000   0.000003   0.000000   0.000000   0.000000
    35  H    0.000000   0.000000   0.000000   0.000000   0.000000   0.000000
    36  H    0.000000   0.000000   0.000000   0.000000   0.000000   0.000000
    37  H   -0.000004   0.000000   0.000000   0.000000   0.000000   0.000000
    38  H    0.000000   0.000005   0.000003   0.000000   0.000000   0.000000
    39  H    0.000000   0.000003   0.001015   0.000363   0.000000   0.000000
    40  H    0.000000   0.000000   0.000363   0.004532   0.000000   0.000000
    41  H    0.000000   0.000000   0.000000   0.000000   0.000005   0.000000
    42  H    0.000000   0.000000   0.000000   0.000000   0.000000  -0.000005
    43  Ag   0.000000   0.000000   0.000119   0.006194   0.000000   0.000000
              43
     1  C    0.000000
     2  C    0.000000
     3  C    0.000001
     4  C   -0.000006
     5  C   -0.000560
     6  C   -0.000308
     7  C   -0.008275
     8  N   -0.059165
     9  C    0.003069
    10  C   -0.001286
    11  C    0.000031
    12  C    0.000023
    13  C   -0.000696
    14  C   -0.000239
    15  C   -0.000004
    16  C    0.000000
    17  C    0.000000
    18  C    0.000000
    19  C    0.000000
    20  C    0.000000
    21  C   -0.000054
    22  C   -0.002136
    23  N   -0.034702
    24  C    0.005050
    25  C    0.000001
    26  C    0.000000
    27  H    0.000000
    28  H    0.000000
    29  H    0.000000
    30  H    0.000341
    31  H    0.012645
    32  H    0.000003
    33  H    0.000003
    34  H    0.000000
    35  H    0.000000
    36  H    0.000000
    37  H    0.000000
    38  H    0.000000
    39  H    0.000119
    40  H    0.006194
    41  H    0.000000
    42  H    0.000000
    43  Ag   1.039443
 Mulliken charges and spin densities:
               1          2
     1  C   -0.002283   0.000005
     2  C   -0.009403   0.000005
     3  C    0.032002  -0.000046
     4  C   -0.129333   0.000210
     5  C    0.007957  -0.002557
     6  C   -0.029621   0.001360
     7  C    0.112229  -0.004789
     8  N   -0.168968   0.019216
     9  C    0.054152  -0.000954
    10  C    0.015897   0.002708
    11  C    0.004210  -0.000203
    12  C    0.005294   0.000291
    13  C    0.022608   0.001373
    14  C    0.006071  -0.001355
    15  C   -0.129245   0.000106
    16  C    0.031891  -0.000026
    17  C   -0.009511   0.000004
    18  C   -0.002423   0.000000
    19  C   -0.009511   0.000004
    20  C    0.031871  -0.000026
    21  C   -0.030595   0.000579
    22  C    0.098701  -0.002776
    23  N   -0.137697   0.010944
    24  C    0.019123   0.000962
    25  C    0.031997  -0.000046
    26  C   -0.009406   0.000005
    27  H    0.020961   0.000000
    28  H    0.021140  -0.000004
    29  H    0.014533   0.000001
    30  H    0.023194   0.000893
    31  H    0.047200   0.008932
    32  H    0.027307   0.000218
    33  H    0.027294   0.000102
    34  H    0.014237   0.000001
    35  H    0.020868  -0.000002
    36  H    0.020712   0.000000
    37  H    0.020868  -0.000002
    38  H    0.014245   0.000001
    39  H    0.022441   0.000480
    40  H    0.041400   0.004893
    41  H    0.014533   0.000001
    42  H    0.021139  -0.000004
    43  Ag  -0.178080   0.959495
 Sum of Mulliken charges =   0.00000   1.00000
 Mulliken charges and spin densities with hydrogens summed into heavy atoms:
               1          2
     1  C    0.018679   0.000005
     2  C    0.011737   0.000001
     3  C    0.046535  -0.000044
     4  C   -0.129333   0.000210
     5  C    0.007957  -0.002557
     6  C   -0.006427   0.002253
     7  C    0.159429   0.004142
     8  N   -0.168968   0.019216
     9  C    0.054152  -0.000954
    10  C    0.015897   0.002708
    11  C    0.031516   0.000015
    12  C    0.032589   0.000394
    13  C    0.022608   0.001373
    14  C    0.006071  -0.001355
    15  C   -0.129245   0.000106
    16  C    0.046127  -0.000025
    17  C    0.011357   0.000002
    18  C    0.018290   0.000000
    19  C    0.011357   0.000002
    20  C    0.046116  -0.000025
    21  C   -0.008154   0.001058
    22  C    0.140101   0.002117
    23  N   -0.137697   0.010944
    24  C    0.019123   0.000962
    25  C    0.046530  -0.000044
    26  C    0.011733   0.000001
    43  Ag  -0.178080   0.959495
 Electronic spatial extent (au):  <R**2>=          12921.2894
 Charge=              0.0000 electrons
 Dipole moment (field-independent basis, Debye):
    X=              0.4486    Y=              8.6346    Z=             -2.9982  Tot=              9.1513
 Quadrupole moment (field-independent basis, Debye-Ang):
   XX=           -140.4296   YY=           -212.1570   ZZ=           -169.3835
   XY=             -4.2456   XZ=              1.6723   YZ=             17.8388
 Traceless Quadrupole moment (field-independent basis, Debye-Ang):
   XX=             33.5605   YY=            -38.1670   ZZ=              4.6065
   XY=             -4.2456   XZ=              1.6723   YZ=             17.8388
 Octapole moment (field-independent basis, Debye-Ang**2):
  XXX=             30.4981  YYY=            801.5626  ZZZ=           -233.4609  XYY=             34.2407
  XXY=            172.4631  XXZ=            -72.2090  XZZ=             13.8275  YZZ=            207.9293
  YYZ=           -179.1276  XYZ=             -8.5467
 Hexadecapole moment (field-independent basis, Debye-Ang**3):
 XXXX=         -10352.7899 YYYY=          -9200.7138 ZZZZ=          -1541.1442 XXXY=            -22.8978
 XXXZ=            -23.5448 YYYX=           -252.9963 YYYZ=           1900.7514 ZZZX=              4.9881
 ZZZY=           1278.9180 XXYY=          -2542.8338 XXZZ=          -1854.9311 YYZZ=          -1711.1015
 XXYZ=            291.9423 YYXZ=             66.6226 ZZXY=            -48.0534
 N-N= 2.347813928205D+03 E-N=-7.402797418133D+03  KE= 1.078187995323D+03
                          Isotropic Fermi Contact Couplings
        Atom                 a.u.       MegaHertz       Gauss      10(-4) cm-1
     1  C(13)              0.00000       0.00208       0.00074       0.00069
     2  C(13)             -0.00001      -0.01631      -0.00582      -0.00544
     3  C(13)             -0.00012      -0.13400      -0.04781      -0.04470
     4  C(13)              0.00006       0.06552       0.02338       0.02186
     5  C(13)              0.00013       0.14990       0.05349       0.05000
     6  C(13)             -0.00009      -0.09999      -0.03568      -0.03335
     7  C(13)              0.00004       0.04098       0.01462       0.01367
     8  N(14)              0.09854      31.83740      11.36038      10.61981
     9  C(13)              0.00235       2.64712       0.94456       0.88298
    10  C(13)              0.00410       4.61325       1.64612       1.53881
    11  C(13)              0.00058       0.64939       0.23172       0.21661
    12  C(13)              0.00049       0.54603       0.19484       0.18214
    13  C(13)              0.00261       2.93119       1.04592       0.97774
    14  C(13)             -0.00007      -0.07610      -0.02715      -0.02538
    15  C(13)              0.00003       0.03251       0.01160       0.01084
    16  C(13)             -0.00006      -0.07291      -0.02602      -0.02432
    17  C(13)             -0.00001      -0.00863      -0.00308      -0.00288
    18  C(13)              0.00000       0.00040       0.00014       0.00013
    19  C(13)             -0.00001      -0.00863      -0.00308      -0.00288
    20  C(13)             -0.00006      -0.07292      -0.02602      -0.02432
    21  C(13)              0.00008       0.09532       0.03401       0.03180
    22  C(13)             -0.00098      -1.10580      -0.39458      -0.36886
    23  N(14)              0.05910      19.09389       6.81317       6.36904
    24  C(13)              0.00290       3.25952       1.16308       1.08726
    25  C(13)             -0.00012      -0.13399      -0.04781      -0.04470
    26  C(13)             -0.00001      -0.01632      -0.00582      -0.00544
    27  H(1)               0.00000      -0.00033      -0.00012      -0.00011
    28  H(1)               0.00000      -0.00522      -0.00186      -0.00174
    29  H(1)               0.00000       0.00325       0.00116       0.00108
    30  H(1)               0.00021       0.92843       0.33129       0.30969
    31  H(1)              -0.00001      -0.04491      -0.01602      -0.01498
    32  H(1)               0.00006       0.26235       0.09361       0.08751
    33  H(1)               0.00002       0.10115       0.03609       0.03374
    34  H(1)               0.00000       0.00166       0.00059       0.00055
    35  H(1)               0.00000      -0.00303      -0.00108      -0.00101
    36  H(1)               0.00000       0.00006       0.00002       0.00002
    37  H(1)               0.00000      -0.00303      -0.00108      -0.00101
    38  H(1)               0.00000       0.00166       0.00059       0.00055
    39  H(1)               0.00012       0.51461       0.18363       0.17166
    40  H(1)               0.00005       0.21217       0.07571       0.07077
    41  H(1)               0.00000       0.00324       0.00116       0.00108
    42  H(1)               0.00000      -0.00522      -0.00186      -0.00174
    43  Ag(107             0.00026      -0.04654      -0.01661      -0.01552
 --------------------------------------------------------
       Center         ----  Spin Dipole Couplings  ----
                      3XX-RR        3YY-RR        3ZZ-RR
 --------------------------------------------------------
     1   Atom       -0.000046      0.000161     -0.000115
     2   Atom       -0.000061      0.000225     -0.000164
     3   Atom       -0.000103      0.000351     -0.000248
     4   Atom       -0.000069      0.000436     -0.000367
     5   Atom        0.000772      0.001920     -0.002691
     6   Atom       -0.000360      0.000596     -0.000237
     7   Atom        0.005124      0.002761     -0.007885
     8   Atom       -0.012896      0.032350     -0.019454
     9   Atom       -0.001405      0.004851     -0.003446
    10   Atom       -0.001649      0.002794     -0.001144
    11   Atom       -0.000516      0.001147     -0.000631
    12   Atom       -0.000636      0.000837     -0.000201
    13   Atom       -0.000678      0.001941     -0.001263
    14   Atom        0.000539      0.001117     -0.001656
    15   Atom       -0.000007      0.000318     -0.000311
    16   Atom       -0.000023      0.000259     -0.000237
    17   Atom       -0.000011      0.000165     -0.000154
    18   Atom       -0.000008      0.000116     -0.000108
    19   Atom       -0.000010      0.000103     -0.000093
    20   Atom       -0.000021      0.000170     -0.000148
    21   Atom        0.000236      0.000392     -0.000628
    22   Atom        0.003910      0.000869     -0.004779
    23   Atom       -0.002647      0.015964     -0.013318
    24   Atom       -0.001030      0.003292     -0.002261
    25   Atom       -0.000104      0.000261     -0.000157
    26   Atom       -0.000062      0.000151     -0.000089
    27   Atom       -0.000036      0.000119     -0.000082
    28   Atom       -0.000055      0.000198     -0.000143
    29   Atom       -0.000140      0.000478     -0.000339
    30   Atom        0.000506      0.000178     -0.000685
    31   Atom        0.002435      0.001023     -0.003457
    32   Atom       -0.000350      0.000634     -0.000284
    33   Atom       -0.000294      0.000562     -0.000268
    34   Atom       -0.000044      0.000346     -0.000301
    35   Atom       -0.000015      0.000148     -0.000133
    36   Atom       -0.000006      0.000086     -0.000080
    37   Atom       -0.000014      0.000064     -0.000049
    38   Atom       -0.000041      0.000106     -0.000065
    39   Atom        0.000600     -0.000016     -0.000584
    40   Atom        0.002949     -0.000477     -0.002472
    41   Atom       -0.000143      0.000183     -0.000040
    42   Atom       -0.000056      0.000098     -0.000042
    43   Atom        0.006187     -0.028443      0.022257
 --------------------------------------------------------
                        XY            XZ            YZ
 --------------------------------------------------------
     1   Atom       -0.000166      0.000058     -0.000111
     2   Atom       -0.000196      0.000037     -0.000079
     3   Atom       -0.000309      0.000072     -0.000147
     4   Atom       -0.000367      0.000130     -0.000321
     5   Atom       -0.000830      0.000316     -0.001830
     6   Atom       -0.001537      0.000534     -0.000342
     7   Atom        0.000972     -0.000239     -0.004200
     8   Atom       -0.039230      0.013734     -0.020827
     9   Atom        0.000382     -0.000111     -0.003277
    10   Atom       -0.001879      0.000653     -0.001573
    11   Atom        0.000085     -0.000027     -0.000703
    12   Atom        0.000280     -0.000099     -0.000408
    13   Atom        0.001803     -0.000620     -0.001252
    14   Atom        0.000864     -0.000283     -0.001089
    15   Atom        0.000400     -0.000136     -0.000245
    16   Atom        0.000333     -0.000065     -0.000102
    17   Atom        0.000211     -0.000037     -0.000061
    18   Atom        0.000177     -0.000061     -0.000087
    19   Atom        0.000190     -0.000100     -0.000139
    20   Atom        0.000304     -0.000154     -0.000215
    21   Atom        0.001368     -0.000469     -0.000391
    22   Atom        0.000662     -0.000165     -0.002228
    23   Atom        0.027052     -0.009305     -0.011344
    24   Atom        0.001506     -0.000511     -0.002184
    25   Atom       -0.000286      0.000136     -0.000260
    26   Atom       -0.000175      0.000094     -0.000172
    27   Atom       -0.000128      0.000045     -0.000081
    28   Atom       -0.000173      0.000016     -0.000033
    29   Atom       -0.000368      0.000002     -0.000022
    30   Atom       -0.001109      0.000394     -0.000351
    31   Atom       -0.004014      0.001439     -0.001806
    32   Atom       -0.000098      0.000035     -0.000364
    33   Atom        0.000245     -0.000085     -0.000326
    34   Atom        0.000388      0.000003     -0.000007
    35   Atom        0.000181     -0.000014     -0.000023
    36   Atom        0.000133     -0.000045     -0.000064
    37   Atom        0.000152     -0.000100     -0.000130
    38   Atom        0.000306     -0.000241     -0.000311
    39   Atom        0.000865     -0.000292     -0.000217
    40   Atom        0.002745     -0.000916     -0.000765
    41   Atom       -0.000287      0.000227     -0.000395
    42   Atom       -0.000144      0.000096     -0.000160
    43   Atom        0.003724     -0.001452      0.020076
 --------------------------------------------------------


 ---------------------------------------------------------------------------------
              Anisotropic Spin Dipole Couplings in Principal Axis System
 ---------------------------------------------------------------------------------

       Atom             a.u.   MegaHertz   Gauss  10(-4) cm-1        Axes

              Baa    -0.0002    -0.021    -0.007    -0.007 -0.0063  0.3283  0.9445
     1 C(13)  Bbb    -0.0001    -0.018    -0.007    -0.006  0.8870  0.4380 -0.1463
              Bcc     0.0003     0.039     0.014     0.013 -0.4617  0.8369 -0.2940
 
              Baa    -0.0002    -0.024    -0.009    -0.008  0.0735  0.2261  0.9713
     2 C(13)  Bbb    -0.0002    -0.021    -0.008    -0.007  0.8923  0.4201 -0.1653
              Bcc     0.0003     0.046     0.016     0.015 -0.4454  0.8789 -0.1708
 
              Baa    -0.0003    -0.038    -0.014    -0.013 -0.0229  0.2156  0.9762
     3 C(13)  Bbb    -0.0003    -0.035    -0.012    -0.012  0.8969  0.4357 -0.0753
              Bcc     0.0005     0.073     0.026     0.024 -0.4416  0.8739 -0.2034
 
              Baa    -0.0005    -0.064    -0.023    -0.021 -0.0062  0.3284  0.9445
     4 C(13)  Bbb    -0.0003    -0.035    -0.012    -0.012  0.9003  0.4130 -0.1377
              Bcc     0.0007     0.099     0.035     0.033 -0.4353  0.8495 -0.2982
 
              Baa    -0.0033    -0.447    -0.159    -0.149 -0.0063  0.3283  0.9445
     5 C(13)  Bbb     0.0004     0.054     0.019     0.018  0.9245  0.3620 -0.1196
              Bcc     0.0029     0.392     0.140     0.131 -0.3812  0.8724 -0.3058
 
              Baa    -0.0015    -0.206    -0.074    -0.069  0.8107  0.5547 -0.1873
     6 C(13)  Bbb    -0.0004    -0.048    -0.017    -0.016 -0.0063  0.3283  0.9446
              Bcc     0.0019     0.254     0.091     0.085 -0.5854  0.7646 -0.2696
 
              Baa    -0.0093    -1.254    -0.447    -0.418 -0.0065  0.3283  0.9446
     7 C(13)  Bbb     0.0036     0.480     0.171     0.160 -0.5414  0.7930 -0.2793
              Bcc     0.0058     0.774     0.276     0.258  0.8408  0.5132 -0.1726
 
              Baa    -0.0358    -1.380    -0.493    -0.460  0.8759  0.4575 -0.1531
     8 N(14)  Bbb    -0.0268    -1.033    -0.369    -0.345 -0.0064  0.3284  0.9445
              Bcc     0.0626     2.413     0.861     0.805 -0.4824  0.8263 -0.2906
 
              Baa    -0.0046    -0.615    -0.220    -0.205 -0.0064  0.3283  0.9445
     9 C(13)  Bbb    -0.0014    -0.191    -0.068    -0.064  0.9985 -0.0484  0.0236
              Bcc     0.0060     0.807     0.288     0.269  0.0535  0.9433 -0.3275
 
              Baa    -0.0023    -0.315    -0.112    -0.105  0.9440  0.3137 -0.1025
    10 C(13)  Bbb    -0.0017    -0.228    -0.081    -0.076 -0.0065  0.3282  0.9446
              Bcc     0.0040     0.542     0.193     0.181 -0.3300  0.8910 -0.3119
 
              Baa    -0.0009    -0.117    -0.042    -0.039 -0.0062  0.3284  0.9445
    11 C(13)  Bbb    -0.0005    -0.070    -0.025    -0.023  0.9989 -0.0422  0.0212
              Bcc     0.0014     0.187     0.067     0.062  0.0468  0.9436 -0.3278
 
              Baa    -0.0007    -0.093    -0.033    -0.031  0.9844 -0.1638  0.0637
    12 C(13)  Bbb    -0.0003    -0.046    -0.016    -0.015 -0.0065  0.3282  0.9446
              Bcc     0.0010     0.138     0.049     0.046  0.1756  0.9303 -0.3221
 
              Baa    -0.0017    -0.227    -0.081    -0.076 -0.0054  0.3280  0.9447
    13 C(13)  Bbb    -0.0016    -0.214    -0.076    -0.071  0.9013 -0.4076  0.1467
              Bcc     0.0033     0.441     0.157     0.147  0.4332  0.8522 -0.2934
 
              Baa    -0.0020    -0.273    -0.097    -0.091 -0.0064  0.3284  0.9445
    14 C(13)  Bbb     0.0000    -0.001     0.000     0.000  0.8557 -0.4869  0.1751
              Bcc     0.0020     0.274     0.098     0.091  0.5174  0.8094 -0.2779
 
              Baa    -0.0004    -0.053    -0.019    -0.018 -0.0061  0.3281  0.9446
    15 C(13)  Bbb    -0.0003    -0.036    -0.013    -0.012  0.8472 -0.5001  0.1791
              Bcc     0.0007     0.090     0.032     0.030  0.5312  0.8014 -0.2750
 
              Baa    -0.0003    -0.034    -0.012    -0.011 -0.0300  0.2114  0.9769
    16 C(13)  Bbb    -0.0002    -0.033    -0.012    -0.011  0.8380 -0.5274  0.1399
              Bcc     0.0005     0.067     0.024     0.022  0.5448  0.8229 -0.1614
 
              Baa    -0.0002    -0.022    -0.008    -0.007 -0.0938  0.2375  0.9669
    17 C(13)  Bbb    -0.0002    -0.020    -0.007    -0.007  0.8311 -0.5160  0.2073
              Bcc     0.0003     0.042     0.015     0.014  0.5481  0.8230 -0.1490
 
              Baa    -0.0001    -0.019    -0.007    -0.006 -0.0068  0.3286  0.9444
    18 C(13)  Bbb    -0.0001    -0.018    -0.006    -0.006  0.8311 -0.5233  0.1881
              Bcc     0.0003     0.036     0.013     0.012  0.5561  0.7862 -0.2695
 
              Baa    -0.0002    -0.022    -0.008    -0.007  0.0818  0.4134  0.9069
    19 C(13)  Bbb    -0.0002    -0.020    -0.007    -0.007  0.8314 -0.5301  0.1667
              Bcc     0.0003     0.042     0.015     0.014  0.5496  0.7403 -0.3871
 
              Baa    -0.0003    -0.034    -0.012    -0.011  0.0226  0.4370  0.8992
    20 C(13)  Bbb    -0.0002    -0.033    -0.012    -0.011  0.8373 -0.4998  0.2219
              Bcc     0.0005     0.067     0.024     0.022  0.5463  0.7478 -0.3772
 
              Baa    -0.0011    -0.144    -0.051    -0.048  0.7414 -0.6322  0.2249
    21 C(13)  Bbb    -0.0008    -0.102    -0.036    -0.034 -0.0066  0.3284  0.9445
              Bcc     0.0018     0.246     0.088     0.082  0.6710  0.7018 -0.2393
 
              Baa    -0.0056    -0.745    -0.266    -0.249 -0.0065  0.3284  0.9445
    22 C(13)  Bbb     0.0015     0.195     0.070     0.065 -0.2668  0.9097 -0.3181
              Bcc     0.0041     0.550     0.196     0.183  0.9637  0.2541 -0.0817
 
              Baa    -0.0221    -0.854    -0.305    -0.285  0.8264 -0.5302  0.1899
    23 N(14)  Bbb    -0.0172    -0.663    -0.237    -0.221 -0.0064  0.3283  0.9445
              Bcc     0.0393     1.517     0.541     0.506  0.5631  0.7818 -0.2679
 
              Baa    -0.0030    -0.405    -0.144    -0.135 -0.0062  0.3284  0.9445
    24 C(13)  Bbb    -0.0015    -0.200    -0.071    -0.067  0.9611 -0.2589  0.0964
              Bcc     0.0045     0.604     0.216     0.202  0.2762  0.9084 -0.3140
 
              Baa    -0.0003    -0.038    -0.014    -0.013  0.0128  0.4375  0.8991
    25 C(13)  Bbb    -0.0003    -0.035    -0.012    -0.012  0.8978  0.3909 -0.2030
              Bcc     0.0005     0.073     0.026     0.024 -0.4403  0.8098 -0.3878
 
              Baa    -0.0002    -0.024    -0.009    -0.008 -0.0857  0.4250  0.9011
    26 C(13)  Bbb    -0.0002    -0.021    -0.008    -0.007  0.8920  0.4357 -0.1206
              Bcc     0.0003     0.046     0.016     0.015 -0.4438  0.7935 -0.4164
 
              Baa    -0.0001    -0.059    -0.021    -0.020 -0.0062  0.3284  0.9445
    27 H(1)   Bbb    -0.0001    -0.058    -0.021    -0.019  0.8830  0.4451 -0.1489
              Bcc     0.0002     0.117     0.042     0.039 -0.4693  0.8331 -0.2927
 
              Baa    -0.0001    -0.078    -0.028    -0.026  0.1929  0.1893  0.9628
    28 H(1)   Bbb    -0.0001    -0.076    -0.027    -0.025  0.8713  0.4183 -0.2568
              Bcc     0.0003     0.154     0.055     0.051 -0.4513  0.8884 -0.0843
 
              Baa    -0.0003    -0.182    -0.065    -0.061  0.1960  0.1137  0.9740
    29 H(1)   Bbb    -0.0003    -0.165    -0.059    -0.055  0.8851  0.4070 -0.2257
              Bcc     0.0007     0.347     0.124     0.116 -0.4221  0.9063 -0.0208
 
              Baa    -0.0008    -0.432    -0.154    -0.144 -0.0065  0.3282  0.9446
    30 H(1)   Bbb    -0.0008    -0.415    -0.148    -0.138  0.6759  0.6976 -0.2377
              Bcc     0.0016     0.846     0.302     0.282  0.7369 -0.6369  0.2264
 
              Baa    -0.0041    -2.185    -0.780    -0.729 -0.0064  0.3284  0.9445
    31 H(1)   Bbb    -0.0022    -1.192    -0.425    -0.398  0.6743  0.6989 -0.2384
              Bcc     0.0063     3.377     1.205     1.126  0.7384 -0.6354  0.2259
 
              Baa    -0.0004    -0.219    -0.078    -0.073 -0.0061  0.3283  0.9445
    32 H(1)   Bbb    -0.0004    -0.192    -0.068    -0.064  0.9957  0.0894 -0.0247
              Bcc     0.0008     0.411     0.147     0.137 -0.0926  0.9403 -0.3275
 
              Baa    -0.0004    -0.203    -0.073    -0.068 -0.0061  0.3282  0.9446
    33 H(1)   Bbb    -0.0004    -0.192    -0.068    -0.064  0.9699 -0.2281  0.0855
              Bcc     0.0007     0.395     0.141     0.132  0.2436  0.9166 -0.3170
 
              Baa    -0.0003    -0.162    -0.058    -0.054 -0.2458  0.1571  0.9565
    34 H(1)   Bbb    -0.0003    -0.150    -0.054    -0.050  0.8150 -0.5006  0.2917
              Bcc     0.0006     0.312     0.111     0.104  0.5247  0.8513 -0.0050
 
              Baa    -0.0001    -0.072    -0.026    -0.024 -0.2166  0.2155  0.9522
    35 H(1)   Bbb    -0.0001    -0.070    -0.025    -0.023  0.8124 -0.5010  0.2982
              Bcc     0.0003     0.142     0.051     0.047  0.5413  0.8382 -0.0665
 
              Baa    -0.0001    -0.054    -0.019    -0.018 -0.0062  0.3282  0.9446
    36 H(1)   Bbb    -0.0001    -0.053    -0.019    -0.018  0.8300 -0.5251  0.1879
              Bcc     0.0002     0.108     0.039     0.036  0.5577  0.7852 -0.2692
 
              Baa    -0.0001    -0.072    -0.026    -0.024  0.2045  0.4223  0.8831
    37 H(1)   Bbb    -0.0001    -0.070    -0.025    -0.023  0.8139 -0.5745  0.0863
              Bcc     0.0003     0.142     0.051     0.047  0.5438  0.7011 -0.4612
 
              Baa    -0.0003    -0.162    -0.058    -0.054  0.2347  0.4703  0.8507
    38 H(1)   Bbb    -0.0003    -0.150    -0.054    -0.050  0.8162 -0.5707  0.0902
              Bcc     0.0006     0.312     0.111     0.104  0.5279  0.6732 -0.5178
 
              Baa    -0.0007    -0.351    -0.125    -0.117 -0.0061  0.3280  0.9447
    39 H(1)   Bbb    -0.0006    -0.333    -0.119    -0.111 -0.5980  0.7559 -0.2664
              Bcc     0.0013     0.684     0.244     0.228  0.8015  0.5665 -0.1915
 
              Baa    -0.0027    -1.458    -0.520    -0.486 -0.0064  0.3283  0.9446
    40 H(1)   Bbb    -0.0019    -1.031    -0.368    -0.344 -0.5099  0.8114 -0.2855
              Bcc     0.0047     2.489     0.888     0.830  0.8602  0.4835 -0.1622
 
              Baa    -0.0003    -0.182    -0.065    -0.061 -0.2076  0.5144  0.8320
    41 H(1)   Bbb    -0.0003    -0.165    -0.059    -0.055  0.8841  0.4627 -0.0655
              Bcc     0.0007     0.347     0.124     0.116 -0.4187  0.7220 -0.5508
 
              Baa    -0.0001    -0.078    -0.028    -0.026 -0.2051  0.4479  0.8703
    42 H(1)   Bbb    -0.0001    -0.076    -0.027    -0.025  0.8699  0.4910 -0.0477
              Bcc     0.0003     0.154     0.055     0.051 -0.4487  0.7472 -0.4903
 
              Baa    -0.0358     0.777     0.277     0.259 -0.0947  0.9401 -0.3274
    43 Ag(107 Bbb     0.0066    -0.142    -0.051    -0.048  0.9955  0.0915 -0.0250
              Bcc     0.0292    -0.635    -0.226    -0.212 -0.0064  0.3283  0.9446
 

 ---------------------------------------------------------------------------------

 No NMR shielding tensors so no spin-rotation constants.
 Leave Link  601 at Fri Sep 11 22:20:18 2026, MaxMem=  6442450944 cpu:               3.0 elap:               3.0
 (Enter C:\G16W\l9999.exe)
 Unable to Open any file for archive entry.
 1|1|UNPC-DESKTOP-2JKEGCA|SP|UPBE1PBE|def2SVP|C24H16Ag1N2(2)|JHKIM|11-S
 ep-2026|0||#P PBE1PBE/Def2SVP EmpiricalDispersion=GD3BJ SP SCF=(XQC,Ma
 xCycle=128) NoSymm Guess=Read||Bphen t=0.000 dz=+0.40 class=toface||0,
 2|C,0,-5.075104,2.596057,-0.848582|C,0,-4.715716,2.434163,0.478857|C,0
 ,-3.985648,1.326254,0.870754|C,0,-3.608814,0.370482,-0.0652|C,0,-2.849
 893,-0.827816,0.356392|C,0,-3.512903,-1.97087,0.7492|C,0,-2.764008,-3.
 084836,1.14144|N,0,-1.457428,-3.11297,1.160054|C,0,-0.787031,-2.018643
 ,0.784213|C,0,-1.437298,-0.832182,0.367434|C,0,-0.667287,0.300298,-0.0
 21018|C,0,0.685824,0.263426,0.000908|C,0,1.380055,-0.908949,0.413101|C
 ,0,2.790408,-0.981482,0.44787|C,0,3.626694,0.173326,0.052066|C,0,4.025
 328,1.1075,1.000707|C,0,4.826918,2.173661,0.633555|C,0,5.236571,2.3150
 29,-0.681611|C,0,4.841079,1.387397,-1.630584|C,0,4.039486,0.320062,-1.
 266868|C,0,3.377135,-2.158548,0.861055|C,0,2.556396,-3.229745,1.227851
 |N,0,1.250307,-3.186722,1.204024|C,0,0.653004,-2.057874,0.807573|C,0,-
 3.970941,0.537891,-1.396496|C,0,-4.70102,1.647,-1.784966|H,0,-5.646599
 ,3.460423,-1.152844|H,0,-5.005817,3.172287,1.212213|H,0,-3.703341,1.19
 5908,1.905798|H,0,-4.592243,-2.003673,0.753324|H,0,-3.258742,-3.995483
 ,1.454638|H,0,-1.191655,1.191943,-0.334479|H,0,1.267832,1.124926,-0.29
 4617|H,0,3.703614,0.993274,2.026112|H,0,5.133493,2.89518,1.376669|H,0,
 5.863825,3.146713,-0.966506|H,0,5.158745,1.49424,-2.657458|H,0,3.72879
 3,-0.40634,-2.004305|H,0,4.452389,-2.250041,0.900153|H,0,2.990418,-4.1
 65689,1.556131|H,0,-3.677198,-0.205338,-2.124046|H,0,-4.979626,1.76976
 2,-2.821356|Ag,0,-0.40473679,-5.24498013,1.90824718||Version=EM64W-G16
 RevC.01|HF=-1178.7788599|S2=0.751995|S2-1=0.|S2A=0.750003|RMSD=7.171e-
 009|Dipole=0.1764936,3.3971089,-1.1795664|Quadrupole=24.9513969,-28.37
 6207,3.4248102,-3.1565363,1.2433166,13.2626812|PG=C01 [X(C24H16Ag1N2)]
 ||@
 The archive entry for this job was punched.


 QUHEN THE CAUSS IS TAKEN AWAY THE EFFECT WANISHETH.
 -- PROVERBS AND REASONS OF THE YEAR 1585
           AS REPRINTED IN PAISLEY MAGAZINE 1828.
 Job cpu time:       0 days  0 hours 12 minutes 20.0 seconds.
 Elapsed time:       0 days  0 hours 12 minutes 17.9 seconds.
 File lengths (MBytes):  RWF=    212 Int=      0 D2E=      0 Chk=     17 Scr=      1
 Normal termination of Gaussian 16 at Fri Sep 11 22:20:18 2026.
