 Entering Gaussian System, Link 0=C:\G16W\g16.exe
 Input=Bphen_t1_z0.gjf
 Output=Bphen_t1_z0.out
 Initial command:
 C:\G16W\l1.exe ".\Gau-98520.inp" "Bphen_t1_z0.out" /scrdir=".\"
 Entering Link 1 = C:\G16W\l1.exe PID=     15224.
  
 Copyright (c) 1988-2019, Gaussian, Inc.  All Rights Reserved.
  
 This is part of the Gaussian(R) 16 program.  It is based on
 the Gaussian(R) 09 system (copyright 2009, Gaussian, Inc.),
 the Gaussian(R) 03 system (copyright 2003, Gaussian, Inc.),
 the Gaussian(R) 98 system (copyright 1998, Gaussian, Inc.),
 the Gaussian(R) 94 system (copyright 1995, Gaussian, Inc.),
 the Gaussian 92(TM) system (copyright 1992, Gaussian, Inc.),
 the Gaussian 90(TM) system (copyright 1990, Gaussian, Inc.),
 the Gaussian 88(TM) system (copyright 1988, Gaussian, Inc.),
 the Gaussian 86(TM) system (copyright 1986, Carnegie Mellon
 University), and the Gaussian 82(TM) system (copyright 1983,
 Carnegie Mellon University). Gaussian is a federally registered
 trademark of Gaussian, Inc.
  
 This software contains proprietary and confidential information,
 including trade secrets, belonging to Gaussian, Inc.
  
 This software is provided under written license and may be
 used, copied, transmitted, or stored only in accord with that
 written license.
  
 The following legend is applicable only to US Government
 contracts under FAR:
  
                    RESTRICTED RIGHTS LEGEND
  
 Use, reproduction and disclosure by the US Government is
 subject to restrictions as set forth in subparagraphs (a)
 and (c) of the Commercial Computer Software - Restricted
 Rights clause in FAR 52.227-19.
  
 Gaussian, Inc.
 340 Quinnipiac St., Bldg. 40, Wallingford CT 06492
  
  
 ---------------------------------------------------------------
 Warning -- This program may not be used in any manner that
 competes with the business of Gaussian, Inc. or will provide
 assistance to any competitor of Gaussian, Inc.  The licensee
 of this program is prohibited from giving any competitor of
 Gaussian, Inc. access to this program.  By using this program,
 the user acknowledges that Gaussian, Inc. is engaged in the
 business of creating and licensing software in the field of
 computational chemistry and represents and warrants to the
 licensee that it is not a competitor of Gaussian, Inc. and that
 it will not use this program in any manner prohibited above.
 ---------------------------------------------------------------
  

 Cite this work as:
 Gaussian 16, Revision C.01,
 M. J. Frisch, G. W. Trucks, H. B. Schlegel, G. E. Scuseria, 
 M. A. Robb, J. R. Cheeseman, G. Scalmani, V. Barone, 
 G. A. Petersson, H. Nakatsuji, X. Li, M. Caricato, A. V. Marenich, 
 J. Bloino, B. G. Janesko, R. Gomperts, B. Mennucci, H. P. Hratchian, 
 J. V. Ortiz, A. F. Izmaylov, J. L. Sonnenberg, D. Williams-Young, 
 F. Ding, F. Lipparini, F. Egidi, J. Goings, B. Peng, A. Petrone, 
 T. Henderson, D. Ranasinghe, V. G. Zakrzewski, J. Gao, N. Rega, 
 G. Zheng, W. Liang, M. Hada, M. Ehara, K. Toyota, R. Fukuda, 
 J. Hasegawa, M. Ishida, T. Nakajima, Y. Honda, O. Kitao, H. Nakai, 
 T. Vreven, K. Throssell, J. A. Montgomery, Jr., J. E. Peralta, 
 F. Ogliaro, M. J. Bearpark, J. J. Heyd, E. N. Brothers, K. N. Kudin, 
 V. N. Staroverov, T. A. Keith, R. Kobayashi, J. Normand, 
 K. Raghavachari, A. P. Rendell, J. C. Burant, S. S. Iyengar, 
 J. Tomasi, M. Cossi, J. M. Millam, M. Klene, C. Adamo, R. Cammi, 
 J. W. Ochterski, R. L. Martin, K. Morokuma, O. Farkas, 
 J. B. Foresman, and D. J. Fox, Gaussian, Inc., Wallingford CT, 2019.
 
 ******************************************
 Gaussian 16:  EM64W-G16RevC.01 30-May-2019
                11-Sep-2026 
 ******************************************
 %Chk=Bphen.chk
 %NProcShared=8
 Will use up to    8 processors via shared memory.
 %Mem=48GB
 ----------------------------------------------------------------------
 #P PBE1PBE/Def2SVP EmpiricalDispersion=GD3BJ SP SCF=(XQC,MaxCycle=128)
  NoSymm Guess=Read
 ----------------------------------------------------------------------
 1/38=1,172=1/1;
 2/12=2,15=1,17=6,18=5,40=1/2;
 3/5=43,7=101,11=2,25=1,30=1,74=-13,116=-2,124=41/1,2,3;
 4/5=1/1;
 5/5=2,7=128,8=3,13=1,38=6/2,8;
 6/7=2,8=2,9=2,10=2,28=1/1;
 99/5=1,9=1/99;
 Leave Link    1 at Fri Sep 11 22:20:19 2026, MaxMem=  6442450944 cpu:               1.0 elap:               0.3
 (Enter C:\G16W\l101.exe)
 -----------------------------------
 Bphen t=0.250 dz=+0.00 class=toface
 -----------------------------------
 Symbolic Z-matrix:
 Charge =  0 Multiplicity = 2
 C                    -5.0751    2.59606  -0.84858 
 C                    -4.71572   2.43416   0.47886 
 C                    -3.98565   1.32625   0.87075 
 C                    -3.60881   0.37048  -0.0652 
 C                    -2.84989  -0.82782   0.35639 
 C                    -3.5129   -1.97087   0.7492 
 C                    -2.76401  -3.08484   1.14144 
 N                    -1.45743  -3.11297   1.16005 
 C                    -0.78703  -2.01864   0.78421 
 C                    -1.4373   -0.83218   0.36743 
 C                    -0.66729   0.3003   -0.02102 
 C                     0.68582   0.26343   0.00091 
 C                     1.38006  -0.90895   0.4131 
 C                     2.79041  -0.98148   0.44787 
 C                     3.62669   0.17333   0.05207 
 C                     4.02533   1.1075    1.00071 
 C                     4.82692   2.17366   0.63356 
 C                     5.23657   2.31503  -0.68161 
 C                     4.84108   1.3874   -1.63058 
 C                     4.03949   0.32006  -1.26687 
 C                     3.37714  -2.15855   0.86106 
 C                     2.5564   -3.22975   1.22785 
 N                     1.25031  -3.18672   1.20402 
 C                     0.653    -2.05787   0.80757 
 C                    -3.97094   0.53789  -1.3965 
 C                    -4.70102   1.647    -1.78497 
 H                    -5.6466    3.46042  -1.15284 
 H                    -5.00582   3.17229   1.21221 
 H                    -3.70334   1.19591   1.9058 
 H                    -4.59224  -2.00367   0.75332 
 H                    -3.25874  -3.99548   1.45464 
 H                    -1.19166   1.19194  -0.33448 
 H                     1.26783   1.12493  -0.29462 
 H                     3.70361   0.99327   2.02611 
 H                     5.13349   2.89518   1.37667 
 H                     5.86383   3.14671  -0.96651 
 H                     5.15874   1.49424  -2.65746 
 H                     3.72879  -0.40634  -2.00431 
 H                     4.45239  -2.25004   0.90015 
 H                     2.99042  -4.16569   1.55613 
 H                    -3.6772   -0.20534  -2.12405 
 H                    -4.97963   1.76976  -2.82136 
 Ag                   -0.90757  -4.60362   2.71778 
 
 ITRead=  0  0  0  0  0  0  0  0  0  0  0  0  0  0  0  0  0  0  0  0
 ITRead=  0  0  0  0  0  0  0  0  0  0  0  0  0  0  0  0  0  0  0  0
 ITRead=  0  0  0
 MicOpt= -1 -1 -1 -1 -1 -1 -1 -1 -1 -1 -1 -1 -1 -1 -1 -1 -1 -1 -1 -1
 MicOpt= -1 -1 -1 -1 -1 -1 -1 -1 -1 -1 -1 -1 -1 -1 -1 -1 -1 -1 -1 -1
 MicOpt= -1 -1 -1
 NAtoms=     43 NQM=       43 NQMF=       0 NMMI=      0 NMMIF=      0
                NMic=       0 NMicF=      0.
                    Isotopes and Nuclear Properties:
 (Nuclear quadrupole moments (NQMom) in fm**2, nuclear magnetic moments (NMagM)
  in nuclear magnetons)

  Atom         1           2           3           4           5           6           7           8           9          10
 IAtWgt=          12          12          12          12          12          12          12          14          12          12
 AtmWgt=  12.0000000  12.0000000  12.0000000  12.0000000  12.0000000  12.0000000  12.0000000  14.0030740  12.0000000  12.0000000
 NucSpn=           0           0           0           0           0           0           0           2           0           0
 AtZEff=   0.0000000   0.0000000   0.0000000   0.0000000   0.0000000   0.0000000   0.0000000   0.0000000   0.0000000   0.0000000
 NQMom=    0.0000000   0.0000000   0.0000000   0.0000000   0.0000000   0.0000000   0.0000000   2.0440000   0.0000000   0.0000000
 NMagM=    0.0000000   0.0000000   0.0000000   0.0000000   0.0000000   0.0000000   0.0000000   0.4037610   0.0000000   0.0000000
 AtZNuc=   6.0000000   6.0000000   6.0000000   6.0000000   6.0000000   6.0000000   6.0000000   7.0000000   6.0000000   6.0000000

  Atom        11          12          13          14          15          16          17          18          19          20
 IAtWgt=          12          12          12          12          12          12          12          12          12          12
 AtmWgt=  12.0000000  12.0000000  12.0000000  12.0000000  12.0000000  12.0000000  12.0000000  12.0000000  12.0000000  12.0000000
 NucSpn=           0           0           0           0           0           0           0           0           0           0
 AtZEff=   0.0000000   0.0000000   0.0000000   0.0000000   0.0000000   0.0000000   0.0000000   0.0000000   0.0000000   0.0000000
 NQMom=    0.0000000   0.0000000   0.0000000   0.0000000   0.0000000   0.0000000   0.0000000   0.0000000   0.0000000   0.0000000
 NMagM=    0.0000000   0.0000000   0.0000000   0.0000000   0.0000000   0.0000000   0.0000000   0.0000000   0.0000000   0.0000000
 AtZNuc=   6.0000000   6.0000000   6.0000000   6.0000000   6.0000000   6.0000000   6.0000000   6.0000000   6.0000000   6.0000000

  Atom        21          22          23          24          25          26          27          28          29          30
 IAtWgt=          12          12          14          12          12          12           1           1           1           1
 AtmWgt=  12.0000000  12.0000000  14.0030740  12.0000000  12.0000000  12.0000000   1.0078250   1.0078250   1.0078250   1.0078250
 NucSpn=           0           0           2           0           0           0           1           1           1           1
 AtZEff=   0.0000000   0.0000000   0.0000000   0.0000000   0.0000000   0.0000000   0.0000000   0.0000000   0.0000000   0.0000000
 NQMom=    0.0000000   0.0000000   2.0440000   0.0000000   0.0000000   0.0000000   0.0000000   0.0000000   0.0000000   0.0000000
 NMagM=    0.0000000   0.0000000   0.4037610   0.0000000   0.0000000   0.0000000   2.7928460   2.7928460   2.7928460   2.7928460
 AtZNuc=   6.0000000   6.0000000   7.0000000   6.0000000   6.0000000   6.0000000   1.0000000   1.0000000   1.0000000   1.0000000

  Atom        31          32          33          34          35          36          37          38          39          40
 IAtWgt=           1           1           1           1           1           1           1           1           1           1
 AtmWgt=   1.0078250   1.0078250   1.0078250   1.0078250   1.0078250   1.0078250   1.0078250   1.0078250   1.0078250   1.0078250
 NucSpn=           1           1           1           1           1           1           1           1           1           1
 AtZEff=   0.0000000   0.0000000   0.0000000   0.0000000   0.0000000   0.0000000   0.0000000   0.0000000   0.0000000   0.0000000
 NQMom=    0.0000000   0.0000000   0.0000000   0.0000000   0.0000000   0.0000000   0.0000000   0.0000000   0.0000000   0.0000000
 NMagM=    2.7928460   2.7928460   2.7928460   2.7928460   2.7928460   2.7928460   2.7928460   2.7928460   2.7928460   2.7928460
 AtZNuc=   1.0000000   1.0000000   1.0000000   1.0000000   1.0000000   1.0000000   1.0000000   1.0000000   1.0000000   1.0000000

  Atom        41          42          43
 IAtWgt=           1           1         107
 AtmWgt=   1.0078250   1.0078250 106.9050900
 NucSpn=           1           1           1
 AtZEff=   0.0000000   0.0000000   0.0000000
 NQMom=    0.0000000   0.0000000   0.0000000
 NMagM=    2.7928460   2.7928460  -0.1135700
 AtZNuc=   1.0000000   1.0000000  47.0000000
 Leave Link  101 at Fri Sep 11 22:20:19 2026, MaxMem=  6442450944 cpu:               0.0 elap:               0.3
 (Enter C:\G16W\l202.exe)
                          Input orientation:                          
 ---------------------------------------------------------------------
 Center     Atomic      Atomic             Coordinates (Angstroms)
 Number     Number       Type             X           Y           Z
 ---------------------------------------------------------------------
      1          6           0       -5.075104    2.596057   -0.848582
      2          6           0       -4.715716    2.434163    0.478857
      3          6           0       -3.985648    1.326254    0.870754
      4          6           0       -3.608814    0.370482   -0.065200
      5          6           0       -2.849893   -0.827816    0.356392
      6          6           0       -3.512903   -1.970870    0.749200
      7          6           0       -2.764008   -3.084836    1.141440
      8          7           0       -1.457428   -3.112970    1.160054
      9          6           0       -0.787031   -2.018643    0.784213
     10          6           0       -1.437298   -0.832182    0.367434
     11          6           0       -0.667287    0.300298   -0.021018
     12          6           0        0.685824    0.263426    0.000908
     13          6           0        1.380055   -0.908949    0.413101
     14          6           0        2.790408   -0.981482    0.447870
     15          6           0        3.626694    0.173326    0.052066
     16          6           0        4.025328    1.107500    1.000707
     17          6           0        4.826918    2.173661    0.633555
     18          6           0        5.236571    2.315029   -0.681611
     19          6           0        4.841079    1.387397   -1.630584
     20          6           0        4.039486    0.320062   -1.266868
     21          6           0        3.377135   -2.158548    0.861055
     22          6           0        2.556396   -3.229745    1.227851
     23          7           0        1.250307   -3.186722    1.204024
     24          6           0        0.653004   -2.057874    0.807573
     25          6           0       -3.970941    0.537891   -1.396496
     26          6           0       -4.701020    1.647000   -1.784966
     27          1           0       -5.646599    3.460423   -1.152844
     28          1           0       -5.005817    3.172287    1.212213
     29          1           0       -3.703341    1.195908    1.905798
     30          1           0       -4.592243   -2.003673    0.753324
     31          1           0       -3.258742   -3.995483    1.454638
     32          1           0       -1.191655    1.191943   -0.334479
     33          1           0        1.267832    1.124926   -0.294617
     34          1           0        3.703614    0.993274    2.026112
     35          1           0        5.133493    2.895180    1.376669
     36          1           0        5.863825    3.146713   -0.966506
     37          1           0        5.158745    1.494240   -2.657458
     38          1           0        3.728793   -0.406340   -2.004305
     39          1           0        4.452389   -2.250041    0.900153
     40          1           0        2.990418   -4.165689    1.556131
     41          1           0       -3.677198   -0.205338   -2.124046
     42          1           0       -4.979626    1.769762   -2.821356
     43         47           0       -0.907572   -4.603622    2.717781
 ---------------------------------------------------------------------
                    Distance matrix (angstroms):
                    1          2          3          4          5
     1  C    0.000000
     2  C    1.384725   0.000000
     3  C    2.399048   1.383490   0.000000
     4  C    2.777927   2.404165   1.389789   0.000000
     5  C    4.257515   3.759894   2.488880   1.479736   0.000000
     6  C    5.084309   4.574293   3.333060   2.480801   1.378569
     7  C    6.447782   5.891310   4.585127   3.756182   2.391195
     8  N    7.050900   6.469247   5.116864   4.273657   2.794058
     9  C    6.507614   5.946031   4.628928   3.793663   2.420021
    10  C    5.144429   4.629195   3.377316   2.519733   1.412645
    11  C    5.038276   4.603589   3.585995   2.942696   2.485729
    12  C    6.273045   5.840990   4.869177   4.296481   3.717321
    13  C    7.452918   6.952636   5.830639   5.172478   4.231106
    14  C    8.737611   8.246787   7.170733   6.560571   5.643135
    15  C    9.077559   8.653863   7.742561   7.239143   6.560570
    16  C    9.404974   8.856535   8.015016   7.743351   7.171419
    17  C   10.021237   9.547442   8.856392   8.654553   8.247370
    18  C   10.316855  10.020424   9.404086   9.077558   8.737610
    19  C   10.020133   9.842652   9.174505   8.653626   8.246593
    20  C    9.403769   9.174450   8.365681   7.742289   7.170505
    21  C    9.847308   9.313072   8.145828   7.487151   6.387598
    22  C    9.823000   9.247943   7.980162   7.255579   5.979688
    23  N    8.812749   8.228830   6.920495   6.154323   4.805680
    24  C    7.563937   7.007825   5.742248   4.982142   3.739906
    25  C    2.399048   2.769023   2.400449   1.389788   2.488879
    26  C    1.384725   2.396818   2.769022   2.404165   3.759894
    27  H    1.079959   2.140608   3.377630   3.857884   5.337448
    28  H    2.140962   1.080184   2.136627   3.381348   4.623988
    29  H    3.380645   2.143441   1.080742   2.138948   2.687841
    30  H    4.894566   4.448029   3.386763   2.696985   2.139154
    31  H    7.214734   6.664478   5.402795   4.636174   3.377487
    32  H    4.161372   3.824086   3.045821   2.567093   2.703051
    33  H    6.534825   6.173752   5.384949   4.939989   4.603550
    34  H    9.375429   8.680742   7.782704   7.631059   7.003770
    35  H   10.452592   9.900784   9.266942   9.213089   8.867701
    36  H   10.953415  10.701565  10.183404   9.912149   9.668289
    37  H   10.450727  10.403120   9.802878   9.211554   8.866426
    38  H    9.373296   9.249015   8.413112   7.629158   7.002117
    39  H   10.831245  10.304048   9.164672   8.531239   7.459338
    40  H   10.796134  10.203091   8.904868   8.170399   6.833008
    41  H    3.380645   3.849752   3.377831   2.138946   2.687840
    42  H    2.140962   3.376756   3.849204   3.381347   4.623987
    43  Ag   9.051113   8.309342   6.931774   6.307409   4.858548
                    6          7          8          9         10
     6  C    0.000000
     7  C    1.398433   0.000000
     8  N    2.387084   1.307015   0.000000
     9  C    2.726515   2.274383   1.337251   0.000000
    10  C    2.398018   2.726480   2.414673   1.415712   0.000000
    11  C    3.721420   4.148094   3.697249   2.457687   1.423490
    12  C    4.814699   4.940953   4.163796   2.826784   2.417094
    13  C    5.018135   4.736900   3.669735   2.462805   2.818769
    14  C    6.387599   5.979688   4.805680   3.739906   4.231106
    15  C    7.487150   7.255579   6.154322   4.982142   5.172477
    16  C    8.146444   7.980637   6.920865   5.742686   5.831268
    17  C    9.313599   9.248346   8.229136   7.008176   6.953151
    18  C    9.847307   9.823000   8.812748   7.563936   7.452916
    19  C    9.312913   9.247829   8.228740   7.007708   6.952455
    20  C    8.145642   7.980026   6.920385   5.742102   5.830418
    21  C    6.893501   6.216934   4.936934   4.167224   5.018134
    22  C    6.216934   5.323078   4.016095   3.583586   4.736900
    23  N    4.936935   4.016095   2.709096   2.385665   3.669736
    24  C    4.167224   3.583586   2.385664   1.440759   2.462804
    25  C    3.332820   4.584971   5.116882   4.629108   3.377558
    26  C    4.574123   5.891192   6.469262   5.946169   4.629368
    27  H    6.137538   7.510891   8.130692   7.575471   6.201284
    28  H    5.375429   6.646977   7.217911   6.702768   5.429894
    29  H    3.376754   4.448748   4.915963   4.482874   3.408029
    30  H    1.079846   2.159164   3.350080   3.805367   3.387474
    31  H    2.159004   1.082651   2.027398   3.235231   3.808693
    32  H    4.070128   4.789725   4.564706   3.423895   2.156410
    33  H    5.790417   6.003340   5.244318   3.907475   3.403867
    34  H    7.905363   7.696997   6.651891   5.547959   5.701971
    35  H    9.941445   9.908907   8.921044   7.716817   7.621488
    36  H   10.819257  10.849661   9.864413   8.601151   8.421247
    37  H    9.940311   9.908056   8.920399   7.716068   7.620367
    38  H    7.903904   7.695877   6.651008   5.546893   5.700437
    39  H    7.971612   7.268527   5.978138   5.245809   6.081326
    40  H    6.910973   5.869721   4.587857   4.413024   5.668328
    41  H    3.376335   4.448463   4.915996   4.483203   3.408454
    42  H    5.375172   6.646791   7.217934   6.702984   5.430155
    43  Ag   4.194574   2.870178   2.225062   3.230377   4.475322
                   11         12         13         14         15
    11  C    0.000000
    12  C    1.353791   0.000000
    13  C    2.417095   1.423490   0.000000
    14  C    3.717320   2.485728   1.412645   0.000000
    15  C    4.296479   2.942695   2.519733   1.479735   0.000000
    16  C    4.869921   3.586690   3.377694   2.488876   1.389788
    17  C    5.841596   4.604118   4.629465   3.759891   2.404165
    18  C    6.273043   5.038274   5.144428   4.257514   2.777927
    19  C    5.840769   4.603392   4.629097   3.759895   2.404165
    20  C    4.868906   3.585737   3.377179   2.488883   1.389790
    21  C    4.814699   3.721420   2.398018   1.378570   2.480802
    22  C    4.940952   4.148093   2.726479   2.391196   3.756182
    23  N    4.163797   3.697249   2.414673   2.794059   4.273657
    24  C    2.826784   2.457686   1.415712   2.420021   3.793663
    25  C    3.586436   4.869654   5.831050   7.171194   7.743081
    26  C    4.603924   5.841379   6.952974   8.247179   8.654318
    27  H    6.005079   7.186899   8.421251   9.668293   9.912153
    28  H    5.347151   6.505652   7.620658   8.866744   9.211946
    29  H    3.705720   4.874720   5.700832   7.002525   7.629640
    30  H    4.616619   5.793432   6.081325   7.459337   8.531237
    31  H    5.229430   5.984249   5.668327   6.833008   8.170398
    32  H    1.080856   2.121216   3.403868   4.603550   4.939988
    33  H    2.121215   1.080856   2.156411   2.703050   2.567092
    34  H    4.876037   3.706911   3.408692   2.687834   2.138946
    35  H    6.506611   5.347954   5.430300   4.623983   3.381347
    36  H    7.186894   6.005075   6.201282   5.337447   3.857885
    37  H    6.505303   5.346853   5.429747   4.623990   3.381348
    38  H    4.874247   3.705284   3.407791   2.687846   2.138948
    39  H    5.793433   4.616619   3.387475   2.139155   2.696986
    40  H    5.984250   5.229429   3.808693   3.377487   4.636174
    41  H    3.706475   4.875565   5.701578   7.003362   7.630576
    42  H    5.347662   6.506270   7.621204   8.867390   9.212704
    43  Ag   5.622027   5.797281   4.918882   5.652208   7.105268
                   16         17         18         19         20
    16  C    0.000000
    17  C    1.383491   0.000000
    18  C    2.399048   1.384725   0.000000
    19  C    2.769022   2.396818   1.384726   0.000000
    20  C    2.400449   2.769023   2.399048   1.383490   0.000000
    21  C    3.332676   4.574020   5.084310   4.574399   3.333208
    22  C    4.584872   5.891117   6.447783   5.891386   4.585227
    23  N    5.116876   6.469257   7.050900   6.469251   5.116870
    24  C    4.629197   5.946237   6.507614   5.945963   4.628838
    25  C    8.367279   9.176011   9.404656   8.855967   8.014437
    26  C    9.176066   9.844197  10.020947   9.546878   8.855825
    27  H   10.184311  10.702408  10.953419  10.701265  10.183080
    28  H    9.266588   9.900241  10.451219  10.403302   9.802986
    29  H    7.781988   8.679857   9.373854   9.249312   8.413340
    30  H    9.165322  10.304613  10.831242  10.303880   9.164478
    31  H    8.905289  10.203451  10.796132  10.202994   8.904755
    32  H    5.385793   6.174470   6.534823   6.173489   5.384641
    33  H    3.046630   3.824715   4.161370   3.823845   3.045512
    34  H    1.080742   2.143441   3.380645   3.849751   3.377831
    35  H    2.136627   1.080183   2.140962   3.376757   3.849204
    36  H    3.377631   2.140608   1.079959   2.140608   3.377630
    37  H    3.849204   3.376757   2.140963   1.080184   2.136627
    38  H    3.377831   3.849752   3.380645   2.143441   1.080742
    39  H    3.386085   4.447526   4.894567   4.448220   3.387019
    40  H    5.402412   6.664176   7.214735   6.664598   5.402946
    41  H    8.415256   9.251161   9.374868   8.679940   7.781903
    42  H    9.804894  10.405184  10.452105   9.900020   9.266199
    43  Ag   7.739429   9.119207   9.857692   9.372704   8.037007
                   21         22         23         24         25
    21  C    0.000000
    22  C    1.398433   0.000000
    23  N    2.387083   1.307015   0.000000
    24  C    2.726515   2.274383   1.337252   0.000000
    25  C    8.146259   7.980502   6.920757   5.742542   0.000000
    26  C    9.313442   9.248232   8.229047   7.008061   1.383491
    27  H   10.819261  10.849663   9.864415   8.601153   3.377631
    28  H    9.940573   9.908245   8.920547   7.716254   3.849204
    29  H    7.904240   7.696124   6.651207   5.547156   3.377831
    30  H    7.971611   7.268526   5.978137   5.245808   3.386339
    31  H    6.910972   5.869720   4.587856   4.413024   5.402562
    32  H    5.790417   6.003340   5.244319   3.907475   3.046325
    33  H    4.070128   4.789725   4.564706   3.423894   5.385489
    34  H    3.376082   4.448283   4.915985   4.483365   8.415487
    35  H    5.375018   6.646675   7.217927   6.703089   9.804997
    36  H    6.137540   7.510892   8.130692   7.575469  10.183981
    37  H    5.375586   6.647096   7.217918   6.702660   9.265840
    38  H    3.377008   4.448928   4.915973   4.482711   7.781189
    39  H    1.079848   2.159165   3.350080   3.805368   9.165132
    40  H    2.159003   1.082651   2.027398   3.235232   8.905178
    41  H    7.905028   7.696749   6.651692   5.547696   1.080742
    42  H    9.941188   9.908722   8.920901   7.716634   2.136628
    43  Ag   5.271103   4.013291   2.992575   3.544732   7.262690
                   26         27         28         29         30
    26  C    0.000000
    27  H    2.140608   0.000000
    28  H    3.376756   2.467209   0.000000
    29  H    3.849751   4.273122   2.466491   0.000000
    30  H    4.447714   5.882303   5.212695   3.515062   0.000000
    31  H    6.664294   8.251749   7.381597   5.229890   2.497473
    32  H    3.824478   5.065792   4.567477   3.365624   4.791584
    33  H    6.174212   7.348500   6.769113   5.436858   6.725087
    34  H    9.251462  10.179345   9.014695   7.410703   8.911954
    35  H   10.405361  11.087304  10.144429   9.014274  10.907670
    36  H   10.702101  11.516206  11.085873  10.177742  11.781920
    37  H    9.899472  11.085360  11.004931   9.972406  10.906447
    38  H    8.679059  10.177171   9.972260   8.549428   8.910423
    39  H   10.304450  11.781925  10.906727   8.910770   9.049178
    40  H   10.203357  11.836139  10.858358   8.583437   7.925627
    41  H    2.143442   4.273123   4.929929   4.266593   3.514338
    42  H    1.080183   2.467209   4.270532   4.929929   5.212218
    43  Ag   8.586924  10.122695   8.917798   6.489237   4.918905
                   31         32         33         34         35
    31  H    0.000000
    32  H    5.863717   0.000000
    33  H    7.054669   2.460723   0.000000
    34  H    8.584211   5.438338   3.366920   0.000000
    35  H   10.858956   6.770269   4.568406   2.466491   0.000000
    36  H   11.836137   7.348495   5.065788   4.273122   2.467210
    37  H   10.858199   6.768692   4.567123   4.929929   4.270533
    38  H    8.583232   5.436326   3.365136   4.266593   4.929929
    39  H    7.925627   6.725088   4.791584   3.513907   5.211935
    40  H    6.252301   7.054669   5.863717   5.229190   7.381114
    41  H    5.229463   3.366433   5.437806   8.552010   9.974793
    42  H    7.381302   4.568058   6.769856   9.974945  11.007505
    43  Ag   2.737401   6.556338   6.828118   7.284688   9.722401
                   36         37         38         39         40
    36  H    0.000000
    37  H    2.467210   0.000000
    38  H    4.273122   2.466491   0.000000
    39  H    5.882306   5.212981   3.515494   0.000000
    40  H    8.251751   7.381786   5.230163   2.497473   0.000000
    41  H   10.178765   9.013711   7.409686   8.911609   8.584008
    42  H   11.086789  10.143438   9.013299  10.907399  10.858802
    43  Ag  10.931307  10.142846   7.836527   6.129624   4.090910
                   41         42         43
    41  H    0.000000
    42  H    2.466491   0.000000
    43  Ag   7.103452   9.374630   0.000000
 Symmetry turned off by external request.
 Stoichiometry    C24H16AgN2(2)
 Framework group  C1[X(C24H16AgN2)]
 Deg. of freedom   123
 Full point group                 C1      NOp   1
 Rotational constants (GHZ):           0.1479602           0.1188976           0.0696036
 Leave Link  202 at Fri Sep 11 22:20:19 2026, MaxMem=  6442450944 cpu:               0.0 elap:               0.1
 (Enter C:\G16W\l301.exe)
 Standard basis: def2SVP (5D, 7F)
 Ernie: Thresh=  0.10000D-02 Tol=  0.10000D-05 Strict=F.
   475 basis functions,   827 primitive gaussians,   506 cartesian basis functions
    97 alpha electrons       96 beta electrons
       nuclear repulsion energy      2357.3459572671 Hartrees.
 IExCor= 1009 DFT=T Ex+Corr=PBE1PBE ExCW=0 ScaHFX=  0.250000
 ScaDFX=  0.750000  0.750000  1.000000  1.000000 ScalE2=  1.000000  1.000000
 IRadAn=      5 IRanWt=     -1 IRanGd=            0 ICorTp=0 IEmpDi=141
 NAtoms=   43 NActive=   43 NUniq=   43 SFac= 1.00D+00 NAtFMM=   60 NAOKFM=F Big=F
 Integral buffers will be    131072 words long.
 Raffenetti 2 integral format.
 Two-electron integral symmetry is turned off.
 R6Disp:  Grimme-D3(BJ) Dispersion energy=       -0.0609354354 Hartrees.
 Nuclear repulsion after empirical dispersion term =     2357.2850218316 Hartrees.
 Leave Link  301 at Fri Sep 11 22:20:20 2026, MaxMem=  6442450944 cpu:               1.0 elap:               0.1
 (Enter C:\G16W\l302.exe)
 NPDir=0 NMtPBC=     1 NCelOv=     1 NCel=       1 NClECP=     1 NCelD=      1
         NCelK=      1 NCelE2=     1 NClLst=     1 CellRange=     0.0.
 One-electron integrals computed using PRISM.
   1 Symmetry operations used in ECPInt.
 ECPInt:  NShTT=   23220 NPrTT=   85067 LenC2=   19816 LenP2D=   49533.
 LDataN:  DoStor=T MaxTD1= 7 Len=  274
 NBasis=   475 RedAO= T EigKep=  1.34D-04  NBF=   475
 NBsUse=   475 1.00D-06 EigRej= -1.00D+00 NBFU=   475
 Precomputing XC quadrature grid using
 IXCGrd= 4 IRadAn=           5 IRanWt=          -1 IRanGd=           0 AccXCQ= 0.00D+00.
 Defaulting to unpruned grid for atomic number  47.
 Generated NRdTot=       0 NPtTot=           0 NUsed=           0 NTot=          32
 NSgBfM=   500   500   500   500   500 MxSgAt=    43 MxSgA2=    43.
 Leave Link  302 at Fri Sep 11 22:20:28 2026, MaxMem=  6442450944 cpu:               8.0 elap:               7.7
 (Enter C:\G16W\l303.exe)
 DipDrv:  MaxL=1.
 Leave Link  303 at Fri Sep 11 22:20:30 2026, MaxMem=  6442450944 cpu:               2.0 elap:               1.8
 (Enter C:\G16W\l401.exe)
 Initial guess from the checkpoint file:  "Bphen.chk"
 B after Tr=    -0.129797    0.129260    0.069765
         Rot=    0.998493    0.053082    0.002751    0.013631 Ang=   6.29 deg.
 Guess basis will be translated and rotated to current coordinates.
 JPrj=2 DoOrth=T DoCkMO=T.
 Initial guess <Sx>= 0.0000 <Sy>= 0.0000 <Sz>= 0.5000 <S**2>= 0.7520 S= 0.5010
 Leave Link  401 at Fri Sep 11 22:20:58 2026, MaxMem=  6442450944 cpu:              28.0 elap:              28.5
 (Enter C:\G16W\l502.exe)
 Two-electron integral symmetry not used.
 UHF open shell SCF:
 Using DIIS extrapolation, IDIIS=  1040.
 NGot=  6442450944 LenX=  6441929892 LenY=  6441673350
 Requested convergence on RMS density matrix=1.00D-08 within 128 cycles.
 Requested convergence on MAX density matrix=1.00D-06.
 Requested convergence on             energy=1.00D-06.
 No special actions if energy rises.
 Fock matrices will be formed incrementally for  20 cycles.

 Cycle   1  Pass 1  IDiag  1:
 FoFJK:  IHMeth= 1 ICntrl=       0 DoSepK=F KAlg= 0 I1Cent=           0 FoldK=F
 IRaf= 780000000 NMat=       1 IRICut=       1 DoRegI=T DoRafI=F ISym2E= 0 IDoP0=0 IntGTp=1.
 FoFCou: FMM=F IPFlag=           0 FMFlag=      100000 FMFlg1=           0
         NFxFlg=           0 DoJE=F BraDBF=F KetDBF=F FulRan=T
         wScrn=  0.000000 ICntrl=         0 IOpCl=  1 I1Cent=           0 NGrid=           0
         NMat0=    1 NMatS0=      1 NMatT0=    0 NMatD0=    1 NMtDS0=    0 NMtDT0=    0
 Symmetry not used in FoFCou.
 Defaulting to unpruned grid for atomic number  47.
 Defaulting to unpruned grid for atomic number  47.
 Defaulting to unpruned grid for atomic number  47.
 Defaulting to unpruned grid for atomic number  47.
 Defaulting to unpruned grid for atomic number  47.
 Defaulting to unpruned grid for atomic number  47.
 Defaulting to unpruned grid for atomic number  47.
 Defaulting to unpruned grid for atomic number  47.
 E= -1178.65997204256    
 DIIS: error= 1.01D-02 at cycle   1 NSaved=   1.
 NSaved= 1 IEnMin= 1 EnMin= -1178.65997204256     IErMin= 1 ErrMin= 1.01D-02
 ErrMax= 1.01D-02  0.00D+00 EMaxC= 1.00D-01 BMatC= 3.70D-01 BMatP= 3.70D-01
 IDIUse=3 WtCom= 8.99D-01 WtEn= 1.01D-01
 Coeff-Com:  0.100D+01
 Coeff-En:   0.100D+01
 Coeff:      0.100D+01
 Gap=     0.178 Goal=   None    Shift=    0.000
 Gap=     0.323 Goal=   None    Shift=    0.000
 GapD=    0.178 DampG=1.000 DampE=0.250 DampFc=0.2500 IDamp=-1.
 Damping current iteration by 2.50D-01
 RMSDP=1.13D-03 MaxDP=5.59D-02              OVMax= 1.77D-01

 Cycle   2  Pass 1  IDiag  1:
 RMSU=  2.82D-04    CP:  9.99D-01
 E= -1178.68522042079     Delta-E=       -0.025248378236 Rises=F Damp=T
 DIIS: error= 7.76D-03 at cycle   2 NSaved=   2.
 NSaved= 2 IEnMin= 2 EnMin= -1178.68522042079     IErMin= 2 ErrMin= 7.76D-03
 ErrMax= 7.76D-03  0.00D+00 EMaxC= 1.00D-01 BMatC= 2.15D-01 BMatP= 3.70D-01
 IDIUse=3 WtCom= 9.22D-01 WtEn= 7.76D-02
 Coeff-Com: -0.310D+01 0.410D+01
 Coeff-En:   0.000D+00 0.100D+01
 Coeff:     -0.286D+01 0.386D+01
 Gap=     0.049 Goal=   None    Shift=    0.000
 Gap=     0.173 Goal=   None    Shift=    0.000
 RMSDP=9.51D-04 MaxDP=3.91D-02 DE=-2.52D-02 OVMax= 6.95D-02

 Cycle   3  Pass 1  IDiag  1:
 RMSU=  4.43D-04    CP:  9.97D-01  3.00D+00
 E= -1178.77021124289     Delta-E=       -0.084990822094 Rises=F Damp=F
 DIIS: error= 2.29D-03 at cycle   3 NSaved=   3.
 NSaved= 3 IEnMin= 3 EnMin= -1178.77021124289     IErMin= 3 ErrMin= 2.29D-03
 ErrMax= 2.29D-03  0.00D+00 EMaxC= 1.00D-01 BMatC= 6.00D-03 BMatP= 2.15D-01
 IDIUse=3 WtCom= 9.77D-01 WtEn= 2.29D-02
 Coeff-Com: -0.152D+01 0.199D+01 0.530D+00
 Coeff-En:   0.000D+00 0.000D+00 0.100D+01
 Coeff:     -0.149D+01 0.195D+01 0.541D+00
 Gap=     0.048 Goal=   None    Shift=    0.000
 Gap=     0.167 Goal=   None    Shift=    0.000
 RMSDP=1.50D-04 MaxDP=1.18D-02 DE=-8.50D-02 OVMax= 4.06D-02

 Cycle   4  Pass 1  IDiag  1:
 RMSU=  1.47D-04    CP:  9.96D-01  3.00D+00  1.06D+00
 E= -1178.77151801021     Delta-E=       -0.001306767324 Rises=F Damp=F
 DIIS: error= 5.38D-04 at cycle   4 NSaved=   4.
 NSaved= 4 IEnMin= 4 EnMin= -1178.77151801021     IErMin= 4 ErrMin= 5.38D-04
 ErrMax= 5.38D-04  0.00D+00 EMaxC= 1.00D-01 BMatC= 8.76D-04 BMatP= 6.00D-03
 IDIUse=3 WtCom= 9.95D-01 WtEn= 5.38D-03
 Coeff-Com: -0.425D+00 0.552D+00 0.298D+00 0.576D+00
 Coeff-En:   0.000D+00 0.000D+00 0.225D-01 0.977D+00
 Coeff:     -0.423D+00 0.549D+00 0.296D+00 0.578D+00
 Gap=     0.050 Goal=   None    Shift=    0.000
 Gap=     0.169 Goal=   None    Shift=    0.000
 RMSDP=7.23D-05 MaxDP=7.50D-03 DE=-1.31D-03 OVMax= 2.11D-02

 Cycle   5  Pass 1  IDiag  1:
 RMSU=  6.07D-05    CP:  9.96D-01  3.00D+00  1.15D+00  9.36D-01
 E= -1178.77178868354     Delta-E=       -0.000270673324 Rises=F Damp=F
 DIIS: error= 3.77D-04 at cycle   5 NSaved=   5.
 NSaved= 5 IEnMin= 5 EnMin= -1178.77178868354     IErMin= 5 ErrMin= 3.77D-04
 ErrMax= 3.77D-04  0.00D+00 EMaxC= 1.00D-01 BMatC= 1.78D-04 BMatP= 8.76D-04
 IDIUse=3 WtCom= 9.96D-01 WtEn= 3.77D-03
 Coeff-Com:  0.127D+00-0.169D+00 0.611D-01 0.346D+00 0.634D+00
 Coeff-En:   0.000D+00 0.000D+00 0.000D+00 0.000D+00 0.100D+01
 Coeff:      0.126D+00-0.168D+00 0.609D-01 0.345D+00 0.636D+00
 Gap=     0.051 Goal=   None    Shift=    0.000
 Gap=     0.171 Goal=   None    Shift=    0.000
 RMSDP=5.29D-05 MaxDP=7.17D-03 DE=-2.71D-04 OVMax= 1.87D-02

 Cycle   6  Pass 1  IDiag  1:
 RMSU=  3.57D-05    CP:  9.96D-01  3.00D+00  1.21D+00  1.08D+00  1.32D+00
 E= -1178.77187732817     Delta-E=       -0.000088644638 Rises=F Damp=F
 DIIS: error= 1.53D-04 at cycle   6 NSaved=   6.
 NSaved= 6 IEnMin= 6 EnMin= -1178.77187732817     IErMin= 6 ErrMin= 1.53D-04
 ErrMax= 1.53D-04  0.00D+00 EMaxC= 1.00D-01 BMatC= 4.14D-05 BMatP= 1.78D-04
 IDIUse=3 WtCom= 9.98D-01 WtEn= 1.53D-03
 Coeff-Com:  0.149D+00-0.197D+00-0.182D-02 0.120D+00 0.367D+00 0.562D+00
 Coeff-En:   0.000D+00 0.000D+00 0.000D+00 0.000D+00 0.000D+00 0.100D+01
 Coeff:      0.149D+00-0.196D+00-0.182D-02 0.120D+00 0.366D+00 0.563D+00
 Gap=     0.051 Goal=   None    Shift=    0.000
 Gap=     0.171 Goal=   None    Shift=    0.000
 RMSDP=3.02D-05 MaxDP=3.22D-03 DE=-8.86D-05 OVMax= 1.16D-02

 Cycle   7  Pass 1  IDiag  1:
 RMSU=  1.34D-05    CP:  9.96D-01  3.00D+00  1.24D+00  1.14D+00  1.66D+00
                    CP:  1.09D+00
 E= -1178.77190662258     Delta-E=       -0.000029294410 Rises=F Damp=F
 DIIS: error= 6.61D-05 at cycle   7 NSaved=   7.
 NSaved= 7 IEnMin= 7 EnMin= -1178.77190662258     IErMin= 7 ErrMin= 6.61D-05
 ErrMax= 6.61D-05  0.00D+00 EMaxC= 1.00D-01 BMatC= 1.21D-05 BMatP= 4.14D-05
 IDIUse=1 WtCom= 1.00D+00 WtEn= 0.00D+00
 Coeff-Com: -0.526D-02 0.758D-02-0.912D-02-0.931D-01-0.183D+00 0.270D+00
 Coeff-Com:  0.101D+01
 Coeff:     -0.526D-02 0.758D-02-0.912D-02-0.931D-01-0.183D+00 0.270D+00
 Coeff:      0.101D+01
 Gap=     0.052 Goal=   None    Shift=    0.000
 Gap=     0.172 Goal=   None    Shift=    0.000
 RMSDP=3.45D-05 MaxDP=3.88D-03 DE=-2.93D-05 OVMax= 1.38D-02

 Cycle   8  Pass 1  IDiag  1:
 RMSU=  8.65D-06    CP:  9.96D-01  3.00D+00  1.28D+00  1.23D+00  2.01D+00
                    CP:  1.53D+00  1.32D+00
 E= -1178.77192374140     Delta-E=       -0.000017118816 Rises=F Damp=F
 DIIS: error= 5.51D-05 at cycle   8 NSaved=   8.
 NSaved= 8 IEnMin= 8 EnMin= -1178.77192374140     IErMin= 8 ErrMin= 5.51D-05
 ErrMax= 5.51D-05  0.00D+00 EMaxC= 1.00D-01 BMatC= 4.39D-06 BMatP= 1.21D-05
 IDIUse=1 WtCom= 1.00D+00 WtEn= 0.00D+00
 Coeff-Com: -0.457D-01 0.606D-01-0.477D-02-0.101D+00-0.240D+00 0.310D-01
 Coeff-Com:  0.660D+00 0.639D+00
 Coeff:     -0.457D-01 0.606D-01-0.477D-02-0.101D+00-0.240D+00 0.310D-01
 Coeff:      0.660D+00 0.639D+00
 Gap=     0.052 Goal=   None    Shift=    0.000
 Gap=     0.173 Goal=   None    Shift=    0.000
 RMSDP=1.64D-05 MaxDP=2.12D-03 DE=-1.71D-05 OVMax= 6.30D-03

 Cycle   9  Pass 1  IDiag  1:
 RMSU=  4.32D-06    CP:  9.96D-01  3.00D+00  1.29D+00  1.26D+00  2.18D+00
                    CP:  1.72D+00  1.68D+00  1.17D+00
 E= -1178.77192767741     Delta-E=       -0.000003936014 Rises=F Damp=F
 DIIS: error= 1.80D-05 at cycle   9 NSaved=   9.
 NSaved= 9 IEnMin= 9 EnMin= -1178.77192767741     IErMin= 9 ErrMin= 1.80D-05
 ErrMax= 1.80D-05  0.00D+00 EMaxC= 1.00D-01 BMatC= 4.25D-07 BMatP= 4.39D-06
 IDIUse=1 WtCom= 1.00D+00 WtEn= 0.00D+00
 Coeff-Com: -0.150D-01 0.198D-01 0.592D-03-0.142D-01-0.365D-01-0.140D-01
 Coeff-Com:  0.154D-01 0.177D+00 0.867D+00
 Coeff:     -0.150D-01 0.198D-01 0.592D-03-0.142D-01-0.365D-01-0.140D-01
 Coeff:      0.154D-01 0.177D+00 0.867D+00
 Gap=     0.052 Goal=   None    Shift=    0.000
 Gap=     0.173 Goal=   None    Shift=    0.000
 RMSDP=5.09D-06 MaxDP=4.07D-04 DE=-3.94D-06 OVMax= 2.08D-03

 Cycle  10  Pass 1  IDiag  1:
 RMSU=  2.05D-06    CP:  9.96D-01  3.00D+00  1.30D+00  1.27D+00  2.21D+00
                    CP:  1.76D+00  1.82D+00  1.45D+00  1.42D+00
 E= -1178.77192834236     Delta-E=       -0.000000664950 Rises=F Damp=F
 DIIS: error= 1.31D-05 at cycle  10 NSaved=  10.
 NSaved=10 IEnMin=10 EnMin= -1178.77192834236     IErMin=10 ErrMin= 1.31D-05
 ErrMax= 1.31D-05  0.00D+00 EMaxC= 1.00D-01 BMatC= 2.69D-07 BMatP= 4.25D-07
 IDIUse=1 WtCom= 1.00D+00 WtEn= 0.00D+00
 Coeff-Com:  0.394D-02-0.529D-02 0.100D-02 0.180D-01 0.449D-01-0.122D-01
 Coeff-Com: -0.185D+00-0.724D-01 0.508D+00 0.699D+00
 Coeff:      0.394D-02-0.529D-02 0.100D-02 0.180D-01 0.449D-01-0.122D-01
 Coeff:     -0.185D+00-0.724D-01 0.508D+00 0.699D+00
 Gap=     0.052 Goal=   None    Shift=    0.000
 Gap=     0.173 Goal=   None    Shift=    0.000
 RMSDP=3.33D-06 MaxDP=2.47D-04 DE=-6.65D-07 OVMax= 1.26D-03

 Cycle  11  Pass 1  IDiag  1:
 RMSU=  1.18D-06    CP:  9.96D-01  3.00D+00  1.30D+00  1.27D+00  2.23D+00
                    CP:  1.79D+00  1.90D+00  1.65D+00  1.81D+00  1.21D+00
 E= -1178.77192867764     Delta-E=       -0.000000335276 Rises=F Damp=F
 DIIS: error= 8.72D-06 at cycle  11 NSaved=  11.
 NSaved=11 IEnMin=11 EnMin= -1178.77192867764     IErMin=11 ErrMin= 8.72D-06
 ErrMax= 8.72D-06  0.00D+00 EMaxC= 1.00D-01 BMatC= 1.20D-07 BMatP= 2.69D-07
 IDIUse=1 WtCom= 1.00D+00 WtEn= 0.00D+00
 Coeff-Com:  0.861D-02-0.114D-01 0.396D-03 0.173D-01 0.450D-01 0.984D-03
 Coeff-Com: -0.131D+00-0.115D+00-0.228D-01 0.478D+00 0.730D+00
 Coeff:      0.861D-02-0.114D-01 0.396D-03 0.173D-01 0.450D-01 0.984D-03
 Coeff:     -0.131D+00-0.115D+00-0.228D-01 0.478D+00 0.730D+00
 Gap=     0.052 Goal=   None    Shift=    0.000
 Gap=     0.173 Goal=   None    Shift=    0.000
 RMSDP=2.48D-06 MaxDP=1.67D-04 DE=-3.35D-07 OVMax= 9.64D-04

 Cycle  12  Pass 1  IDiag  1:
 RMSU=  8.47D-07    CP:  9.96D-01  3.00D+00  1.30D+00  1.27D+00  2.24D+00
                    CP:  1.79D+00  1.96D+00  1.81D+00  2.09D+00  1.63D+00
                    CP:  1.29D+00
 E= -1178.77192885656     Delta-E=       -0.000000178923 Rises=F Damp=F
 DIIS: error= 6.91D-06 at cycle  12 NSaved=  12.
 NSaved=12 IEnMin=12 EnMin= -1178.77192885656     IErMin=12 ErrMin= 6.91D-06
 ErrMax= 6.91D-06  0.00D+00 EMaxC= 1.00D-01 BMatC= 4.77D-08 BMatP= 1.20D-07
 IDIUse=1 WtCom= 1.00D+00 WtEn= 0.00D+00
 Coeff-Com:  0.316D-02-0.415D-02-0.187D-03 0.985D-03 0.381D-02 0.917D-02
 Coeff-Com:  0.174D-01-0.275D-01-0.261D+00-0.738D-01 0.442D+00 0.891D+00
 Coeff:      0.316D-02-0.415D-02-0.187D-03 0.985D-03 0.381D-02 0.917D-02
 Coeff:      0.174D-01-0.275D-01-0.261D+00-0.738D-01 0.442D+00 0.891D+00
 Gap=     0.052 Goal=   None    Shift=    0.000
 Gap=     0.173 Goal=   None    Shift=    0.000
 RMSDP=1.82D-06 MaxDP=1.23D-04 DE=-1.79D-07 OVMax= 6.62D-04

 Cycle  13  Pass 1  IDiag  1:
 RMSU=  4.52D-07    CP:  9.96D-01  3.00D+00  1.30D+00  1.27D+00  2.25D+00
                    CP:  1.80D+00  2.00D+00  1.91D+00  2.30D+00  2.03D+00
                    CP:  1.84D+00  1.22D+00
 E= -1178.77192894810     Delta-E=       -0.000000091536 Rises=F Damp=F
 DIIS: error= 4.59D-06 at cycle  13 NSaved=  13.
 NSaved=13 IEnMin=13 EnMin= -1178.77192894810     IErMin=13 ErrMin= 4.59D-06
 ErrMax= 4.59D-06  0.00D+00 EMaxC= 1.00D-01 BMatC= 2.03D-08 BMatP= 4.77D-08
 IDIUse=1 WtCom= 1.00D+00 WtEn= 0.00D+00
 Coeff-Com: -0.257D-02 0.343D-02-0.304D-03-0.839D-02-0.211D-01 0.451D-02
 Coeff-Com:  0.743D-01 0.367D-01-0.143D+00-0.283D+00-0.611D-01 0.551D+00
 Coeff-Com:  0.849D+00
 Coeff:     -0.257D-02 0.343D-02-0.304D-03-0.839D-02-0.211D-01 0.451D-02
 Coeff:      0.743D-01 0.367D-01-0.143D+00-0.283D+00-0.611D-01 0.551D+00
 Coeff:      0.849D+00
 Gap=     0.052 Goal=   None    Shift=    0.000
 Gap=     0.173 Goal=   None    Shift=    0.000
 RMSDP=1.25D-06 MaxDP=7.93D-05 DE=-9.15D-08 OVMax= 4.27D-04

 Cycle  14  Pass 1  IDiag  1:
 RMSU=  3.49D-07    CP:  9.96D-01  3.00D+00  1.30D+00  1.27D+00  2.25D+00
                    CP:  1.81D+00  2.03D+00  1.97D+00  2.44D+00  2.27D+00
                    CP:  2.18D+00  1.62D+00  1.34D+00
 E= -1178.77192898536     Delta-E=       -0.000000037264 Rises=F Damp=F
 DIIS: error= 2.10D-06 at cycle  14 NSaved=  14.
 NSaved=14 IEnMin=14 EnMin= -1178.77192898536     IErMin=14 ErrMin= 2.10D-06
 ErrMax= 2.10D-06  0.00D+00 EMaxC= 1.00D-01 BMatC= 6.53D-09 BMatP= 2.03D-08
 IDIUse=1 WtCom= 1.00D+00 WtEn= 0.00D+00
 Coeff-Com: -0.252D-02 0.333D-02-0.111D-03-0.465D-02-0.123D-01-0.224D-02
 Coeff-Com:  0.290D-01 0.266D-01 0.422D-01-0.114D+00-0.208D+00-0.798D-01
 Coeff-Com:  0.450D+00 0.872D+00
 Coeff:     -0.252D-02 0.333D-02-0.111D-03-0.465D-02-0.123D-01-0.224D-02
 Coeff:      0.290D-01 0.266D-01 0.422D-01-0.114D+00-0.208D+00-0.798D-01
 Coeff:      0.450D+00 0.872D+00
 Gap=     0.052 Goal=   None    Shift=    0.000
 Gap=     0.173 Goal=   None    Shift=    0.000
 RMSDP=6.36D-07 MaxDP=4.05D-05 DE=-3.73D-08 OVMax= 1.68D-04

 Cycle  15  Pass 1  IDiag  1:
 RMSU=  1.88D-07    CP:  9.96D-01  3.00D+00  1.30D+00  1.27D+00  2.25D+00
                    CP:  1.81D+00  2.04D+00  1.99D+00  2.50D+00  2.34D+00
                    CP:  2.37D+00  1.86D+00  1.89D+00  1.28D+00
 E= -1178.77192899557     Delta-E=       -0.000000010204 Rises=F Damp=F
 DIIS: error= 9.69D-07 at cycle  15 NSaved=  15.
 NSaved=15 IEnMin=15 EnMin= -1178.77192899557     IErMin=15 ErrMin= 9.69D-07
 ErrMax= 9.69D-07  0.00D+00 EMaxC= 1.00D-01 BMatC= 2.39D-09 BMatP= 6.53D-09
 IDIUse=1 WtCom= 1.00D+00 WtEn= 0.00D+00
 Coeff-Com: -0.511D-03 0.670D-03 0.104D-03 0.134D-03-0.354D-03-0.180D-02
 Coeff-Com: -0.274D-02 0.491D-02 0.544D-01 0.193D-01-0.946D-01-0.190D+00
 Coeff-Com: -0.649D-02 0.476D+00 0.741D+00
 Coeff:     -0.511D-03 0.670D-03 0.104D-03 0.134D-03-0.354D-03-0.180D-02
 Coeff:     -0.274D-02 0.491D-02 0.544D-01 0.193D-01-0.946D-01-0.190D+00
 Coeff:     -0.649D-02 0.476D+00 0.741D+00
 Gap=     0.052 Goal=   None    Shift=    0.000
 Gap=     0.173 Goal=   None    Shift=    0.000
 RMSDP=2.46D-07 MaxDP=1.55D-05 DE=-1.02D-08 OVMax= 4.93D-05

 Cycle  16  Pass 1  IDiag  1:
 RMSU=  1.23D-07    CP:  9.96D-01  3.00D+00  1.30D+00  1.27D+00  2.25D+00
                    CP:  1.81D+00  2.04D+00  1.99D+00  2.50D+00  2.36D+00
                    CP:  2.42D+00  1.94D+00  2.11D+00  1.61D+00  1.05D+00
 E= -1178.77192899820     Delta-E=       -0.000000002635 Rises=F Damp=F
 DIIS: error= 9.66D-07 at cycle  16 NSaved=  16.
 NSaved=16 IEnMin=16 EnMin= -1178.77192899820     IErMin=16 ErrMin= 9.66D-07
 ErrMax= 9.66D-07  0.00D+00 EMaxC= 1.00D-01 BMatC= 1.03D-09 BMatP= 2.39D-09
 IDIUse=1 WtCom= 1.00D+00 WtEn= 0.00D+00
 Coeff-Com:  0.619D-03-0.824D-03 0.130D-03 0.196D-02 0.447D-02-0.108D-02
 Coeff-Com: -0.141D-01-0.624D-02 0.226D-01 0.648D-01 0.124D-01-0.105D+00
 Coeff-Com: -0.185D+00 0.115D-02 0.513D+00 0.691D+00
 Coeff:      0.619D-03-0.824D-03 0.130D-03 0.196D-02 0.447D-02-0.108D-02
 Coeff:     -0.141D-01-0.624D-02 0.226D-01 0.648D-01 0.124D-01-0.105D+00
 Coeff:     -0.185D+00 0.115D-02 0.513D+00 0.691D+00
 Gap=     0.052 Goal=   None    Shift=    0.000
 Gap=     0.173 Goal=   None    Shift=    0.000
 RMSDP=1.45D-07 MaxDP=8.57D-06 DE=-2.64D-09 OVMax= 4.01D-05

 Cycle  17  Pass 1  IDiag  1:
 RMSU=  6.46D-08    CP:  9.96D-01  3.00D+00  1.30D+00  1.27D+00  2.25D+00
                    CP:  1.81D+00  2.04D+00  1.99D+00  2.49D+00  2.36D+00
                    CP:  2.42D+00  1.96D+00  2.26D+00  1.82D+00  1.35D+00
                    CP:  1.09D+00
 E= -1178.77192899896     Delta-E=       -0.000000000756 Rises=F Damp=F
 DIIS: error= 3.23D-07 at cycle  17 NSaved=  17.
 NSaved=17 IEnMin=17 EnMin= -1178.77192899896     IErMin=17 ErrMin= 3.23D-07
 ErrMax= 3.23D-07  0.00D+00 EMaxC= 1.00D-01 BMatC= 1.40D-10 BMatP= 1.03D-09
 IDIUse=1 WtCom= 1.00D+00 WtEn= 0.00D+00
 Coeff-Com:  0.356D-03-0.472D-03 0.335D-04 0.707D-03 0.170D-02-0.206D-03
 Coeff-Com: -0.441D-02-0.306D-02-0.441D-02 0.210D-01 0.245D-01 0.567D-02
 Coeff-Com: -0.690D-01-0.109D+00 0.402D-01 0.250D+00 0.846D+00
 Coeff:      0.356D-03-0.472D-03 0.335D-04 0.707D-03 0.170D-02-0.206D-03
 Coeff:     -0.441D-02-0.306D-02-0.441D-02 0.210D-01 0.245D-01 0.567D-02
 Coeff:     -0.690D-01-0.109D+00 0.402D-01 0.250D+00 0.846D+00
 Gap=     0.052 Goal=   None    Shift=    0.000
 Gap=     0.173 Goal=   None    Shift=    0.000
 RMSDP=8.08D-08 MaxDP=6.13D-06 DE=-7.56D-10 OVMax= 3.03D-05

 Cycle  18  Pass 1  IDiag  1:
 RMSU=  2.44D-08    CP:  9.96D-01  3.00D+00  1.30D+00  1.27D+00  2.25D+00
                    CP:  1.81D+00  2.04D+00  1.98D+00  2.48D+00  2.35D+00
                    CP:  2.41D+00  1.95D+00  2.30D+00  1.90D+00  1.48D+00
                    CP:  1.34D+00  1.29D+00
 E= -1178.77192899941     Delta-E=       -0.000000000452 Rises=F Damp=F
 DIIS: error= 2.00D-07 at cycle  18 NSaved=  18.
 NSaved=18 IEnMin=18 EnMin= -1178.77192899941     IErMin=18 ErrMin= 2.00D-07
 ErrMax= 2.00D-07  0.00D+00 EMaxC= 1.00D-01 BMatC= 5.60D-11 BMatP= 1.40D-10
 IDIUse=1 WtCom= 1.00D+00 WtEn= 0.00D+00
 Coeff-Com: -0.245D-04 0.338D-04-0.304D-04-0.293D-03-0.601D-03 0.194D-03
 Coeff-Com:  0.243D-02 0.383D-03-0.979D-02-0.116D-01 0.699D-02 0.404D-01
 Coeff-Com:  0.288D-01-0.585D-01-0.148D+00-0.108D+00 0.437D+00 0.821D+00
 Coeff:     -0.245D-04 0.338D-04-0.304D-04-0.293D-03-0.601D-03 0.194D-03
 Coeff:      0.243D-02 0.383D-03-0.979D-02-0.116D-01 0.699D-02 0.404D-01
 Coeff:      0.288D-01-0.585D-01-0.148D+00-0.108D+00 0.437D+00 0.821D+00
 Gap=     0.052 Goal=   None    Shift=    0.000
 Gap=     0.173 Goal=   None    Shift=    0.000
 RMSDP=5.09D-08 MaxDP=3.60D-06 DE=-4.52D-10 OVMax= 1.90D-05

 Cycle  19  Pass 1  IDiag  1:
 RMSU=  1.61D-08    CP:  9.96D-01  3.00D+00  1.30D+00  1.27D+00  2.25D+00
                    CP:  1.81D+00  2.03D+00  1.98D+00  2.48D+00  2.34D+00
                    CP:  2.41D+00  1.95D+00  2.32D+00  1.94D+00  1.57D+00
                    CP:  1.50D+00  1.58D+00  1.18D+00
 E= -1178.77192899938     Delta-E=        0.000000000025 Rises=F Damp=F
 DIIS: error= 6.76D-08 at cycle  19 NSaved=  19.
 NSaved=19 IEnMin=18 EnMin= -1178.77192899941     IErMin=19 ErrMin= 6.76D-08
 ErrMax= 6.76D-08  0.00D+00 EMaxC= 1.00D-01 BMatC= 1.34D-11 BMatP= 5.60D-11
 IDIUse=1 WtCom= 1.00D+00 WtEn= 0.00D+00
 Coeff-Com: -0.114D-03 0.151D-03-0.276D-04-0.320D-03-0.676D-03 0.183D-03
 Coeff-Com:  0.221D-02 0.862D-03-0.265D-02-0.112D-01-0.430D-02 0.169D-01
 Coeff-Com:  0.329D-01 0.517D-02-0.728D-01-0.120D+00-0.912D-01 0.336D+00
 Coeff-Com:  0.909D+00
 Coeff:     -0.114D-03 0.151D-03-0.276D-04-0.320D-03-0.676D-03 0.183D-03
 Coeff:      0.221D-02 0.862D-03-0.265D-02-0.112D-01-0.430D-02 0.169D-01
 Coeff:      0.329D-01 0.517D-02-0.728D-01-0.120D+00-0.912D-01 0.336D+00
 Coeff:      0.909D+00
 Gap=     0.052 Goal=   None    Shift=    0.000
 Gap=     0.173 Goal=   None    Shift=    0.000
 RMSDP=2.95D-08 MaxDP=2.27D-06 DE= 2.55D-11 OVMax= 1.13D-05

 Cycle  20  Pass 1  IDiag  1:
 RMSU=  7.87D-09    CP:  9.96D-01  3.00D+00  1.30D+00  1.27D+00  2.25D+00
                    CP:  1.81D+00  2.03D+00  1.98D+00  2.47D+00  2.34D+00
                    CP:  2.41D+00  1.95D+00  2.33D+00  1.96D+00  1.61D+00
                    CP:  1.59D+00  1.72D+00  1.53D+00  1.22D+00
 E= -1178.77192899938     Delta-E=        0.000000000001 Rises=F Damp=F
 DIIS: error= 5.23D-08 at cycle  20 NSaved=  20.
 NSaved=20 IEnMin=18 EnMin= -1178.77192899941     IErMin=20 ErrMin= 5.23D-08
 ErrMax= 5.23D-08  0.00D+00 EMaxC= 1.00D-01 BMatC= 4.02D-12 BMatP= 1.34D-11
 IDIUse=1 WtCom= 1.00D+00 WtEn= 0.00D+00
 Coeff-Com: -0.559D-04 0.741D-04-0.914D-05-0.115D-03-0.237D-03 0.890D-04
 Coeff-Com:  0.766D-03 0.405D-03 0.303D-03-0.379D-02-0.346D-02 0.141D-02
 Coeff-Com:  0.117D-01 0.129D-01-0.972D-02-0.410D-01-0.127D+00 0.190D-01
 Coeff-Com:  0.478D+00 0.661D+00
 Coeff:     -0.559D-04 0.741D-04-0.914D-05-0.115D-03-0.237D-03 0.890D-04
 Coeff:      0.766D-03 0.405D-03 0.303D-03-0.379D-02-0.346D-02 0.141D-02
 Coeff:      0.117D-01 0.129D-01-0.972D-02-0.410D-01-0.127D+00 0.190D-01
 Coeff:      0.478D+00 0.661D+00
 Gap=     0.052 Goal=   None    Shift=    0.000
 Gap=     0.173 Goal=   None    Shift=    0.000
 RMSDP=9.29D-09 MaxDP=6.28D-07 DE= 9.09D-13 OVMax= 3.30D-06

 SCF Done:  E(UPBE1PBE) =  -1178.77192900     A.U. after   20 cycles
            NFock= 20  Conv=0.93D-08     -V/T= 2.0932
 <Sx>= 0.0000 <Sy>= 0.0000 <Sz>= 0.5000 <S**2>= 0.7524 S= 0.5012
 <L.S>= 0.000000000000E+00
 KE= 1.078233613322D+03 PE=-7.422004360121D+03 EE= 2.807713795968D+03
 Annihilation of the first spin contaminant:
 S**2 before annihilation     0.7524,   after     0.7500
 Leave Link  502 at Fri Sep 11 22:32:12 2026, MaxMem=  6442450944 cpu:             674.0 elap:             673.9
 (Enter C:\G16W\l508.exe)
 QCSCF skips out because SCF is already converged.
 Leave Link  508 at Fri Sep 11 22:32:13 2026, MaxMem=  6442450944 cpu:               1.0 elap:               0.1
 (Enter C:\G16W\l601.exe)
 Copying SCF densities to generalized density rwf, IOpCl= 1 IROHF=0.

 **********************************************************************

            Population analysis using the SCF Density.

 **********************************************************************

 Alpha  occ. eigenvalues --  -14.41990 -14.39568 -10.28742 -10.28545 -10.28304
 Alpha  occ. eigenvalues --  -10.27699 -10.27469 -10.27171 -10.26697 -10.26380
 Alpha  occ. eigenvalues --  -10.26108 -10.25984 -10.25518 -10.25465 -10.25399
 Alpha  occ. eigenvalues --  -10.25218 -10.25086 -10.25063 -10.24979 -10.24964
 Alpha  occ. eigenvalues --  -10.24950 -10.24930 -10.24865 -10.24848 -10.24832
 Alpha  occ. eigenvalues --  -10.24750  -3.71773  -2.29849  -2.29768  -2.29554
 Alpha  occ. eigenvalues --   -1.00551  -0.97774  -0.90653  -0.90286  -0.88345
 Alpha  occ. eigenvalues --   -0.85348  -0.84549  -0.78973  -0.78274  -0.77996
 Alpha  occ. eigenvalues --   -0.77905  -0.77438  -0.76796  -0.69151  -0.68223
 Alpha  occ. eigenvalues --   -0.66943  -0.65946  -0.63735  -0.63636  -0.62616
 Alpha  occ. eigenvalues --   -0.60010  -0.58282  -0.57257  -0.55772  -0.54623
 Alpha  occ. eigenvalues --   -0.53137  -0.51359  -0.51104  -0.50230  -0.49221
 Alpha  occ. eigenvalues --   -0.49009  -0.47734  -0.47221  -0.46649  -0.46467
 Alpha  occ. eigenvalues --   -0.45216  -0.45043  -0.44961  -0.44477  -0.43684
 Alpha  occ. eigenvalues --   -0.43240  -0.42326  -0.40763  -0.40270  -0.38971
 Alpha  occ. eigenvalues --   -0.38311  -0.38014  -0.37596  -0.37230  -0.37151
 Alpha  occ. eigenvalues --   -0.36991  -0.34340  -0.32733  -0.32311  -0.29984
 Alpha  occ. eigenvalues --   -0.29211  -0.29073  -0.28884  -0.28449  -0.28323
 Alpha  occ. eigenvalues --   -0.28002  -0.27919  -0.27378  -0.27052  -0.25539
 Alpha  occ. eigenvalues --   -0.24643  -0.12145
 Alpha virt. eigenvalues --   -0.06962  -0.06563  -0.02330  -0.01812  -0.01713
 Alpha virt. eigenvalues --   -0.01696  -0.01164   0.01051   0.02250   0.03380
 Alpha virt. eigenvalues --    0.05669   0.06531   0.06671   0.07249   0.08814
 Alpha virt. eigenvalues --    0.10362   0.10395   0.10539   0.10882   0.11537
 Alpha virt. eigenvalues --    0.11758   0.12421   0.13201   0.14366   0.14529
 Alpha virt. eigenvalues --    0.15136   0.15183   0.15255   0.15341   0.15474
 Alpha virt. eigenvalues --    0.15983   0.17429   0.20528   0.21019   0.22148
 Alpha virt. eigenvalues --    0.23542   0.24224   0.24789   0.25601   0.27054
 Alpha virt. eigenvalues --    0.27850   0.28384   0.29064   0.29089   0.29147
 Alpha virt. eigenvalues --    0.30033   0.30773   0.31361   0.31735   0.31760
 Alpha virt. eigenvalues --    0.31876   0.32696   0.33124   0.35048   0.35578
 Alpha virt. eigenvalues --    0.36006   0.36785   0.37218   0.37776   0.38359
 Alpha virt. eigenvalues --    0.39431   0.39803   0.40193   0.40491   0.40904
 Alpha virt. eigenvalues --    0.41404   0.42619   0.42744   0.42780   0.43930
 Alpha virt. eigenvalues --    0.44494   0.44842   0.45505   0.45785   0.46065
 Alpha virt. eigenvalues --    0.46346   0.46549   0.47288   0.47581   0.48172
 Alpha virt. eigenvalues --    0.48561   0.48997   0.49153   0.49450   0.49860
 Alpha virt. eigenvalues --    0.49998   0.50077   0.50642   0.51262   0.51849
 Alpha virt. eigenvalues --    0.52952   0.53379   0.54312   0.55097   0.55459
 Alpha virt. eigenvalues --    0.56143   0.56608   0.57505   0.57957   0.59116
 Alpha virt. eigenvalues --    0.60384   0.60490   0.61141   0.62133   0.62303
 Alpha virt. eigenvalues --    0.63463   0.63974   0.64684   0.65395   0.65481
 Alpha virt. eigenvalues --    0.65653   0.66215   0.66517   0.67156   0.67288
 Alpha virt. eigenvalues --    0.67931   0.67998   0.68284   0.68448   0.68701
 Alpha virt. eigenvalues --    0.69329   0.69953   0.70323   0.70875   0.71139
 Alpha virt. eigenvalues --    0.71696   0.72102   0.72799   0.73050   0.73210
 Alpha virt. eigenvalues --    0.73516   0.74108   0.74908   0.75341   0.75518
 Alpha virt. eigenvalues --    0.75628   0.76854   0.77432   0.77738   0.78662
 Alpha virt. eigenvalues --    0.79188   0.79352   0.80379   0.81619   0.82568
 Alpha virt. eigenvalues --    0.82978   0.84062   0.84456   0.84845   0.85204
 Alpha virt. eigenvalues --    0.85930   0.87453   0.87690   0.88619   0.91271
 Alpha virt. eigenvalues --    0.91737   0.93574   0.94345   0.95089   0.95343
 Alpha virt. eigenvalues --    0.98103   1.01034   1.03139   1.03783   1.06546
 Alpha virt. eigenvalues --    1.07458   1.07934   1.08365   1.11063   1.11851
 Alpha virt. eigenvalues --    1.14218   1.16688   1.18074   1.18300   1.20146
 Alpha virt. eigenvalues --    1.20197   1.21351   1.22295   1.22689   1.23157
 Alpha virt. eigenvalues --    1.23235   1.23607   1.23980   1.24126   1.24382
 Alpha virt. eigenvalues --    1.24938   1.26112   1.26527   1.26912   1.28709
 Alpha virt. eigenvalues --    1.28866   1.29901   1.30808   1.31052   1.31128
 Alpha virt. eigenvalues --    1.31525   1.33823   1.34377   1.34958   1.35405
 Alpha virt. eigenvalues --    1.37115   1.39077   1.41218   1.43936   1.44753
 Alpha virt. eigenvalues --    1.49126   1.50038   1.53163   1.55225   1.57026
 Alpha virt. eigenvalues --    1.58343   1.59264   1.61269   1.62607   1.63644
 Alpha virt. eigenvalues --    1.64768   1.66890   1.66979   1.67836   1.70437
 Alpha virt. eigenvalues --    1.71351   1.71508   1.72237   1.72499   1.72932
 Alpha virt. eigenvalues --    1.74080   1.75023   1.75221   1.75479   1.75649
 Alpha virt. eigenvalues --    1.76063   1.76337   1.76710   1.76844   1.76936
 Alpha virt. eigenvalues --    1.77199   1.78401   1.78719   1.80153   1.80478
 Alpha virt. eigenvalues --    1.81005   1.81162   1.81338   1.81818   1.82692
 Alpha virt. eigenvalues --    1.83682   1.84670   1.85661   1.88188   1.88197
 Alpha virt. eigenvalues --    1.88774   1.90115   1.90927   1.92209   1.93563
 Alpha virt. eigenvalues --    1.94024   1.95203   1.95490   1.95641   1.96034
 Alpha virt. eigenvalues --    1.96700   1.98017   1.98691   1.98772   1.98787
 Alpha virt. eigenvalues --    2.00206   2.00372   2.00493   2.01661   2.02123
 Alpha virt. eigenvalues --    2.05337   2.07556   2.07857   2.09330   2.09425
 Alpha virt. eigenvalues --    2.10939   2.12420   2.13191   2.13343   2.14063
 Alpha virt. eigenvalues --    2.14984   2.15920   2.16389   2.17604   2.18791
 Alpha virt. eigenvalues --    2.19641   2.20299   2.22022   2.23295   2.26240
 Alpha virt. eigenvalues --    2.27375   2.27493   2.28838   2.29739   2.29926
 Alpha virt. eigenvalues --    2.30139   2.30398   2.32200   2.32374   2.33268
 Alpha virt. eigenvalues --    2.33662   2.33909   2.35697   2.35800   2.36561
 Alpha virt. eigenvalues --    2.37406   2.39030   2.40840   2.41586   2.42321
 Alpha virt. eigenvalues --    2.42589   2.46952   2.48452   2.49732   2.54352
 Alpha virt. eigenvalues --    2.54942   2.55334   2.55707   2.56735   2.56971
 Alpha virt. eigenvalues --    2.58954   2.61044   2.63646   2.63845   2.64490
 Alpha virt. eigenvalues --    2.65011   2.65664   2.65851   2.65996   2.66237
 Alpha virt. eigenvalues --    2.66387   2.67008   2.67206   2.67488   2.68867
 Alpha virt. eigenvalues --    2.70131   2.70523   2.71057   2.74787   2.75812
 Alpha virt. eigenvalues --    2.75905   2.76039   2.76497   2.77353   2.78414
 Alpha virt. eigenvalues --    2.80323   2.82034   2.85923   2.87966   2.89400
 Alpha virt. eigenvalues --    2.90402   2.90461   2.90757   2.91134   2.91768
 Alpha virt. eigenvalues --    2.91898   2.95370   2.97249   2.97967   3.03158
 Alpha virt. eigenvalues --    3.05981   3.07088   3.09025   3.12286   3.16057
 Alpha virt. eigenvalues --    3.16154   3.16889   3.18511   3.27088   3.27195
 Alpha virt. eigenvalues --    3.29840   3.33213   3.55525   3.62481   3.66119
 Alpha virt. eigenvalues --    3.69548   3.73411  53.88043
  Beta  occ. eigenvalues --  -14.41850 -14.39523 -10.28696 -10.28515 -10.28297
  Beta  occ. eigenvalues --  -10.27701 -10.27416 -10.27158 -10.26702 -10.26374
  Beta  occ. eigenvalues --  -10.26112 -10.25985 -10.25508 -10.25466 -10.25398
  Beta  occ. eigenvalues --  -10.25201 -10.25083 -10.25060 -10.24978 -10.24963
  Beta  occ. eigenvalues --  -10.24949 -10.24930 -10.24865 -10.24848 -10.24832
  Beta  occ. eigenvalues --  -10.24750  -3.71654  -2.29786  -2.29695  -2.29500
  Beta  occ. eigenvalues --   -1.00434  -0.97709  -0.90624  -0.90275  -0.88320
  Beta  occ. eigenvalues --   -0.85294  -0.84492  -0.78928  -0.78245  -0.77992
  Beta  occ. eigenvalues --   -0.77903  -0.77407  -0.76764  -0.69067  -0.68186
  Beta  occ. eigenvalues --   -0.66915  -0.65904  -0.63724  -0.63633  -0.62597
  Beta  occ. eigenvalues --   -0.59969  -0.58249  -0.57220  -0.55728  -0.54609
  Beta  occ. eigenvalues --   -0.53083  -0.51315  -0.51076  -0.50188  -0.49186
  Beta  occ. eigenvalues --   -0.48997  -0.47702  -0.47205  -0.46629  -0.46333
  Beta  occ. eigenvalues --   -0.45181  -0.45040  -0.44958  -0.44388  -0.43662
  Beta  occ. eigenvalues --   -0.43212  -0.42215  -0.40748  -0.40257  -0.38942
  Beta  occ. eigenvalues --   -0.38271  -0.37938  -0.37519  -0.37223  -0.37133
  Beta  occ. eigenvalues --   -0.36958  -0.34003  -0.32480  -0.32128  -0.29659
  Beta  occ. eigenvalues --   -0.28779  -0.28692  -0.28533  -0.28323  -0.28287
  Beta  occ. eigenvalues --   -0.27993  -0.27876  -0.26996  -0.26872  -0.25351
  Beta  occ. eigenvalues --   -0.24081
  Beta virt. eigenvalues --   -0.06790  -0.06534  -0.03349  -0.02223  -0.01804
  Beta virt. eigenvalues --   -0.01696  -0.01676  -0.01131   0.01383   0.04426
  Beta virt. eigenvalues --    0.05159   0.05843   0.06609   0.06684   0.08499
  Beta virt. eigenvalues --    0.08976   0.10404   0.10510   0.10632   0.11058
  Beta virt. eigenvalues --    0.11659   0.12207   0.12651   0.14225   0.14428
  Beta virt. eigenvalues --    0.14636   0.15153   0.15247   0.15297   0.15452
  Beta virt. eigenvalues --    0.15489   0.16563   0.17786   0.20678   0.21173
  Beta virt. eigenvalues --    0.22205   0.23761   0.24362   0.24991   0.25629
  Beta virt. eigenvalues --    0.27093   0.27949   0.28436   0.29067   0.29148
  Beta virt. eigenvalues --    0.29476   0.30121   0.30821   0.31503   0.31767
  Beta virt. eigenvalues --    0.31826   0.31922   0.32947   0.33260   0.35257
  Beta virt. eigenvalues --    0.36087   0.36955   0.37308   0.37636   0.38427
  Beta virt. eigenvalues --    0.38764   0.39540   0.40161   0.40496   0.40518
  Beta virt. eigenvalues --    0.41024   0.42470   0.42737   0.42781   0.42920
  Beta virt. eigenvalues --    0.44002   0.44526   0.44909   0.45767   0.46153
  Beta virt. eigenvalues --    0.46284   0.46535   0.46685   0.47441   0.47835
  Beta virt. eigenvalues --    0.48615   0.48851   0.49104   0.49227   0.49549
  Beta virt. eigenvalues --    0.49902   0.50137   0.50404   0.50833   0.51451
  Beta virt. eigenvalues --    0.52325   0.53255   0.54007   0.54437   0.55281
  Beta virt. eigenvalues --    0.55510   0.56466   0.56935   0.57900   0.58345
  Beta virt. eigenvalues --    0.59369   0.60404   0.60612   0.61306   0.62216
  Beta virt. eigenvalues --    0.62443   0.63715   0.64090   0.64896   0.65457
  Beta virt. eigenvalues --    0.65627   0.65821   0.66284   0.66696   0.67375
  Beta virt. eigenvalues --    0.67531   0.67988   0.68026   0.68308   0.68474
  Beta virt. eigenvalues --    0.68742   0.69368   0.70028   0.70399   0.71028
  Beta virt. eigenvalues --    0.71186   0.71810   0.72220   0.72819   0.73197
  Beta virt. eigenvalues --    0.73437   0.73629   0.74172   0.75048   0.75371
  Beta virt. eigenvalues --    0.75563   0.75686   0.76934   0.77484   0.77779
  Beta virt. eigenvalues --    0.78825   0.79220   0.79404   0.80469   0.81653
  Beta virt. eigenvalues --    0.82618   0.83015   0.84093   0.84499   0.84906
  Beta virt. eigenvalues --    0.85337   0.85982   0.87573   0.87701   0.88666
  Beta virt. eigenvalues --    0.91357   0.91852   0.93633   0.94413   0.95130
  Beta virt. eigenvalues --    0.95412   0.98246   1.01224   1.03209   1.03837
  Beta virt. eigenvalues --    1.06650   1.07489   1.07977   1.08399   1.11100
  Beta virt. eigenvalues --    1.11893   1.14357   1.16730   1.18105   1.18365
  Beta virt. eigenvalues --    1.20161   1.20217   1.21366   1.22324   1.22729
  Beta virt. eigenvalues --    1.23198   1.23325   1.23618   1.23984   1.24140
  Beta virt. eigenvalues --    1.24413   1.24966   1.26181   1.26563   1.26995
  Beta virt. eigenvalues --    1.28726   1.28873   1.29939   1.30822   1.31063
  Beta virt. eigenvalues --    1.31193   1.31540   1.33914   1.34426   1.35070
  Beta virt. eigenvalues --    1.35449   1.37211   1.39126   1.41266   1.43966
  Beta virt. eigenvalues --    1.44779   1.49185   1.50068   1.53186   1.55251
  Beta virt. eigenvalues --    1.57118   1.58362   1.59282   1.61312   1.62615
  Beta virt. eigenvalues --    1.63703   1.64922   1.66894   1.66981   1.67860
  Beta virt. eigenvalues --    1.70451   1.71382   1.71525   1.72260   1.72507
  Beta virt. eigenvalues --    1.72945   1.74094   1.75054   1.75231   1.75501
  Beta virt. eigenvalues --    1.75655   1.76085   1.76347   1.76715   1.76849
  Beta virt. eigenvalues --    1.76951   1.77220   1.78429   1.78774   1.80156
  Beta virt. eigenvalues --    1.80513   1.81036   1.81188   1.81382   1.81840
  Beta virt. eigenvalues --    1.82745   1.83743   1.84684   1.85697   1.88228
  Beta virt. eigenvalues --    1.88274   1.88795   1.90142   1.91003   1.92240
  Beta virt. eigenvalues --    1.93581   1.94052   1.95303   1.95502   1.95649
  Beta virt. eigenvalues --    1.96093   1.96739   1.98047   1.98692   1.98785
  Beta virt. eigenvalues --    1.98791   2.00211   2.00373   2.00531   2.01691
  Beta virt. eigenvalues --    2.02192   2.05434   2.07589   2.07906   2.09342
  Beta virt. eigenvalues --    2.09431   2.10980   2.12734   2.13222   2.13381
  Beta virt. eigenvalues --    2.14391   2.14991   2.15949   2.16510   2.17690
  Beta virt. eigenvalues --    2.18824   2.19647   2.20330   2.22115   2.23353
  Beta virt. eigenvalues --    2.26272   2.27389   2.27530   2.28864   2.29778
  Beta virt. eigenvalues --    2.29937   2.30179   2.30447   2.32251   2.32400
  Beta virt. eigenvalues --    2.33276   2.33667   2.33922   2.35704   2.35803
  Beta virt. eigenvalues --    2.36581   2.37493   2.39098   2.40893   2.41642
  Beta virt. eigenvalues --    2.42375   2.42676   2.47024   2.48469   2.49772
  Beta virt. eigenvalues --    2.54384   2.54961   2.55352   2.55773   2.56789
  Beta virt. eigenvalues --    2.57073   2.58993   2.61091   2.63654   2.63851
  Beta virt. eigenvalues --    2.64553   2.65032   2.65694   2.65841   2.66003
  Beta virt. eigenvalues --    2.66285   2.66413   2.67019   2.67211   2.67567
  Beta virt. eigenvalues --    2.68947   2.70197   2.70594   2.71113   2.74970
  Beta virt. eigenvalues --    2.75815   2.75908   2.76052   2.76504   2.77380
  Beta virt. eigenvalues --    2.78446   2.80449   2.82061   2.85962   2.88077
  Beta virt. eigenvalues --    2.89422   2.90413   2.90478   2.90773   2.91147
  Beta virt. eigenvalues --    2.91772   2.91902   2.95447   2.97302   2.97994
  Beta virt. eigenvalues --    3.03188   3.06025   3.07150   3.09033   3.12320
  Beta virt. eigenvalues --    3.16062   3.16155   3.16912   3.18549   3.27097
  Beta virt. eigenvalues --    3.27198   3.29952   3.33273   3.55583   3.62532
  Beta virt. eigenvalues --    3.66140   3.69554   3.73448  53.88168
          Condensed to atoms (all electrons):
               1          2          3          4          5          6
     1  C    5.110238   0.271752   0.088329  -0.163059   0.000350   0.000057
     2  C    0.271752   5.059443   0.297807   0.093621   0.012125   0.000283
     3  C    0.088329   0.297807   5.045746   0.292704  -0.074109  -0.007115
     4  C   -0.163059   0.093621   0.292704   5.466950   0.313478  -0.087928
     5  C    0.000350   0.012125  -0.074109   0.313478   5.250203   0.468674
     6  C    0.000057   0.000283  -0.007115  -0.087928   0.468674   4.945047
     7  C    0.000001   0.000013   0.000139   0.008905   0.011967   0.409796
     8  N    0.000000   0.000000  -0.000003  -0.000175  -0.044177  -0.029050
     9  C   -0.000005   0.000042  -0.000946   0.019841  -0.114242  -0.055454
    10  C   -0.000103   0.000504  -0.010096  -0.071824   0.402936   0.005556
    11  C    0.000069  -0.000275  -0.000375  -0.021743  -0.102014   0.011427
    12  C    0.000006  -0.000020   0.000088  -0.002753   0.019863  -0.000657
    13  C    0.000000   0.000001  -0.000034   0.000180  -0.000953  -0.000215
    14  C    0.000000   0.000000   0.000000   0.000000   0.000051  -0.000003
    15  C    0.000000   0.000000   0.000000   0.000000   0.000000   0.000000
    16  C    0.000000   0.000000   0.000000   0.000000   0.000000   0.000000
    17  C    0.000000   0.000000   0.000000   0.000000   0.000000   0.000000
    18  C    0.000000   0.000000   0.000000   0.000000   0.000000   0.000000
    19  C    0.000000   0.000000   0.000000   0.000000   0.000000   0.000000
    20  C    0.000000   0.000000   0.000000   0.000000   0.000000   0.000000
    21  C    0.000000   0.000000   0.000000   0.000000  -0.000002   0.000000
    22  C    0.000000   0.000000   0.000000   0.000000   0.000010  -0.000001
    23  N    0.000000   0.000000   0.000000   0.000001  -0.000032  -0.000039
    24  C    0.000000  -0.000001   0.000033  -0.000561   0.023098  -0.000407
    25  C    0.088382  -0.144543   0.067788   0.292688  -0.074859  -0.006653
    26  C    0.271818   0.090054  -0.144484   0.093677   0.012161   0.000269
    27  H    0.450557  -0.068924   0.014391  -0.001547   0.000021  -0.000001
    28  H   -0.072253   0.452806  -0.070795   0.016280  -0.000373  -0.000008
    29  H    0.014407  -0.068034   0.456724  -0.069628  -0.012167   0.000604
    30  H   -0.000036  -0.000142   0.000641  -0.012048  -0.049967   0.427903
    31  H    0.000000   0.000000  -0.000005  -0.000455   0.007331  -0.063092
    32  H    0.000015   0.000611  -0.001547   0.015077  -0.039698   0.000463
    33  H    0.000000  -0.000001   0.000013  -0.000011  -0.000333   0.000009
    34  H    0.000000   0.000000   0.000000   0.000000   0.000000   0.000000
    35  H    0.000000   0.000000   0.000000   0.000000   0.000000   0.000000
    36  H    0.000000   0.000000   0.000000   0.000000   0.000000   0.000000
    37  H    0.000000   0.000000   0.000000   0.000000   0.000000   0.000000
    38  H    0.000000   0.000000   0.000000   0.000000   0.000000   0.000000
    39  H    0.000000   0.000000   0.000000   0.000000   0.000000   0.000000
    40  H    0.000000   0.000000   0.000000   0.000000   0.000000   0.000000
    41  H    0.014453  -0.002063   0.014788  -0.069914  -0.012145   0.000596
    42  H   -0.072198   0.014508  -0.001822   0.016297  -0.000377  -0.000008
    43  Ag   0.000000   0.000001   0.000001   0.000368  -0.000060   0.006941
               7          8          9         10         11         12
     1  C    0.000001   0.000000  -0.000005  -0.000103   0.000069   0.000006
     2  C    0.000013   0.000000   0.000042   0.000504  -0.000275  -0.000020
     3  C    0.000139  -0.000003  -0.000946  -0.010096  -0.000375   0.000088
     4  C    0.008905  -0.000175   0.019841  -0.071824  -0.021743  -0.002753
     5  C    0.011967  -0.044177  -0.114242   0.402936  -0.102014   0.019863
     6  C    0.409796  -0.029050  -0.055454   0.005556   0.011427  -0.000657
     7  C    4.773284   0.452756  -0.040808  -0.089873   0.000287   0.000204
     8  N    0.452756   6.486103   0.523544  -0.063504   0.005428  -0.000765
     9  C   -0.040808   0.523544   5.505991   0.257444   0.054754  -0.124667
    10  C   -0.089873  -0.063504   0.257444   5.360696   0.240143   0.082754
    11  C    0.000287   0.005428   0.054754   0.240143   5.152377   0.309848
    12  C    0.000204  -0.000765  -0.124667   0.082754   0.309848   5.148241
    13  C   -0.000628   0.006900  -0.043337  -0.115539   0.083850   0.238844
    14  C    0.000006  -0.000056   0.020816  -0.000842   0.019869  -0.099256
    15  C    0.000000   0.000001  -0.000593   0.000172  -0.002754  -0.022937
    16  C    0.000000   0.000000   0.000039  -0.000035   0.000094  -0.000305
    17  C    0.000000   0.000000  -0.000001   0.000001  -0.000020  -0.000281
    18  C    0.000000   0.000000   0.000000   0.000000   0.000006   0.000068
    19  C    0.000000   0.000000  -0.000001   0.000001  -0.000020  -0.000279
    20  C    0.000000   0.000000   0.000039  -0.000035   0.000091  -0.000342
    21  C   -0.000002  -0.000028  -0.001368  -0.000177  -0.000659   0.011579
    22  C    0.000046  -0.000402   0.014068  -0.000460   0.000166   0.000005
    23  N   -0.000727  -0.005920  -0.130629   0.006145  -0.000719   0.005034
    24  C    0.013826  -0.107105   0.054618  -0.001971  -0.132250   0.049115
    25  C    0.000093  -0.000011  -0.000938  -0.009962  -0.000262   0.000097
    26  C    0.000013   0.000000   0.000041   0.000489  -0.000273  -0.000020
    27  H    0.000000   0.000000   0.000000   0.000001  -0.000001   0.000000
    28  H    0.000000   0.000000   0.000000  -0.000001  -0.000003   0.000000
    29  H   -0.000153  -0.000017  -0.000380  -0.000278   0.000337   0.000020
    30  H   -0.050113   0.005080   0.000939   0.014297  -0.000334   0.000010
    31  H    0.420169  -0.055323   0.006361   0.001249   0.000109   0.000001
    32  H   -0.000168  -0.000016   0.018469  -0.049775   0.463102  -0.081361
    33  H   -0.000001   0.000003  -0.003593   0.016785  -0.081569   0.462780
    34  H    0.000000   0.000000   0.000025  -0.000010   0.000019   0.000307
    35  H    0.000000   0.000000   0.000000   0.000000   0.000000  -0.000003
    36  H    0.000000   0.000000   0.000000   0.000000   0.000000  -0.000001
    37  H    0.000000   0.000000   0.000000   0.000000   0.000000  -0.000003
    38  H    0.000000   0.000000   0.000025  -0.000010   0.000019   0.000310
    39  H    0.000000   0.000000   0.000136  -0.000002   0.000010  -0.000343
    40  H    0.000003   0.000005   0.000088   0.000006   0.000001   0.000110
    41  H   -0.000138  -0.000019  -0.000382  -0.000337   0.000313   0.000019
    42  H   -0.000001   0.000000   0.000000   0.000000  -0.000003   0.000000
    43  Ag  -0.040025   0.060782  -0.030913   0.005607  -0.001071  -0.000910
              13         14         15         16         17         18
     1  C    0.000000   0.000000   0.000000   0.000000   0.000000   0.000000
     2  C    0.000001   0.000000   0.000000   0.000000   0.000000   0.000000
     3  C   -0.000034   0.000000   0.000000   0.000000   0.000000   0.000000
     4  C    0.000180   0.000000   0.000000   0.000000   0.000000   0.000000
     5  C   -0.000953   0.000051   0.000000   0.000000   0.000000   0.000000
     6  C   -0.000215  -0.000003   0.000000   0.000000   0.000000   0.000000
     7  C   -0.000628   0.000006   0.000000   0.000000   0.000000   0.000000
     8  N    0.006900  -0.000056   0.000001   0.000000   0.000000   0.000000
     9  C   -0.043337   0.020816  -0.000593   0.000039  -0.000001   0.000000
    10  C   -0.115539  -0.000842   0.000172  -0.000035   0.000001   0.000000
    11  C    0.083850   0.019869  -0.002754   0.000094  -0.000020   0.000006
    12  C    0.238844  -0.099256  -0.022937  -0.000305  -0.000281   0.000068
    13  C    5.404217   0.413909  -0.071622  -0.010105   0.000515  -0.000100
    14  C    0.413909   5.232602   0.313872  -0.074194   0.012109   0.000332
    15  C   -0.071622   0.313872   5.469334   0.292212   0.093945  -0.163099
    16  C   -0.010105  -0.074194   0.292212   5.047433   0.297045   0.088480
    17  C    0.000515   0.012109   0.093945   0.297045   5.060912   0.271483
    18  C   -0.000100   0.000332  -0.163099   0.088480   0.271483   5.110952
    19  C    0.000511   0.012136   0.093907  -0.144523   0.090109   0.271577
    20  C   -0.010059  -0.074445   0.292460   0.067269  -0.144586   0.088474
    21  C    0.006726   0.479823  -0.088220  -0.006925   0.000274   0.000057
    22  C   -0.093601   0.011480   0.008124   0.000142   0.000011   0.000001
    23  N   -0.070822  -0.045142  -0.000319  -0.000001   0.000000   0.000000
    24  C    0.244351  -0.118757   0.019814  -0.000912   0.000042  -0.000005
    25  C   -0.000034   0.000000   0.000000   0.000000   0.000000   0.000000
    26  C    0.000001   0.000000   0.000000   0.000000   0.000000   0.000000
    27  H    0.000000   0.000000   0.000000   0.000000   0.000000   0.000000
    28  H    0.000000   0.000000   0.000000   0.000000   0.000000   0.000000
    29  H   -0.000010   0.000000   0.000000   0.000000   0.000000   0.000000
    30  H   -0.000001   0.000000   0.000000   0.000000   0.000000   0.000000
    31  H    0.000003   0.000000   0.000000   0.000000   0.000000   0.000000
    32  H    0.016473  -0.000342  -0.000009   0.000013  -0.000001   0.000000
    33  H   -0.049859  -0.039418   0.015253  -0.001583   0.000613   0.000015
    34  H   -0.000323  -0.012085  -0.069693   0.456746  -0.068434   0.014446
    35  H   -0.000001  -0.000370   0.016278  -0.070933   0.452797  -0.072313
    36  H    0.000001   0.000021  -0.001547   0.014396  -0.068982   0.450477
    37  H   -0.000001  -0.000372   0.016293  -0.001827   0.014528  -0.072282
    38  H   -0.000332  -0.012142  -0.069879   0.014847  -0.002072   0.014475
    39  H    0.013924  -0.049889  -0.012403   0.000768  -0.000154  -0.000035
    40  H    0.000929   0.007701  -0.000525  -0.000002   0.000000   0.000000
    41  H   -0.000009   0.000000   0.000000   0.000000   0.000000   0.000000
    42  H    0.000000   0.000000   0.000000   0.000000   0.000000   0.000000
    43  Ag   0.007066   0.000572   0.000180  -0.000003   0.000001   0.000000
              19         20         21         22         23         24
     1  C    0.000000   0.000000   0.000000   0.000000   0.000000   0.000000
     2  C    0.000000   0.000000   0.000000   0.000000   0.000000  -0.000001
     3  C    0.000000   0.000000   0.000000   0.000000   0.000000   0.000033
     4  C    0.000000   0.000000   0.000000   0.000000   0.000001  -0.000561
     5  C    0.000000   0.000000  -0.000002   0.000010  -0.000032   0.023098
     6  C    0.000000   0.000000   0.000000  -0.000001  -0.000039  -0.000407
     7  C    0.000000   0.000000  -0.000002   0.000046  -0.000727   0.013826
     8  N    0.000000   0.000000  -0.000028  -0.000402  -0.005920  -0.107105
     9  C   -0.000001   0.000039  -0.001368   0.014068  -0.130629   0.054618
    10  C    0.000001  -0.000035  -0.000177  -0.000460   0.006145  -0.001971
    11  C   -0.000020   0.000091  -0.000659   0.000166  -0.000719  -0.132250
    12  C   -0.000279  -0.000342   0.011579   0.000005   0.005034   0.049115
    13  C    0.000511  -0.010059   0.006726  -0.093601  -0.070822   0.244351
    14  C    0.012136  -0.074445   0.479823   0.011480  -0.045142  -0.118757
    15  C    0.093907   0.292460  -0.088220   0.008124  -0.000319   0.019814
    16  C   -0.144523   0.067269  -0.006925   0.000142  -0.000001  -0.000912
    17  C    0.090109  -0.144586   0.000274   0.000011   0.000000   0.000042
    18  C    0.271577   0.088474   0.000057   0.000001   0.000000  -0.000005
    19  C    5.061127   0.297026   0.000283   0.000011   0.000000   0.000042
    20  C    0.297026   5.048192  -0.007087   0.000145  -0.000004  -0.000854
    21  C    0.000283  -0.007087   4.996606   0.388624  -0.029024  -0.064753
    22  C    0.000011   0.000145   0.388624   4.737282   0.511343  -0.040374
    23  N    0.000000  -0.000004  -0.029024   0.511343   6.313261   0.575970
    24  C    0.000042  -0.000854  -0.064753  -0.040374   0.575970   5.482268
    25  C    0.000000   0.000000   0.000000   0.000000   0.000000   0.000034
    26  C    0.000000   0.000000   0.000000   0.000000   0.000000  -0.000001
    27  H    0.000000   0.000000   0.000000   0.000000   0.000000   0.000000
    28  H    0.000000   0.000000   0.000000   0.000000   0.000000   0.000000
    29  H    0.000000   0.000000   0.000000   0.000000   0.000000   0.000023
    30  H    0.000000   0.000000   0.000000   0.000000   0.000000   0.000094
    31  H    0.000000   0.000000   0.000000   0.000003  -0.000016  -0.000052
    32  H   -0.000001   0.000013   0.000009  -0.000001   0.000003  -0.003385
    33  H    0.000610  -0.001571   0.000402  -0.000154  -0.000015   0.018366
    34  H   -0.002069   0.014823   0.000641  -0.000121  -0.000018  -0.000363
    35  H    0.014525  -0.001827  -0.000008   0.000000   0.000000   0.000000
    36  H   -0.069029   0.014402  -0.000001   0.000000   0.000000   0.000000
    37  H    0.452722  -0.071053  -0.000009   0.000000   0.000000   0.000000
    38  H   -0.068607   0.456581   0.000677  -0.000123  -0.000019  -0.000373
    39  H   -0.000155   0.000782   0.422409  -0.048426   0.005265   0.001506
    40  H    0.000000   0.000000  -0.080590   0.429195  -0.048668   0.007131
    41  H    0.000000   0.000000   0.000000   0.000000   0.000000   0.000023
    42  H    0.000000   0.000000   0.000000   0.000000   0.000000   0.000000
    43  Ag   0.000000  -0.000005   0.003814  -0.004137   0.041093  -0.012127
              25         26         27         28         29         30
     1  C    0.088382   0.271818   0.450557  -0.072253   0.014407  -0.000036
     2  C   -0.144543   0.090054  -0.068924   0.452806  -0.068034  -0.000142
     3  C    0.067788  -0.144484   0.014391  -0.070795   0.456724   0.000641
     4  C    0.292688   0.093677  -0.001547   0.016280  -0.069628  -0.012048
     5  C   -0.074859   0.012161   0.000021  -0.000373  -0.012167  -0.049967
     6  C   -0.006653   0.000269  -0.000001  -0.000008   0.000604   0.427903
     7  C    0.000093   0.000013   0.000000   0.000000  -0.000153  -0.050113
     8  N   -0.000011   0.000000   0.000000   0.000000  -0.000017   0.005080
     9  C   -0.000938   0.000041   0.000000   0.000000  -0.000380   0.000939
    10  C   -0.009962   0.000489   0.000001  -0.000001  -0.000278   0.014297
    11  C   -0.000262  -0.000273  -0.000001  -0.000003   0.000337  -0.000334
    12  C    0.000097  -0.000020   0.000000   0.000000   0.000020   0.000010
    13  C   -0.000034   0.000001   0.000000   0.000000  -0.000010  -0.000001
    14  C    0.000000   0.000000   0.000000   0.000000   0.000000   0.000000
    15  C    0.000000   0.000000   0.000000   0.000000   0.000000   0.000000
    16  C    0.000000   0.000000   0.000000   0.000000   0.000000   0.000000
    17  C    0.000000   0.000000   0.000000   0.000000   0.000000   0.000000
    18  C    0.000000   0.000000   0.000000   0.000000   0.000000   0.000000
    19  C    0.000000   0.000000   0.000000   0.000000   0.000000   0.000000
    20  C    0.000000   0.000000   0.000000   0.000000   0.000000   0.000000
    21  C    0.000000   0.000000   0.000000   0.000000   0.000000   0.000000
    22  C    0.000000   0.000000   0.000000   0.000000   0.000000   0.000000
    23  N    0.000000   0.000000   0.000000   0.000000   0.000000   0.000000
    24  C    0.000034  -0.000001   0.000000   0.000000   0.000023   0.000094
    25  C    5.046512   0.297869   0.014397  -0.001828   0.014759   0.000832
    26  C    0.297869   5.059665  -0.068979   0.014510  -0.002057  -0.000162
    27  H    0.014397  -0.068979   0.665321  -0.012325  -0.000267  -0.000001
    28  H   -0.001828   0.014510  -0.012325   0.666005  -0.012139   0.000002
    29  H    0.014759  -0.002057  -0.000267  -0.012139   0.663484   0.000236
    30  H    0.000832  -0.000162  -0.000001   0.000002   0.000236   0.647594
    31  H   -0.000001   0.000000   0.000000   0.000000   0.000004  -0.005997
    32  H   -0.001615   0.000615  -0.000004  -0.000005  -0.000092  -0.000008
    33  H    0.000012  -0.000001   0.000000   0.000000   0.000000   0.000000
    34  H    0.000000   0.000000   0.000000   0.000000   0.000000   0.000000
    35  H    0.000000   0.000000   0.000000   0.000000   0.000000   0.000000
    36  H    0.000000   0.000000   0.000000   0.000000   0.000000   0.000000
    37  H    0.000000   0.000000   0.000000   0.000000   0.000000   0.000000
    38  H    0.000000   0.000000   0.000000   0.000000   0.000000   0.000000
    39  H    0.000000   0.000000   0.000000   0.000000   0.000000   0.000000
    40  H    0.000000   0.000000   0.000000   0.000000   0.000000   0.000000
    41  H    0.456562  -0.068319  -0.000269   0.000037  -0.000233   0.000218
    42  H   -0.070998   0.452772  -0.012335  -0.000282   0.000037   0.000004
    43  Ag   0.000001   0.000001   0.000000   0.000000   0.000024   0.000100
              31         32         33         34         35         36
     1  C    0.000000   0.000015   0.000000   0.000000   0.000000   0.000000
     2  C    0.000000   0.000611  -0.000001   0.000000   0.000000   0.000000
     3  C   -0.000005  -0.001547   0.000013   0.000000   0.000000   0.000000
     4  C   -0.000455   0.015077  -0.000011   0.000000   0.000000   0.000000
     5  C    0.007331  -0.039698  -0.000333   0.000000   0.000000   0.000000
     6  C   -0.063092   0.000463   0.000009   0.000000   0.000000   0.000000
     7  C    0.420169  -0.000168  -0.000001   0.000000   0.000000   0.000000
     8  N   -0.055323  -0.000016   0.000003   0.000000   0.000000   0.000000
     9  C    0.006361   0.018469  -0.003593   0.000025   0.000000   0.000000
    10  C    0.001249  -0.049775   0.016785  -0.000010   0.000000   0.000000
    11  C    0.000109   0.463102  -0.081569   0.000019   0.000000   0.000000
    12  C    0.000001  -0.081361   0.462780   0.000307  -0.000003  -0.000001
    13  C    0.000003   0.016473  -0.049859  -0.000323  -0.000001   0.000001
    14  C    0.000000  -0.000342  -0.039418  -0.012085  -0.000370   0.000021
    15  C    0.000000  -0.000009   0.015253  -0.069693   0.016278  -0.001547
    16  C    0.000000   0.000013  -0.001583   0.456746  -0.070933   0.014396
    17  C    0.000000  -0.000001   0.000613  -0.068434   0.452797  -0.068982
    18  C    0.000000   0.000000   0.000015   0.014446  -0.072313   0.450477
    19  C    0.000000  -0.000001   0.000610  -0.002069   0.014525  -0.069029
    20  C    0.000000   0.000013  -0.001571   0.014823  -0.001827   0.014402
    21  C    0.000000   0.000009   0.000402   0.000641  -0.000008  -0.000001
    22  C    0.000003  -0.000001  -0.000154  -0.000121   0.000000   0.000000
    23  N   -0.000016   0.000003  -0.000015  -0.000018   0.000000   0.000000
    24  C   -0.000052  -0.003385   0.018366  -0.000363   0.000000   0.000000
    25  C   -0.000001  -0.001615   0.000012   0.000000   0.000000   0.000000
    26  C    0.000000   0.000615  -0.000001   0.000000   0.000000   0.000000
    27  H    0.000000  -0.000004   0.000000   0.000000   0.000000   0.000000
    28  H    0.000000  -0.000005   0.000000   0.000000   0.000000   0.000000
    29  H    0.000004  -0.000092   0.000000   0.000000   0.000000   0.000000
    30  H   -0.005997  -0.000008   0.000000   0.000000   0.000000   0.000000
    31  H    0.632744  -0.000003   0.000000   0.000000   0.000000   0.000000
    32  H   -0.000003   0.648782  -0.011604   0.000000   0.000000   0.000000
    33  H    0.000000  -0.011604   0.649157  -0.000089  -0.000006  -0.000004
    34  H    0.000000   0.000000  -0.000089   0.664585  -0.012161  -0.000268
    35  H    0.000000   0.000000  -0.000006  -0.012161   0.666769  -0.012346
    36  H    0.000000   0.000000  -0.000004  -0.000268  -0.012346   0.666016
    37  H    0.000000   0.000000  -0.000007   0.000037  -0.000283  -0.012355
    38  H    0.000000   0.000000  -0.000088  -0.000234   0.000037  -0.000269
    39  H    0.000000   0.000000  -0.000010   0.000238   0.000003  -0.000001
    40  H    0.000000   0.000000  -0.000003   0.000004   0.000000   0.000000
    41  H    0.000003  -0.000080   0.000000   0.000000   0.000000   0.000000
    42  H    0.000000  -0.000007   0.000000   0.000000   0.000000   0.000000
    43  Ag   0.002356   0.000094   0.000060  -0.000004   0.000000   0.000000
              37         38         39         40         41         42
     1  C    0.000000   0.000000   0.000000   0.000000   0.014453  -0.072198
     2  C    0.000000   0.000000   0.000000   0.000000  -0.002063   0.014508
     3  C    0.000000   0.000000   0.000000   0.000000   0.014788  -0.001822
     4  C    0.000000   0.000000   0.000000   0.000000  -0.069914   0.016297
     5  C    0.000000   0.000000   0.000000   0.000000  -0.012145  -0.000377
     6  C    0.000000   0.000000   0.000000   0.000000   0.000596  -0.000008
     7  C    0.000000   0.000000   0.000000   0.000003  -0.000138  -0.000001
     8  N    0.000000   0.000000   0.000000   0.000005  -0.000019   0.000000
     9  C    0.000000   0.000025   0.000136   0.000088  -0.000382   0.000000
    10  C    0.000000  -0.000010  -0.000002   0.000006  -0.000337   0.000000
    11  C    0.000000   0.000019   0.000010   0.000001   0.000313  -0.000003
    12  C   -0.000003   0.000310  -0.000343   0.000110   0.000019   0.000000
    13  C   -0.000001  -0.000332   0.013924   0.000929  -0.000009   0.000000
    14  C   -0.000372  -0.012142  -0.049889   0.007701   0.000000   0.000000
    15  C    0.016293  -0.069879  -0.012403  -0.000525   0.000000   0.000000
    16  C   -0.001827   0.014847   0.000768  -0.000002   0.000000   0.000000
    17  C    0.014528  -0.002072  -0.000154   0.000000   0.000000   0.000000
    18  C   -0.072282   0.014475  -0.000035   0.000000   0.000000   0.000000
    19  C    0.452722  -0.068607  -0.000155   0.000000   0.000000   0.000000
    20  C   -0.071053   0.456581   0.000782   0.000000   0.000000   0.000000
    21  C   -0.000009   0.000677   0.422409  -0.080590   0.000000   0.000000
    22  C    0.000000  -0.000123  -0.048426   0.429195   0.000000   0.000000
    23  N    0.000000  -0.000019   0.005265  -0.048668   0.000000   0.000000
    24  C    0.000000  -0.000373   0.001506   0.007131   0.000023   0.000000
    25  C    0.000000   0.000000   0.000000   0.000000   0.456562  -0.070998
    26  C    0.000000   0.000000   0.000000   0.000000  -0.068319   0.452772
    27  H    0.000000   0.000000   0.000000   0.000000  -0.000269  -0.012335
    28  H    0.000000   0.000000   0.000000   0.000000   0.000037  -0.000282
    29  H    0.000000   0.000000   0.000000   0.000000  -0.000233   0.000037
    30  H    0.000000   0.000000   0.000000   0.000000   0.000218   0.000004
    31  H    0.000000   0.000000   0.000000   0.000000   0.000003   0.000000
    32  H    0.000000   0.000000   0.000000   0.000000  -0.000080  -0.000007
    33  H   -0.000007  -0.000088  -0.000010  -0.000003   0.000000   0.000000
    34  H    0.000037  -0.000234   0.000238   0.000004   0.000000   0.000000
    35  H   -0.000283   0.000037   0.000003   0.000000   0.000000   0.000000
    36  H   -0.012355  -0.000269  -0.000001   0.000000   0.000000   0.000000
    37  H    0.667349  -0.012193   0.000003   0.000000   0.000000   0.000000
    38  H   -0.012193   0.666297   0.000234   0.000004   0.000000   0.000000
    39  H    0.000003   0.000234   0.652581  -0.005226   0.000000   0.000000
    40  H    0.000000   0.000004  -0.005226   0.659368   0.000000   0.000000
    41  H    0.000000   0.000000   0.000000   0.000000   0.665906  -0.012173
    42  H    0.000000   0.000000   0.000000   0.000000  -0.012173   0.666681
    43  Ag   0.000000  -0.000003  -0.000335  -0.003843  -0.000006   0.000000
              43
     1  C    0.000000
     2  C    0.000001
     3  C    0.000001
     4  C    0.000368
     5  C   -0.000060
     6  C    0.006941
     7  C   -0.040025
     8  N    0.060782
     9  C   -0.030913
    10  C    0.005607
    11  C   -0.001071
    12  C   -0.000910
    13  C    0.007066
    14  C    0.000572
    15  C    0.000180
    16  C   -0.000003
    17  C    0.000001
    18  C    0.000000
    19  C    0.000000
    20  C   -0.000005
    21  C    0.003814
    22  C   -0.004137
    23  N    0.041093
    24  C   -0.012127
    25  C    0.000001
    26  C    0.000001
    27  H    0.000000
    28  H    0.000000
    29  H    0.000024
    30  H    0.000100
    31  H    0.002356
    32  H    0.000094
    33  H    0.000060
    34  H   -0.000004
    35  H    0.000000
    36  H    0.000000
    37  H    0.000000
    38  H   -0.000003
    39  H   -0.000335
    40  H   -0.003843
    41  H   -0.000006
    42  H    0.000000
    43  Ag  19.069918
          Atomic-Atomic Spin Densities.
               1          2          3          4          5          6
     1  C    0.000197  -0.000010  -0.000040  -0.000021   0.000005   0.000000
     2  C   -0.000010   0.000552  -0.000631  -0.000075   0.000070   0.000004
     3  C   -0.000040  -0.000631   0.003032   0.000604  -0.000920  -0.000061
     4  C   -0.000021  -0.000075   0.000604  -0.003804   0.000738  -0.000087
     5  C    0.000005   0.000070  -0.000920   0.000738   0.056753  -0.014656
     6  C    0.000000   0.000004  -0.000061  -0.000087  -0.014656   0.011747
     7  C    0.000000   0.000000  -0.000005  -0.000001  -0.003106   0.012619
     8  N    0.000000   0.000000  -0.000003   0.000003   0.000523   0.000130
     9  C    0.000000   0.000001  -0.000034  -0.000116  -0.005879   0.001814
    10  C    0.000001   0.000012  -0.000278  -0.000321   0.006030  -0.001305
    11  C    0.000000   0.000002  -0.000036   0.000104  -0.001308   0.000228
    12  C    0.000000   0.000000  -0.000002  -0.000012  -0.000116   0.000017
    13  C    0.000000   0.000000   0.000001   0.000002   0.000186  -0.000035
    14  C    0.000000   0.000000   0.000000   0.000000   0.000003   0.000000
    15  C    0.000000   0.000000   0.000000   0.000000   0.000000   0.000000
    16  C    0.000000   0.000000   0.000000   0.000000   0.000000   0.000000
    17  C    0.000000   0.000000   0.000000   0.000000   0.000000   0.000000
    18  C    0.000000   0.000000   0.000000   0.000000   0.000000   0.000000
    19  C    0.000000   0.000000   0.000000   0.000000   0.000000   0.000000
    20  C    0.000000   0.000000   0.000000   0.000000   0.000000   0.000000
    21  C    0.000000   0.000000   0.000000   0.000000   0.000000   0.000000
    22  C    0.000000   0.000000   0.000000   0.000000  -0.000001   0.000000
    23  N    0.000000   0.000000   0.000000   0.000000   0.000024  -0.000011
    24  C    0.000000   0.000000  -0.000003  -0.000005  -0.000534   0.000110
    25  C    0.000070   0.000219  -0.000977  -0.000365  -0.002443   0.000645
    26  C   -0.000073  -0.000105   0.000207   0.000086   0.000129  -0.000027
    27  H    0.000002   0.000000   0.000000   0.000000   0.000000   0.000000
    28  H   -0.000016  -0.000159   0.000104   0.000004  -0.000007   0.000000
    29  H    0.000002   0.000091  -0.000241   0.000006   0.000141  -0.000047
    30  H    0.000000   0.000015  -0.000143  -0.000059  -0.001534   0.000435
    31  H    0.000000   0.000000  -0.000004  -0.000010  -0.000479  -0.000046
    32  H   -0.000003  -0.000010   0.000091   0.000035   0.000090  -0.000028
    33  H    0.000000   0.000000   0.000000   0.000000   0.000002   0.000000
    34  H    0.000000   0.000000   0.000000   0.000000   0.000000   0.000000
    35  H    0.000000   0.000000   0.000000   0.000000   0.000000   0.000000
    36  H    0.000000   0.000000   0.000000   0.000000   0.000000   0.000000
    37  H    0.000000   0.000000   0.000000   0.000000   0.000000   0.000000
    38  H    0.000000   0.000000   0.000000   0.000000   0.000000   0.000000
    39  H    0.000000   0.000000   0.000000   0.000000   0.000000   0.000000
    40  H    0.000000   0.000000   0.000000   0.000000   0.000000   0.000000
    41  H   -0.000003  -0.000002   0.000007   0.000054   0.000080  -0.000057
    42  H    0.000011   0.000006  -0.000009  -0.000006  -0.000008   0.000001
    43  Ag   0.000000   0.000001  -0.000011  -0.000014  -0.000414  -0.002564
               7          8          9         10         11         12
     1  C    0.000000   0.000000   0.000000   0.000001   0.000000   0.000000
     2  C    0.000000   0.000000   0.000001   0.000012   0.000002   0.000000
     3  C   -0.000005  -0.000003  -0.000034  -0.000278  -0.000036  -0.000002
     4  C   -0.000001   0.000003  -0.000116  -0.000321   0.000104  -0.000012
     5  C   -0.003106   0.000523  -0.005879   0.006030  -0.001308  -0.000116
     6  C    0.012619   0.000130   0.001814  -0.001305   0.000228   0.000017
     7  C    0.021636   0.001121   0.002733  -0.000485   0.000042   0.000011
     8  N    0.001121   0.104937  -0.010020   0.002161  -0.000065  -0.000027
     9  C    0.002733  -0.010020   0.040297  -0.009759   0.001369   0.000414
    10  C   -0.000485   0.002161  -0.009759  -0.000505  -0.001727  -0.000696
    11  C    0.000042  -0.000065   0.001369  -0.001727   0.004515   0.001128
    12  C    0.000011  -0.000027   0.000414  -0.000696   0.001128  -0.004899
    13  C   -0.000040   0.000541  -0.001545   0.003151  -0.000926  -0.001504
    14  C   -0.000001   0.000018  -0.000139   0.000128  -0.000088  -0.000461
    15  C    0.000000   0.000000   0.000000   0.000002  -0.000007   0.000078
    16  C    0.000000   0.000000   0.000000   0.000001   0.000000  -0.000019
    17  C    0.000000   0.000000   0.000000   0.000000   0.000000   0.000002
    18  C    0.000000   0.000000   0.000000   0.000000   0.000000   0.000000
    19  C    0.000000   0.000000   0.000000   0.000000   0.000000   0.000000
    20  C    0.000000   0.000000   0.000001  -0.000001   0.000002   0.000019
    21  C    0.000000  -0.000001   0.000061  -0.000002   0.000002   0.000042
    22  C    0.000001  -0.000119   0.000210  -0.000042   0.000007   0.000021
    23  N   -0.000015   0.004201  -0.000665   0.000403  -0.000024  -0.000063
    24  C    0.000509  -0.004344   0.010834  -0.005122   0.001019   0.001585
    25  C    0.000025   0.000002   0.000080   0.000179   0.000081   0.000006
    26  C    0.000000   0.000000  -0.000001  -0.000014  -0.000003   0.000000
    27  H    0.000000   0.000000   0.000000   0.000000   0.000000   0.000000
    28  H    0.000000   0.000000   0.000000  -0.000001   0.000000   0.000000
    29  H   -0.000005   0.000001   0.000005   0.000043   0.000002   0.000000
    30  H   -0.001248  -0.000070   0.000169  -0.000005   0.000010   0.000001
    31  H   -0.006607  -0.004507   0.000569  -0.000160   0.000005   0.000001
    32  H   -0.000004   0.000000  -0.000070   0.000155  -0.000213  -0.000116
    33  H    0.000000   0.000000   0.000002   0.000028  -0.000021  -0.000136
    34  H    0.000000   0.000000   0.000000   0.000000   0.000000  -0.000002
    35  H    0.000000   0.000000   0.000000   0.000000   0.000000   0.000000
    36  H    0.000000   0.000000   0.000000   0.000000   0.000000   0.000000
    37  H    0.000000   0.000000   0.000000   0.000000   0.000000   0.000000
    38  H    0.000000   0.000000   0.000000   0.000000   0.000000  -0.000002
    39  H    0.000000   0.000000  -0.000003  -0.000001   0.000000   0.000003
    40  H    0.000000  -0.000037  -0.000015  -0.000004   0.000000   0.000002
    41  H   -0.000003   0.000000  -0.000008  -0.000009  -0.000007  -0.000001
    42  H    0.000000   0.000000   0.000000   0.000000   0.000000   0.000000
    43  Ag  -0.022158  -0.070299  -0.002980  -0.001457   0.000009  -0.000007
              13         14         15         16         17         18
     1  C    0.000000   0.000000   0.000000   0.000000   0.000000   0.000000
     2  C    0.000000   0.000000   0.000000   0.000000   0.000000   0.000000
     3  C    0.000001   0.000000   0.000000   0.000000   0.000000   0.000000
     4  C    0.000002   0.000000   0.000000   0.000000   0.000000   0.000000
     5  C    0.000186   0.000003   0.000000   0.000000   0.000000   0.000000
     6  C   -0.000035   0.000000   0.000000   0.000000   0.000000   0.000000
     7  C   -0.000040  -0.000001   0.000000   0.000000   0.000000   0.000000
     8  N    0.000541   0.000018   0.000000   0.000000   0.000000   0.000000
     9  C   -0.001545  -0.000139   0.000000   0.000000   0.000000   0.000000
    10  C    0.003151   0.000128   0.000002   0.000001   0.000000   0.000000
    11  C   -0.000926  -0.000088  -0.000007   0.000000   0.000000   0.000000
    12  C   -0.001504  -0.000461   0.000078  -0.000019   0.000002   0.000000
    13  C    0.009099   0.003538  -0.000254  -0.000129   0.000004   0.000000
    14  C    0.003538   0.014214  -0.000062  -0.000232   0.000016   0.000002
    15  C   -0.000254  -0.000062  -0.000860   0.000215  -0.000022  -0.000001
    16  C   -0.000129  -0.000232   0.000215   0.000510  -0.000083  -0.000001
    17  C    0.000004   0.000016  -0.000022  -0.000083   0.000135  -0.000012
    18  C    0.000000   0.000002  -0.000001  -0.000001  -0.000012  -0.000006
    19  C   -0.000005   0.000032  -0.000004   0.000031  -0.000015  -0.000005
    20  C    0.000073  -0.000583  -0.000053  -0.000178   0.000030   0.000009
    21  C   -0.000608  -0.007017   0.000105   0.000062  -0.000004   0.000000
    22  C   -0.000413  -0.000658  -0.000011  -0.000001   0.000000   0.000000
    23  N    0.001350   0.000613   0.000004  -0.000001   0.000000   0.000000
    24  C   -0.009702  -0.001886  -0.000042  -0.000014   0.000000   0.000000
    25  C   -0.000002   0.000000   0.000000   0.000000   0.000000   0.000000
    26  C    0.000000   0.000000   0.000000   0.000000   0.000000   0.000000
    27  H    0.000000   0.000000   0.000000   0.000000   0.000000   0.000000
    28  H    0.000000   0.000000   0.000000   0.000000   0.000000   0.000000
    29  H   -0.000001   0.000000   0.000000   0.000000   0.000000   0.000000
    30  H   -0.000001   0.000000   0.000000   0.000000   0.000000   0.000000
    31  H   -0.000006   0.000000   0.000000   0.000000   0.000000   0.000000
    32  H    0.000074   0.000006   0.000000   0.000000   0.000000   0.000000
    33  H    0.000080   0.000034   0.000025   0.000017  -0.000001   0.000000
    34  H    0.000023   0.000050  -0.000007  -0.000055   0.000019   0.000000
    35  H   -0.000001  -0.000002   0.000001   0.000018  -0.000031  -0.000002
    36  H    0.000000   0.000000   0.000000   0.000000   0.000000   0.000000
    37  H    0.000000  -0.000003   0.000001  -0.000003   0.000001   0.000001
    38  H   -0.000001  -0.000017   0.000014  -0.000002   0.000000   0.000000
    39  H    0.000014  -0.000080  -0.000020  -0.000034   0.000004   0.000000
    40  H   -0.000062  -0.000026  -0.000004  -0.000001   0.000000   0.000000
    41  H    0.000000   0.000000   0.000000   0.000000   0.000000   0.000000
    42  H    0.000000   0.000000   0.000000   0.000000   0.000000   0.000000
    43  Ag  -0.000247   0.000066   0.000000   0.000000   0.000000   0.000000
              19         20         21         22         23         24
     1  C    0.000000   0.000000   0.000000   0.000000   0.000000   0.000000
     2  C    0.000000   0.000000   0.000000   0.000000   0.000000   0.000000
     3  C    0.000000   0.000000   0.000000   0.000000   0.000000  -0.000003
     4  C    0.000000   0.000000   0.000000   0.000000   0.000000  -0.000005
     5  C    0.000000   0.000000   0.000000  -0.000001   0.000024  -0.000534
     6  C    0.000000   0.000000   0.000000   0.000000  -0.000011   0.000110
     7  C    0.000000   0.000000   0.000000   0.000001  -0.000015   0.000509
     8  N    0.000000   0.000000  -0.000001  -0.000119   0.004201  -0.004344
     9  C    0.000000   0.000001   0.000061   0.000210  -0.000665   0.010834
    10  C    0.000000  -0.000001  -0.000002  -0.000042   0.000403  -0.005122
    11  C    0.000000   0.000002   0.000002   0.000007  -0.000024   0.001019
    12  C    0.000000   0.000019   0.000042   0.000021  -0.000063   0.001585
    13  C   -0.000005   0.000073  -0.000608  -0.000413   0.001350  -0.009702
    14  C    0.000032  -0.000583  -0.007017  -0.000658   0.000613  -0.001886
    15  C   -0.000004  -0.000053   0.000105  -0.000011   0.000004  -0.000042
    16  C    0.000031  -0.000178   0.000062  -0.000001  -0.000001  -0.000014
    17  C   -0.000015   0.000030  -0.000004   0.000000   0.000000   0.000000
    18  C   -0.000005   0.000009   0.000000   0.000000   0.000000   0.000000
    19  C    0.000169  -0.000116  -0.000006   0.000000   0.000000   0.000000
    20  C   -0.000116   0.000757   0.000133   0.000004   0.000000   0.000023
    21  C   -0.000006   0.000133   0.017064   0.003260  -0.000601   0.000301
    22  C    0.000000   0.000004   0.003260  -0.001306  -0.003895   0.001518
    23  N    0.000000   0.000000  -0.000601  -0.003895   0.032521  -0.007749
    24  C    0.000000   0.000023   0.000301   0.001518  -0.007749   0.012522
    25  C    0.000000   0.000000   0.000000   0.000000   0.000000   0.000004
    26  C    0.000000   0.000000   0.000000   0.000000   0.000000   0.000000
    27  H    0.000000   0.000000   0.000000   0.000000   0.000000   0.000000
    28  H    0.000000   0.000000   0.000000   0.000000   0.000000   0.000000
    29  H    0.000000   0.000000   0.000000   0.000000   0.000000   0.000001
    30  H    0.000000   0.000000   0.000000   0.000000   0.000000   0.000006
    31  H    0.000000   0.000000   0.000000   0.000001  -0.000034   0.000070
    32  H    0.000000   0.000000   0.000000   0.000000   0.000000  -0.000055
    33  H    0.000002  -0.000023   0.000003  -0.000001   0.000001  -0.000048
    34  H   -0.000002   0.000009  -0.000034  -0.000001   0.000001   0.000004
    35  H    0.000003  -0.000003   0.000000   0.000000   0.000000   0.000000
    36  H    0.000000   0.000000   0.000000   0.000000   0.000000   0.000000
    37  H   -0.000029   0.000008   0.000000   0.000000   0.000000   0.000000
    38  H   -0.000005   0.000020  -0.000009   0.000000   0.000000  -0.000001
    39  H   -0.000003   0.000047   0.000338  -0.000364  -0.000029   0.000034
    40  H    0.000000   0.000002  -0.000220  -0.000746  -0.001077   0.000257
    41  H    0.000000   0.000000   0.000000   0.000000   0.000000  -0.000001
    42  H    0.000000   0.000000   0.000000   0.000000   0.000000   0.000000
    43  Ag   0.000000  -0.000002  -0.000232  -0.000380  -0.010908   0.004239
              25         26         27         28         29         30
     1  C    0.000070  -0.000073   0.000002  -0.000016   0.000002   0.000000
     2  C    0.000219  -0.000105   0.000000  -0.000159   0.000091   0.000015
     3  C   -0.000977   0.000207   0.000000   0.000104  -0.000241  -0.000143
     4  C   -0.000365   0.000086   0.000000   0.000004   0.000006  -0.000059
     5  C   -0.002443   0.000129   0.000000  -0.000007   0.000141  -0.001534
     6  C    0.000645  -0.000027   0.000000   0.000000  -0.000047   0.000435
     7  C    0.000025   0.000000   0.000000   0.000000  -0.000005  -0.001248
     8  N    0.000002   0.000000   0.000000   0.000000   0.000001  -0.000070
     9  C    0.000080  -0.000001   0.000000   0.000000   0.000005   0.000169
    10  C    0.000179  -0.000014   0.000000  -0.000001   0.000043  -0.000005
    11  C    0.000081  -0.000003   0.000000   0.000000   0.000002   0.000010
    12  C    0.000006   0.000000   0.000000   0.000000   0.000000   0.000001
    13  C   -0.000002   0.000000   0.000000   0.000000  -0.000001  -0.000001
    14  C    0.000000   0.000000   0.000000   0.000000   0.000000   0.000000
    15  C    0.000000   0.000000   0.000000   0.000000   0.000000   0.000000
    16  C    0.000000   0.000000   0.000000   0.000000   0.000000   0.000000
    17  C    0.000000   0.000000   0.000000   0.000000   0.000000   0.000000
    18  C    0.000000   0.000000   0.000000   0.000000   0.000000   0.000000
    19  C    0.000000   0.000000   0.000000   0.000000   0.000000   0.000000
    20  C    0.000000   0.000000   0.000000   0.000000   0.000000   0.000000
    21  C    0.000000   0.000000   0.000000   0.000000   0.000000   0.000000
    22  C    0.000000   0.000000   0.000000   0.000000   0.000000   0.000000
    23  N    0.000000   0.000000   0.000000   0.000000   0.000000   0.000000
    24  C    0.000004   0.000000   0.000000   0.000000   0.000001   0.000006
    25  C    0.003744  -0.000645  -0.000001  -0.000017   0.000045   0.000206
    26  C   -0.000645   0.000441   0.000002   0.000016  -0.000009  -0.000013
    27  H   -0.000001   0.000002  -0.000011   0.000001   0.000000   0.000000
    28  H   -0.000017   0.000016   0.000001   0.000162  -0.000024  -0.000001
    29  H    0.000045  -0.000009   0.000000  -0.000024   0.000010   0.000022
    30  H    0.000206  -0.000013   0.000000  -0.000001   0.000022   0.001642
    31  H    0.000006   0.000000   0.000000   0.000000   0.000001   0.000537
    32  H   -0.000092   0.000010   0.000000   0.000001  -0.000011  -0.000003
    33  H    0.000000   0.000000   0.000000   0.000000   0.000000   0.000000
    34  H    0.000000   0.000000   0.000000   0.000000   0.000000   0.000000
    35  H    0.000000   0.000000   0.000000   0.000000   0.000000   0.000000
    36  H    0.000000   0.000000   0.000000   0.000000   0.000000   0.000000
    37  H    0.000000   0.000000   0.000000   0.000000   0.000000   0.000000
    38  H    0.000000   0.000000   0.000000   0.000000   0.000000   0.000000
    39  H    0.000000   0.000000   0.000000   0.000000   0.000000   0.000000
    40  H    0.000000   0.000000   0.000000   0.000000   0.000000   0.000000
    41  H   -0.000052   0.000017   0.000000   0.000000   0.000000  -0.000010
    42  H    0.000052  -0.000091   0.000000  -0.000001   0.000000   0.000001
    43  Ag  -0.000005   0.000000   0.000000   0.000000   0.000014   0.000672
              31         32         33         34         35         36
     1  C    0.000000  -0.000003   0.000000   0.000000   0.000000   0.000000
     2  C    0.000000  -0.000010   0.000000   0.000000   0.000000   0.000000
     3  C   -0.000004   0.000091   0.000000   0.000000   0.000000   0.000000
     4  C   -0.000010   0.000035   0.000000   0.000000   0.000000   0.000000
     5  C   -0.000479   0.000090   0.000002   0.000000   0.000000   0.000000
     6  C   -0.000046  -0.000028   0.000000   0.000000   0.000000   0.000000
     7  C   -0.006607  -0.000004   0.000000   0.000000   0.000000   0.000000
     8  N   -0.004507   0.000000   0.000000   0.000000   0.000000   0.000000
     9  C    0.000569  -0.000070   0.000002   0.000000   0.000000   0.000000
    10  C   -0.000160   0.000155   0.000028   0.000000   0.000000   0.000000
    11  C    0.000005  -0.000213  -0.000021   0.000000   0.000000   0.000000
    12  C    0.000001  -0.000116  -0.000136  -0.000002   0.000000   0.000000
    13  C   -0.000006   0.000074   0.000080   0.000023  -0.000001   0.000000
    14  C    0.000000   0.000006   0.000034   0.000050  -0.000002   0.000000
    15  C    0.000000   0.000000   0.000025  -0.000007   0.000001   0.000000
    16  C    0.000000   0.000000   0.000017  -0.000055   0.000018   0.000000
    17  C    0.000000   0.000000  -0.000001   0.000019  -0.000031   0.000000
    18  C    0.000000   0.000000   0.000000   0.000000  -0.000002   0.000000
    19  C    0.000000   0.000000   0.000002  -0.000002   0.000003   0.000000
    20  C    0.000000   0.000000  -0.000023   0.000009  -0.000003   0.000000
    21  C    0.000000   0.000000   0.000003  -0.000034   0.000000   0.000000
    22  C    0.000001   0.000000  -0.000001  -0.000001   0.000000   0.000000
    23  N   -0.000034   0.000000   0.000001   0.000001   0.000000   0.000000
    24  C    0.000070  -0.000055  -0.000048   0.000004   0.000000   0.000000
    25  C    0.000006  -0.000092   0.000000   0.000000   0.000000   0.000000
    26  C    0.000000   0.000010   0.000000   0.000000   0.000000   0.000000
    27  H    0.000000   0.000000   0.000000   0.000000   0.000000   0.000000
    28  H    0.000000   0.000001   0.000000   0.000000   0.000000   0.000000
    29  H    0.000001  -0.000011   0.000000   0.000000   0.000000   0.000000
    30  H    0.000537  -0.000003   0.000000   0.000000   0.000000   0.000000
    31  H    0.003737   0.000000   0.000000   0.000000   0.000000   0.000000
    32  H    0.000000   0.000216   0.000022   0.000000   0.000000   0.000000
    33  H    0.000000   0.000022   0.000265  -0.000002   0.000000   0.000000
    34  H    0.000000   0.000000  -0.000002   0.000004  -0.000006   0.000000
    35  H    0.000000   0.000000   0.000000  -0.000006   0.000031   0.000000
    36  H    0.000000   0.000000   0.000000   0.000000   0.000000   0.000000
    37  H    0.000000   0.000000   0.000000   0.000000   0.000000   0.000000
    38  H    0.000000   0.000000   0.000001   0.000000   0.000000   0.000000
    39  H    0.000000   0.000000   0.000000   0.000004   0.000000   0.000000
    40  H    0.000000   0.000000   0.000000   0.000000   0.000000   0.000000
    41  H   -0.000001   0.000005   0.000000   0.000000   0.000000   0.000000
    42  H    0.000000  -0.000001   0.000000   0.000000   0.000000   0.000000
    43  Ag   0.015383   0.000002   0.000002   0.000001   0.000000   0.000000
              37         38         39         40         41         42
     1  C    0.000000   0.000000   0.000000   0.000000  -0.000003   0.000011
     2  C    0.000000   0.000000   0.000000   0.000000  -0.000002   0.000006
     3  C    0.000000   0.000000   0.000000   0.000000   0.000007  -0.000009
     4  C    0.000000   0.000000   0.000000   0.000000   0.000054  -0.000006
     5  C    0.000000   0.000000   0.000000   0.000000   0.000080  -0.000008
     6  C    0.000000   0.000000   0.000000   0.000000  -0.000057   0.000001
     7  C    0.000000   0.000000   0.000000   0.000000  -0.000003   0.000000
     8  N    0.000000   0.000000   0.000000  -0.000037   0.000000   0.000000
     9  C    0.000000   0.000000  -0.000003  -0.000015  -0.000008   0.000000
    10  C    0.000000   0.000000  -0.000001  -0.000004  -0.000009   0.000000
    11  C    0.000000   0.000000   0.000000   0.000000  -0.000007   0.000000
    12  C    0.000000  -0.000002   0.000003   0.000002  -0.000001   0.000000
    13  C    0.000000  -0.000001   0.000014  -0.000062   0.000000   0.000000
    14  C   -0.000003  -0.000017  -0.000080  -0.000026   0.000000   0.000000
    15  C    0.000001   0.000014  -0.000020  -0.000004   0.000000   0.000000
    16  C   -0.000003  -0.000002  -0.000034  -0.000001   0.000000   0.000000
    17  C    0.000001   0.000000   0.000004   0.000000   0.000000   0.000000
    18  C    0.000001   0.000000   0.000000   0.000000   0.000000   0.000000
    19  C   -0.000029  -0.000005  -0.000003   0.000000   0.000000   0.000000
    20  C    0.000008   0.000020   0.000047   0.000002   0.000000   0.000000
    21  C    0.000000  -0.000009   0.000338  -0.000220   0.000000   0.000000
    22  C    0.000000   0.000000  -0.000364  -0.000746   0.000000   0.000000
    23  N    0.000000   0.000000  -0.000029  -0.001077   0.000000   0.000000
    24  C    0.000000  -0.000001   0.000034   0.000257  -0.000001   0.000000
    25  C    0.000000   0.000000   0.000000   0.000000  -0.000052   0.000052
    26  C    0.000000   0.000000   0.000000   0.000000   0.000017  -0.000091
    27  H    0.000000   0.000000   0.000000   0.000000   0.000000   0.000000
    28  H    0.000000   0.000000   0.000000   0.000000   0.000000  -0.000001
    29  H    0.000000   0.000000   0.000000   0.000000   0.000000   0.000000
    30  H    0.000000   0.000000   0.000000   0.000000  -0.000010   0.000001
    31  H    0.000000   0.000000   0.000000   0.000000  -0.000001   0.000000
    32  H    0.000000   0.000000   0.000000   0.000000   0.000005  -0.000001
    33  H    0.000000   0.000001   0.000000   0.000000   0.000000   0.000000
    34  H    0.000000   0.000000   0.000004   0.000000   0.000000   0.000000
    35  H    0.000000   0.000000   0.000000   0.000000   0.000000   0.000000
    36  H    0.000000   0.000000   0.000000   0.000000   0.000000   0.000000
    37  H    0.000039   0.000001   0.000000   0.000000   0.000000   0.000000
    38  H    0.000001  -0.000024  -0.000002   0.000000   0.000000   0.000000
    39  H    0.000000  -0.000002  -0.000566   0.000132   0.000000   0.000000
    40  H    0.000000   0.000000   0.000132   0.001674   0.000000   0.000000
    41  H    0.000000   0.000000   0.000000   0.000000  -0.000066  -0.000004
    42  H    0.000000   0.000000   0.000000   0.000000  -0.000004   0.000099
    43  Ag   0.000000   0.000000   0.000022   0.001526   0.000001   0.000000
              43
     1  C    0.000000
     2  C    0.000001
     3  C   -0.000011
     4  C   -0.000014
     5  C   -0.000414
     6  C   -0.002564
     7  C   -0.022158
     8  N   -0.070299
     9  C   -0.002980
    10  C   -0.001457
    11  C    0.000009
    12  C   -0.000007
    13  C   -0.000247
    14  C    0.000066
    15  C    0.000000
    16  C    0.000000
    17  C    0.000000
    18  C    0.000000
    19  C    0.000000
    20  C   -0.000002
    21  C   -0.000232
    22  C   -0.000380
    23  N   -0.010908
    24  C    0.004239
    25  C   -0.000005
    26  C    0.000000
    27  H    0.000000
    28  H    0.000000
    29  H    0.000014
    30  H    0.000672
    31  H    0.015383
    32  H    0.000002
    33  H    0.000002
    34  H    0.000001
    35  H    0.000000
    36  H    0.000000
    37  H    0.000000
    38  H    0.000000
    39  H    0.000022
    40  H    0.001526
    41  H    0.000001
    42  H    0.000000
    43  Ag   0.955796
 Mulliken charges and spin densities:
               1          2
     1  C   -0.002779   0.000123
     2  C   -0.009566  -0.000017
     3  C    0.032139   0.000650
     4  C   -0.128419  -0.003261
     5  C    0.003241   0.033371
     6  C   -0.026991   0.008826
     7  C    0.131127   0.005018
     8  N   -0.234033   0.024145
     9  C    0.070979   0.027325
    10  C    0.020047  -0.009600
    11  C    0.002027   0.004100
    12  C    0.005600  -0.004733
    13  C    0.029186   0.002657
    14  C    0.002016   0.007466
    15  C   -0.128246  -0.000901
    16  C    0.031864   0.000102
    17  C   -0.009856   0.000042
    18  C   -0.003009  -0.000016
    19  C   -0.009904   0.000045
    20  C    0.031568   0.000176
    21  C   -0.033073   0.012636
    22  C    0.087146  -0.002917
    23  N   -0.126001   0.014046
    24  C   -0.006105   0.003530
    25  C    0.031678   0.000765
    26  C   -0.009658  -0.000072
    27  H    0.019965  -0.000007
    28  H    0.020373   0.000063
    29  H    0.014796   0.000047
    30  H    0.020860   0.000628
    31  H    0.054610   0.008457
    32  H    0.025983   0.000103
    33  H    0.025836   0.000251
    34  H    0.014001   0.000007
    35  H    0.019844   0.000009
    36  H    0.019491   0.000000
    37  H    0.019453   0.000018
    38  H    0.012837  -0.000028
    39  H    0.019123  -0.000503
    40  H    0.034311   0.001402
    41  H    0.013170  -0.000057
    42  H    0.019905   0.000051
    43  Ag  -0.105536   0.866056
 Sum of Mulliken charges =   0.00000   1.00000
 Mulliken charges and spin densities with hydrogens summed into heavy atoms:
               1          2
     1  C    0.017185   0.000116
     2  C    0.010807   0.000047
     3  C    0.046935   0.000697
     4  C   -0.128419  -0.003261
     5  C    0.003241   0.033371
     6  C   -0.006131   0.009454
     7  C    0.185737   0.013474
     8  N   -0.234033   0.024145
     9  C    0.070979   0.027325
    10  C    0.020047  -0.009600
    11  C    0.028010   0.004203
    12  C    0.031437  -0.004482
    13  C    0.029186   0.002657
    14  C    0.002016   0.007466
    15  C   -0.128246  -0.000901
    16  C    0.045866   0.000108
    17  C    0.009988   0.000051
    18  C    0.016482  -0.000016
    19  C    0.009549   0.000063
    20  C    0.044405   0.000148
    21  C   -0.013950   0.012133
    22  C    0.121457  -0.001515
    23  N   -0.126001   0.014046
    24  C   -0.006105   0.003530
    25  C    0.044848   0.000708
    26  C    0.010247  -0.000021
    43  Ag  -0.105536   0.866056
 Electronic spatial extent (au):  <R**2>=          12782.7610
 Charge=              0.0000 electrons
 Dipole moment (field-independent basis, Debye):
    X=              0.5557    Y=              6.2081    Z=             -3.8403  Tot=              7.3211
 Quadrupole moment (field-independent basis, Debye-Ang):
   XX=           -143.8411   YY=           -189.4449   ZZ=           -176.8198
   XY=             -4.8243   XZ=              3.9021   YZ=             19.3259
 Traceless Quadrupole moment (field-independent basis, Debye-Ang):
   XX=             26.1942   YY=            -19.4096   ZZ=             -6.7845
   XY=             -4.8243   XZ=              3.9021   YZ=             19.3259
 Octapole moment (field-independent basis, Debye-Ang**2):
  XXX=             61.3622  YYY=            570.7980  ZZZ=           -323.5866  XYY=             45.3167
  XXY=            160.6266  XXZ=            -93.5595  XZZ=             36.3240  YZZ=            222.4987
  YYZ=           -183.8358  XYZ=            -19.7976
 Hexadecapole moment (field-independent basis, Debye-Ang**3):
 XXXX=         -10503.0555 YYYY=          -6939.9298 ZZZZ=          -2218.1850 XXXY=           -156.6016
 XXXZ=             93.6454 YYYX=           -367.6616 YYYZ=           1870.3223 ZZZX=            168.5911
 ZZZY=           1613.1361 XXYY=          -2431.5443 XXZZ=          -1979.1096 YYZZ=          -1755.3877
 XXYZ=            369.6149 YYXZ=            156.7859 ZZXY=           -150.7499
 N-N= 2.357285021832D+03 E-N=-7.422004353680D+03  KE= 1.078233613322D+03
                          Isotropic Fermi Contact Couplings
        Atom                 a.u.       MegaHertz       Gauss      10(-4) cm-1
     1  C(13)              0.00001       0.00702       0.00250       0.00234
     2  C(13)              0.00030       0.33546       0.11970       0.11190
     3  C(13)              0.00219       2.46471       0.87947       0.82214
     4  C(13)             -0.00179      -2.00819      -0.71657      -0.66986
     5  C(13)              0.00663       7.44845       2.65779       2.48454
     6  C(13)             -0.00051      -0.57121      -0.20382      -0.19054
     7  C(13)              0.00549       6.17691       2.20408       2.06040
     8  N(14)              0.12212      39.45805      14.07961      13.16179
     9  C(13)              0.00585       6.57187       2.34501       2.19214
    10  C(13)              0.00122       1.36910       0.48853       0.45668
    11  C(13)              0.00131       1.47333       0.52572       0.49145
    12  C(13)             -0.00073      -0.82004      -0.29261      -0.27354
    13  C(13)              0.00135       1.52064       0.54260       0.50723
    14  C(13)              0.00094       1.05574       0.37671       0.35216
    15  C(13)             -0.00047      -0.52421      -0.18705      -0.17486
    16  C(13)              0.00051       0.57275       0.20437       0.19105
    17  C(13)              0.00007       0.07376       0.02632       0.02460
    18  C(13)             -0.00001      -0.00888      -0.00317      -0.00296
    19  C(13)              0.00011       0.12273       0.04379       0.04094
    20  C(13)              0.00053       0.59528       0.21241       0.19857
    21  C(13)              0.00163       1.83494       0.65475       0.61207
    22  C(13)             -0.00135      -1.52264      -0.54332      -0.50790
    23  N(14)              0.02560       8.27028       2.95104       2.75867
    24  C(13)              0.00115       1.29816       0.46322       0.43302
    25  C(13)              0.00191       2.14477       0.76531       0.71542
    26  C(13)              0.00026       0.29005       0.10350       0.09675
    27  H(1)               0.00000      -0.01039      -0.00371      -0.00347
    28  H(1)               0.00001       0.06057       0.02161       0.02020
    29  H(1)              -0.00001      -0.05718      -0.02040      -0.01907
    30  H(1)               0.00009       0.40330       0.14391       0.13453
    31  H(1)              -0.00047      -2.09598      -0.74790      -0.69914
    32  H(1)               0.00002       0.09368       0.03343       0.03125
    33  H(1)               0.00007       0.29827       0.10643       0.09949
    34  H(1)               0.00000      -0.01765      -0.00630      -0.00589
    35  H(1)               0.00000       0.00548       0.00195       0.00183
    36  H(1)               0.00000      -0.00003      -0.00001      -0.00001
    37  H(1)               0.00000       0.01908       0.00681       0.00637
    38  H(1)               0.00000      -0.01618      -0.00577      -0.00540
    39  H(1)              -0.00015      -0.68704      -0.24515      -0.22917
    40  H(1)              -0.00001      -0.04518      -0.01612      -0.01507
    41  H(1)              -0.00002      -0.07123      -0.02542      -0.02376
    42  H(1)               0.00001       0.05685       0.02029       0.01896
    43  Ag(107             0.00023      -0.04142      -0.01478      -0.01382
 --------------------------------------------------------
       Center         ----  Spin Dipole Couplings  ----
                      3XX-RR        3YY-RR        3ZZ-RR
 --------------------------------------------------------
     1   Atom       -0.000017      0.000213     -0.000195
     2   Atom       -0.000371      0.000658     -0.000286
     3   Atom       -0.000413      0.001227     -0.000815
     4   Atom       -0.000544      0.000502      0.000041
     5   Atom       -0.018867     -0.008461      0.027327
     6   Atom       -0.005682     -0.005616      0.011298
     7   Atom       -0.003627     -0.010203      0.013830
     8   Atom       -0.013318      0.086694     -0.073376
     9   Atom       -0.017727      0.000763      0.016964
    10   Atom        0.001640      0.006853     -0.008493
    11   Atom       -0.001916      0.000828      0.001088
    12   Atom        0.001987      0.002356     -0.004344
    13   Atom       -0.001413      0.000802      0.000610
    14   Atom       -0.004511     -0.002668      0.007179
    15   Atom        0.000021      0.000168     -0.000189
    16   Atom       -0.000045      0.000425     -0.000380
    17   Atom       -0.000057      0.000254     -0.000197
    18   Atom        0.000017      0.000087     -0.000104
    19   Atom       -0.000075      0.000159     -0.000084
    20   Atom       -0.000113     -0.000007      0.000120
    21   Atom       -0.005376     -0.006295      0.011671
    22   Atom        0.002689     -0.001969     -0.000720
    23   Atom       -0.008740      0.020053     -0.011313
    24   Atom       -0.002593      0.001157      0.001436
    25   Atom       -0.000546      0.000049      0.000496
    26   Atom       -0.000325      0.000366     -0.000041
    27   Atom       -0.000051      0.000150     -0.000100
    28   Atom       -0.000102      0.000309     -0.000207
    29   Atom       -0.000408      0.000751     -0.000343
    30   Atom        0.001567     -0.000994     -0.000573
    31   Atom        0.000283      0.001407     -0.001689
    32   Atom       -0.000486      0.000840     -0.000354
    33   Atom       -0.000046      0.000395     -0.000349
    34   Atom        0.000010      0.000315     -0.000326
    35   Atom        0.000016      0.000137     -0.000153
    36   Atom        0.000017      0.000061     -0.000078
    37   Atom        0.000005      0.000008     -0.000012
    38   Atom       -0.000019     -0.000129      0.000148
    39   Atom        0.001514     -0.001140     -0.000374
    40   Atom        0.002091     -0.001016     -0.001075
    41   Atom       -0.000371     -0.000174      0.000544
    42   Atom       -0.000099      0.000067      0.000032
    43   Atom        0.013949      0.004126     -0.018075
 --------------------------------------------------------
                        XY            XZ            YZ
 --------------------------------------------------------
     1   Atom       -0.000202      0.000108     -0.000223
     2   Atom       -0.000446      0.000122     -0.000258
     3   Atom       -0.001041     -0.000194      0.000286
     4   Atom       -0.001059      0.000279     -0.000436
     5   Atom       -0.000567      0.001519      0.019102
     6   Atom       -0.000388      0.003049     -0.000184
     7   Atom       -0.001595     -0.013317     -0.008968
     8   Atom       -0.057480     -0.022267      0.030047
     9   Atom        0.001728      0.000670      0.022963
    10   Atom       -0.002720     -0.000229     -0.001456
    11   Atom        0.000508     -0.000024      0.001006
    12   Atom        0.000516     -0.000001     -0.002416
    13   Atom        0.002121      0.000804      0.002693
    14   Atom        0.000330     -0.001355      0.004295
    15   Atom        0.000619     -0.000277     -0.000316
    16   Atom        0.000568     -0.000055     -0.000016
    17   Atom        0.000250     -0.000075     -0.000125
    18   Atom        0.000220     -0.000104     -0.000114
    19   Atom        0.000220     -0.000147     -0.000244
    20   Atom        0.000374     -0.000378     -0.000489
    21   Atom        0.000122     -0.002646      0.002458
    22   Atom        0.002326      0.002489     -0.002217
    23   Atom        0.019292      0.020143      0.033003
    24   Atom        0.003435      0.003988      0.004527
    25   Atom       -0.000487      0.000642     -0.001253
    26   Atom       -0.000401      0.000229     -0.000442
    27   Atom       -0.000187      0.000082     -0.000144
    28   Atom       -0.000287      0.000025     -0.000064
    29   Atom       -0.000711     -0.000048      0.000142
    30   Atom       -0.001258      0.000662     -0.000741
    31   Atom       -0.001520      0.004070     -0.003370
    32   Atom        0.000096      0.000026     -0.000690
    33   Atom        0.000060     -0.000081     -0.000456
    34   Atom        0.000553     -0.000014      0.000028
    35   Atom        0.000232     -0.000029     -0.000042
    36   Atom        0.000152     -0.000070     -0.000082
    37   Atom        0.000153     -0.000147     -0.000147
    38   Atom        0.000293     -0.000373     -0.000333
    39   Atom        0.000496     -0.000369     -0.000064
    40   Atom        0.000772     -0.001412     -0.000626
    41   Atom       -0.000372      0.000502     -0.000615
    42   Atom       -0.000185      0.000177     -0.000256
    43   Atom        0.005992     -0.002649      0.029470
 --------------------------------------------------------


 ---------------------------------------------------------------------------------
              Anisotropic Spin Dipole Couplings in Principal Axis System
 ---------------------------------------------------------------------------------

       Atom             a.u.   MegaHertz   Gauss  10(-4) cm-1        Axes

              Baa    -0.0003    -0.040    -0.014    -0.013 -0.0887  0.3710  0.9244
     1 C(13)  Bbb    -0.0001    -0.018    -0.006    -0.006  0.8853  0.4547 -0.0976
              Bcc     0.0004     0.057     0.021     0.019 -0.4565  0.8097 -0.3688
 
              Baa    -0.0005    -0.073    -0.026    -0.024  0.9385  0.3225 -0.1235
     2 C(13)  Bbb    -0.0004    -0.047    -0.017    -0.016  0.0368  0.2623  0.9643
              Bcc     0.0009     0.120     0.043     0.040 -0.3434  0.9095 -0.2343
 
              Baa    -0.0009    -0.127    -0.045    -0.042  0.8079  0.3219  0.4937
     3 C(13)  Bbb    -0.0008    -0.112    -0.040    -0.037 -0.3977 -0.3204  0.8597
              Bcc     0.0018     0.238     0.085     0.080 -0.4350  0.8909  0.1308
 
              Baa    -0.0012    -0.161    -0.058    -0.054  0.8501  0.5266 -0.0064
     4 C(13)  Bbb    -0.0002    -0.022    -0.008    -0.007 -0.1869  0.3131  0.9311
              Bcc     0.0014     0.183     0.065     0.061 -0.4924  0.7904 -0.3646
 
              Baa    -0.0194    -2.600    -0.928    -0.867  0.9194  0.3526 -0.1741
     5 C(13)  Bbb    -0.0163    -2.182    -0.779    -0.728 -0.3927  0.8473 -0.3576
              Bcc     0.0356     4.782     1.706     1.595  0.0214  0.3972  0.9175
 
              Baa    -0.0064    -0.856    -0.305    -0.285  0.8947  0.4206 -0.1500
     6 C(13)  Bbb    -0.0055    -0.732    -0.261    -0.244 -0.4122  0.9071  0.0850
              Bcc     0.0118     1.588     0.567     0.530  0.1718 -0.0142  0.9850
 
              Baa    -0.0169    -2.263    -0.807    -0.755  0.5317  0.7225  0.4418
     7 C(13)  Bbb    -0.0058    -0.773    -0.276    -0.258  0.7291 -0.6560  0.1953
              Bcc     0.0226     3.036     1.083     1.013 -0.4310 -0.2183  0.8756
 
              Baa    -0.0817    -3.151    -1.124    -1.051  0.2382 -0.0912  0.9669
     8 N(14)  Bbb    -0.0381    -1.470    -0.525    -0.490  0.8778  0.4462 -0.1741
              Bcc     0.1198     4.621     1.649     1.541 -0.4155  0.8903  0.1864
 
              Baa    -0.0182    -2.438    -0.870    -0.813  0.9337 -0.3075  0.1832
     9 C(13)  Bbb    -0.0151    -2.026    -0.723    -0.676  0.3567  0.7560 -0.5489
              Bcc     0.0333     4.463     1.593     1.489  0.0303  0.5779  0.8156
 
              Baa    -0.0087    -1.161    -0.414    -0.387  0.0490  0.1019  0.9936
    10 C(13)  Bbb     0.0005     0.073     0.026     0.024  0.9219  0.3781 -0.0842
              Bcc     0.0081     1.088     0.388     0.363 -0.3842  0.9201 -0.0754
 
              Baa    -0.0020    -0.271    -0.097    -0.090  0.9772 -0.1997  0.0722
    11 C(13)  Bbb     0.0000     0.003     0.001     0.001  0.1957  0.7150 -0.6712
              Bcc     0.0020     0.268     0.096     0.089  0.0824  0.6700  0.7378
 
              Baa    -0.0051    -0.688    -0.246    -0.230 -0.0223  0.3085  0.9510
    12 C(13)  Bbb     0.0018     0.243     0.087     0.081  0.9377 -0.3234  0.1269
              Bcc     0.0033     0.445     0.159     0.149  0.3467  0.8945 -0.2821
 
              Baa    -0.0029    -0.394    -0.141    -0.132  0.7085 -0.6302  0.3176
    13 C(13)  Bbb    -0.0013    -0.168    -0.060    -0.056 -0.6098 -0.3202  0.7250
              Bcc     0.0042     0.563     0.201     0.188  0.3552  0.7073  0.6112
 
              Baa    -0.0052    -0.704    -0.251    -0.235  0.7745 -0.5670  0.2805
    14 C(13)  Bbb    -0.0036    -0.489    -0.175    -0.163  0.6267  0.7480 -0.2184
              Bcc     0.0089     1.193     0.426     0.398 -0.0860  0.3449  0.9347
 
              Baa    -0.0005    -0.071    -0.025    -0.024  0.7446 -0.6674 -0.0130
    15 C(13)  Bbb    -0.0004    -0.047    -0.017    -0.016  0.2527  0.2637  0.9309
              Bcc     0.0009     0.118     0.042     0.039  0.6179  0.6964 -0.3650
 
              Baa    -0.0004    -0.060    -0.021    -0.020  0.7318 -0.4679  0.4955
    16 C(13)  Bbb    -0.0004    -0.048    -0.017    -0.016 -0.3940  0.3028  0.8678
              Bcc     0.0008     0.108     0.039     0.036  0.5560  0.8303 -0.0373
 
              Baa    -0.0002    -0.031    -0.011    -0.010  0.2218  0.1350  0.9657
    17 C(13)  Bbb    -0.0002    -0.026    -0.009    -0.009  0.8520 -0.5086 -0.1246
              Bcc     0.0004     0.057     0.020     0.019  0.4743  0.8504 -0.2278
 
              Baa    -0.0002    -0.023    -0.008    -0.008  0.7872 -0.5215  0.3293
    18 C(13)  Bbb    -0.0002    -0.021    -0.008    -0.007 -0.0609  0.4656  0.8829
              Bcc     0.0003     0.044     0.016     0.015  0.6137  0.7150 -0.3348
 
              Baa    -0.0002    -0.032    -0.011    -0.011  0.2550  0.4007  0.8800
    19 C(13)  Bbb    -0.0002    -0.028    -0.010    -0.009  0.8540 -0.5202 -0.0106
              Bcc     0.0004     0.060     0.021     0.020  0.4535  0.7542 -0.4749
 
              Baa    -0.0005    -0.061    -0.022    -0.020 -0.4553  0.8031  0.3844
    20 C(13)  Bbb    -0.0004    -0.052    -0.019    -0.017  0.7464  0.1090  0.6565
              Bcc     0.0008     0.113     0.040     0.038 -0.4853 -0.5859  0.6490
 
              Baa    -0.0068    -0.916    -0.327    -0.306 -0.3963  0.9010 -0.1764
    21 C(13)  Bbb    -0.0056    -0.745    -0.266    -0.249  0.9065  0.4144  0.0802
              Bcc     0.0124     1.662     0.593     0.554 -0.1453  0.1281  0.9811
 
              Baa    -0.0051    -0.685    -0.244    -0.228 -0.3977  0.7078  0.5838
    22 C(13)  Bbb     0.0009     0.118     0.042     0.039 -0.1332 -0.6741  0.7266
              Bcc     0.0042     0.567     0.202     0.189  0.9078  0.2112  0.3624
 
              Baa    -0.0349    -1.346    -0.480    -0.449 -0.3739 -0.3775  0.8472
    23 N(14)  Bbb    -0.0180    -0.694    -0.248    -0.231  0.8345 -0.5356  0.1296
              Bcc     0.0529     2.040     0.728     0.681  0.4048  0.7554  0.5152
 
              Baa    -0.0052    -0.692    -0.247    -0.231  0.8927 -0.1942 -0.4067
    24 C(13)  Bbb    -0.0032    -0.429    -0.153    -0.143 -0.1246  0.7609 -0.6368
              Bcc     0.0084     1.121     0.400     0.374  0.4331  0.6191  0.6551
 
              Baa    -0.0010    -0.135    -0.048    -0.045 -0.1827  0.7155  0.6743
    25 C(13)  Bbb    -0.0008    -0.109    -0.039    -0.036  0.9289  0.3504 -0.1201
              Bcc     0.0018     0.244     0.087     0.081  0.3222 -0.6044  0.7286
 
              Baa    -0.0005    -0.069    -0.024    -0.023  0.9230  0.3716 -0.0997
    26 C(13)  Bbb    -0.0003    -0.043    -0.015    -0.014 -0.1055  0.4936  0.8633
              Bcc     0.0008     0.112     0.040     0.037 -0.3700  0.7863 -0.4948
 
              Baa    -0.0002    -0.089    -0.032    -0.030  0.3920  0.5627  0.7278
    27 H(1)   Bbb    -0.0002    -0.085    -0.030    -0.028  0.7871  0.2044 -0.5820
              Bcc     0.0003     0.174     0.062     0.058 -0.4763  0.8010 -0.3628
 
              Baa    -0.0003    -0.134    -0.048    -0.045  0.8670  0.4650  0.1793
    28 H(1)   Bbb    -0.0002    -0.114    -0.041    -0.038 -0.2058  0.0064  0.9786
              Bcc     0.0005     0.247     0.088     0.083 -0.4539  0.8853 -0.1013
 
              Baa    -0.0007    -0.398    -0.142    -0.133  0.9008  0.4319 -0.0437
    29 H(1)   Bbb    -0.0004    -0.191    -0.068    -0.064  0.0836 -0.0737  0.9938
              Bcc     0.0011     0.589     0.210     0.196 -0.4260  0.8989  0.1025
 
              Baa    -0.0017    -0.913    -0.326    -0.305  0.2492  0.8717  0.4219
    30 H(1)   Bbb    -0.0006    -0.345    -0.123    -0.115 -0.4233 -0.2938  0.8570
              Bcc     0.0024     1.258     0.449     0.420  0.8711 -0.3922  0.2958
 
              Baa    -0.0054    -2.887    -1.030    -0.963 -0.5042  0.2897  0.8136
    31 H(1)   Bbb    -0.0006    -0.304    -0.108    -0.101  0.6541  0.7432  0.1407
              Bcc     0.0060     3.191     1.139     1.064 -0.5639  0.6031 -0.5642
 
              Baa    -0.0007    -0.368    -0.131    -0.123 -0.3017  0.4075  0.8619
    32 H(1)   Bbb    -0.0005    -0.251    -0.089    -0.084  0.9523  0.0845  0.2933
              Bcc     0.0012     0.618     0.221     0.206  0.0467  0.9093 -0.4136
 
              Baa    -0.0006    -0.304    -0.108    -0.101  0.0902  0.4210  0.9026
    33 H(1)   Bbb    -0.0001    -0.029    -0.010    -0.010  0.9871 -0.1582 -0.0249
              Bcc     0.0006     0.333     0.119     0.111  0.1323  0.8932 -0.4298
 
              Baa    -0.0004    -0.223    -0.080    -0.075  0.7603 -0.5833  0.2858
    34 H(1)   Bbb    -0.0003    -0.169    -0.060    -0.057 -0.2348  0.1633  0.9582
              Bcc     0.0007     0.393     0.140     0.131  0.6056  0.7956  0.0128
 
              Baa    -0.0002    -0.088    -0.031    -0.029  0.7001 -0.5931 -0.3976
    35 H(1)   Bbb    -0.0002    -0.084    -0.030    -0.028  0.3758 -0.1674  0.9115
              Bcc     0.0003     0.172     0.061     0.057  0.6071  0.7875 -0.1057
 
              Baa    -0.0001    -0.062    -0.022    -0.021 -0.3768  0.6367  0.6728
    36 H(1)   Bbb    -0.0001    -0.061    -0.022    -0.020  0.6910 -0.2905  0.6619
              Bcc     0.0002     0.123     0.044     0.041  0.6169  0.7143 -0.3305
 
              Baa    -0.0002    -0.081    -0.029    -0.027  0.4662  0.3167  0.8260
    37 H(1)   Bbb    -0.0001    -0.078    -0.028    -0.026 -0.6637  0.7426  0.0898
              Bcc     0.0003     0.159     0.057     0.053  0.5850  0.5901 -0.5564
 
              Baa    -0.0004    -0.200    -0.071    -0.067 -0.5190  0.8390  0.1633
    38 H(1)   Bbb    -0.0003    -0.167    -0.060    -0.056  0.6484  0.2620  0.7148
              Bcc     0.0007     0.367     0.131     0.122 -0.5570 -0.4768  0.6800
 
              Baa    -0.0012    -0.656    -0.234    -0.219 -0.1783  0.9840 -0.0028
    39 H(1)   Bbb    -0.0004    -0.236    -0.084    -0.079  0.1767  0.0349  0.9836
              Bcc     0.0017     0.892     0.318     0.298  0.9680  0.1749 -0.1801
 
              Baa    -0.0018    -0.951    -0.339    -0.317  0.2149  0.4784  0.8514
    40 H(1)   Bbb    -0.0011    -0.575    -0.205    -0.192 -0.3755  0.8453 -0.3802
              Bcc     0.0029     1.526     0.545     0.509  0.9016  0.2380 -0.3613
 
              Baa    -0.0007    -0.351    -0.125    -0.117  0.8260  0.5606 -0.0580
    41 H(1)   Bbb    -0.0005    -0.263    -0.094    -0.088 -0.4179  0.6783  0.6044
              Bcc     0.0012     0.614     0.219     0.205  0.3782 -0.4750  0.7946
 
              Baa    -0.0002    -0.119    -0.043    -0.040  0.8885  0.2042 -0.4110
    42 H(1)   Bbb    -0.0002    -0.110    -0.039    -0.037  0.1440  0.7263  0.6721
              Bcc     0.0004     0.230     0.082     0.077 -0.4358  0.6564 -0.6159
 
              Baa    -0.0391     0.847     0.302     0.283  0.1052 -0.5705  0.8145
    43 Ag(107 Bbb     0.0135    -0.293    -0.104    -0.098  0.9501 -0.1842 -0.2517
              Bcc     0.0256    -0.555    -0.198    -0.185  0.2936  0.8004  0.5227
 

 ---------------------------------------------------------------------------------

 No NMR shielding tensors so no spin-rotation constants.
 Leave Link  601 at Fri Sep 11 22:32:18 2026, MaxMem=  6442450944 cpu:               5.0 elap:               5.6
 (Enter C:\G16W\l9999.exe)
 Unable to Open any file for archive entry.
 1|1|UNPC-DESKTOP-2JKEGCA|SP|UPBE1PBE|def2SVP|C24H16Ag1N2(2)|JHKIM|11-S
 ep-2026|0||#P PBE1PBE/Def2SVP EmpiricalDispersion=GD3BJ SP SCF=(XQC,Ma
 xCycle=128) NoSymm Guess=Read||Bphen t=0.250 dz=+0.00 class=toface||0,
 2|C,0,-5.075104,2.596057,-0.848582|C,0,-4.715716,2.434163,0.478857|C,0
 ,-3.985648,1.326254,0.870754|C,0,-3.608814,0.370482,-0.0652|C,0,-2.849
 893,-0.827816,0.356392|C,0,-3.512903,-1.97087,0.7492|C,0,-2.764008,-3.
 084836,1.14144|N,0,-1.457428,-3.11297,1.160054|C,0,-0.787031,-2.018643
 ,0.784213|C,0,-1.437298,-0.832182,0.367434|C,0,-0.667287,0.300298,-0.0
 21018|C,0,0.685824,0.263426,0.000908|C,0,1.380055,-0.908949,0.413101|C
 ,0,2.790408,-0.981482,0.44787|C,0,3.626694,0.173326,0.052066|C,0,4.025
 328,1.1075,1.000707|C,0,4.826918,2.173661,0.633555|C,0,5.236571,2.3150
 29,-0.681611|C,0,4.841079,1.387397,-1.630584|C,0,4.039486,0.320062,-1.
 266868|C,0,3.377135,-2.158548,0.861055|C,0,2.556396,-3.229745,1.227851
 |N,0,1.250307,-3.186722,1.204024|C,0,0.653004,-2.057874,0.807573|C,0,-
 3.970941,0.537891,-1.396496|C,0,-4.70102,1.647,-1.784966|H,0,-5.646599
 ,3.460423,-1.152844|H,0,-5.005817,3.172287,1.212213|H,0,-3.703341,1.19
 5908,1.905798|H,0,-4.592243,-2.003673,0.753324|H,0,-3.258742,-3.995483
 ,1.454638|H,0,-1.191655,1.191943,-0.334479|H,0,1.267832,1.124926,-0.29
 4617|H,0,3.703614,0.993274,2.026112|H,0,5.133493,2.89518,1.376669|H,0,
 5.863825,3.146713,-0.966506|H,0,5.158745,1.49424,-2.657458|H,0,3.72879
 3,-0.40634,-2.004305|H,0,4.452389,-2.250041,0.900153|H,0,2.990418,-4.1
 65689,1.556131|H,0,-3.677198,-0.205338,-2.124046|H,0,-4.979626,1.76976
 2,-2.821356|Ag,0,-0.9075717,-4.60362209,2.71778148||Version=EM64W-G16R
 evC.01|HF=-1178.771929|S2=0.752444|S2-1=0.|S2A=0.750006|RMSD=9.287e-00
 9|Dipole=0.2186196,2.4424627,-1.5109081|Quadrupole=19.474736,-14.43059
 39,-5.0441422,-3.5867638,2.9011012,14.3683427|PG=C01 [X(C24H16Ag1N2)]|
 |@
 The archive entry for this job was punched.


0EVERYBODY IS IGNORANT, ONLY ON DIFFERENT SUBJECTS.
0          WILL ROGERS
 Job cpu time:       0 days  0 hours 12 minutes  1.0 seconds.
 Elapsed time:       0 days  0 hours 11 minutes 58.8 seconds.
 File lengths (MBytes):  RWF=    212 Int=      0 D2E=      0 Chk=     17 Scr=      1
 Normal termination of Gaussian 16 at Fri Sep 11 22:32:19 2026.
