 Entering Gaussian System, Link 0=C:\G16W\g16.exe
 Input=Bphen_t4_z0.gjf
 Output=Bphen_t4_z0.out
 Initial command:
 C:\G16W\l1.exe ".\Gau-118836.inp" "Bphen_t4_z0.out" /scrdir=".\"
 Entering Link 1 = C:\G16W\l1.exe PID=     85496.
  
 Copyright (c) 1988-2019, Gaussian, Inc.  All Rights Reserved.
  
 This is part of the Gaussian(R) 16 program.  It is based on
 the Gaussian(R) 09 system (copyright 2009, Gaussian, Inc.),
 the Gaussian(R) 03 system (copyright 2003, Gaussian, Inc.),
 the Gaussian(R) 98 system (copyright 1998, Gaussian, Inc.),
 the Gaussian(R) 94 system (copyright 1995, Gaussian, Inc.),
 the Gaussian 92(TM) system (copyright 1992, Gaussian, Inc.),
 the Gaussian 90(TM) system (copyright 1990, Gaussian, Inc.),
 the Gaussian 88(TM) system (copyright 1988, Gaussian, Inc.),
 the Gaussian 86(TM) system (copyright 1986, Carnegie Mellon
 University), and the Gaussian 82(TM) system (copyright 1983,
 Carnegie Mellon University). Gaussian is a federally registered
 trademark of Gaussian, Inc.
  
 This software contains proprietary and confidential information,
 including trade secrets, belonging to Gaussian, Inc.
  
 This software is provided under written license and may be
 used, copied, transmitted, or stored only in accord with that
 written license.
  
 The following legend is applicable only to US Government
 contracts under FAR:
  
                    RESTRICTED RIGHTS LEGEND
  
 Use, reproduction and disclosure by the US Government is
 subject to restrictions as set forth in subparagraphs (a)
 and (c) of the Commercial Computer Software - Restricted
 Rights clause in FAR 52.227-19.
  
 Gaussian, Inc.
 340 Quinnipiac St., Bldg. 40, Wallingford CT 06492
  
  
 ---------------------------------------------------------------
 Warning -- This program may not be used in any manner that
 competes with the business of Gaussian, Inc. or will provide
 assistance to any competitor of Gaussian, Inc.  The licensee
 of this program is prohibited from giving any competitor of
 Gaussian, Inc. access to this program.  By using this program,
 the user acknowledges that Gaussian, Inc. is engaged in the
 business of creating and licensing software in the field of
 computational chemistry and represents and warrants to the
 licensee that it is not a competitor of Gaussian, Inc. and that
 it will not use this program in any manner prohibited above.
 ---------------------------------------------------------------
  

 Cite this work as:
 Gaussian 16, Revision C.01,
 M. J. Frisch, G. W. Trucks, H. B. Schlegel, G. E. Scuseria, 
 M. A. Robb, J. R. Cheeseman, G. Scalmani, V. Barone, 
 G. A. Petersson, H. Nakatsuji, X. Li, M. Caricato, A. V. Marenich, 
 J. Bloino, B. G. Janesko, R. Gomperts, B. Mennucci, H. P. Hratchian, 
 J. V. Ortiz, A. F. Izmaylov, J. L. Sonnenberg, D. Williams-Young, 
 F. Ding, F. Lipparini, F. Egidi, J. Goings, B. Peng, A. Petrone, 
 T. Henderson, D. Ranasinghe, V. G. Zakrzewski, J. Gao, N. Rega, 
 G. Zheng, W. Liang, M. Hada, M. Ehara, K. Toyota, R. Fukuda, 
 J. Hasegawa, M. Ishida, T. Nakajima, Y. Honda, O. Kitao, H. Nakai, 
 T. Vreven, K. Throssell, J. A. Montgomery, Jr., J. E. Peralta, 
 F. Ogliaro, M. J. Bearpark, J. J. Heyd, E. N. Brothers, K. N. Kudin, 
 V. N. Staroverov, T. A. Keith, R. Kobayashi, J. Normand, 
 K. Raghavachari, A. P. Rendell, J. C. Burant, S. S. Iyengar, 
 J. Tomasi, M. Cossi, J. M. Millam, M. Klene, C. Adamo, R. Cammi, 
 J. W. Ochterski, R. L. Martin, K. Morokuma, O. Farkas, 
 J. B. Foresman, and D. J. Fox, Gaussian, Inc., Wallingford CT, 2019.
 
 ******************************************
 Gaussian 16:  EM64W-G16RevC.01 30-May-2019
                11-Sep-2026 
 ******************************************
 %Chk=Bphen.chk
 %NProcShared=8
 Will use up to    8 processors via shared memory.
 %Mem=48GB
 ----------------------------------------------------------------------
 #P PBE1PBE/Def2SVP EmpiricalDispersion=GD3BJ SP SCF=(XQC,MaxCycle=128)
  NoSymm Guess=Read
 ----------------------------------------------------------------------
 1/38=1,172=1/1;
 2/12=2,15=1,17=6,18=5,40=1/2;
 3/5=43,7=101,11=2,25=1,30=1,74=-13,116=-2,124=41/1,2,3;
 4/5=1/1;
 5/5=2,7=128,8=3,13=1,38=6/2,8;
 6/7=2,8=2,9=2,10=2,28=1/1;
 99/5=1,9=1/99;
 Leave Link    1 at Fri Sep 11 23:31:53 2026, MaxMem=  6442450944 cpu:               1.0 elap:               0.2
 (Enter C:\G16W\l101.exe)
 -----------------------------------
 Bphen t=1.000 dz=+0.00 class=toface
 -----------------------------------
 Symbolic Z-matrix:
 Charge =  0 Multiplicity = 2
 C                    -5.0751    2.59606  -0.84858 
 C                    -4.71572   2.43416   0.47886 
 C                    -3.98565   1.32625   0.87075 
 C                    -3.60881   0.37048  -0.0652 
 C                    -2.84989  -0.82782   0.35639 
 C                    -3.5129   -1.97087   0.7492 
 C                    -2.76401  -3.08484   1.14144 
 N                    -1.45743  -3.11297   1.16005 
 C                    -0.78703  -2.01864   0.78421 
 C                    -1.4373   -0.83218   0.36743 
 C                    -0.66729   0.3003   -0.02102 
 C                     0.68582   0.26343   0.00091 
 C                     1.38006  -0.90895   0.4131 
 C                     2.79041  -0.98148   0.44787 
 C                     3.62669   0.17333   0.05207 
 C                     4.02533   1.1075    1.00071 
 C                     4.82692   2.17366   0.63356 
 C                     5.23657   2.31503  -0.68161 
 C                     4.84108   1.3874   -1.63058 
 C                     4.03949   0.32006  -1.26687 
 C                     3.37714  -2.15855   0.86106 
 C                     2.5564   -3.22975   1.22785 
 N                     1.25031  -3.18672   1.20402 
 C                     0.653    -2.05787   0.80757 
 C                    -3.97094   0.53789  -1.3965 
 C                    -4.70102   1.647    -1.78497 
 H                    -5.6466    3.46042  -1.15284 
 H                    -5.00582   3.17229   1.21221 
 H                    -3.70334   1.19591   1.9058 
 H                    -4.59224  -2.00367   0.75332 
 H                    -3.25874  -3.99548   1.45464 
 H                    -1.19166   1.19194  -0.33448 
 H                     1.26783   1.12493  -0.29462 
 H                     3.70361   0.99327   2.02611 
 H                     5.13349   2.89518   1.37667 
 H                     5.86383   3.14671  -0.96651 
 H                     5.15874   1.49424  -2.65746 
 H                     3.72879  -0.40634  -2.00431 
 H                     4.45239  -2.25004   0.90015 
 H                     2.99042  -4.16569   1.55613 
 H                    -3.6772   -0.20534  -2.12405 
 H                    -4.97963   1.76976  -2.82136 
 Ag                   -0.06486  -0.00551   2.5029 
 
 ITRead=  0  0  0  0  0  0  0  0  0  0  0  0  0  0  0  0  0  0  0  0
 ITRead=  0  0  0  0  0  0  0  0  0  0  0  0  0  0  0  0  0  0  0  0
 ITRead=  0  0  0
 MicOpt= -1 -1 -1 -1 -1 -1 -1 -1 -1 -1 -1 -1 -1 -1 -1 -1 -1 -1 -1 -1
 MicOpt= -1 -1 -1 -1 -1 -1 -1 -1 -1 -1 -1 -1 -1 -1 -1 -1 -1 -1 -1 -1
 MicOpt= -1 -1 -1
 NAtoms=     43 NQM=       43 NQMF=       0 NMMI=      0 NMMIF=      0
                NMic=       0 NMicF=      0.
                    Isotopes and Nuclear Properties:
 (Nuclear quadrupole moments (NQMom) in fm**2, nuclear magnetic moments (NMagM)
  in nuclear magnetons)

  Atom         1           2           3           4           5           6           7           8           9          10
 IAtWgt=          12          12          12          12          12          12          12          14          12          12
 AtmWgt=  12.0000000  12.0000000  12.0000000  12.0000000  12.0000000  12.0000000  12.0000000  14.0030740  12.0000000  12.0000000
 NucSpn=           0           0           0           0           0           0           0           2           0           0
 AtZEff=   0.0000000   0.0000000   0.0000000   0.0000000   0.0000000   0.0000000   0.0000000   0.0000000   0.0000000   0.0000000
 NQMom=    0.0000000   0.0000000   0.0000000   0.0000000   0.0000000   0.0000000   0.0000000   2.0440000   0.0000000   0.0000000
 NMagM=    0.0000000   0.0000000   0.0000000   0.0000000   0.0000000   0.0000000   0.0000000   0.4037610   0.0000000   0.0000000
 AtZNuc=   6.0000000   6.0000000   6.0000000   6.0000000   6.0000000   6.0000000   6.0000000   7.0000000   6.0000000   6.0000000

  Atom        11          12          13          14          15          16          17          18          19          20
 IAtWgt=          12          12          12          12          12          12          12          12          12          12
 AtmWgt=  12.0000000  12.0000000  12.0000000  12.0000000  12.0000000  12.0000000  12.0000000  12.0000000  12.0000000  12.0000000
 NucSpn=           0           0           0           0           0           0           0           0           0           0
 AtZEff=   0.0000000   0.0000000   0.0000000   0.0000000   0.0000000   0.0000000   0.0000000   0.0000000   0.0000000   0.0000000
 NQMom=    0.0000000   0.0000000   0.0000000   0.0000000   0.0000000   0.0000000   0.0000000   0.0000000   0.0000000   0.0000000
 NMagM=    0.0000000   0.0000000   0.0000000   0.0000000   0.0000000   0.0000000   0.0000000   0.0000000   0.0000000   0.0000000
 AtZNuc=   6.0000000   6.0000000   6.0000000   6.0000000   6.0000000   6.0000000   6.0000000   6.0000000   6.0000000   6.0000000

  Atom        21          22          23          24          25          26          27          28          29          30
 IAtWgt=          12          12          14          12          12          12           1           1           1           1
 AtmWgt=  12.0000000  12.0000000  14.0030740  12.0000000  12.0000000  12.0000000   1.0078250   1.0078250   1.0078250   1.0078250
 NucSpn=           0           0           2           0           0           0           1           1           1           1
 AtZEff=   0.0000000   0.0000000   0.0000000   0.0000000   0.0000000   0.0000000   0.0000000   0.0000000   0.0000000   0.0000000
 NQMom=    0.0000000   0.0000000   2.0440000   0.0000000   0.0000000   0.0000000   0.0000000   0.0000000   0.0000000   0.0000000
 NMagM=    0.0000000   0.0000000   0.4037610   0.0000000   0.0000000   0.0000000   2.7928460   2.7928460   2.7928460   2.7928460
 AtZNuc=   6.0000000   6.0000000   7.0000000   6.0000000   6.0000000   6.0000000   1.0000000   1.0000000   1.0000000   1.0000000

  Atom        31          32          33          34          35          36          37          38          39          40
 IAtWgt=           1           1           1           1           1           1           1           1           1           1
 AtmWgt=   1.0078250   1.0078250   1.0078250   1.0078250   1.0078250   1.0078250   1.0078250   1.0078250   1.0078250   1.0078250
 NucSpn=           1           1           1           1           1           1           1           1           1           1
 AtZEff=   0.0000000   0.0000000   0.0000000   0.0000000   0.0000000   0.0000000   0.0000000   0.0000000   0.0000000   0.0000000
 NQMom=    0.0000000   0.0000000   0.0000000   0.0000000   0.0000000   0.0000000   0.0000000   0.0000000   0.0000000   0.0000000
 NMagM=    2.7928460   2.7928460   2.7928460   2.7928460   2.7928460   2.7928460   2.7928460   2.7928460   2.7928460   2.7928460
 AtZNuc=   1.0000000   1.0000000   1.0000000   1.0000000   1.0000000   1.0000000   1.0000000   1.0000000   1.0000000   1.0000000

  Atom        41          42          43
 IAtWgt=           1           1         107
 AtmWgt=   1.0078250   1.0078250 106.9050900
 NucSpn=           1           1           1
 AtZEff=   0.0000000   0.0000000   0.0000000
 NQMom=    0.0000000   0.0000000   0.0000000
 NMagM=    2.7928460   2.7928460  -0.1135700
 AtZNuc=   1.0000000   1.0000000  47.0000000
 Leave Link  101 at Fri Sep 11 23:31:53 2026, MaxMem=  6442450944 cpu:               0.0 elap:               0.2
 (Enter C:\G16W\l202.exe)
                          Input orientation:                          
 ---------------------------------------------------------------------
 Center     Atomic      Atomic             Coordinates (Angstroms)
 Number     Number       Type             X           Y           Z
 ---------------------------------------------------------------------
      1          6           0       -5.075104    2.596057   -0.848582
      2          6           0       -4.715716    2.434163    0.478857
      3          6           0       -3.985648    1.326254    0.870754
      4          6           0       -3.608814    0.370482   -0.065200
      5          6           0       -2.849893   -0.827816    0.356392
      6          6           0       -3.512903   -1.970870    0.749200
      7          6           0       -2.764008   -3.084836    1.141440
      8          7           0       -1.457428   -3.112970    1.160054
      9          6           0       -0.787031   -2.018643    0.784213
     10          6           0       -1.437298   -0.832182    0.367434
     11          6           0       -0.667287    0.300298   -0.021018
     12          6           0        0.685824    0.263426    0.000908
     13          6           0        1.380055   -0.908949    0.413101
     14          6           0        2.790408   -0.981482    0.447870
     15          6           0        3.626694    0.173326    0.052066
     16          6           0        4.025328    1.107500    1.000707
     17          6           0        4.826918    2.173661    0.633555
     18          6           0        5.236571    2.315029   -0.681611
     19          6           0        4.841079    1.387397   -1.630584
     20          6           0        4.039486    0.320062   -1.266868
     21          6           0        3.377135   -2.158548    0.861055
     22          6           0        2.556396   -3.229745    1.227851
     23          7           0        1.250307   -3.186722    1.204024
     24          6           0        0.653004   -2.057874    0.807573
     25          6           0       -3.970941    0.537891   -1.396496
     26          6           0       -4.701020    1.647000   -1.784966
     27          1           0       -5.646599    3.460423   -1.152844
     28          1           0       -5.005817    3.172287    1.212213
     29          1           0       -3.703341    1.195908    1.905798
     30          1           0       -4.592243   -2.003673    0.753324
     31          1           0       -3.258742   -3.995483    1.454638
     32          1           0       -1.191655    1.191943   -0.334479
     33          1           0        1.267832    1.124926   -0.294617
     34          1           0        3.703614    0.993274    2.026112
     35          1           0        5.133493    2.895180    1.376669
     36          1           0        5.863825    3.146713   -0.966506
     37          1           0        5.158745    1.494240   -2.657458
     38          1           0        3.728793   -0.406340   -2.004305
     39          1           0        4.452389   -2.250041    0.900153
     40          1           0        2.990418   -4.165689    1.556131
     41          1           0       -3.677198   -0.205338   -2.124046
     42          1           0       -4.979626    1.769762   -2.821356
     43         47           0       -0.064859   -0.005511    2.502898
 ---------------------------------------------------------------------
                    Distance matrix (angstroms):
                    1          2          3          4          5
     1  C    0.000000
     2  C    1.384725   0.000000
     3  C    2.399048   1.383490   0.000000
     4  C    2.777927   2.404165   1.389789   0.000000
     5  C    4.257515   3.759894   2.488880   1.479736   0.000000
     6  C    5.084309   4.574293   3.333060   2.480801   1.378569
     7  C    6.447782   5.891310   4.585127   3.756182   2.391195
     8  N    7.050900   6.469247   5.116864   4.273657   2.794058
     9  C    6.507614   5.946031   4.628928   3.793663   2.420021
    10  C    5.144429   4.629195   3.377316   2.519733   1.412645
    11  C    5.038276   4.603589   3.585995   2.942696   2.485729
    12  C    6.273045   5.840990   4.869177   4.296481   3.717321
    13  C    7.452918   6.952636   5.830639   5.172478   4.231106
    14  C    8.737611   8.246787   7.170733   6.560571   5.643135
    15  C    9.077559   8.653863   7.742561   7.239143   6.560570
    16  C    9.404974   8.856535   8.015016   7.743351   7.171419
    17  C   10.021237   9.547442   8.856392   8.654553   8.247370
    18  C   10.316855  10.020424   9.404086   9.077558   8.737610
    19  C   10.020133   9.842652   9.174505   8.653626   8.246593
    20  C    9.403769   9.174450   8.365681   7.742289   7.170505
    21  C    9.847308   9.313072   8.145828   7.487151   6.387598
    22  C    9.823000   9.247943   7.980162   7.255579   5.979688
    23  N    8.812749   8.228830   6.920495   6.154323   4.805680
    24  C    7.563937   7.007825   5.742248   4.982142   3.739906
    25  C    2.399048   2.769023   2.400449   1.389788   2.488879
    26  C    1.384725   2.396818   2.769022   2.404165   3.759894
    27  H    1.079959   2.140608   3.377630   3.857884   5.337448
    28  H    2.140962   1.080184   2.136627   3.381348   4.623988
    29  H    3.380645   2.143441   1.080742   2.138948   2.687841
    30  H    4.894566   4.448029   3.386763   2.696985   2.139154
    31  H    7.214734   6.664478   5.402795   4.636174   3.377487
    32  H    4.161372   3.824086   3.045821   2.567093   2.703051
    33  H    6.534825   6.173752   5.384949   4.939989   4.603550
    34  H    9.375429   8.680742   7.782704   7.631059   7.003770
    35  H   10.452592   9.900784   9.266942   9.213089   8.867701
    36  H   10.953415  10.701565  10.183404   9.912149   9.668289
    37  H   10.450727  10.403120   9.802878   9.211554   8.866426
    38  H    9.373296   9.249015   8.413112   7.629158   7.002117
    39  H   10.831245  10.304048   9.164672   8.531239   7.459338
    40  H   10.796134  10.203091   8.904868   8.170399   6.833008
    41  H    3.380645   3.849752   3.377831   2.138946   2.687840
    42  H    2.140962   3.376756   3.849204   3.381347   4.623987
    43  Ag   6.565298   5.628431   4.450852   4.392735   3.611107
                    6          7          8          9         10
     6  C    0.000000
     7  C    1.398433   0.000000
     8  N    2.387084   1.307015   0.000000
     9  C    2.726515   2.274383   1.337251   0.000000
    10  C    2.398018   2.726480   2.414673   1.415712   0.000000
    11  C    3.721420   4.148094   3.697249   2.457687   1.423490
    12  C    4.814699   4.940953   4.163796   2.826784   2.417094
    13  C    5.018135   4.736900   3.669735   2.462805   2.818769
    14  C    6.387599   5.979688   4.805680   3.739906   4.231106
    15  C    7.487150   7.255579   6.154322   4.982142   5.172477
    16  C    8.146444   7.980637   6.920865   5.742686   5.831268
    17  C    9.313599   9.248346   8.229136   7.008176   6.953151
    18  C    9.847307   9.823000   8.812748   7.563936   7.452916
    19  C    9.312913   9.247829   8.228740   7.007708   6.952455
    20  C    8.145642   7.980026   6.920385   5.742102   5.830418
    21  C    6.893501   6.216934   4.936934   4.167224   5.018134
    22  C    6.216934   5.323078   4.016095   3.583586   4.736900
    23  N    4.936935   4.016095   2.709096   2.385665   3.669736
    24  C    4.167224   3.583586   2.385664   1.440759   2.462804
    25  C    3.332820   4.584971   5.116882   4.629108   3.377558
    26  C    4.574123   5.891192   6.469262   5.946169   4.629368
    27  H    6.137538   7.510891   8.130692   7.575471   6.201284
    28  H    5.375429   6.646977   7.217911   6.702768   5.429894
    29  H    3.376754   4.448748   4.915963   4.482874   3.408029
    30  H    1.079846   2.159164   3.350080   3.805367   3.387474
    31  H    2.159004   1.082651   2.027398   3.235231   3.808693
    32  H    4.070128   4.789725   4.564706   3.423895   2.156410
    33  H    5.790417   6.003340   5.244318   3.907475   3.403867
    34  H    7.905363   7.696997   6.651891   5.547959   5.701971
    35  H    9.941445   9.908907   8.921044   7.716817   7.621488
    36  H   10.819257  10.849661   9.864413   8.601151   8.421247
    37  H    9.940311   9.908056   8.920399   7.716068   7.620367
    38  H    7.903904   7.695877   6.651008   5.546893   5.700437
    39  H    7.971612   7.268527   5.978138   5.245809   6.081326
    40  H    6.910973   5.869721   4.587857   4.413024   5.668328
    41  H    3.376335   4.448463   4.915996   4.483203   3.408454
    42  H    5.375172   6.646791   7.217934   6.702984   5.430155
    43  Ag   4.339021   4.315231   3.660434   2.743740   2.669678
                   11         12         13         14         15
    11  C    0.000000
    12  C    1.353791   0.000000
    13  C    2.417095   1.423490   0.000000
    14  C    3.717320   2.485728   1.412645   0.000000
    15  C    4.296479   2.942695   2.519733   1.479735   0.000000
    16  C    4.869921   3.586690   3.377694   2.488876   1.389788
    17  C    5.841596   4.604118   4.629465   3.759891   2.404165
    18  C    6.273043   5.038274   5.144428   4.257514   2.777927
    19  C    5.840769   4.603392   4.629097   3.759895   2.404165
    20  C    4.868906   3.585737   3.377179   2.488883   1.389790
    21  C    4.814699   3.721420   2.398018   1.378570   2.480802
    22  C    4.940952   4.148093   2.726479   2.391196   3.756182
    23  N    4.163797   3.697249   2.414673   2.794059   4.273657
    24  C    2.826784   2.457686   1.415712   2.420021   3.793663
    25  C    3.586436   4.869654   5.831050   7.171194   7.743081
    26  C    4.603924   5.841379   6.952974   8.247179   8.654318
    27  H    6.005079   7.186899   8.421251   9.668293   9.912153
    28  H    5.347151   6.505652   7.620658   8.866744   9.211946
    29  H    3.705720   4.874720   5.700832   7.002525   7.629640
    30  H    4.616619   5.793432   6.081325   7.459337   8.531237
    31  H    5.229430   5.984249   5.668327   6.833008   8.170398
    32  H    1.080856   2.121216   3.403868   4.603550   4.939988
    33  H    2.121215   1.080856   2.156411   2.703050   2.567092
    34  H    4.876037   3.706911   3.408692   2.687834   2.138946
    35  H    6.506611   5.347954   5.430300   4.623983   3.381347
    36  H    7.186894   6.005075   6.201282   5.337447   3.857885
    37  H    6.505303   5.346853   5.429747   4.623990   3.381348
    38  H    4.874247   3.705284   3.407791   2.687846   2.138948
    39  H    5.793433   4.616619   3.387475   2.139155   2.696986
    40  H    5.984250   5.229429   3.808693   3.377487   4.636174
    41  H    3.706475   4.875565   5.701578   7.003362   7.630576
    42  H    5.347662   6.506270   7.621204   8.867390   9.212704
    43  Ag   2.612775   2.625987   2.696521   3.650782   4.434650
                   16         17         18         19         20
    16  C    0.000000
    17  C    1.383491   0.000000
    18  C    2.399048   1.384725   0.000000
    19  C    2.769022   2.396818   1.384726   0.000000
    20  C    2.400449   2.769023   2.399048   1.383490   0.000000
    21  C    3.332676   4.574020   5.084310   4.574399   3.333208
    22  C    4.584872   5.891117   6.447783   5.891386   4.585227
    23  N    5.116876   6.469257   7.050900   6.469251   5.116870
    24  C    4.629197   5.946237   6.507614   5.945963   4.628838
    25  C    8.367279   9.176011   9.404656   8.855967   8.014437
    26  C    9.176066   9.844197  10.020947   9.546878   8.855825
    27  H   10.184311  10.702408  10.953419  10.701265  10.183080
    28  H    9.266588   9.900241  10.451219  10.403302   9.802986
    29  H    7.781988   8.679857   9.373854   9.249312   8.413340
    30  H    9.165322  10.304613  10.831242  10.303880   9.164478
    31  H    8.905289  10.203451  10.796132  10.202994   8.904755
    32  H    5.385793   6.174470   6.534823   6.173489   5.384641
    33  H    3.046630   3.824715   4.161370   3.823845   3.045512
    34  H    1.080742   2.143441   3.380645   3.849751   3.377831
    35  H    2.136627   1.080183   2.140962   3.376757   3.849204
    36  H    3.377631   2.140608   1.079959   2.140608   3.377630
    37  H    3.849204   3.376757   2.140963   1.080184   2.136627
    38  H    3.377831   3.849752   3.380645   2.143441   1.080742
    39  H    3.386085   4.447526   4.894567   4.448220   3.387019
    40  H    5.402412   6.664176   7.214735   6.664598   5.402946
    41  H    8.415256   9.251161   9.374868   8.679940   7.781903
    42  H    9.804894  10.405184  10.452105   9.900020   9.266199
    43  Ag   4.497221   5.672100   6.605389   6.564609   5.582363
                   21         22         23         24         25
    21  C    0.000000
    22  C    1.398433   0.000000
    23  N    2.387083   1.307015   0.000000
    24  C    2.726515   2.274383   1.337252   0.000000
    25  C    8.146259   7.980502   6.920757   5.742542   0.000000
    26  C    9.313442   9.248232   8.229047   7.008061   1.383491
    27  H   10.819261  10.849663   9.864415   8.601153   3.377631
    28  H    9.940573   9.908245   8.920547   7.716254   3.849204
    29  H    7.904240   7.696124   6.651207   5.547156   3.377831
    30  H    7.971611   7.268526   5.978137   5.245808   3.386339
    31  H    6.910972   5.869720   4.587856   4.413024   5.402562
    32  H    5.790417   6.003340   5.244319   3.907475   3.046325
    33  H    4.070128   4.789725   4.564706   3.423894   5.385489
    34  H    3.376082   4.448283   4.915985   4.483365   8.415487
    35  H    5.375018   6.646675   7.217927   6.703089   9.804997
    36  H    6.137540   7.510892   8.130692   7.575469  10.183981
    37  H    5.375586   6.647096   7.217918   6.702660   9.265840
    38  H    3.377008   4.448928   4.915973   4.482711   7.781189
    39  H    1.079848   2.159165   3.350080   3.805368   9.165132
    40  H    2.159003   1.082651   2.027398   3.235232   8.905178
    41  H    7.905028   7.696749   6.651692   5.547696   1.080742
    42  H    9.941188   9.908722   8.920901   7.716634   2.136628
    43  Ag   4.379330   4.346539   3.679244   2.757108   5.545993
                   26         27         28         29         30
    26  C    0.000000
    27  H    2.140608   0.000000
    28  H    3.376756   2.467209   0.000000
    29  H    3.849751   4.273122   2.466491   0.000000
    30  H    4.447714   5.882303   5.212695   3.515062   0.000000
    31  H    6.664294   8.251749   7.381597   5.229890   2.497473
    32  H    3.824478   5.065792   4.567477   3.365624   4.791584
    33  H    6.174212   7.348500   6.769113   5.436858   6.725087
    34  H    9.251462  10.179345   9.014695   7.410703   8.911954
    35  H   10.405361  11.087304  10.144429   9.014274  10.907670
    36  H   10.702101  11.516206  11.085873  10.177742  11.781920
    37  H    9.899472  11.085360  11.004931   9.972406  10.906447
    38  H    8.679059  10.177171   9.972260   8.549428   8.910423
    39  H   10.304450  11.781925  10.906727   8.910770   9.049178
    40  H   10.203357  11.836139  10.858358   8.583437   7.925627
    41  H    2.143442   4.273123   4.929929   4.266593   3.514338
    42  H    1.080183   2.467209   4.270532   4.929929   5.212218
    43  Ag   6.527677   7.518842   6.014760   3.877950   5.248892
                   31         32         33         34         35
    31  H    0.000000
    32  H    5.863717   0.000000
    33  H    7.054669   2.460723   0.000000
    34  H    8.584211   5.438338   3.366920   0.000000
    35  H   10.858956   6.770269   4.568406   2.466491   0.000000
    36  H   11.836137   7.348495   5.065788   4.273122   2.467210
    37  H   10.858199   6.768692   4.567123   4.929929   4.270533
    38  H    8.583232   5.436326   3.365136   4.266593   4.929929
    39  H    7.925627   6.725088   4.791584   3.513907   5.211935
    40  H    6.252301   7.054669   5.863717   5.229190   7.381114
    41  H    5.229463   3.366433   5.437806   8.552010   9.974793
    42  H    7.381302   4.568058   6.769856   9.974945  11.007505
    43  Ag   5.217242   3.279372   3.298491   3.927631   6.058487
                   36         37         38         39         40
    36  H    0.000000
    37  H    2.467210   0.000000
    38  H    4.273122   2.466491   0.000000
    39  H    5.882306   5.212981   3.515494   0.000000
    40  H    8.251751   7.381786   5.230163   2.497473   0.000000
    41  H   10.178765   9.013711   7.409686   8.911609   8.584008
    42  H   11.086789  10.143438   9.013299  10.907399  10.858802
    43  Ag   7.557948   7.494302   5.904857   5.292658   5.247681
                   41         42         43
    41  H    0.000000
    42  H    2.466491   0.000000
    43  Ag   5.873461   7.460176   0.000000
 Symmetry turned off by external request.
 Stoichiometry    C24H16AgN2(2)
 Framework group  C1[X(C24H16AgN2)]
 Deg. of freedom   123
 Full point group                 C1      NOp   1
 Rotational constants (GHZ):           0.2612070           0.1133078           0.0966824
 Leave Link  202 at Fri Sep 11 23:31:53 2026, MaxMem=  6442450944 cpu:               0.0 elap:               0.1
 (Enter C:\G16W\l301.exe)
 Standard basis: def2SVP (5D, 7F)
 Ernie: Thresh=  0.10000D-02 Tol=  0.10000D-05 Strict=F.
   475 basis functions,   827 primitive gaussians,   506 cartesian basis functions
    97 alpha electrons       96 beta electrons
       nuclear repulsion energy      2446.7271392844 Hartrees.
 IExCor= 1009 DFT=T Ex+Corr=PBE1PBE ExCW=0 ScaHFX=  0.250000
 ScaDFX=  0.750000  0.750000  1.000000  1.000000 ScalE2=  1.000000  1.000000
 IRadAn=      5 IRanWt=     -1 IRanGd=            0 ICorTp=0 IEmpDi=141
 NAtoms=   43 NActive=   43 NUniq=   43 SFac= 1.00D+00 NAtFMM=   60 NAOKFM=F Big=F
 Integral buffers will be    131072 words long.
 Raffenetti 2 integral format.
 Two-electron integral symmetry is turned off.
 R6Disp:  Grimme-D3(BJ) Dispersion energy=       -0.0633276637 Hartrees.
 Nuclear repulsion after empirical dispersion term =     2446.6638116207 Hartrees.
 Leave Link  301 at Fri Sep 11 23:31:54 2026, MaxMem=  6442450944 cpu:               1.0 elap:               0.2
 (Enter C:\G16W\l302.exe)
 NPDir=0 NMtPBC=     1 NCelOv=     1 NCel=       1 NClECP=     1 NCelD=      1
         NCelK=      1 NCelE2=     1 NClLst=     1 CellRange=     0.0.
 One-electron integrals computed using PRISM.
   1 Symmetry operations used in ECPInt.
 ECPInt:  NShTT=   23220 NPrTT=   85067 LenC2=   20065 LenP2D=   50439.
 LDataN:  DoStor=T MaxTD1= 7 Len=  274
 NBasis=   475 RedAO= T EigKep=  1.33D-04  NBF=   475
 NBsUse=   475 1.00D-06 EigRej= -1.00D+00 NBFU=   475
 Precomputing XC quadrature grid using
 IXCGrd= 4 IRadAn=           5 IRanWt=          -1 IRanGd=           0 AccXCQ= 0.00D+00.
 Defaulting to unpruned grid for atomic number  47.
 Generated NRdTot=       0 NPtTot=           0 NUsed=           0 NTot=          32
 NSgBfM=   500   500   500   500   500 MxSgAt=    43 MxSgA2=    43.
 Leave Link  302 at Fri Sep 11 23:32:07 2026, MaxMem=  6442450944 cpu:              13.0 elap:              13.4
 (Enter C:\G16W\l303.exe)
 DipDrv:  MaxL=1.
 Leave Link  303 at Fri Sep 11 23:32:08 2026, MaxMem=  6442450944 cpu:               0.0 elap:               0.8
 (Enter C:\G16W\l401.exe)
 Initial guess from the checkpoint file:  "Bphen.chk"
 B after Tr=     0.071754    0.357235   -0.372571
         Rot=    0.998377    0.056772   -0.004170    0.001434 Ang=   6.53 deg.
 Guess basis will be translated and rotated to current coordinates.
 JPrj=2 DoOrth=T DoCkMO=T.
 Initial guess <Sx>= 0.0000 <Sy>= 0.0000 <Sz>= 0.5000 <S**2>= 0.7520 S= 0.5010
 Leave Link  401 at Fri Sep 11 23:32:47 2026, MaxMem=  6442450944 cpu:              39.0 elap:              38.9
 (Enter C:\G16W\l502.exe)
 Two-electron integral symmetry not used.
 UHF open shell SCF:
 Using DIIS extrapolation, IDIIS=  1040.
 NGot=  6442450944 LenX=  6441929892 LenY=  6441673350
 Requested convergence on RMS density matrix=1.00D-08 within 128 cycles.
 Requested convergence on MAX density matrix=1.00D-06.
 Requested convergence on             energy=1.00D-06.
 No special actions if energy rises.
 Fock matrices will be formed incrementally for  20 cycles.

 Cycle   1  Pass 1  IDiag  1:
 FoFJK:  IHMeth= 1 ICntrl=       0 DoSepK=F KAlg= 0 I1Cent=           0 FoldK=F
 IRaf= 790000000 NMat=       1 IRICut=       1 DoRegI=T DoRafI=F ISym2E= 0 IDoP0=0 IntGTp=1.
 FoFCou: FMM=F IPFlag=           0 FMFlag=      100000 FMFlg1=           0
         NFxFlg=           0 DoJE=F BraDBF=F KetDBF=F FulRan=T
         wScrn=  0.000000 ICntrl=         0 IOpCl=  1 I1Cent=           0 NGrid=           0
         NMat0=    1 NMatS0=      1 NMatT0=    0 NMatD0=    1 NMtDS0=    0 NMtDT0=    0
 Symmetry not used in FoFCou.
 Defaulting to unpruned grid for atomic number  47.
 Defaulting to unpruned grid for atomic number  47.
 Defaulting to unpruned grid for atomic number  47.
 Defaulting to unpruned grid for atomic number  47.
 Defaulting to unpruned grid for atomic number  47.
 Defaulting to unpruned grid for atomic number  47.
 Defaulting to unpruned grid for atomic number  47.
 Defaulting to unpruned grid for atomic number  47.
 E= -1178.61142636035    
 DIIS: error= 3.49D-02 at cycle   1 NSaved=   1.
 NSaved= 1 IEnMin= 1 EnMin= -1178.61142636035     IErMin= 1 ErrMin= 3.49D-02
 ErrMax= 3.49D-02  0.00D+00 EMaxC= 1.00D-01 BMatC= 6.15D-01 BMatP= 6.15D-01
 IDIUse=3 WtCom= 6.51D-01 WtEn= 3.49D-01
 Coeff-Com:  0.100D+01
 Coeff-En:   0.100D+01
 Coeff:      0.100D+01
 Gap=     0.353 Goal=   None    Shift=    0.000
 Gap=     0.250 Goal=   None    Shift=    0.000
 GapD=    0.250 DampG=1.000 DampE=0.250 DampFc=0.2500 IDamp=-1.
 Damping current iteration by 2.50D-01
 RMSDP=2.03D-03 MaxDP=1.68D-01              OVMax= 8.22D-02

 Cycle   2  Pass 1  IDiag  1:
 RMSU=  5.07D-04    CP:  9.98D-01
 E= -1178.64327558904     Delta-E=       -0.031849228696 Rises=F Damp=T
 DIIS: error= 2.61D-02 at cycle   2 NSaved=   2.
 NSaved= 2 IEnMin= 2 EnMin= -1178.64327558904     IErMin= 2 ErrMin= 2.61D-02
 ErrMax= 2.61D-02  0.00D+00 EMaxC= 1.00D-01 BMatC= 3.52D-01 BMatP= 6.15D-01
 IDIUse=3 WtCom= 7.39D-01 WtEn= 2.61D-01
 Coeff-Com: -0.295D+01 0.395D+01
 Coeff-En:   0.000D+00 0.100D+01
 Coeff:     -0.218D+01 0.318D+01
 Gap=     0.080 Goal=   None    Shift=    0.000
 Gap=     0.182 Goal=   None    Shift=    0.000
 RMSDP=1.47D-03 MaxDP=1.27D-01 DE=-3.18D-02 OVMax= 4.23D-02

 Cycle   3  Pass 1  IDiag  1:
 RMSU=  5.82D-04    CP:  9.91D-01  3.00D+00
 E= -1178.74478501755     Delta-E=       -0.101509428502 Rises=F Damp=F
 DIIS: error= 2.88D-03 at cycle   3 NSaved=   3.
 NSaved= 3 IEnMin= 3 EnMin= -1178.74478501755     IErMin= 3 ErrMin= 2.88D-03
 ErrMax= 2.88D-03  0.00D+00 EMaxC= 1.00D-01 BMatC= 1.88D-02 BMatP= 3.52D-01
 IDIUse=3 WtCom= 9.71D-01 WtEn= 2.88D-02
 Coeff-Com: -0.154D+01 0.202D+01 0.512D+00
 Coeff-En:   0.000D+00 0.000D+00 0.100D+01
 Coeff:     -0.149D+01 0.197D+01 0.526D+00
 Gap=     0.076 Goal=   None    Shift=    0.000
 Gap=     0.183 Goal=   None    Shift=    0.000
 RMSDP=3.18D-04 MaxDP=1.69D-02 DE=-1.02D-01 OVMax= 3.13D-02

 Cycle   4  Pass 1  IDiag  1:
 RMSU=  3.13D-04    CP:  9.92D-01  3.00D+00  9.01D-01
 E= -1178.74887386220     Delta-E=       -0.004088844656 Rises=F Damp=F
 DIIS: error= 1.28D-03 at cycle   4 NSaved=   4.
 NSaved= 4 IEnMin= 4 EnMin= -1178.74887386220     IErMin= 4 ErrMin= 1.28D-03
 ErrMax= 1.28D-03  0.00D+00 EMaxC= 1.00D-01 BMatC= 3.32D-03 BMatP= 1.88D-02
 IDIUse=3 WtCom= 9.87D-01 WtEn= 1.28D-02
 Coeff-Com: -0.584D+00 0.764D+00 0.324D+00 0.497D+00
 Coeff-En:   0.000D+00 0.000D+00 0.164D+00 0.836D+00
 Coeff:     -0.577D+00 0.754D+00 0.322D+00 0.501D+00
 Gap=     0.075 Goal=   None    Shift=    0.000
 Gap=     0.179 Goal=   None    Shift=    0.000
 RMSDP=1.11D-04 MaxDP=7.64D-03 DE=-4.09D-03 OVMax= 1.14D-02

 Cycle   5  Pass 1  IDiag  1:
 RMSU=  7.66D-05    CP:  9.91D-01  3.00D+00  9.79D-01  7.92D-01
 E= -1178.74973359434     Delta-E=       -0.000859732140 Rises=F Damp=F
 DIIS: error= 2.64D-04 at cycle   5 NSaved=   5.
 NSaved= 5 IEnMin= 5 EnMin= -1178.74973359434     IErMin= 5 ErrMin= 2.64D-04
 ErrMax= 2.64D-04  0.00D+00 EMaxC= 1.00D-01 BMatC= 3.14D-04 BMatP= 3.32D-03
 IDIUse=3 WtCom= 9.97D-01 WtEn= 2.64D-03
 Coeff-Com: -0.248D-01 0.297D-01 0.771D-01 0.279D+00 0.638D+00
 Coeff-En:   0.000D+00 0.000D+00 0.000D+00 0.441D-01 0.956D+00
 Coeff:     -0.247D-01 0.297D-01 0.769D-01 0.279D+00 0.639D+00
 Gap=     0.076 Goal=   None    Shift=    0.000
 Gap=     0.179 Goal=   None    Shift=    0.000
 RMSDP=3.55D-05 MaxDP=3.83D-03 DE=-8.60D-04 OVMax= 3.59D-03

 Cycle   6  Pass 1  IDiag  1:
 RMSU=  2.85D-05    CP:  9.91D-01  3.00D+00  9.85D-01  8.40D-01  8.13D-01
 E= -1178.74981258496     Delta-E=       -0.000078990618 Rises=F Damp=F
 DIIS: error= 1.07D-04 at cycle   6 NSaved=   6.
 NSaved= 6 IEnMin= 6 EnMin= -1178.74981258496     IErMin= 6 ErrMin= 1.07D-04
 ErrMax= 1.07D-04  0.00D+00 EMaxC= 1.00D-01 BMatC= 4.20D-05 BMatP= 3.14D-04
 IDIUse=3 WtCom= 9.99D-01 WtEn= 1.07D-03
 Coeff-Com:  0.676D-01-0.900D-01-0.314D-02 0.902D-01 0.358D+00 0.577D+00
 Coeff-En:   0.000D+00 0.000D+00 0.000D+00 0.000D+00 0.000D+00 0.100D+01
 Coeff:      0.676D-01-0.899D-01-0.314D-02 0.901D-01 0.358D+00 0.577D+00
 Gap=     0.076 Goal=   None    Shift=    0.000
 Gap=     0.179 Goal=   None    Shift=    0.000
 RMSDP=1.41D-05 MaxDP=8.27D-04 DE=-7.90D-05 OVMax= 1.41D-03

 Cycle   7  Pass 1  IDiag  1:
 RMSU=  1.27D-05    CP:  9.91D-01  3.00D+00  9.88D-01  8.49D-01  8.63D-01
                    CP:  8.64D-01
 E= -1178.74982429316     Delta-E=       -0.000011708203 Rises=F Damp=F
 DIIS: error= 4.16D-05 at cycle   7 NSaved=   7.
 NSaved= 7 IEnMin= 7 EnMin= -1178.74982429316     IErMin= 7 ErrMin= 4.16D-05
 ErrMax= 4.16D-05  0.00D+00 EMaxC= 1.00D-01 BMatC= 5.98D-06 BMatP= 4.20D-05
 IDIUse=1 WtCom= 1.00D+00 WtEn= 0.00D+00
 Coeff-Com:  0.404D-01-0.534D-01-0.833D-02 0.282D-01 0.152D+00 0.337D+00
 Coeff-Com:  0.504D+00
 Coeff:      0.404D-01-0.534D-01-0.833D-02 0.282D-01 0.152D+00 0.337D+00
 Coeff:      0.504D+00
 Gap=     0.076 Goal=   None    Shift=    0.000
 Gap=     0.179 Goal=   None    Shift=    0.000
 RMSDP=5.64D-06 MaxDP=6.86D-04 DE=-1.17D-05 OVMax= 7.47D-04

 Cycle   8  Pass 1  IDiag  1:
 RMSU=  5.19D-06    CP:  9.91D-01  3.00D+00  9.90D-01  8.49D-01  8.62D-01
                    CP:  9.26D-01  9.42D-01
 E= -1178.74982623017     Delta-E=       -0.000001937008 Rises=F Damp=F
 DIIS: error= 1.56D-05 at cycle   8 NSaved=   8.
 NSaved= 8 IEnMin= 8 EnMin= -1178.74982623017     IErMin= 8 ErrMin= 1.56D-05
 ErrMax= 1.56D-05  0.00D+00 EMaxC= 1.00D-01 BMatC= 7.16D-07 BMatP= 5.98D-06
 IDIUse=1 WtCom= 1.00D+00 WtEn= 0.00D+00
 Coeff-Com:  0.308D-02-0.394D-02-0.428D-02-0.119D-01-0.216D-01 0.127D-01
 Coeff-Com:  0.235D+00 0.791D+00
 Coeff:      0.308D-02-0.394D-02-0.428D-02-0.119D-01-0.216D-01 0.127D-01
 Coeff:      0.235D+00 0.791D+00
 Gap=     0.076 Goal=   None    Shift=    0.000
 Gap=     0.179 Goal=   None    Shift=    0.000
 RMSDP=3.61D-06 MaxDP=4.27D-04 DE=-1.94D-06 OVMax= 6.59D-04

 Cycle   9  Pass 1  IDiag  1:
 RMSU=  1.75D-06    CP:  9.91D-01  3.00D+00  9.91D-01  8.52D-01  8.79D-01
                    CP:  9.94D-01  1.09D+00  1.02D+00
 E= -1178.74982662111     Delta-E=       -0.000000390938 Rises=F Damp=F
 DIIS: error= 6.63D-06 at cycle   9 NSaved=   9.
 NSaved= 9 IEnMin= 9 EnMin= -1178.74982662111     IErMin= 9 ErrMin= 6.63D-06
 ErrMax= 6.63D-06  0.00D+00 EMaxC= 1.00D-01 BMatC= 1.77D-07 BMatP= 7.16D-07
 IDIUse=1 WtCom= 1.00D+00 WtEn= 0.00D+00
 Coeff-Com: -0.658D-02 0.879D-02-0.586D-03-0.110D-01-0.405D-01-0.591D-01
 Coeff-Com:  0.281D-01 0.404D+00 0.677D+00
 Coeff:     -0.658D-02 0.879D-02-0.586D-03-0.110D-01-0.405D-01-0.591D-01
 Coeff:      0.281D-01 0.404D+00 0.677D+00
 Gap=     0.076 Goal=   None    Shift=    0.000
 Gap=     0.179 Goal=   None    Shift=    0.000
 RMSDP=1.74D-06 MaxDP=1.75D-04 DE=-3.91D-07 OVMax= 2.53D-04

 Cycle  10  Pass 1  IDiag  1:
 RMSU=  1.05D-06    CP:  9.91D-01  3.00D+00  9.91D-01  8.53D-01  8.83D-01
                    CP:  1.02D+00  1.15D+00  1.16D+00  9.02D-01
 E= -1178.74982670117     Delta-E=       -0.000000080058 Rises=F Damp=F
 DIIS: error= 4.49D-06 at cycle  10 NSaved=  10.
 NSaved=10 IEnMin=10 EnMin= -1178.74982670117     IErMin=10 ErrMin= 4.49D-06
 ErrMax= 4.49D-06  0.00D+00 EMaxC= 1.00D-01 BMatC= 6.00D-08 BMatP= 1.77D-07
 IDIUse=1 WtCom= 1.00D+00 WtEn= 0.00D+00
 Coeff-Com: -0.473D-02 0.628D-02 0.466D-03-0.403D-02-0.198D-01-0.364D-01
 Coeff-Com: -0.234D-01 0.870D-01 0.422D+00 0.573D+00
 Coeff:     -0.473D-02 0.628D-02 0.466D-03-0.403D-02-0.198D-01-0.364D-01
 Coeff:     -0.234D-01 0.870D-01 0.422D+00 0.573D+00
 Gap=     0.076 Goal=   None    Shift=    0.000
 Gap=     0.179 Goal=   None    Shift=    0.000
 RMSDP=6.12D-07 MaxDP=5.60D-05 DE=-8.01D-08 OVMax= 1.06D-04

 Cycle  11  Pass 1  IDiag  1:
 RMSU=  4.29D-07    CP:  9.91D-01  3.00D+00  9.91D-01  8.53D-01  8.83D-01
                    CP:  1.02D+00  1.17D+00  1.18D+00  1.04D+00  8.82D-01
 E= -1178.74982672647     Delta-E=       -0.000000025304 Rises=F Damp=F
 DIIS: error= 1.60D-06 at cycle  11 NSaved=  11.
 NSaved=11 IEnMin=11 EnMin= -1178.74982672647     IErMin=11 ErrMin= 1.60D-06
 ErrMax= 1.60D-06  0.00D+00 EMaxC= 1.00D-01 BMatC= 5.73D-09 BMatP= 6.00D-08
 IDIUse=1 WtCom= 1.00D+00 WtEn= 0.00D+00
 Coeff-Com: -0.233D-03 0.302D-03 0.209D-03 0.697D-03 0.884D-03-0.123D-02
 Coeff-Com: -0.123D-01-0.477D-01 0.351D-02 0.180D+00 0.876D+00
 Coeff:     -0.233D-03 0.302D-03 0.209D-03 0.697D-03 0.884D-03-0.123D-02
 Coeff:     -0.123D-01-0.477D-01 0.351D-02 0.180D+00 0.876D+00
 Gap=     0.076 Goal=   None    Shift=    0.000
 Gap=     0.179 Goal=   None    Shift=    0.000
 RMSDP=3.22D-07 MaxDP=2.54D-05 DE=-2.53D-08 OVMax= 5.59D-05

 Cycle  12  Pass 1  IDiag  1:
 RMSU=  2.14D-07    CP:  9.91D-01  3.00D+00  9.91D-01  8.53D-01  8.83D-01
                    CP:  1.03D+00  1.18D+00  1.19D+00  1.12D+00  9.93D-01
                    CP:  1.13D+00
 E= -1178.74982673322     Delta-E=       -0.000000006743 Rises=F Damp=F
 DIIS: error= 1.13D-06 at cycle  12 NSaved=  12.
 NSaved=12 IEnMin=12 EnMin= -1178.74982673322     IErMin=12 ErrMin= 1.13D-06
 ErrMax= 1.13D-06  0.00D+00 EMaxC= 1.00D-01 BMatC= 2.31D-09 BMatP= 5.73D-09
 IDIUse=1 WtCom= 1.00D+00 WtEn= 0.00D+00
 Coeff-Com:  0.997D-03-0.133D-02-0.786D-06 0.121D-02 0.499D-02 0.779D-02
 Coeff-Com: -0.681D-03-0.387D-01-0.104D+00-0.730D-01 0.341D+00 0.862D+00
 Coeff:      0.997D-03-0.133D-02-0.786D-06 0.121D-02 0.499D-02 0.779D-02
 Coeff:     -0.681D-03-0.387D-01-0.104D+00-0.730D-01 0.341D+00 0.862D+00
 Gap=     0.076 Goal=   None    Shift=    0.000
 Gap=     0.179 Goal=   None    Shift=    0.000
 RMSDP=2.18D-07 MaxDP=1.69D-05 DE=-6.74D-09 OVMax= 3.57D-05

 Cycle  13  Pass 1  IDiag  1:
 RMSU=  1.29D-07    CP:  9.91D-01  3.00D+00  9.91D-01  8.53D-01  8.84D-01
                    CP:  1.03D+00  1.18D+00  1.20D+00  1.15D+00  1.08D+00
                    CP:  1.36D+00  1.36D+00
 E= -1178.74982673665     Delta-E=       -0.000000003436 Rises=F Damp=F
 DIIS: error= 7.12D-07 at cycle  13 NSaved=  13.
 NSaved=13 IEnMin=13 EnMin= -1178.74982673665     IErMin=13 ErrMin= 7.12D-07
 ErrMax= 7.12D-07  0.00D+00 EMaxC= 1.00D-01 BMatC= 1.04D-09 BMatP= 2.31D-09
 IDIUse=1 WtCom= 1.00D+00 WtEn= 0.00D+00
 Coeff-Com:  0.529D-03-0.700D-03-0.102D-03 0.114D-03 0.163D-02 0.399D-02
 Coeff-Com:  0.647D-02 0.128D-01-0.433D-01-0.127D+00-0.311D+00 0.382D+00
 Coeff-Com:  0.107D+01
 Coeff:      0.529D-03-0.700D-03-0.102D-03 0.114D-03 0.163D-02 0.399D-02
 Coeff:      0.647D-02 0.128D-01-0.433D-01-0.127D+00-0.311D+00 0.382D+00
 Coeff:      0.107D+01
 Gap=     0.076 Goal=   None    Shift=    0.000
 Gap=     0.179 Goal=   None    Shift=    0.000
 RMSDP=2.07D-07 MaxDP=1.61D-05 DE=-3.44D-09 OVMax= 3.92D-05

 Cycle  14  Pass 1  IDiag  1:
 RMSU=  7.57D-08    CP:  9.91D-01  3.00D+00  9.91D-01  8.53D-01  8.83D-01
                    CP:  1.03D+00  1.18D+00  1.20D+00  1.17D+00  1.13D+00
                    CP:  1.58D+00  2.01D+00  1.54D+00
 E= -1178.74982673887     Delta-E=       -0.000000002219 Rises=F Damp=F
 DIIS: error= 3.42D-07 at cycle  14 NSaved=  14.
 NSaved=14 IEnMin=14 EnMin= -1178.74982673887     IErMin=14 ErrMin= 3.42D-07
 ErrMax= 3.42D-07  0.00D+00 EMaxC= 1.00D-01 BMatC= 3.84D-10 BMatP= 1.04D-09
 IDIUse=1 WtCom= 1.00D+00 WtEn= 0.00D+00
 Coeff-Com: -0.165D-03 0.223D-03-0.671D-04-0.502D-03-0.147D-02-0.141D-02
 Coeff-Com:  0.392D-02 0.234D-01 0.275D-01-0.341D-01-0.333D+00-0.182D+00
 Coeff-Com:  0.581D+00 0.916D+00
 Coeff:     -0.165D-03 0.223D-03-0.671D-04-0.502D-03-0.147D-02-0.141D-02
 Coeff:      0.392D-02 0.234D-01 0.275D-01-0.341D-01-0.333D+00-0.182D+00
 Coeff:      0.581D+00 0.916D+00
 Gap=     0.076 Goal=   None    Shift=    0.000
 Gap=     0.179 Goal=   None    Shift=    0.000
 RMSDP=1.41D-07 MaxDP=1.07D-05 DE=-2.22D-09 OVMax= 3.01D-05

 Cycle  15  Pass 1  IDiag  1:
 RMSU=  4.70D-08    CP:  9.91D-01  3.00D+00  9.91D-01  8.53D-01  8.83D-01
                    CP:  1.03D+00  1.18D+00  1.20D+00  1.18D+00  1.15D+00
                    CP:  1.69D+00  2.43D+00  2.11D+00  1.22D+00
 E= -1178.74982673941     Delta-E=       -0.000000000541 Rises=F Damp=F
 DIIS: error= 2.11D-07 at cycle  15 NSaved=  15.
 NSaved=15 IEnMin=15 EnMin= -1178.74982673941     IErMin=15 ErrMin= 2.11D-07
 ErrMax= 2.11D-07  0.00D+00 EMaxC= 1.00D-01 BMatC= 1.08D-10 BMatP= 3.84D-10
 IDIUse=1 WtCom= 1.00D+00 WtEn= 0.00D+00
 Coeff-Com: -0.218D-03 0.291D-03-0.117D-04-0.303D-03-0.119D-02-0.174D-02
 Coeff-Com:  0.644D-03 0.929D-02 0.259D-01 0.922D-02-0.119D+00-0.178D+00
 Coeff-Com:  0.870D-01 0.491D+00 0.678D+00
 Coeff:     -0.218D-03 0.291D-03-0.117D-04-0.303D-03-0.119D-02-0.174D-02
 Coeff:      0.644D-03 0.929D-02 0.259D-01 0.922D-02-0.119D+00-0.178D+00
 Coeff:      0.870D-01 0.491D+00 0.678D+00
 Gap=     0.076 Goal=   None    Shift=    0.000
 Gap=     0.179 Goal=   None    Shift=    0.000
 RMSDP=4.87D-08 MaxDP=3.30D-06 DE=-5.41D-10 OVMax= 1.12D-05

 Cycle  16  Pass 1  IDiag  1:
 RMSU=  2.53D-08    CP:  9.91D-01  3.00D+00  9.91D-01  8.53D-01  8.83D-01
                    CP:  1.03D+00  1.18D+00  1.20D+00  1.18D+00  1.15D+00
                    CP:  1.72D+00  2.56D+00  2.26D+00  1.52D+00  1.15D+00
 E= -1178.74982673959     Delta-E=       -0.000000000175 Rises=F Damp=F
 DIIS: error= 1.63D-07 at cycle  16 NSaved=  16.
 NSaved=16 IEnMin=16 EnMin= -1178.74982673959     IErMin=16 ErrMin= 1.63D-07
 ErrMax= 1.63D-07  0.00D+00 EMaxC= 1.00D-01 BMatC= 3.79D-11 BMatP= 1.08D-10
 IDIUse=1 WtCom= 1.00D+00 WtEn= 0.00D+00
 Coeff-Com: -0.832D-04 0.110D-03 0.101D-04-0.460D-04-0.311D-03-0.643D-03
 Coeff-Com: -0.669D-03-0.922D-03 0.851D-02 0.144D-01 0.139D-01-0.602D-01
 Coeff-Com: -0.954D-01 0.600D-01 0.405D+00 0.656D+00
 Coeff:     -0.832D-04 0.110D-03 0.101D-04-0.460D-04-0.311D-03-0.643D-03
 Coeff:     -0.669D-03-0.922D-03 0.851D-02 0.144D-01 0.139D-01-0.602D-01
 Coeff:     -0.954D-01 0.600D-01 0.405D+00 0.656D+00
 Gap=     0.076 Goal=   None    Shift=    0.000
 Gap=     0.179 Goal=   None    Shift=    0.000
 RMSDP=2.50D-08 MaxDP=1.76D-06 DE=-1.75D-10 OVMax= 5.51D-06

 Cycle  17  Pass 1  IDiag  1:
 RMSU=  1.38D-08    CP:  9.91D-01  3.00D+00  9.91D-01  8.53D-01  8.83D-01
                    CP:  1.03D+00  1.18D+00  1.20D+00  1.18D+00  1.15D+00
                    CP:  1.72D+00  2.58D+00  2.33D+00  1.62D+00  1.49D+00
                    CP:  9.66D-01
 E= -1178.74982673960     Delta-E=       -0.000000000014 Rises=F Damp=F
 DIIS: error= 9.91D-08 at cycle  17 NSaved=  17.
 NSaved=17 IEnMin=17 EnMin= -1178.74982673960     IErMin=17 ErrMin= 9.91D-08
 ErrMax= 9.91D-08  0.00D+00 EMaxC= 1.00D-01 BMatC= 1.55D-11 BMatP= 3.79D-11
 IDIUse=1 WtCom= 1.00D+00 WtEn= 0.00D+00
 Coeff-Com:  0.354D-04-0.475D-04 0.110D-04 0.961D-04 0.296D-03 0.303D-03
 Coeff-Com: -0.742D-03-0.460D-02-0.493D-02 0.674D-02 0.606D-01 0.302D-01
 Coeff-Com: -0.103D+00-0.162D+00-0.457D-02 0.446D+00 0.736D+00
 Coeff:      0.354D-04-0.475D-04 0.110D-04 0.961D-04 0.296D-03 0.303D-03
 Coeff:     -0.742D-03-0.460D-02-0.493D-02 0.674D-02 0.606D-01 0.302D-01
 Coeff:     -0.103D+00-0.162D+00-0.457D-02 0.446D+00 0.736D+00
 Gap=     0.076 Goal=   None    Shift=    0.000
 Gap=     0.179 Goal=   None    Shift=    0.000
 RMSDP=1.91D-08 MaxDP=1.51D-06 DE=-1.41D-11 OVMax= 4.37D-06

 Cycle  18  Pass 1  IDiag  1:
 RMSU=  7.83D-09    CP:  9.91D-01  3.00D+00  9.91D-01  8.53D-01  8.83D-01
                    CP:  1.03D+00  1.18D+00  1.20D+00  1.18D+00  1.15D+00
                    CP:  1.72D+00  2.59D+00  2.37D+00  1.74D+00  1.68D+00
                    CP:  1.38D+00  1.14D+00
 E= -1178.74982673962     Delta-E=       -0.000000000022 Rises=F Damp=F
 DIIS: error= 4.54D-08 at cycle  18 NSaved=  18.
 NSaved=18 IEnMin=18 EnMin= -1178.74982673962     IErMin=18 ErrMin= 4.54D-08
 ErrMax= 4.54D-08  0.00D+00 EMaxC= 1.00D-01 BMatC= 4.41D-12 BMatP= 1.55D-11
 IDIUse=1 WtCom= 1.00D+00 WtEn= 0.00D+00
 Coeff-Com:  0.533D-04-0.711D-04 0.167D-05 0.698D-04 0.290D-03 0.446D-03
 Coeff-Com: -0.792D-04-0.186D-02-0.637D-02-0.245D-02 0.270D-01 0.407D-01
 Coeff-Com: -0.130D-01-0.114D+00-0.189D+00-0.508D-01 0.420D+00 0.888D+00
 Coeff:      0.533D-04-0.711D-04 0.167D-05 0.698D-04 0.290D-03 0.446D-03
 Coeff:     -0.792D-04-0.186D-02-0.637D-02-0.245D-02 0.270D-01 0.407D-01
 Coeff:     -0.130D-01-0.114D+00-0.189D+00-0.508D-01 0.420D+00 0.888D+00
 Gap=     0.076 Goal=   None    Shift=    0.000
 Gap=     0.179 Goal=   None    Shift=    0.000
 RMSDP=1.45D-08 MaxDP=1.07D-06 DE=-2.18D-11 OVMax= 3.65D-06

 Cycle  19  Pass 1  IDiag  1:
 RMSU=  4.47D-09    CP:  9.91D-01  3.00D+00  9.91D-01  8.53D-01  8.83D-01
                    CP:  1.03D+00  1.18D+00  1.20D+00  1.18D+00  1.15D+00
                    CP:  1.72D+00  2.59D+00  2.38D+00  1.81D+00  1.87D+00
                    CP:  1.60D+00  1.59D+00  1.35D+00
 E= -1178.74982673965     Delta-E=       -0.000000000026 Rises=F Damp=F
 DIIS: error= 1.76D-08 at cycle  19 NSaved=  19.
 NSaved=19 IEnMin=19 EnMin= -1178.74982673965     IErMin=19 ErrMin= 1.76D-08
 ErrMax= 1.76D-08  0.00D+00 EMaxC= 1.00D-01 BMatC= 8.76D-13 BMatP= 4.41D-12
 IDIUse=1 WtCom= 1.00D+00 WtEn= 0.00D+00
 Coeff-Com:  0.124D-04-0.164D-04-0.190D-05 0.269D-05 0.361D-04 0.944D-04
 Coeff-Com:  0.161D-03 0.453D-03-0.152D-02-0.300D-02-0.496D-02 0.838D-02
 Coeff-Com:  0.227D-01-0.242D-02-0.742D-01-0.133D+00-0.150D-01 0.340D+00
 Coeff-Com:  0.863D+00
 Coeff:      0.124D-04-0.164D-04-0.190D-05 0.269D-05 0.361D-04 0.944D-04
 Coeff:      0.161D-03 0.453D-03-0.152D-02-0.300D-02-0.496D-02 0.838D-02
 Coeff:      0.227D-01-0.242D-02-0.742D-01-0.133D+00-0.150D-01 0.340D+00
 Coeff:      0.863D+00
 Gap=     0.076 Goal=   None    Shift=    0.000
 Gap=     0.179 Goal=   None    Shift=    0.000
 RMSDP=5.72D-09 MaxDP=4.44D-07 DE=-2.59D-11 OVMax= 1.23D-06

 SCF Done:  E(UPBE1PBE) =  -1178.74982674     A.U. after   19 cycles
            NFock= 19  Conv=0.57D-08     -V/T= 2.0931
 <Sx>= 0.0000 <Sy>= 0.0000 <Sz>= 0.5000 <S**2>= 0.7522 S= 0.5011
 <L.S>= 0.000000000000E+00
 KE= 1.078310087651D+03 PE=-7.600611285428D+03 EE= 2.896887559417D+03
 Annihilation of the first spin contaminant:
 S**2 before annihilation     0.7522,   after     0.7500
 Leave Link  502 at Fri Sep 11 23:44:06 2026, MaxMem=  6442450944 cpu:             679.0 elap:             678.1
 (Enter C:\G16W\l508.exe)
 QCSCF skips out because SCF is already converged.
 Leave Link  508 at Fri Sep 11 23:44:06 2026, MaxMem=  6442450944 cpu:               0.0 elap:               0.1
 (Enter C:\G16W\l601.exe)
 Copying SCF densities to generalized density rwf, IOpCl= 1 IROHF=0.

 **********************************************************************

            Population analysis using the SCF Density.

 **********************************************************************

 Alpha  occ. eigenvalues --  -14.38709 -14.38702 -10.28677 -10.28639 -10.27494
 Alpha  occ. eigenvalues --  -10.27489 -10.27216 -10.27208 -10.27053 -10.27005
 Alpha  occ. eigenvalues --  -10.26547 -10.26470 -10.25860 -10.25858 -10.25208
 Alpha  occ. eigenvalues --  -10.25201 -10.24873 -10.24872 -10.24737 -10.24734
 Alpha  occ. eigenvalues --  -10.24729 -10.24729 -10.24654 -10.24653 -10.24595
 Alpha  occ. eigenvalues --  -10.24595  -3.74655  -2.32644  -2.32612  -2.32552
 Alpha  occ. eigenvalues --   -0.99502  -0.96929  -0.90594  -0.90096  -0.88934
 Alpha  occ. eigenvalues --   -0.85160  -0.84409  -0.78970  -0.78489  -0.77735
 Alpha  occ. eigenvalues --   -0.77734  -0.77107  -0.76807  -0.69088  -0.68060
 Alpha  occ. eigenvalues --   -0.66861  -0.65638  -0.63474  -0.63470  -0.62469
 Alpha  occ. eigenvalues --   -0.59748  -0.58236  -0.56913  -0.55710  -0.54462
 Alpha  occ. eigenvalues --   -0.52780  -0.51503  -0.50979  -0.49857  -0.49128
 Alpha  occ. eigenvalues --   -0.48844  -0.47342  -0.46918  -0.46873  -0.46753
 Alpha  occ. eigenvalues --   -0.45299  -0.44794  -0.44753  -0.43696  -0.43479
 Alpha  occ. eigenvalues --   -0.43078  -0.41929  -0.40772  -0.40125  -0.39029
 Alpha  occ. eigenvalues --   -0.38933  -0.38189  -0.37110  -0.37054  -0.36986
 Alpha  occ. eigenvalues --   -0.36898  -0.34235  -0.33737  -0.32439  -0.32063
 Alpha  occ. eigenvalues --   -0.31508  -0.30851  -0.30233  -0.28218  -0.28118
 Alpha  occ. eigenvalues --   -0.27898  -0.27858  -0.27580  -0.26291  -0.25819
 Alpha  occ. eigenvalues --   -0.24939  -0.14505
 Alpha virt. eigenvalues --   -0.06927  -0.06264  -0.02153  -0.01626  -0.01566
 Alpha virt. eigenvalues --   -0.01493  -0.01190   0.01351   0.02051   0.02680
 Alpha virt. eigenvalues --    0.05565   0.06152   0.06974   0.07409   0.08628
 Alpha virt. eigenvalues --    0.09753   0.10403   0.10805   0.10959   0.11987
 Alpha virt. eigenvalues --    0.12876   0.13178   0.14210   0.14608   0.14700
 Alpha virt. eigenvalues --    0.14851   0.15294   0.15431   0.15603   0.15650
 Alpha virt. eigenvalues --    0.17611   0.18050   0.20632   0.20941   0.22331
 Alpha virt. eigenvalues --    0.23836   0.24002   0.25986   0.26550   0.26593
 Alpha virt. eigenvalues --    0.27475   0.28029   0.29274   0.29294   0.29812
 Alpha virt. eigenvalues --    0.30183   0.30223   0.30986   0.31037   0.31991
 Alpha virt. eigenvalues --    0.32205   0.32516   0.32868   0.33577   0.33841
 Alpha virt. eigenvalues --    0.36952   0.37964   0.37984   0.38043   0.39419
 Alpha virt. eigenvalues --    0.39462   0.39670   0.41134   0.41489   0.41916
 Alpha virt. eigenvalues --    0.42289   0.42415   0.43197   0.43306   0.43616
 Alpha virt. eigenvalues --    0.44371   0.45541   0.45646   0.46123   0.46675
 Alpha virt. eigenvalues --    0.47291   0.47617   0.48168   0.48347   0.49168
 Alpha virt. eigenvalues --    0.49272   0.49606   0.49634   0.49972   0.50162
 Alpha virt. eigenvalues --    0.50939   0.51452   0.52217   0.52349   0.54205
 Alpha virt. eigenvalues --    0.54706   0.55772   0.55901   0.56292   0.57117
 Alpha virt. eigenvalues --    0.58735   0.58869   0.59930   0.60146   0.60618
 Alpha virt. eigenvalues --    0.61480   0.61729   0.62339   0.63199   0.64085
 Alpha virt. eigenvalues --    0.64594   0.65870   0.66084   0.66449   0.66468
 Alpha virt. eigenvalues --    0.66870   0.66977   0.67781   0.67893   0.68397
 Alpha virt. eigenvalues --    0.68593   0.69037   0.69104   0.69240   0.69863
 Alpha virt. eigenvalues --    0.70958   0.71400   0.71413   0.71705   0.72386
 Alpha virt. eigenvalues --    0.72770   0.73286   0.73484   0.73550   0.74710
 Alpha virt. eigenvalues --    0.75792   0.75822   0.76179   0.76227   0.76668
 Alpha virt. eigenvalues --    0.77399   0.77467   0.78055   0.78798   0.79072
 Alpha virt. eigenvalues --    0.79703   0.80108   0.81680   0.82322   0.83104
 Alpha virt. eigenvalues --    0.83953   0.83963   0.84699   0.85905   0.86332
 Alpha virt. eigenvalues --    0.87739   0.88329   0.88711   0.89455   0.92393
 Alpha virt. eigenvalues --    0.92511   0.93192   0.94727   0.97111   0.99345
 Alpha virt. eigenvalues --    0.99818   1.00367   1.00961   1.01708   1.06125
 Alpha virt. eigenvalues --    1.06247   1.07705   1.08477   1.09139   1.11117
 Alpha virt. eigenvalues --    1.12261   1.13609   1.17098   1.17377   1.19262
 Alpha virt. eigenvalues --    1.20315   1.21593   1.22819   1.23066   1.23758
 Alpha virt. eigenvalues --    1.24086   1.24221   1.24537   1.24653   1.24717
 Alpha virt. eigenvalues --    1.25308   1.26739   1.27853   1.28366   1.29132
 Alpha virt. eigenvalues --    1.29966   1.30528   1.30969   1.31583   1.31838
 Alpha virt. eigenvalues --    1.32255   1.33689   1.34832   1.35815   1.37586
 Alpha virt. eigenvalues --    1.39284   1.39886   1.40652   1.43748   1.44840
 Alpha virt. eigenvalues --    1.48257   1.50073   1.50606   1.52555   1.56384
 Alpha virt. eigenvalues --    1.58411   1.59997   1.61647   1.61776   1.63325
 Alpha virt. eigenvalues --    1.64641   1.67219   1.67224   1.67459   1.70606
 Alpha virt. eigenvalues --    1.71004   1.71826   1.72750   1.72871   1.73554
 Alpha virt. eigenvalues --    1.74124   1.75445   1.75611   1.75897   1.76046
 Alpha virt. eigenvalues --    1.76538   1.76936   1.76948   1.77064   1.77676
 Alpha virt. eigenvalues --    1.77781   1.78694   1.80183   1.80764   1.80952
 Alpha virt. eigenvalues --    1.81210   1.81290   1.81492   1.82255   1.83622
 Alpha virt. eigenvalues --    1.84348   1.84829   1.85672   1.88190   1.88635
 Alpha virt. eigenvalues --    1.88768   1.89167   1.90744   1.92330   1.93929
 Alpha virt. eigenvalues --    1.94535   1.95535   1.95773   1.95962   1.96625
 Alpha virt. eigenvalues --    1.97148   1.98262   1.98962   1.98971   1.99026
 Alpha virt. eigenvalues --    2.00564   2.00667   2.01069   2.02328   2.03106
 Alpha virt. eigenvalues --    2.05762   2.08708   2.08835   2.09619   2.09788
 Alpha virt. eigenvalues --    2.11852   2.13194   2.14416   2.14912   2.15247
 Alpha virt. eigenvalues --    2.17036   2.17449   2.17860   2.19123   2.20060
 Alpha virt. eigenvalues --    2.21048   2.22041   2.23054   2.25541   2.26544
 Alpha virt. eigenvalues --    2.27504   2.28244   2.29205   2.30110   2.30179
 Alpha virt. eigenvalues --    2.30729   2.31084   2.32627   2.32764   2.34009
 Alpha virt. eigenvalues --    2.34042   2.34277   2.35989   2.36019   2.36520
 Alpha virt. eigenvalues --    2.38764   2.39167   2.41095   2.41922   2.42775
 Alpha virt. eigenvalues --    2.43304   2.46952   2.48941   2.49301   2.54306
 Alpha virt. eigenvalues --    2.54821   2.54980   2.55613   2.56630   2.57823
 Alpha virt. eigenvalues --    2.58109   2.60829   2.62356   2.62999   2.63156
 Alpha virt. eigenvalues --    2.63514   2.63948   2.64159   2.64743   2.67026
 Alpha virt. eigenvalues --    2.67314   2.67387   2.67751   2.68660   2.68974
 Alpha virt. eigenvalues --    2.69264   2.71133   2.73217   2.73711   2.76265
 Alpha virt. eigenvalues --    2.76441   2.76515   2.76974   2.78759   2.78978
 Alpha virt. eigenvalues --    2.81492   2.84311   2.87148   2.88824   2.89585
 Alpha virt. eigenvalues --    2.90539   2.90724   2.91008   2.91381   2.92209
 Alpha virt. eigenvalues --    2.92304   2.95704   2.97447   2.98516   3.03237
 Alpha virt. eigenvalues --    3.06444   3.07932   3.09342   3.12801   3.16444
 Alpha virt. eigenvalues --    3.16599   3.16790   3.18841   3.27356   3.27376
 Alpha virt. eigenvalues --    3.31058   3.33573   3.55885   3.62548   3.66369
 Alpha virt. eigenvalues --    3.69822   3.73653  53.90879
  Beta  occ. eigenvalues --  -14.38684 -14.38678 -10.28683 -10.28645 -10.27501
  Beta  occ. eigenvalues --  -10.27497 -10.27210 -10.27204 -10.27025 -10.26979
  Beta  occ. eigenvalues --  -10.26519 -10.26442 -10.25860 -10.25858 -10.25198
  Beta  occ. eigenvalues --  -10.25192 -10.24872 -10.24871 -10.24735 -10.24732
  Beta  occ. eigenvalues --  -10.24729 -10.24729 -10.24654 -10.24653 -10.24595
  Beta  occ. eigenvalues --  -10.24595  -3.74533  -2.32596  -2.32585  -2.32494
  Beta  occ. eigenvalues --   -0.99469  -0.96897  -0.90560  -0.90089  -0.88882
  Beta  occ. eigenvalues --   -0.85126  -0.84394  -0.78947  -0.78448  -0.77733
  Beta  occ. eigenvalues --   -0.77732  -0.77095  -0.76781  -0.69056  -0.68034
  Beta  occ. eigenvalues --   -0.66832  -0.65626  -0.63470  -0.63467  -0.62460
  Beta  occ. eigenvalues --   -0.59736  -0.58203  -0.56906  -0.55688  -0.54455
  Beta  occ. eigenvalues --   -0.52761  -0.51479  -0.50961  -0.49847  -0.49085
  Beta  occ. eigenvalues --   -0.48837  -0.47333  -0.46911  -0.46839  -0.46601
  Beta  occ. eigenvalues --   -0.45279  -0.44788  -0.44747  -0.43691  -0.43467
  Beta  occ. eigenvalues --   -0.43067  -0.41835  -0.40757  -0.40118  -0.38921
  Beta  occ. eigenvalues --   -0.38754  -0.38174  -0.37098  -0.37046  -0.36978
  Beta  occ. eigenvalues --   -0.36892  -0.33898  -0.33486  -0.31919  -0.31524
  Beta  occ. eigenvalues --   -0.30867  -0.30515  -0.29948  -0.28202  -0.28115
  Beta  occ. eigenvalues --   -0.27886  -0.27853  -0.27560  -0.26088  -0.25784
  Beta  occ. eigenvalues --   -0.24726
  Beta virt. eigenvalues --   -0.06806  -0.06652  -0.05158  -0.02016  -0.01596
  Beta virt. eigenvalues --   -0.01555  -0.01485  -0.01131   0.01448   0.03802
  Beta virt. eigenvalues --    0.04738   0.05675   0.07044   0.07593   0.08139
  Beta virt. eigenvalues --    0.09178   0.09760   0.10731   0.10982   0.11014
  Beta virt. eigenvalues --    0.12181   0.13018   0.13321   0.14211   0.14616
  Beta virt. eigenvalues --    0.14855   0.14874   0.15442   0.15564   0.15608
  Beta virt. eigenvalues --    0.15717   0.18076   0.18344   0.20758   0.21016
  Beta virt. eigenvalues --    0.22363   0.24004   0.24231   0.26122   0.26719
  Beta virt. eigenvalues --    0.27079   0.27665   0.28129   0.29307   0.29365
  Beta virt. eigenvalues --    0.30223   0.30337   0.30521   0.31229   0.31698
  Beta virt. eigenvalues --    0.32025   0.32626   0.33226   0.33497   0.33898
  Beta virt. eigenvalues --    0.34299   0.36979   0.38097   0.38105   0.38445
  Beta virt. eigenvalues --    0.39510   0.39644   0.40465   0.41200   0.41828
  Beta virt. eigenvalues --    0.42335   0.42453   0.42523   0.43424   0.43616
  Beta virt. eigenvalues --    0.43731   0.44651   0.45660   0.45975   0.46372
  Beta virt. eigenvalues --    0.46699   0.47429   0.47684   0.48251   0.48590
  Beta virt. eigenvalues --    0.49341   0.49415   0.49645   0.49880   0.49999
  Beta virt. eigenvalues --    0.50186   0.50966   0.51718   0.52534   0.52574
  Beta virt. eigenvalues --    0.54299   0.54773   0.55921   0.56039   0.56648
  Beta virt. eigenvalues --    0.57259   0.59127   0.59331   0.60180   0.60330
  Beta virt. eigenvalues --    0.60702   0.61669   0.62425   0.62697   0.63511
  Beta virt. eigenvalues --    0.64312   0.64821   0.66038   0.66142   0.66479
  Beta virt. eigenvalues --    0.66625   0.66978   0.67063   0.67844   0.67976
  Beta virt. eigenvalues --    0.68486   0.68609   0.69101   0.69136   0.69306
  Beta virt. eigenvalues --    0.70050   0.71067   0.71441   0.71448   0.71911
  Beta virt. eigenvalues --    0.72643   0.73194   0.73472   0.73623   0.73785
  Beta virt. eigenvalues --    0.74845   0.75816   0.75894   0.76243   0.76252
  Beta virt. eigenvalues --    0.77049   0.77430   0.77639   0.78195   0.78868
  Beta virt. eigenvalues --    0.79245   0.79930   0.80201   0.81771   0.82655
  Beta virt. eigenvalues --    0.83266   0.83987   0.84035   0.84778   0.85983
  Beta virt. eigenvalues --    0.86397   0.87754   0.88357   0.88831   0.89573
  Beta virt. eigenvalues --    0.92481   0.92614   0.93277   0.94783   0.97155
  Beta virt. eigenvalues --    0.99588   0.99998   1.00491   1.01047   1.01759
  Beta virt. eigenvalues --    1.06168   1.06394   1.07728   1.08502   1.09167
  Beta virt. eigenvalues --    1.11190   1.12311   1.13691   1.17182   1.17423
  Beta virt. eigenvalues --    1.19306   1.20328   1.21614   1.22843   1.23109
  Beta virt. eigenvalues --    1.23766   1.24097   1.24230   1.24548   1.24673
  Beta virt. eigenvalues --    1.24740   1.25321   1.26788   1.27903   1.28397
  Beta virt. eigenvalues --    1.29142   1.30003   1.30600   1.30983   1.31615
  Beta virt. eigenvalues --    1.31941   1.32326   1.33799   1.34887   1.35883
  Beta virt. eigenvalues --    1.37681   1.39452   1.39930   1.40697   1.43810
  Beta virt. eigenvalues --    1.44868   1.48295   1.50114   1.50626   1.52648
  Beta virt. eigenvalues --    1.56404   1.58439   1.60025   1.61690   1.61822
  Beta virt. eigenvalues --    1.63337   1.64666   1.67222   1.67232   1.67476
  Beta virt. eigenvalues --    1.70612   1.71017   1.71833   1.72759   1.72922
  Beta virt. eigenvalues --    1.73562   1.74137   1.75453   1.75615   1.75901
  Beta virt. eigenvalues --    1.76062   1.76549   1.76938   1.76961   1.77067
  Beta virt. eigenvalues --    1.77686   1.77792   1.78729   1.80203   1.80797
  Beta virt. eigenvalues --    1.80959   1.81219   1.81304   1.81517   1.82282
  Beta virt. eigenvalues --    1.83647   1.84376   1.84848   1.85691   1.88199
  Beta virt. eigenvalues --    1.88661   1.88782   1.89204   1.90774   1.92342
  Beta virt. eigenvalues --    1.93953   1.94566   1.95539   1.95780   1.95979
  Beta virt. eigenvalues --    1.96636   1.97158   1.98271   1.98965   1.98974
  Beta virt. eigenvalues --    1.99029   2.00568   2.00669   2.01091   2.02356
  Beta virt. eigenvalues --    2.03153   2.05787   2.08725   2.08876   2.09621
  Beta virt. eigenvalues --    2.09792   2.11884   2.13219   2.14531   2.14924
  Beta virt. eigenvalues --    2.15252   2.17060   2.17462   2.17896   2.19150
  Beta virt. eigenvalues --    2.20066   2.21073   2.22048   2.23922   2.25747
  Beta virt. eigenvalues --    2.26566   2.27522   2.28277   2.29222   2.30115
  Beta virt. eigenvalues --    2.30226   2.30745   2.31112   2.32648   2.32776
  Beta virt. eigenvalues --    2.34035   2.34059   2.34284   2.35993   2.36023
  Beta virt. eigenvalues --    2.36531   2.38800   2.39195   2.41109   2.41947
  Beta virt. eigenvalues --    2.42793   2.43347   2.46962   2.48963   2.49357
  Beta virt. eigenvalues --    2.54319   2.54866   2.54988   2.55681   2.56649
  Beta virt. eigenvalues --    2.57858   2.58152   2.60858   2.62380   2.63047
  Beta virt. eigenvalues --    2.63168   2.63524   2.63951   2.64162   2.64781
  Beta virt. eigenvalues --    2.67067   2.67318   2.67390   2.67763   2.68700
  Beta virt. eigenvalues --    2.69028   2.69276   2.71166   2.73246   2.73750
  Beta virt. eigenvalues --    2.76269   2.76444   2.76522   2.76979   2.78787
  Beta virt. eigenvalues --    2.79013   2.81534   2.84357   2.87180   2.88861
  Beta virt. eigenvalues --    2.89597   2.90547   2.90729   2.91012   2.91386
  Beta virt. eigenvalues --    2.92213   2.92309   2.95758   2.97470   2.98528
  Beta virt. eigenvalues --    3.03250   3.06464   3.07952   3.09347   3.12813
  Beta virt. eigenvalues --    3.16448   3.16603   3.16806   3.18857   3.27359
  Beta virt. eigenvalues --    3.27378   3.31071   3.33596   3.55894   3.62565
  Beta virt. eigenvalues --    3.66376   3.69825   3.73662  53.91032
          Condensed to atoms (all electrons):
               1          2          3          4          5          6
     1  C    5.115250   0.268743   0.090417  -0.163977   0.000378   0.000059
     2  C    0.268743   5.060158   0.296089   0.091727   0.012273   0.000316
     3  C    0.090417   0.296089   5.052405   0.285731  -0.070556  -0.006552
     4  C   -0.163977   0.091727   0.285731   5.504818   0.311387  -0.091591
     5  C    0.000378   0.012273  -0.070556   0.311387   5.242410   0.486579
     6  C    0.000059   0.000316  -0.006552  -0.091591   0.486579   5.001140
     7  C    0.000001   0.000011   0.000191   0.008168   0.019398   0.369000
     8  N    0.000000   0.000000   0.000018  -0.000422  -0.048636  -0.030591
     9  C   -0.000005   0.000041  -0.000799   0.022074  -0.122778  -0.066582
    10  C   -0.000113   0.000719  -0.011412  -0.083885   0.398034   0.014034
    11  C    0.000066  -0.000258  -0.000544  -0.024128  -0.107471   0.013704
    12  C    0.000006  -0.000025   0.000129  -0.002710   0.022601  -0.000745
    13  C    0.000000   0.000001  -0.000041   0.000333  -0.000658  -0.000395
    14  C    0.000000   0.000000   0.000000   0.000002   0.000123  -0.000005
    15  C    0.000000   0.000000   0.000000   0.000000   0.000002   0.000000
    16  C    0.000000   0.000000   0.000000   0.000000   0.000000   0.000000
    17  C    0.000000   0.000000   0.000000   0.000000   0.000000   0.000000
    18  C    0.000000   0.000000   0.000000   0.000000   0.000000   0.000000
    19  C    0.000000   0.000000   0.000000   0.000000   0.000000   0.000000
    20  C    0.000000   0.000000   0.000000   0.000000   0.000000   0.000000
    21  C    0.000000   0.000000   0.000000   0.000000  -0.000005   0.000000
    22  C    0.000000   0.000000   0.000000   0.000000   0.000015  -0.000002
    23  N    0.000000   0.000000   0.000000   0.000002   0.000082  -0.000084
    24  C    0.000000  -0.000001   0.000050  -0.000878   0.024725  -0.002418
    25  C    0.089380  -0.144737   0.067627   0.290256  -0.074407  -0.007201
    26  C    0.269721   0.090778  -0.144933   0.093965   0.012222   0.000265
    27  H    0.450715  -0.069047   0.014422  -0.001598   0.000023  -0.000001
    28  H   -0.073485   0.453623  -0.070232   0.016522  -0.000380  -0.000009
    29  H    0.014129  -0.066265   0.455539  -0.066721  -0.011309   0.000466
    30  H   -0.000037  -0.000146   0.000887  -0.013652  -0.052030   0.419765
    31  H    0.000000   0.000000   0.000003  -0.000544   0.006906  -0.078687
    32  H   -0.000010   0.000681  -0.003060   0.015185  -0.039630   0.000417
    33  H    0.000000  -0.000001   0.000001  -0.000005  -0.000233   0.000007
    34  H    0.000000   0.000000   0.000000   0.000000   0.000000   0.000000
    35  H    0.000000   0.000000   0.000000   0.000000   0.000000   0.000000
    36  H    0.000000   0.000000   0.000000   0.000000   0.000000   0.000000
    37  H    0.000000   0.000000   0.000000   0.000000   0.000000   0.000000
    38  H    0.000000   0.000000   0.000000   0.000000   0.000000   0.000000
    39  H    0.000000   0.000000   0.000000   0.000000   0.000000   0.000000
    40  H    0.000000   0.000000   0.000000   0.000000   0.000000   0.000000
    41  H    0.014527  -0.002091   0.014965  -0.070937  -0.011837   0.000714
    42  H   -0.072333   0.014536  -0.001864   0.016387  -0.000383  -0.000009
    43  Ag  -0.000091   0.000230   0.002902  -0.003830  -0.016705   0.003834
               7          8          9         10         11         12
     1  C    0.000001   0.000000  -0.000005  -0.000113   0.000066   0.000006
     2  C    0.000011   0.000000   0.000041   0.000719  -0.000258  -0.000025
     3  C    0.000191   0.000018  -0.000799  -0.011412  -0.000544   0.000129
     4  C    0.008168  -0.000422   0.022074  -0.083885  -0.024128  -0.002710
     5  C    0.019398  -0.048636  -0.122778   0.398034  -0.107471   0.022601
     6  C    0.369000  -0.030591  -0.066582   0.014034   0.013704  -0.000745
     7  C    4.750291   0.531889  -0.040617  -0.100269  -0.000263   0.000218
     8  N    0.531889   6.254634   0.622554  -0.078670   0.006131  -0.000948
     9  C   -0.040617   0.622554   5.870827   0.169313   0.054664  -0.130575
    10  C   -0.100269  -0.078670   0.169313   5.691537   0.131331   0.102357
    11  C   -0.000263   0.006131   0.054664   0.131331   5.357027   0.184522
    12  C    0.000218  -0.000948  -0.130575   0.102357   0.184522   5.352784
    13  C   -0.000472   0.005751  -0.071751  -0.125838   0.101604   0.138754
    14  C    0.000014   0.000084   0.024392  -0.000586   0.022340  -0.107226
    15  C    0.000000   0.000002  -0.000875   0.000334  -0.002715  -0.024306
    16  C    0.000000   0.000000   0.000050  -0.000042   0.000131  -0.000546
    17  C    0.000000   0.000000  -0.000001   0.000001  -0.000025  -0.000256
    18  C    0.000000   0.000000   0.000000   0.000000   0.000006   0.000066
    19  C    0.000000   0.000000  -0.000001   0.000001  -0.000020  -0.000234
    20  C    0.000000   0.000000   0.000049  -0.000038   0.000126  -0.000673
    21  C   -0.000002  -0.000085  -0.002352  -0.000398  -0.000740   0.013760
    22  C    0.000023  -0.000052   0.011852  -0.000475   0.000215  -0.000277
    23  N   -0.000063   0.003695  -0.132220   0.005796  -0.000936   0.006109
    24  C    0.011924  -0.131979  -0.188487  -0.073297  -0.129547   0.053770
    25  C    0.000147  -0.000007  -0.000993  -0.010323  -0.000690   0.000129
    26  C    0.000009   0.000000   0.000047   0.000588  -0.000228  -0.000021
    27  H    0.000000   0.000000   0.000000   0.000001  -0.000002   0.000000
    28  H    0.000000   0.000000   0.000000  -0.000003  -0.000002   0.000000
    29  H   -0.000125  -0.000016  -0.000425  -0.000648  -0.000150   0.000013
    30  H   -0.047740   0.005683   0.001507   0.015402  -0.000324   0.000011
    31  H    0.428492  -0.043105   0.006253   0.001835   0.000118   0.000001
    32  H   -0.000139   0.000024   0.019369  -0.055919   0.480633  -0.090040
    33  H    0.000000   0.000001  -0.004430   0.018319  -0.090133   0.480150
    34  H    0.000000   0.000000   0.000033  -0.000009   0.000009  -0.000129
    35  H    0.000000   0.000000   0.000000   0.000000   0.000000  -0.000002
    36  H    0.000000   0.000000   0.000000   0.000000   0.000000  -0.000002
    37  H    0.000000   0.000000   0.000000   0.000000   0.000000  -0.000003
    38  H    0.000000   0.000000   0.000026  -0.000011   0.000021   0.000408
    39  H    0.000000   0.000000   0.000182  -0.000003   0.000012  -0.000325
    40  H    0.000001   0.000010  -0.000014   0.000016   0.000001   0.000118
    41  H   -0.000119  -0.000017  -0.000389  -0.000333   0.000408   0.000021
    42  H    0.000000   0.000000   0.000000  -0.000002  -0.000004   0.000000
    43  Ag  -0.001195   0.001064  -0.018704  -0.001536  -0.007597  -0.009924
              13         14         15         16         17         18
     1  C    0.000000   0.000000   0.000000   0.000000   0.000000   0.000000
     2  C    0.000001   0.000000   0.000000   0.000000   0.000000   0.000000
     3  C   -0.000041   0.000000   0.000000   0.000000   0.000000   0.000000
     4  C    0.000333   0.000002   0.000000   0.000000   0.000000   0.000000
     5  C   -0.000658   0.000123   0.000002   0.000000   0.000000   0.000000
     6  C   -0.000395  -0.000005   0.000000   0.000000   0.000000   0.000000
     7  C   -0.000472   0.000014   0.000000   0.000000   0.000000   0.000000
     8  N    0.005751   0.000084   0.000002   0.000000   0.000000   0.000000
     9  C   -0.071751   0.024392  -0.000875   0.000050  -0.000001   0.000000
    10  C   -0.125838  -0.000586   0.000334  -0.000042   0.000001   0.000000
    11  C    0.101604   0.022340  -0.002715   0.000131  -0.000025   0.000006
    12  C    0.138754  -0.107226  -0.024306  -0.000546  -0.000256   0.000066
    13  C    5.662854   0.400384  -0.083287  -0.011246   0.000700  -0.000111
    14  C    0.400384   5.241266   0.311560  -0.070686   0.012251   0.000381
    15  C   -0.083287   0.311560   5.504058   0.285937   0.091799  -0.163929
    16  C   -0.011246  -0.070686   0.285937   5.051952   0.296141   0.090331
    17  C    0.000700   0.012251   0.091799   0.296141   5.060222   0.268849
    18  C   -0.000111   0.000381  -0.163929   0.090331   0.268849   5.115073
    19  C    0.000587   0.012203   0.093981  -0.144904   0.090752   0.269791
    20  C   -0.010343  -0.074421   0.290210   0.067593  -0.144749   0.089345
    21  C    0.013342   0.486667  -0.091670  -0.006568   0.000314   0.000059
    22  C   -0.099362   0.018870   0.008156   0.000190   0.000011   0.000001
    23  N   -0.077758  -0.049021  -0.000430   0.000018   0.000000   0.000000
    24  C    0.180167  -0.122759   0.021956  -0.000815   0.000041  -0.000005
    25  C   -0.000038   0.000000   0.000000   0.000000   0.000000   0.000000
    26  C    0.000001   0.000000   0.000000   0.000000   0.000000   0.000000
    27  H    0.000000   0.000000   0.000000   0.000000   0.000000   0.000000
    28  H    0.000000   0.000000   0.000000   0.000000   0.000000   0.000000
    29  H   -0.000010   0.000000   0.000000   0.000000   0.000000   0.000000
    30  H   -0.000003   0.000000   0.000000   0.000000   0.000000   0.000000
    31  H    0.000016   0.000000   0.000000   0.000000   0.000000   0.000000
    32  H    0.018262  -0.000232  -0.000006   0.000001  -0.000001   0.000000
    33  H   -0.055493  -0.039655   0.015188  -0.003023   0.000681  -0.000010
    34  H   -0.000616  -0.011321  -0.066789   0.455606  -0.066341   0.014133
    35  H   -0.000003  -0.000380   0.016506  -0.070252   0.453598  -0.073427
    36  H    0.000001   0.000023  -0.001597   0.014420  -0.069050   0.450712
    37  H   -0.000002  -0.000382   0.016383  -0.001864   0.014537  -0.072332
    38  H   -0.000321  -0.011867  -0.070901   0.014958  -0.002090   0.014525
    39  H    0.015342  -0.052026  -0.013635   0.000898  -0.000147  -0.000037
    40  H    0.001841   0.006896  -0.000544   0.000003   0.000000   0.000000
    41  H   -0.000011   0.000000   0.000000   0.000000   0.000000   0.000000
    42  H    0.000000   0.000000   0.000000   0.000000   0.000000   0.000000
    43  Ag  -0.002733  -0.015066  -0.003402   0.002828   0.000213  -0.000082
              19         20         21         22         23         24
     1  C    0.000000   0.000000   0.000000   0.000000   0.000000   0.000000
     2  C    0.000000   0.000000   0.000000   0.000000   0.000000  -0.000001
     3  C    0.000000   0.000000   0.000000   0.000000   0.000000   0.000050
     4  C    0.000000   0.000000   0.000000   0.000000   0.000002  -0.000878
     5  C    0.000000   0.000000  -0.000005   0.000015   0.000082   0.024725
     6  C    0.000000   0.000000   0.000000  -0.000002  -0.000084  -0.002418
     7  C    0.000000   0.000000  -0.000002   0.000023  -0.000063   0.011924
     8  N    0.000000   0.000000  -0.000085  -0.000052   0.003695  -0.131979
     9  C   -0.000001   0.000049  -0.002352   0.011852  -0.132220  -0.188487
    10  C    0.000001  -0.000038  -0.000398  -0.000475   0.005796  -0.073297
    11  C   -0.000020   0.000126  -0.000740   0.000215  -0.000936  -0.129547
    12  C   -0.000234  -0.000673   0.013760  -0.000277   0.006109   0.053770
    13  C    0.000587  -0.010343   0.013342  -0.099362  -0.077758   0.180167
    14  C    0.012203  -0.074421   0.486667   0.018870  -0.049021  -0.122759
    15  C    0.093981   0.290210  -0.091670   0.008156  -0.000430   0.021956
    16  C   -0.144904   0.067593  -0.006568   0.000190   0.000018  -0.000815
    17  C    0.090752  -0.144749   0.000314   0.000011   0.000000   0.000041
    18  C    0.269791   0.089345   0.000059   0.000001   0.000000  -0.000005
    19  C    5.063642   0.295273   0.000264   0.000009   0.000000   0.000047
    20  C    0.295273   5.055039  -0.007183   0.000146  -0.000007  -0.000982
    21  C    0.000264  -0.007183   5.001456   0.369524  -0.030473  -0.066478
    22  C    0.000009   0.000146   0.369524   4.749558   0.532188  -0.040922
    23  N    0.000000  -0.000007  -0.030473   0.532188   6.254973   0.621679
    24  C    0.000047  -0.000982  -0.066478  -0.040922   0.621679   5.860524
    25  C    0.000000   0.000000   0.000000   0.000000   0.000000   0.000049
    26  C    0.000000   0.000000   0.000000   0.000000   0.000000  -0.000001
    27  H    0.000000   0.000000   0.000000   0.000000   0.000000   0.000000
    28  H    0.000000   0.000000   0.000000   0.000000   0.000000   0.000000
    29  H    0.000000   0.000000   0.000000   0.000000   0.000000   0.000034
    30  H    0.000000   0.000000   0.000000   0.000000   0.000000   0.000181
    31  H    0.000000   0.000000   0.000000   0.000001   0.000010  -0.000010
    32  H   -0.000001   0.000018   0.000007   0.000000   0.000001  -0.004428
    33  H    0.000729  -0.001130   0.000417  -0.000140   0.000022   0.019324
    34  H   -0.002065   0.014433   0.000501  -0.000127  -0.000016  -0.000422
    35  H    0.014573  -0.001866  -0.000009   0.000000   0.000000   0.000000
    36  H   -0.069291   0.014450  -0.000001   0.000000   0.000000   0.000000
    37  H    0.452690  -0.071233  -0.000009   0.000000   0.000000   0.000000
    38  H   -0.068527   0.456434   0.000714  -0.000119  -0.000017  -0.000392
    39  H   -0.000142   0.000799   0.419697  -0.047683   0.005684   0.001516
    40  H    0.000000  -0.000002  -0.078697   0.428427  -0.043066   0.006228
    41  H    0.000000   0.000000   0.000000   0.000000   0.000000   0.000026
    42  H    0.000000   0.000000   0.000000   0.000000   0.000000   0.000000
    43  Ag   0.000003  -0.000407   0.003485  -0.001130   0.001115  -0.019741
              25         26         27         28         29         30
     1  C    0.089380   0.269721   0.450715  -0.073485   0.014129  -0.000037
     2  C   -0.144737   0.090778  -0.069047   0.453623  -0.066265  -0.000146
     3  C    0.067627  -0.144933   0.014422  -0.070232   0.455539   0.000887
     4  C    0.290256   0.093965  -0.001598   0.016522  -0.066721  -0.013652
     5  C   -0.074407   0.012222   0.000023  -0.000380  -0.011309  -0.052030
     6  C   -0.007201   0.000265  -0.000001  -0.000009   0.000466   0.419765
     7  C    0.000147   0.000009   0.000000   0.000000  -0.000125  -0.047740
     8  N   -0.000007   0.000000   0.000000   0.000000  -0.000016   0.005683
     9  C   -0.000993   0.000047   0.000000   0.000000  -0.000425   0.001507
    10  C   -0.010323   0.000588   0.000001  -0.000003  -0.000648   0.015402
    11  C   -0.000690  -0.000228  -0.000002  -0.000002  -0.000150  -0.000324
    12  C    0.000129  -0.000021   0.000000   0.000000   0.000013   0.000011
    13  C   -0.000038   0.000001   0.000000   0.000000  -0.000010  -0.000003
    14  C    0.000000   0.000000   0.000000   0.000000   0.000000   0.000000
    15  C    0.000000   0.000000   0.000000   0.000000   0.000000   0.000000
    16  C    0.000000   0.000000   0.000000   0.000000   0.000000   0.000000
    17  C    0.000000   0.000000   0.000000   0.000000   0.000000   0.000000
    18  C    0.000000   0.000000   0.000000   0.000000   0.000000   0.000000
    19  C    0.000000   0.000000   0.000000   0.000000   0.000000   0.000000
    20  C    0.000000   0.000000   0.000000   0.000000   0.000000   0.000000
    21  C    0.000000   0.000000   0.000000   0.000000   0.000000   0.000000
    22  C    0.000000   0.000000   0.000000   0.000000   0.000000   0.000000
    23  N    0.000000   0.000000   0.000000   0.000000   0.000000   0.000000
    24  C    0.000049  -0.000001   0.000000   0.000000   0.000034   0.000181
    25  C    5.055111   0.295203   0.014451  -0.001869   0.014412   0.000801
    26  C    0.295203   5.063733  -0.069299   0.014575  -0.002064  -0.000142
    27  H    0.014451  -0.069299   0.666164  -0.012319  -0.000247  -0.000001
    28  H   -0.001869   0.014575  -0.012319   0.665679  -0.012322   0.000003
    29  H    0.014412  -0.002064  -0.000247  -0.012322   0.643142   0.000213
    30  H    0.000801  -0.000142  -0.000001   0.000003   0.000213   0.657345
    31  H   -0.000002   0.000000   0.000000   0.000000   0.000005  -0.005252
    32  H   -0.001116   0.000731  -0.000003  -0.000010  -0.000398  -0.000011
    33  H    0.000018  -0.000001   0.000000   0.000000  -0.000001   0.000000
    34  H    0.000000   0.000000   0.000000   0.000000   0.000000   0.000000
    35  H    0.000000   0.000000   0.000000   0.000000   0.000000   0.000000
    36  H    0.000000   0.000000   0.000000   0.000000   0.000000   0.000000
    37  H    0.000000   0.000000   0.000000   0.000000   0.000000   0.000000
    38  H    0.000000   0.000000   0.000000   0.000000   0.000000   0.000000
    39  H    0.000000   0.000000   0.000000   0.000000   0.000000   0.000000
    40  H    0.000000   0.000000   0.000000   0.000000   0.000000   0.000000
    41  H    0.456419  -0.068513  -0.000269   0.000037  -0.000217   0.000239
    42  H   -0.071231   0.452687  -0.012375  -0.000281   0.000034   0.000003
    43  Ag  -0.000429   0.000008  -0.000005   0.000187   0.004072  -0.000193
              31         32         33         34         35         36
     1  C    0.000000  -0.000010   0.000000   0.000000   0.000000   0.000000
     2  C    0.000000   0.000681  -0.000001   0.000000   0.000000   0.000000
     3  C    0.000003  -0.003060   0.000001   0.000000   0.000000   0.000000
     4  C   -0.000544   0.015185  -0.000005   0.000000   0.000000   0.000000
     5  C    0.006906  -0.039630  -0.000233   0.000000   0.000000   0.000000
     6  C   -0.078687   0.000417   0.000007   0.000000   0.000000   0.000000
     7  C    0.428492  -0.000139   0.000000   0.000000   0.000000   0.000000
     8  N   -0.043105   0.000024   0.000001   0.000000   0.000000   0.000000
     9  C    0.006253   0.019369  -0.004430   0.000033   0.000000   0.000000
    10  C    0.001835  -0.055919   0.018319  -0.000009   0.000000   0.000000
    11  C    0.000118   0.480633  -0.090133   0.000009   0.000000   0.000000
    12  C    0.000001  -0.090040   0.480150  -0.000129  -0.000002  -0.000002
    13  C    0.000016   0.018262  -0.055493  -0.000616  -0.000003   0.000001
    14  C    0.000000  -0.000232  -0.039655  -0.011321  -0.000380   0.000023
    15  C    0.000000  -0.000006   0.015188  -0.066789   0.016506  -0.001597
    16  C    0.000000   0.000001  -0.003023   0.455606  -0.070252   0.014420
    17  C    0.000000  -0.000001   0.000681  -0.066341   0.453598  -0.069050
    18  C    0.000000   0.000000  -0.000010   0.014133  -0.073427   0.450712
    19  C    0.000000  -0.000001   0.000729  -0.002065   0.014573  -0.069291
    20  C    0.000000   0.000018  -0.001130   0.014433  -0.001866   0.014450
    21  C    0.000000   0.000007   0.000417   0.000501  -0.000009  -0.000001
    22  C    0.000001   0.000000  -0.000140  -0.000127   0.000000   0.000000
    23  N    0.000010   0.000001   0.000022  -0.000016   0.000000   0.000000
    24  C   -0.000010  -0.004428   0.019324  -0.000422   0.000000   0.000000
    25  C   -0.000002  -0.001116   0.000018   0.000000   0.000000   0.000000
    26  C    0.000000   0.000731  -0.000001   0.000000   0.000000   0.000000
    27  H    0.000000  -0.000003   0.000000   0.000000   0.000000   0.000000
    28  H    0.000000  -0.000010   0.000000   0.000000   0.000000   0.000000
    29  H    0.000005  -0.000398  -0.000001   0.000000   0.000000   0.000000
    30  H   -0.005252  -0.000011   0.000000   0.000000   0.000000   0.000000
    31  H    0.653811  -0.000002   0.000000   0.000000   0.000000   0.000000
    32  H   -0.000002   0.628232  -0.012147  -0.000001   0.000000   0.000000
    33  H    0.000000  -0.012147   0.628788  -0.000383  -0.000010  -0.000003
    34  H    0.000000  -0.000001  -0.000383   0.643821  -0.012301  -0.000248
    35  H    0.000000   0.000000  -0.000010  -0.012301   0.665660  -0.012321
    36  H    0.000000   0.000000  -0.000003  -0.000248  -0.012321   0.666166
    37  H    0.000000   0.000000  -0.000005   0.000034  -0.000281  -0.012375
    38  H    0.000000   0.000000  -0.000124  -0.000217   0.000037  -0.000269
    39  H    0.000000   0.000000  -0.000011   0.000221   0.000003  -0.000001
    40  H   -0.000001   0.000000  -0.000002   0.000005   0.000000   0.000000
    41  H    0.000003  -0.000125   0.000000   0.000000   0.000000   0.000000
    42  H    0.000000  -0.000005   0.000000   0.000000   0.000000   0.000000
    43  Ag  -0.001225   0.000888   0.001012   0.003812   0.000171  -0.000005
              37         38         39         40         41         42
     1  C    0.000000   0.000000   0.000000   0.000000   0.014527  -0.072333
     2  C    0.000000   0.000000   0.000000   0.000000  -0.002091   0.014536
     3  C    0.000000   0.000000   0.000000   0.000000   0.014965  -0.001864
     4  C    0.000000   0.000000   0.000000   0.000000  -0.070937   0.016387
     5  C    0.000000   0.000000   0.000000   0.000000  -0.011837  -0.000383
     6  C    0.000000   0.000000   0.000000   0.000000   0.000714  -0.000009
     7  C    0.000000   0.000000   0.000000   0.000001  -0.000119   0.000000
     8  N    0.000000   0.000000   0.000000   0.000010  -0.000017   0.000000
     9  C    0.000000   0.000026   0.000182  -0.000014  -0.000389   0.000000
    10  C    0.000000  -0.000011  -0.000003   0.000016  -0.000333  -0.000002
    11  C    0.000000   0.000021   0.000012   0.000001   0.000408  -0.000004
    12  C   -0.000003   0.000408  -0.000325   0.000118   0.000021   0.000000
    13  C   -0.000002  -0.000321   0.015342   0.001841  -0.000011   0.000000
    14  C   -0.000382  -0.011867  -0.052026   0.006896   0.000000   0.000000
    15  C    0.016383  -0.070901  -0.013635  -0.000544   0.000000   0.000000
    16  C   -0.001864   0.014958   0.000898   0.000003   0.000000   0.000000
    17  C    0.014537  -0.002090  -0.000147   0.000000   0.000000   0.000000
    18  C   -0.072332   0.014525  -0.000037   0.000000   0.000000   0.000000
    19  C    0.452690  -0.068527  -0.000142   0.000000   0.000000   0.000000
    20  C   -0.071233   0.456434   0.000799  -0.000002   0.000000   0.000000
    21  C   -0.000009   0.000714   0.419697  -0.078697   0.000000   0.000000
    22  C    0.000000  -0.000119  -0.047683   0.428427   0.000000   0.000000
    23  N    0.000000  -0.000017   0.005684  -0.043066   0.000000   0.000000
    24  C    0.000000  -0.000392   0.001516   0.006228   0.000026   0.000000
    25  C    0.000000   0.000000   0.000000   0.000000   0.456419  -0.071231
    26  C    0.000000   0.000000   0.000000   0.000000  -0.068513   0.452687
    27  H    0.000000   0.000000   0.000000   0.000000  -0.000269  -0.012375
    28  H    0.000000   0.000000   0.000000   0.000000   0.000037  -0.000281
    29  H    0.000000   0.000000   0.000000   0.000000  -0.000217   0.000034
    30  H    0.000000   0.000000   0.000000   0.000000   0.000239   0.000003
    31  H    0.000000   0.000000   0.000000  -0.000001   0.000003   0.000000
    32  H    0.000000   0.000000   0.000000   0.000000  -0.000125  -0.000005
    33  H   -0.000005  -0.000124  -0.000011  -0.000002   0.000000   0.000000
    34  H    0.000034  -0.000217   0.000221   0.000005   0.000000   0.000000
    35  H   -0.000281   0.000037   0.000003   0.000000   0.000000   0.000000
    36  H   -0.012375  -0.000269  -0.000001   0.000000   0.000000   0.000000
    37  H    0.668274  -0.012262   0.000003   0.000000   0.000000   0.000000
    38  H   -0.012262   0.668147   0.000239   0.000003   0.000000   0.000000
    39  H    0.000003   0.000239   0.657353  -0.005250   0.000000   0.000000
    40  H    0.000000   0.000003  -0.005250   0.653872   0.000000   0.000000
    41  H    0.000000   0.000000   0.000000   0.000000   0.668187  -0.012264
    42  H    0.000000   0.000000   0.000000   0.000000  -0.012264   0.668281
    43  Ag  -0.000004   0.000070  -0.000203  -0.001174   0.000073  -0.000004
              43
     1  C   -0.000091
     2  C    0.000230
     3  C    0.002902
     4  C   -0.003830
     5  C   -0.016705
     6  C    0.003834
     7  C   -0.001195
     8  N    0.001064
     9  C   -0.018704
    10  C   -0.001536
    11  C   -0.007597
    12  C   -0.009924
    13  C   -0.002733
    14  C   -0.015066
    15  C   -0.003402
    16  C    0.002828
    17  C    0.000213
    18  C   -0.000082
    19  C    0.000003
    20  C   -0.000407
    21  C    0.003485
    22  C   -0.001130
    23  N    0.001115
    24  C   -0.019741
    25  C   -0.000429
    26  C    0.000008
    27  H   -0.000005
    28  H    0.000187
    29  H    0.004072
    30  H   -0.000193
    31  H   -0.001225
    32  H    0.000888
    33  H    0.001012
    34  H    0.003812
    35  H    0.000171
    36  H   -0.000005
    37  H   -0.000004
    38  H    0.000070
    39  H   -0.000203
    40  H   -0.001174
    41  H    0.000073
    42  H   -0.000004
    43  Ag  19.187052
          Atomic-Atomic Spin Densities.
               1          2          3          4          5          6
     1  C   -0.000227   0.000108   0.000003   0.000154  -0.000022   0.000000
     2  C    0.000108   0.000137  -0.000296  -0.000531   0.000109   0.000002
     3  C    0.000003  -0.000296   0.002323  -0.000715   0.000677  -0.000025
     4  C    0.000154  -0.000531  -0.000715   0.013144  -0.004573   0.000459
     5  C   -0.000022   0.000109   0.000677  -0.004573   0.008175  -0.003190
     6  C    0.000000   0.000002  -0.000025   0.000459  -0.003190   0.010061
     7  C    0.000000   0.000000   0.000003   0.000011  -0.000025   0.000871
     8  N    0.000000   0.000000  -0.000001   0.000071   0.001121  -0.000608
     9  C    0.000000   0.000000   0.000002   0.000011  -0.000298  -0.000063
    10  C    0.000000   0.000002   0.000050  -0.002219   0.004359  -0.000995
    11  C    0.000000  -0.000008  -0.000132   0.000883   0.001481  -0.000170
    12  C    0.000000   0.000000  -0.000002   0.000036   0.000275  -0.000001
    13  C    0.000000   0.000000  -0.000001   0.000042   0.000174  -0.000006
    14  C    0.000000   0.000000   0.000000   0.000001   0.000008   0.000000
    15  C    0.000000   0.000000   0.000000   0.000000   0.000001   0.000000
    16  C    0.000000   0.000000   0.000000   0.000000   0.000000   0.000000
    17  C    0.000000   0.000000   0.000000   0.000000   0.000000   0.000000
    18  C    0.000000   0.000000   0.000000   0.000000   0.000000   0.000000
    19  C    0.000000   0.000000   0.000000   0.000000   0.000000   0.000000
    20  C    0.000000   0.000000   0.000000   0.000000   0.000000   0.000000
    21  C    0.000000   0.000000   0.000000   0.000000   0.000000   0.000000
    22  C    0.000000   0.000000   0.000000   0.000000  -0.000001   0.000000
    23  N    0.000000   0.000000   0.000000   0.000000   0.000022  -0.000003
    24  C    0.000000   0.000000   0.000000   0.000022   0.000348  -0.000042
    25  C   -0.000007  -0.000038  -0.000271   0.000766  -0.000527   0.000019
    26  C    0.000033  -0.000004   0.000070  -0.000317   0.000145  -0.000009
    27  H    0.000008  -0.000009  -0.000005  -0.000004   0.000001   0.000000
    28  H   -0.000007   0.000083  -0.000158  -0.000031   0.000006   0.000000
    29  H   -0.000051   0.000133  -0.000314   0.000022  -0.000097   0.000045
    30  H    0.000000   0.000001   0.000007  -0.000093   0.000015   0.000159
    31  H    0.000000   0.000000   0.000000   0.000004   0.000035  -0.000059
    32  H    0.000001  -0.000007  -0.000062   0.000442   0.000021  -0.000003
    33  H    0.000000   0.000000   0.000000   0.000007   0.000003   0.000000
    34  H    0.000000   0.000000   0.000000   0.000000   0.000000   0.000000
    35  H    0.000000   0.000000   0.000000   0.000000   0.000000   0.000000
    36  H    0.000000   0.000000   0.000000   0.000000   0.000000   0.000000
    37  H    0.000000   0.000000   0.000000   0.000000   0.000000   0.000000
    38  H    0.000000   0.000000   0.000000   0.000000   0.000000   0.000000
    39  H    0.000000   0.000000   0.000000   0.000000   0.000000   0.000000
    40  H    0.000000   0.000000   0.000000   0.000000   0.000000   0.000000
    41  H   -0.000002   0.000008   0.000042  -0.000410   0.000292  -0.000063
    42  H   -0.000008  -0.000003  -0.000006   0.000017  -0.000010   0.000001
    43  Ag  -0.000043   0.000323  -0.000656  -0.007693  -0.011420   0.002486
               7          8          9         10         11         12
     1  C    0.000000   0.000000   0.000000   0.000000   0.000000   0.000000
     2  C    0.000000   0.000000   0.000000   0.000002  -0.000008   0.000000
     3  C    0.000003  -0.000001   0.000002   0.000050  -0.000132  -0.000002
     4  C    0.000011   0.000071   0.000011  -0.002219   0.000883   0.000036
     5  C   -0.000025   0.001121  -0.000298   0.004359   0.001481   0.000275
     6  C    0.000871  -0.000608  -0.000063  -0.000995  -0.000170  -0.000001
     7  C   -0.004609  -0.001375   0.000152  -0.000306   0.000013  -0.000002
     8  N   -0.001375   0.015726   0.000792   0.000590   0.000079   0.000020
     9  C    0.000152   0.000792  -0.004109   0.003307   0.002877  -0.001711
    10  C   -0.000306   0.000590   0.003307   0.018688   0.009287   0.002984
    11  C    0.000013   0.000079   0.002877   0.009287   0.011190   0.011135
    12  C   -0.000002   0.000020  -0.001711   0.002984   0.011135   0.013013
    13  C   -0.000009   0.000174   0.002849   0.000687   0.002909   0.008501
    14  C   -0.000001   0.000022   0.000340   0.000192   0.000279   0.001452
    15  C    0.000000   0.000000   0.000020   0.000043   0.000036   0.000880
    16  C    0.000000   0.000000   0.000000  -0.000001  -0.000002  -0.000133
    17  C    0.000000   0.000000   0.000000   0.000000   0.000000  -0.000009
    18  C    0.000000   0.000000   0.000000   0.000000   0.000000   0.000000
    19  C    0.000000   0.000000   0.000000   0.000000   0.000000   0.000008
    20  C    0.000000   0.000000   0.000000  -0.000001   0.000002  -0.000014
    21  C    0.000000  -0.000003  -0.000042  -0.000006  -0.000001  -0.000172
    22  C    0.000000  -0.000016   0.000048  -0.000008  -0.000002   0.000013
    23  N   -0.000017   0.000581  -0.000162   0.000182   0.000018   0.000082
    24  C    0.000051  -0.000222  -0.000043   0.002836  -0.001808   0.002976
    25  C   -0.000006   0.000000   0.000005   0.000110  -0.000019   0.000003
    26  C    0.000000   0.000000   0.000000   0.000016   0.000008   0.000000
    27  H    0.000000   0.000000   0.000000   0.000000   0.000000   0.000000
    28  H    0.000000   0.000000   0.000000   0.000000  -0.000001   0.000000
    29  H    0.000004  -0.000002   0.000001  -0.000050  -0.000088  -0.000004
    30  H   -0.000035  -0.000014   0.000009   0.000015  -0.000001   0.000000
    31  H    0.000045   0.000024   0.000003  -0.000015   0.000000   0.000000
    32  H    0.000000   0.000002   0.000078   0.000156   0.000795   0.000082
    33  H    0.000000   0.000000   0.000007   0.000133   0.000073   0.000798
    34  H    0.000000   0.000000   0.000000  -0.000002  -0.000004  -0.000090
    35  H    0.000000   0.000000   0.000000   0.000000   0.000000  -0.000001
    36  H    0.000000   0.000000   0.000000   0.000000   0.000000   0.000000
    37  H    0.000000   0.000000   0.000000   0.000000   0.000000   0.000000
    38  H    0.000000   0.000000   0.000000   0.000000   0.000003   0.000032
    39  H    0.000000   0.000000   0.000000   0.000000   0.000000  -0.000001
    40  H    0.000000   0.000000   0.000001   0.000000   0.000000   0.000000
    41  H   -0.000002   0.000000   0.000001   0.000130   0.000032   0.000003
    42  H    0.000000   0.000000   0.000000  -0.000001  -0.000001   0.000000
    43  Ag   0.000680  -0.007454  -0.011378  -0.033755  -0.037099  -0.037300
              13         14         15         16         17         18
     1  C    0.000000   0.000000   0.000000   0.000000   0.000000   0.000000
     2  C    0.000000   0.000000   0.000000   0.000000   0.000000   0.000000
     3  C   -0.000001   0.000000   0.000000   0.000000   0.000000   0.000000
     4  C    0.000042   0.000001   0.000000   0.000000   0.000000   0.000000
     5  C    0.000174   0.000008   0.000001   0.000000   0.000000   0.000000
     6  C   -0.000006   0.000000   0.000000   0.000000   0.000000   0.000000
     7  C   -0.000009  -0.000001   0.000000   0.000000   0.000000   0.000000
     8  N    0.000174   0.000022   0.000000   0.000000   0.000000   0.000000
     9  C    0.002849   0.000340   0.000020   0.000000   0.000000   0.000000
    10  C    0.000687   0.000192   0.000043  -0.000001   0.000000   0.000000
    11  C    0.002909   0.000279   0.000036  -0.000002   0.000000   0.000000
    12  C    0.008501   0.001452   0.000880  -0.000133  -0.000009   0.000000
    13  C    0.018640   0.003533  -0.002385   0.000061   0.000004   0.000000
    14  C    0.003533   0.007060  -0.004325   0.000662   0.000103  -0.000019
    15  C   -0.002385  -0.004325   0.012808  -0.000713  -0.000524   0.000148
    16  C    0.000061   0.000662  -0.000713   0.002136  -0.000274  -0.000008
    17  C    0.000004   0.000103  -0.000524  -0.000274   0.000116   0.000129
    18  C    0.000000  -0.000019   0.000148  -0.000008   0.000129  -0.000248
    19  C    0.000015   0.000129  -0.000290   0.000063  -0.000011   0.000038
    20  C    0.000119  -0.000446   0.000636  -0.000251  -0.000024  -0.000016
    21  C   -0.000901  -0.002891   0.000464  -0.000024   0.000001   0.000000
    22  C   -0.000284   0.000038   0.000015   0.000003   0.000000   0.000000
    23  N    0.000459   0.001112   0.000071  -0.000001   0.000000   0.000000
    24  C    0.002188  -0.000291   0.000014   0.000001   0.000000   0.000000
    25  C   -0.000001   0.000000   0.000000   0.000000   0.000000   0.000000
    26  C    0.000000   0.000000   0.000000   0.000000   0.000000   0.000000
    27  H    0.000000   0.000000   0.000000   0.000000   0.000000   0.000000
    28  H    0.000000   0.000000   0.000000   0.000000   0.000000   0.000000
    29  H   -0.000002   0.000000   0.000000   0.000000   0.000000   0.000000
    30  H    0.000000   0.000000   0.000000   0.000000   0.000000   0.000000
    31  H    0.000000   0.000000   0.000000   0.000000   0.000000   0.000000
    32  H    0.000126   0.000003   0.000007   0.000000   0.000000   0.000000
    33  H    0.000104   0.000032   0.000419  -0.000059  -0.000007   0.000001
    34  H   -0.000044  -0.000080   0.000001  -0.000310   0.000134  -0.000049
    35  H    0.000000   0.000005  -0.000030  -0.000141   0.000073   0.000001
    36  H    0.000000   0.000001  -0.000004  -0.000004  -0.000011   0.000011
    37  H   -0.000001  -0.000009   0.000016  -0.000006  -0.000002  -0.000008
    38  H    0.000126   0.000267  -0.000387   0.000040   0.000007  -0.000001
    39  H    0.000018   0.000017  -0.000096   0.000007   0.000001   0.000000
    40  H   -0.000014   0.000033   0.000004   0.000000   0.000000   0.000000
    41  H    0.000000   0.000000   0.000000   0.000000   0.000000   0.000000
    42  H    0.000000   0.000000   0.000000   0.000000   0.000000   0.000000
    43  Ag  -0.030789  -0.010770  -0.007229  -0.000579   0.000303  -0.000037
              19         20         21         22         23         24
     1  C    0.000000   0.000000   0.000000   0.000000   0.000000   0.000000
     2  C    0.000000   0.000000   0.000000   0.000000   0.000000   0.000000
     3  C    0.000000   0.000000   0.000000   0.000000   0.000000   0.000000
     4  C    0.000000   0.000000   0.000000   0.000000   0.000000   0.000022
     5  C    0.000000   0.000000   0.000000  -0.000001   0.000022   0.000348
     6  C    0.000000   0.000000   0.000000   0.000000  -0.000003  -0.000042
     7  C    0.000000   0.000000   0.000000   0.000000  -0.000017   0.000051
     8  N    0.000000   0.000000  -0.000003  -0.000016   0.000581  -0.000222
     9  C    0.000000   0.000000  -0.000042   0.000048  -0.000162  -0.000043
    10  C    0.000000  -0.000001  -0.000006  -0.000008   0.000182   0.002836
    11  C    0.000000   0.000002  -0.000001  -0.000002   0.000018  -0.001808
    12  C    0.000008  -0.000014  -0.000172   0.000013   0.000082   0.002976
    13  C    0.000015   0.000119  -0.000901  -0.000284   0.000459   0.002188
    14  C    0.000129  -0.000446  -0.002891   0.000038   0.001112  -0.000291
    15  C   -0.000290   0.000636   0.000464   0.000015   0.000071   0.000014
    16  C    0.000063  -0.000251  -0.000024   0.000003  -0.000001   0.000001
    17  C   -0.000011  -0.000024   0.000001   0.000000   0.000000   0.000000
    18  C    0.000038  -0.000016   0.000000   0.000000   0.000000   0.000000
    19  C    0.000309  -0.000262  -0.000009   0.000000   0.000000   0.000000
    20  C   -0.000262   0.000485   0.000017  -0.000006   0.000000   0.000005
    21  C   -0.000009   0.000017   0.009742   0.000678  -0.000587  -0.000034
    22  C    0.000000  -0.000006   0.000678  -0.004829  -0.001159   0.000180
    23  N    0.000000   0.000000  -0.000587  -0.001159   0.015108   0.000561
    24  C    0.000000   0.000005  -0.000034   0.000180   0.000561  -0.003241
    25  C    0.000000   0.000000   0.000000   0.000000   0.000000   0.000000
    26  C    0.000000   0.000000   0.000000   0.000000   0.000000   0.000000
    27  H    0.000000   0.000000   0.000000   0.000000   0.000000   0.000000
    28  H    0.000000   0.000000   0.000000   0.000000   0.000000   0.000000
    29  H    0.000000   0.000000   0.000000   0.000000   0.000000   0.000000
    30  H    0.000000   0.000000   0.000000   0.000000   0.000000   0.000000
    31  H    0.000000   0.000000   0.000000   0.000000   0.000000   0.000001
    32  H    0.000000   0.000000   0.000000   0.000000   0.000000   0.000010
    33  H   -0.000003   0.000002  -0.000002   0.000000   0.000002   0.000080
    34  H    0.000011  -0.000033   0.000045   0.000003  -0.000002   0.000001
    35  H   -0.000002  -0.000001   0.000000   0.000000   0.000000   0.000000
    36  H   -0.000001  -0.000006   0.000000   0.000000   0.000000   0.000000
    37  H   -0.000081   0.000075   0.000001   0.000000   0.000000   0.000000
    38  H    0.000092  -0.000142  -0.000060  -0.000002   0.000000   0.000001
    39  H    0.000001   0.000000   0.000148  -0.000032  -0.000014   0.000009
    40  H    0.000000   0.000000  -0.000054   0.000035   0.000021   0.000003
    41  H    0.000000   0.000000   0.000000   0.000000   0.000000   0.000000
    42  H    0.000000   0.000000   0.000000   0.000000   0.000000   0.000000
    43  Ag   0.000044   0.000005   0.002279   0.000531  -0.007227  -0.010350
              25         26         27         28         29         30
     1  C   -0.000007   0.000033   0.000008  -0.000007  -0.000051   0.000000
     2  C   -0.000038  -0.000004  -0.000009   0.000083   0.000133   0.000001
     3  C   -0.000271   0.000070  -0.000005  -0.000158  -0.000314   0.000007
     4  C    0.000766  -0.000317  -0.000004  -0.000031   0.000022  -0.000093
     5  C   -0.000527   0.000145   0.000001   0.000006  -0.000097   0.000015
     6  C    0.000019  -0.000009   0.000000   0.000000   0.000045   0.000159
     7  C   -0.000006   0.000000   0.000000   0.000000   0.000004  -0.000035
     8  N    0.000000   0.000000   0.000000   0.000000  -0.000002  -0.000014
     9  C    0.000005   0.000000   0.000000   0.000000   0.000001   0.000009
    10  C    0.000110   0.000016   0.000000   0.000000  -0.000050   0.000015
    11  C   -0.000019   0.000008   0.000000  -0.000001  -0.000088  -0.000001
    12  C    0.000003   0.000000   0.000000   0.000000  -0.000004   0.000000
    13  C   -0.000001   0.000000   0.000000   0.000000  -0.000002   0.000000
    14  C    0.000000   0.000000   0.000000   0.000000   0.000000   0.000000
    15  C    0.000000   0.000000   0.000000   0.000000   0.000000   0.000000
    16  C    0.000000   0.000000   0.000000   0.000000   0.000000   0.000000
    17  C    0.000000   0.000000   0.000000   0.000000   0.000000   0.000000
    18  C    0.000000   0.000000   0.000000   0.000000   0.000000   0.000000
    19  C    0.000000   0.000000   0.000000   0.000000   0.000000   0.000000
    20  C    0.000000   0.000000   0.000000   0.000000   0.000000   0.000000
    21  C    0.000000   0.000000   0.000000   0.000000   0.000000   0.000000
    22  C    0.000000   0.000000   0.000000   0.000000   0.000000   0.000000
    23  N    0.000000   0.000000   0.000000   0.000000   0.000000   0.000000
    24  C    0.000000   0.000000   0.000000   0.000000   0.000000   0.000000
    25  C    0.000572  -0.000304  -0.000008  -0.000002  -0.000037   0.000000
    26  C   -0.000304   0.000354  -0.000001  -0.000002   0.000012   0.000001
    27  H   -0.000008  -0.000001   0.000046   0.000005   0.000002   0.000000
    28  H   -0.000002  -0.000002   0.000005   0.000095   0.000049   0.000000
    29  H   -0.000037   0.000012   0.000002   0.000049  -0.000611   0.000003
    30  H    0.000000   0.000001   0.000000   0.000000   0.000003  -0.000518
    31  H    0.000000   0.000000   0.000000   0.000000   0.000000   0.000000
    32  H    0.000003  -0.000003   0.000000  -0.000001  -0.000017   0.000000
    33  H    0.000000   0.000000   0.000000   0.000000   0.000000   0.000000
    34  H    0.000000   0.000000   0.000000   0.000000   0.000000   0.000000
    35  H    0.000000   0.000000   0.000000   0.000000   0.000000   0.000000
    36  H    0.000000   0.000000   0.000000   0.000000   0.000000   0.000000
    37  H    0.000000   0.000000   0.000000   0.000000   0.000000   0.000000
    38  H    0.000000   0.000000   0.000000   0.000000   0.000000   0.000000
    39  H    0.000000   0.000000   0.000000   0.000000   0.000000   0.000000
    40  H    0.000000   0.000000   0.000000   0.000000   0.000000   0.000000
    41  H   -0.000160   0.000102   0.000001   0.000000   0.000004   0.000002
    42  H    0.000083  -0.000089  -0.000008  -0.000001  -0.000001   0.000000
    43  Ag  -0.000012   0.000050   0.000003   0.000063   0.001486   0.000067
              31         32         33         34         35         36
     1  C    0.000000   0.000001   0.000000   0.000000   0.000000   0.000000
     2  C    0.000000  -0.000007   0.000000   0.000000   0.000000   0.000000
     3  C    0.000000  -0.000062   0.000000   0.000000   0.000000   0.000000
     4  C    0.000004   0.000442   0.000007   0.000000   0.000000   0.000000
     5  C    0.000035   0.000021   0.000003   0.000000   0.000000   0.000000
     6  C   -0.000059  -0.000003   0.000000   0.000000   0.000000   0.000000
     7  C    0.000045   0.000000   0.000000   0.000000   0.000000   0.000000
     8  N    0.000024   0.000002   0.000000   0.000000   0.000000   0.000000
     9  C    0.000003   0.000078   0.000007   0.000000   0.000000   0.000000
    10  C   -0.000015   0.000156   0.000133  -0.000002   0.000000   0.000000
    11  C    0.000000   0.000795   0.000073  -0.000004   0.000000   0.000000
    12  C    0.000000   0.000082   0.000798  -0.000090  -0.000001   0.000000
    13  C    0.000000   0.000126   0.000104  -0.000044   0.000000   0.000000
    14  C    0.000000   0.000003   0.000032  -0.000080   0.000005   0.000001
    15  C    0.000000   0.000007   0.000419   0.000001  -0.000030  -0.000004
    16  C    0.000000   0.000000  -0.000059  -0.000310  -0.000141  -0.000004
    17  C    0.000000   0.000000  -0.000007   0.000134   0.000073  -0.000011
    18  C    0.000000   0.000000   0.000001  -0.000049   0.000001   0.000011
    19  C    0.000000   0.000000  -0.000003   0.000011  -0.000002  -0.000001
    20  C    0.000000   0.000000   0.000002  -0.000033  -0.000001  -0.000006
    21  C    0.000000   0.000000  -0.000002   0.000045   0.000000   0.000000
    22  C    0.000000   0.000000   0.000000   0.000003   0.000000   0.000000
    23  N    0.000000   0.000000   0.000002  -0.000002   0.000000   0.000000
    24  C    0.000001   0.000010   0.000080   0.000001   0.000000   0.000000
    25  C    0.000000   0.000003   0.000000   0.000000   0.000000   0.000000
    26  C    0.000000  -0.000003   0.000000   0.000000   0.000000   0.000000
    27  H    0.000000   0.000000   0.000000   0.000000   0.000000   0.000000
    28  H    0.000000  -0.000001   0.000000   0.000000   0.000000   0.000000
    29  H    0.000000  -0.000017   0.000000   0.000000   0.000000   0.000000
    30  H    0.000000   0.000000   0.000000   0.000000   0.000000   0.000000
    31  H    0.000201   0.000000   0.000000   0.000000   0.000000   0.000000
    32  H    0.000000  -0.000129   0.000078   0.000000   0.000000   0.000000
    33  H    0.000000   0.000078  -0.000207  -0.000016  -0.000001   0.000000
    34  H    0.000000   0.000000  -0.000016  -0.000575   0.000047   0.000002
    35  H    0.000000   0.000000  -0.000001   0.000047   0.000078   0.000004
    36  H    0.000000   0.000000   0.000000   0.000002   0.000004   0.000042
    37  H    0.000000   0.000000   0.000001  -0.000001  -0.000001  -0.000008
    38  H    0.000000   0.000000  -0.000011   0.000004   0.000000   0.000001
    39  H    0.000000   0.000000   0.000000   0.000003   0.000000   0.000000
    40  H    0.000000   0.000000   0.000000   0.000000   0.000000   0.000000
    41  H    0.000000  -0.000012   0.000000   0.000000   0.000000   0.000000
    42  H    0.000000   0.000001   0.000000   0.000000   0.000000   0.000000
    43  Ag  -0.000077  -0.002470  -0.002367   0.001415   0.000056   0.000003
              37         38         39         40         41         42
     1  C    0.000000   0.000000   0.000000   0.000000  -0.000002  -0.000008
     2  C    0.000000   0.000000   0.000000   0.000000   0.000008  -0.000003
     3  C    0.000000   0.000000   0.000000   0.000000   0.000042  -0.000006
     4  C    0.000000   0.000000   0.000000   0.000000  -0.000410   0.000017
     5  C    0.000000   0.000000   0.000000   0.000000   0.000292  -0.000010
     6  C    0.000000   0.000000   0.000000   0.000000  -0.000063   0.000001
     7  C    0.000000   0.000000   0.000000   0.000000  -0.000002   0.000000
     8  N    0.000000   0.000000   0.000000   0.000000   0.000000   0.000000
     9  C    0.000000   0.000000   0.000000   0.000001   0.000001   0.000000
    10  C    0.000000   0.000000   0.000000   0.000000   0.000130  -0.000001
    11  C    0.000000   0.000003   0.000000   0.000000   0.000032  -0.000001
    12  C    0.000000   0.000032  -0.000001   0.000000   0.000003   0.000000
    13  C   -0.000001   0.000126   0.000018  -0.000014   0.000000   0.000000
    14  C   -0.000009   0.000267   0.000017   0.000033   0.000000   0.000000
    15  C    0.000016  -0.000387  -0.000096   0.000004   0.000000   0.000000
    16  C   -0.000006   0.000040   0.000007   0.000000   0.000000   0.000000
    17  C   -0.000002   0.000007   0.000001   0.000000   0.000000   0.000000
    18  C   -0.000008  -0.000001   0.000000   0.000000   0.000000   0.000000
    19  C   -0.000081   0.000092   0.000001   0.000000   0.000000   0.000000
    20  C    0.000075  -0.000142   0.000000   0.000000   0.000000   0.000000
    21  C    0.000001  -0.000060   0.000148  -0.000054   0.000000   0.000000
    22  C    0.000000  -0.000002  -0.000032   0.000035   0.000000   0.000000
    23  N    0.000000   0.000000  -0.000014   0.000021   0.000000   0.000000
    24  C    0.000000   0.000001   0.000009   0.000003   0.000000   0.000000
    25  C    0.000000   0.000000   0.000000   0.000000  -0.000160   0.000083
    26  C    0.000000   0.000000   0.000000   0.000000   0.000102  -0.000089
    27  H    0.000000   0.000000   0.000000   0.000000   0.000001  -0.000008
    28  H    0.000000   0.000000   0.000000   0.000000   0.000000  -0.000001
    29  H    0.000000   0.000000   0.000000   0.000000   0.000004  -0.000001
    30  H    0.000000   0.000000   0.000000   0.000000   0.000002   0.000000
    31  H    0.000000   0.000000   0.000000   0.000000   0.000000   0.000000
    32  H    0.000000   0.000000   0.000000   0.000000  -0.000012   0.000001
    33  H    0.000001  -0.000011   0.000000   0.000000   0.000000   0.000000
    34  H   -0.000001   0.000004   0.000003   0.000000   0.000000   0.000000
    35  H   -0.000001   0.000000   0.000000   0.000000   0.000000   0.000000
    36  H   -0.000008   0.000001   0.000000   0.000000   0.000000   0.000000
    37  H    0.000049  -0.000021   0.000000   0.000000   0.000000   0.000000
    38  H   -0.000021   0.000104   0.000002   0.000000   0.000000   0.000000
    39  H    0.000000   0.000002  -0.000496   0.000000   0.000000   0.000000
    40  H    0.000000   0.000000   0.000000   0.000220   0.000000   0.000000
    41  H    0.000000   0.000000   0.000000   0.000000   0.000112  -0.000022
    42  H    0.000000   0.000000   0.000000   0.000000  -0.000022   0.000054
    43  Ag  -0.000005   0.000073   0.000064  -0.000072   0.000078  -0.000005
              43
     1  C   -0.000043
     2  C    0.000323
     3  C   -0.000656
     4  C   -0.007693
     5  C   -0.011420
     6  C    0.002486
     7  C    0.000680
     8  N   -0.007454
     9  C   -0.011378
    10  C   -0.033755
    11  C   -0.037099
    12  C   -0.037300
    13  C   -0.030789
    14  C   -0.010770
    15  C   -0.007229
    16  C   -0.000579
    17  C    0.000303
    18  C   -0.000037
    19  C    0.000044
    20  C    0.000005
    21  C    0.002279
    22  C    0.000531
    23  N   -0.007227
    24  C   -0.010350
    25  C   -0.000012
    26  C    0.000050
    27  H    0.000003
    28  H    0.000063
    29  H    0.001486
    30  H    0.000067
    31  H   -0.000077
    32  H   -0.002470
    33  H   -0.002367
    34  H    0.001415
    35  H    0.000056
    36  H    0.000003
    37  H   -0.000005
    38  H    0.000073
    39  H    0.000064
    40  H   -0.000072
    41  H    0.000078
    42  H   -0.000005
    43  Ag   1.185644
 Mulliken charges and spin densities:
               1          2
     1  C   -0.003341  -0.000061
     2  C   -0.007354   0.000009
     3  C    0.028617   0.000532
     4  C   -0.131679  -0.000496
     5  C    0.019860  -0.002897
     6  C   -0.025429   0.008865
     7  C    0.071228  -0.004557
     8  N   -0.097013   0.009503
     9  C   -0.021230  -0.007301
    10  C   -0.005809   0.006407
    11  C    0.012712   0.001763
    12  C    0.013037   0.002854
    13  C    0.000550   0.006295
    14  C    0.018176  -0.003541
    15  C   -0.131985  -0.000398
    16  C    0.028890   0.000467
    17  C   -0.007450   0.000010
    18  C   -0.003339  -0.000058
    19  C   -0.009360   0.000052
    20  C    0.029118   0.000146
    21  C   -0.025538   0.008591
    22  C    0.071105  -0.004792
    23  N   -0.097284   0.009047
    24  C   -0.018679  -0.006744
    25  C    0.029039   0.000170
    26  C   -0.009333   0.000061
    27  H    0.019391   0.000031
    28  H    0.020285   0.000099
    29  H    0.028856   0.000486
    30  H    0.017489  -0.000382
    31  H    0.031373   0.000160
    32  H    0.042834  -0.000899
    33  H    0.042281  -0.000934
    34  H    0.028376   0.000458
    35  H    0.020305   0.000087
    36  H    0.019389   0.000029
    37  H    0.018832   0.000001
    38  H    0.011537   0.000126
    39  H    0.017515  -0.000369
    40  H    0.031328   0.000178
    41  H    0.011504   0.000135
    42  H    0.018828   0.000002
    43  Ag  -0.107633   0.976865
 Sum of Mulliken charges =   0.00000   1.00000
 Mulliken charges and spin densities with hydrogens summed into heavy atoms:
               1          2
     1  C    0.016050  -0.000029
     2  C    0.012931   0.000109
     3  C    0.057473   0.001018
     4  C   -0.131679  -0.000496
     5  C    0.019860  -0.002897
     6  C   -0.007939   0.008483
     7  C    0.102601  -0.004397
     8  N   -0.097013   0.009503
     9  C   -0.021230  -0.007301
    10  C   -0.005809   0.006407
    11  C    0.055545   0.000863
    12  C    0.055318   0.001919
    13  C    0.000550   0.006295
    14  C    0.018176  -0.003541
    15  C   -0.131985  -0.000398
    16  C    0.057266   0.000925
    17  C    0.012856   0.000098
    18  C    0.016050  -0.000029
    19  C    0.009472   0.000053
    20  C    0.040654   0.000272
    21  C   -0.008023   0.008222
    22  C    0.102433  -0.004615
    23  N   -0.097284   0.009047
    24  C   -0.018679  -0.006744
    25  C    0.040543   0.000304
    26  C    0.009495   0.000063
    43  Ag  -0.107633   0.976865
 Electronic spatial extent (au):  <R**2>=          11195.7879
 Charge=              0.0000 electrons
 Dipole moment (field-independent basis, Debye):
    X=              0.1448    Y=              2.6938    Z=             -3.8413  Tot=              4.6939
 Quadrupole moment (field-independent basis, Debye-Ang):
   XX=           -142.4188   YY=           -169.5474   ZZ=           -174.8927
   XY=             -0.7411   XZ=              0.6334   YZ=              1.3611
 Traceless Quadrupole moment (field-independent basis, Debye-Ang):
   XX=             19.8675   YY=             -7.2611   ZZ=            -12.6064
   XY=             -0.7411   XZ=              0.6334   YZ=              1.3611
 Octapole moment (field-independent basis, Debye-Ang**2):
  XXX=              9.4937  YYY=            153.1662  ZZZ=           -295.0790  XYY=              2.7039
  XXY=             57.1368  XXZ=            -80.8501  XZZ=              4.0352  YZZ=             47.4573
  YYZ=            -85.6230  XYZ=              0.0569
 Hexadecapole moment (field-independent basis, Debye-Ang**3):
 XXXX=         -10391.8222 YYYY=          -3471.8397 ZZZZ=          -1988.9289 XXXY=            123.7870
 XXXZ=            -66.0654 YYYX=             53.9977 YYYZ=            511.4723 ZZZX=            -42.9818
 ZZZY=            483.8081 XXYY=          -1916.7892 XXZZ=          -1914.4368 YYZZ=           -886.0048
 XXYZ=             67.4141 YYXZ=             -5.1830 ZZXY=             22.5375
 N-N= 2.446663811621D+03 E-N=-7.600611282681D+03  KE= 1.078310087651D+03
                          Isotropic Fermi Contact Couplings
        Atom                 a.u.       MegaHertz       Gauss      10(-4) cm-1
     1  C(13)              0.00009       0.09956       0.03553       0.03321
     2  C(13)             -0.00012      -0.13073      -0.04665      -0.04361
     3  C(13)              0.00047       0.53301       0.19019       0.17779
     4  C(13)             -0.00014      -0.15757      -0.05623      -0.05256
     5  C(13)              0.00031       0.35232       0.12572       0.11752
     6  C(13)              0.00141       1.58910       0.56703       0.53007
     7  C(13)             -0.00133      -1.50039      -0.53538      -0.50048
     8  N(14)              0.00465       1.50258       0.53616       0.50121
     9  C(13)              0.00447       5.02750       1.79394       1.67699
    10  C(13)              0.01078      12.12087       4.32503       4.04309
    11  C(13)              0.01174      13.20136       4.71057       4.40350
    12  C(13)              0.01167      13.11660       4.68033       4.37523
    13  C(13)              0.01013      11.38607       4.06283       3.79798
    14  C(13)              0.00013       0.15079       0.05381       0.05030
    15  C(13)             -0.00010      -0.11221      -0.04004      -0.03743
    16  C(13)              0.00041       0.46367       0.16545       0.15466
    17  C(13)             -0.00011      -0.11950      -0.04264      -0.03986
    18  C(13)              0.00008       0.09002       0.03212       0.03003
    19  C(13)              0.00001       0.01121       0.00400       0.00374
    20  C(13)              0.00060       0.67219       0.23985       0.22422
    21  C(13)              0.00139       1.56371       0.55797       0.52160
    22  C(13)             -0.00134      -1.50103      -0.53561      -0.50069
    23  N(14)              0.00441       1.42554       0.50867       0.47551
    24  C(13)              0.00433       4.86939       1.73752       1.62425
    25  C(13)              0.00069       0.77347       0.27599       0.25800
    26  C(13)              0.00001       0.01641       0.00586       0.00547
    27  H(1)               0.00001       0.04360       0.01556       0.01454
    28  H(1)               0.00002       0.07732       0.02759       0.02579
    29  H(1)               0.00006       0.28408       0.10137       0.09476
    30  H(1)              -0.00012      -0.53010      -0.18915      -0.17682
    31  H(1)               0.00005       0.20858       0.07443       0.06957
    32  H(1)               0.00002       0.09499       0.03390       0.03169
    33  H(1)               0.00000      -0.00980      -0.00350      -0.00327
    34  H(1)               0.00006       0.27375       0.09768       0.09131
    35  H(1)               0.00001       0.06697       0.02390       0.02234
    36  H(1)               0.00001       0.04013       0.01432       0.01339
    37  H(1)               0.00000      -0.00063      -0.00023      -0.00021
    38  H(1)               0.00000       0.00020       0.00007       0.00007
    39  H(1)              -0.00011      -0.51157      -0.18254      -0.17064
    40  H(1)               0.00005       0.23014       0.08212       0.07677
    41  H(1)               0.00000      -0.00203      -0.00073      -0.00068
    42  H(1)               0.00000       0.00035       0.00013       0.00012
    43  Ag(107             0.00030      -0.05479      -0.01955      -0.01827
 --------------------------------------------------------
       Center         ----  Spin Dipole Couplings  ----
                      3XX-RR        3YY-RR        3ZZ-RR
 --------------------------------------------------------
     1   Atom        0.000241     -0.000295      0.000053
     2   Atom        0.000666     -0.000341     -0.000325
     3   Atom        0.000594     -0.002154      0.001560
     4   Atom        0.001346     -0.001550      0.000204
     5   Atom       -0.000872     -0.003974      0.004846
     6   Atom       -0.002328     -0.003065      0.005393
     7   Atom        0.002499      0.001806     -0.004305
     8   Atom       -0.012999     -0.007107      0.020105
     9   Atom        0.000479      0.004803     -0.005283
    10   Atom       -0.008121     -0.007237      0.015358
    11   Atom       -0.008838     -0.009462      0.018300
    12   Atom       -0.009308     -0.009787      0.019095
    13   Atom       -0.007523     -0.006605      0.014128
    14   Atom       -0.000214     -0.003298      0.003512
    15   Atom        0.001448     -0.001522      0.000074
    16   Atom        0.000905     -0.002124      0.001219
    17   Atom        0.000794     -0.000421     -0.000373
    18   Atom        0.000337     -0.000338      0.000001
    19   Atom        0.000323     -0.000432      0.000109
    20   Atom        0.000316     -0.000703      0.000387
    21   Atom       -0.002311     -0.002854      0.005165
    22   Atom        0.002544      0.002019     -0.004563
    23   Atom       -0.012343     -0.006430      0.018774
    24   Atom        0.000449      0.004780     -0.005229
    25   Atom        0.000190     -0.000689      0.000499
    26   Atom        0.000263     -0.000416      0.000154
    27   Atom        0.000177     -0.000130     -0.000047
    28   Atom        0.000632     -0.000133     -0.000499
    29   Atom        0.003360     -0.002020     -0.001340
    30   Atom        0.001346     -0.000920     -0.000426
    31   Atom        0.000168      0.000588     -0.000756
    32   Atom       -0.002101     -0.001298      0.003399
    33   Atom       -0.001756     -0.001421      0.003177
    34   Atom        0.003584     -0.002119     -0.001465
    35   Atom        0.000742     -0.000223     -0.000519
    36   Atom        0.000236     -0.000163     -0.000073
    37   Atom        0.000115     -0.000282      0.000167
    38   Atom        0.000128     -0.000653      0.000525
    39   Atom        0.001271     -0.000805     -0.000466
    40   Atom        0.000128      0.000649     -0.000778
    41   Atom        0.000054     -0.000667      0.000613
    42   Atom        0.000066     -0.000270      0.000204
    43   Atom        0.012050      0.017184     -0.029234
 --------------------------------------------------------
                        XY            XZ            YZ
 --------------------------------------------------------
     1   Atom       -0.000452      0.000663     -0.000271
     2   Atom       -0.000725      0.000783     -0.000432
     3   Atom       -0.000857      0.002158     -0.000126
     4   Atom       -0.000181      0.001555     -0.000183
     5   Atom        0.001723      0.004603      0.001934
     6   Atom        0.001307      0.000751      0.003847
     7   Atom        0.001548      0.001236     -0.000684
     8   Atom        0.002353      0.003538      0.012226
     9   Atom        0.001942      0.001199      0.000641
    10   Atom        0.002728      0.006750      0.009105
    11   Atom        0.000403      0.002355      0.003785
    12   Atom       -0.000572     -0.003293      0.004591
    13   Atom       -0.002931     -0.006857      0.008958
    14   Atom       -0.001889     -0.004411      0.001678
    15   Atom        0.000008     -0.001502     -0.000092
    16   Atom        0.000679     -0.002095     -0.000015
    17   Atom        0.000662     -0.000753     -0.000350
    18   Atom        0.000416     -0.000650     -0.000215
    19   Atom        0.000230     -0.000658     -0.000181
    20   Atom        0.000263     -0.001193     -0.000198
    21   Atom       -0.001434     -0.000806      0.003734
    22   Atom       -0.001538     -0.001023     -0.000813
    23   Atom       -0.002396     -0.003767      0.011803
    24   Atom       -0.001774     -0.000988      0.000457
    25   Atom       -0.000330      0.001218     -0.000302
    26   Atom       -0.000272      0.000664     -0.000231
    27   Atom       -0.000312      0.000371     -0.000223
    28   Atom       -0.000807      0.000467     -0.000282
    29   Atom       -0.001725      0.002215     -0.000688
    30   Atom        0.000799      0.000795      0.000565
    31   Atom        0.001010      0.000483      0.000538
    32   Atom       -0.001350      0.002315     -0.002327
    33   Atom        0.001533     -0.002675     -0.002128
    34   Atom        0.001371     -0.001976     -0.000488
    35   Atom        0.000749     -0.000431     -0.000225
    36   Atom        0.000294     -0.000368     -0.000187
    37   Atom        0.000128     -0.000453     -0.000130
    38   Atom       -0.000042     -0.000910      0.000087
    39   Atom       -0.000921     -0.000691      0.000561
    40   Atom       -0.000982     -0.000424      0.000526
    41   Atom       -0.000007      0.000913      0.000035
    42   Atom       -0.000146      0.000448     -0.000164
    43   Atom       -0.000383      0.000383     -0.003849
 --------------------------------------------------------


 ---------------------------------------------------------------------------------
              Anisotropic Spin Dipole Couplings in Principal Axis System
 ---------------------------------------------------------------------------------

       Atom             a.u.   MegaHertz   Gauss  10(-4) cm-1        Axes

              Baa    -0.0006    -0.080    -0.029    -0.027  0.6655  0.6158 -0.4218
     1 C(13)  Bbb    -0.0004    -0.057    -0.020    -0.019 -0.2099  0.6968  0.6859
              Bcc     0.0010     0.137     0.049     0.046  0.7163 -0.3679  0.5930
 
              Baa    -0.0008    -0.104    -0.037    -0.035 -0.2172  0.4842  0.8475
     2 C(13)  Bbb    -0.0007    -0.096    -0.034    -0.032  0.5695  0.7680 -0.2929
              Bcc     0.0015     0.199     0.071     0.067  0.7928 -0.4191  0.4426
 
              Baa    -0.0025    -0.333    -0.119    -0.111  0.3739  0.9115 -0.1712
     3 C(13)  Bbb    -0.0009    -0.118    -0.042    -0.039  0.6781 -0.3946 -0.6200
              Bcc     0.0034     0.451     0.161     0.150  0.6327 -0.1158  0.7657
 
              Baa    -0.0016    -0.211    -0.075    -0.070  0.0133  0.9957  0.0913
     4 C(13)  Bbb    -0.0009    -0.118    -0.042    -0.039 -0.5753 -0.0671  0.8152
              Bcc     0.0024     0.328     0.117     0.110  0.8178 -0.0633  0.5719
 
              Baa    -0.0047    -0.637    -0.227    -0.212 -0.4311  0.9020  0.0250
     5 C(13)  Bbb    -0.0032    -0.429    -0.153    -0.143  0.7613  0.3785 -0.5265
              Bcc     0.0079     1.066     0.380     0.356  0.4844  0.2079  0.8498
 
              Baa    -0.0049    -0.660    -0.235    -0.220 -0.3578  0.8831 -0.3035
     6 C(13)  Bbb    -0.0021    -0.283    -0.101    -0.095  0.9253  0.2917 -0.2422
              Bcc     0.0070     0.943     0.337     0.315  0.1254  0.3675  0.9216
 
              Baa    -0.0047    -0.626    -0.223    -0.209 -0.1995  0.1501  0.9683
     7 C(13)  Bbb     0.0009     0.119     0.043     0.040 -0.5710  0.7853 -0.2394
              Bcc     0.0038     0.507     0.181     0.169  0.7964  0.6006  0.0710
 
              Baa    -0.0139    -0.535    -0.191    -0.178  0.9076 -0.4161  0.0553
     8 N(14)  Bbb    -0.0114    -0.439    -0.157    -0.146  0.4057  0.8357 -0.3701
              Bcc     0.0252     0.973     0.347     0.325  0.1078  0.3583  0.9273
 
              Baa    -0.0055    -0.742    -0.265    -0.247 -0.1877 -0.0257  0.9819
     9 C(13)  Bbb    -0.0001    -0.016    -0.006    -0.005  0.9101 -0.3807  0.1640
              Bcc     0.0056     0.758     0.270     0.253  0.3696  0.9244  0.0948
 
              Baa    -0.0106    -1.423    -0.508    -0.475 -0.4333  0.8797 -0.1958
    10 C(13)  Bbb    -0.0098    -1.317    -0.470    -0.439  0.8668  0.3472 -0.3580
              Bcc     0.0204     2.741     0.978     0.914  0.2469  0.3249  0.9130
 
              Baa    -0.0100    -1.339    -0.478    -0.447 -0.0916  0.9880 -0.1246
    11 C(13)  Bbb    -0.0090    -1.212    -0.433    -0.404  0.9921  0.0798 -0.0965
              Bcc     0.0190     2.551     0.910     0.851  0.0854  0.1325  0.9875
 
              Baa    -0.0105    -1.409    -0.503    -0.470  0.0729  0.9868 -0.1449
    12 C(13)  Bbb    -0.0097    -1.299    -0.464    -0.433  0.9910 -0.0553  0.1222
              Bcc     0.0202     2.709     0.967     0.904 -0.1126  0.1525  0.9819
 
              Baa    -0.0101    -1.361    -0.486    -0.454  0.4966  0.8505 -0.1736
    13 C(13)  Bbb    -0.0094    -1.257    -0.449    -0.419  0.8264 -0.4020  0.3944
              Bcc     0.0195     2.619     0.934     0.874 -0.2656  0.3393  0.9024
 
              Baa    -0.0042    -0.569    -0.203    -0.190  0.5218  0.8454  0.1139
    14 C(13)  Bbb    -0.0028    -0.373    -0.133    -0.124  0.6522 -0.4814  0.5856
              Bcc     0.0070     0.942     0.336     0.314 -0.5499  0.2312  0.8026
 
              Baa    -0.0015    -0.205    -0.073    -0.069  0.0490  0.9935  0.1029
    15 C(13)  Bbb    -0.0009    -0.118    -0.042    -0.039  0.5386 -0.1130  0.8349
              Bcc     0.0024     0.324     0.116     0.108  0.8411  0.0145 -0.5407
 
              Baa    -0.0023    -0.315    -0.112    -0.105 -0.3100  0.9339 -0.1783
    16 C(13)  Bbb    -0.0009    -0.115    -0.041    -0.038  0.6594  0.3463  0.6673
              Bcc     0.0032     0.430     0.153     0.143 -0.6849 -0.0893  0.7231
 
              Baa    -0.0008    -0.101    -0.036    -0.034  0.2116  0.4760  0.8536
    17 C(13)  Bbb    -0.0007    -0.095    -0.034    -0.032 -0.5118  0.7980 -0.3181
              Bcc     0.0015     0.196     0.070     0.065  0.8326  0.3696 -0.4125
 
              Baa    -0.0006    -0.078    -0.028    -0.026 -0.6107  0.6586 -0.4397
    18 C(13)  Bbb    -0.0004    -0.056    -0.020    -0.019  0.2278  0.6779  0.6990
              Bcc     0.0010     0.134     0.048     0.045  0.7584  0.3267 -0.5640
 
              Baa    -0.0005    -0.067    -0.024    -0.022 -0.3054  0.9510 -0.0481
    19 C(13)  Bbb    -0.0004    -0.060    -0.021    -0.020  0.5913  0.2290  0.7732
              Bcc     0.0009     0.127     0.045     0.042  0.7464  0.2077 -0.6323
 
              Baa    -0.0009    -0.116    -0.041    -0.039  0.6945 -0.3984  0.5991
    20 C(13)  Bbb    -0.0007    -0.098    -0.035    -0.033  0.1982  0.9064  0.3731
              Bcc     0.0016     0.213     0.076     0.071 -0.6917 -0.1403  0.7084
 
              Baa    -0.0048    -0.642    -0.229    -0.214  0.4063  0.8658 -0.2920
    21 C(13)  Bbb    -0.0020    -0.272    -0.097    -0.091  0.9030 -0.3316  0.2733
              Bcc     0.0068     0.914     0.326     0.305 -0.1398  0.3747  0.9165
 
              Baa    -0.0049    -0.653    -0.233    -0.218  0.1661  0.1521  0.9743
    22 C(13)  Bbb     0.0010     0.136     0.049     0.045  0.6130  0.7580 -0.2228
              Bcc     0.0039     0.517     0.184     0.172  0.7724 -0.6343 -0.0326
 
              Baa    -0.0132    -0.509    -0.182    -0.170  0.9229  0.3836 -0.0329
    23 N(14)  Bbb    -0.0108    -0.415    -0.148    -0.138 -0.3659  0.8472 -0.3852
              Bcc     0.0240     0.924     0.330     0.308 -0.1199  0.3675  0.9222
 
              Baa    -0.0054    -0.724    -0.259    -0.242  0.1618 -0.0161  0.9867
    24 C(13)  Bbb    -0.0001    -0.009    -0.003    -0.003  0.9246  0.3519 -0.1459
              Bcc     0.0055     0.734     0.262     0.245 -0.3448  0.9359  0.0719
 
              Baa    -0.0009    -0.121    -0.043    -0.040  0.7444  0.3405 -0.5743
    25 C(13)  Bbb    -0.0008    -0.101    -0.036    -0.034 -0.1433  0.9216  0.3606
              Bcc     0.0017     0.222     0.079     0.074  0.6521 -0.1862  0.7349
 
              Baa    -0.0005    -0.069    -0.025    -0.023  0.3463  0.9379 -0.0196
    26 C(13)  Bbb    -0.0005    -0.061    -0.022    -0.020 -0.6087  0.2405  0.7561
              Bcc     0.0010     0.130     0.046     0.043  0.7139 -0.2499  0.6542
 
              Baa    -0.0003    -0.175    -0.062    -0.058  0.6861  0.5637 -0.4598
    27 H(1)   Bbb    -0.0003    -0.168    -0.060    -0.056 -0.0951  0.6961  0.7116
              Bcc     0.0006     0.343     0.122     0.114  0.7212 -0.4445  0.5312
 
              Baa    -0.0007    -0.357    -0.127    -0.119 -0.4348 -0.1915  0.8799
    28 H(1)   Bbb    -0.0006    -0.341    -0.122    -0.114  0.3939  0.8383  0.3771
              Bcc     0.0013     0.698     0.249     0.233  0.8098 -0.5105  0.2891
 
              Baa    -0.0025    -1.350    -0.482    -0.450  0.2425  0.9643  0.1061
    29 H(1)   Bbb    -0.0022    -1.184    -0.422    -0.395 -0.3714 -0.0087  0.9284
              Bcc     0.0047     2.534     0.904     0.845  0.8963 -0.2646  0.3560
 
              Baa    -0.0013    -0.705    -0.252    -0.235 -0.1346  0.8875 -0.4407
    30 H(1)   Bbb    -0.0006    -0.343    -0.122    -0.114 -0.4631  0.3369  0.8198
              Bcc     0.0020     1.048     0.374     0.350  0.8760  0.3145  0.3656
 
              Baa    -0.0010    -0.522    -0.186    -0.174 -0.2618 -0.1582  0.9521
    31 H(1)   Bbb    -0.0006    -0.347    -0.124    -0.116  0.7499 -0.6543  0.0975
              Bcc     0.0016     0.869     0.310     0.290  0.6075  0.7395  0.2900
 
              Baa    -0.0032    -1.697    -0.606    -0.566  0.8834  0.4424 -0.1544
    32 H(1)   Bbb    -0.0021    -1.136    -0.405    -0.379 -0.3246  0.8154  0.4793
              Bcc     0.0053     2.833     1.011     0.945  0.3379 -0.3733  0.8640
 
              Baa    -0.0032    -1.731    -0.618    -0.577  0.8497 -0.4913  0.1912
    33 H(1)   Bbb    -0.0021    -1.112    -0.397    -0.371  0.3474  0.7946  0.4980
              Bcc     0.0053     2.843     1.014     0.948 -0.3966 -0.3567  0.8458
 
              Baa    -0.0024    -1.299    -0.464    -0.433 -0.1849  0.9761  0.1140
    34 H(1)   Bbb    -0.0021    -1.145    -0.409    -0.382  0.3356 -0.0463  0.9409
              Bcc     0.0046     2.445     0.872     0.815  0.9237  0.2123 -0.3190
 
              Baa    -0.0007    -0.349    -0.124    -0.116  0.3896 -0.2099  0.8968
    35 H(1)   Bbb    -0.0006    -0.335    -0.120    -0.112 -0.3588  0.8622  0.3577
              Bcc     0.0013     0.684     0.244     0.228  0.8482  0.4611 -0.2606
 
              Baa    -0.0003    -0.172    -0.061    -0.057  0.6326 -0.6176  0.4674
    36 H(1)   Bbb    -0.0003    -0.165    -0.059    -0.055  0.1243  0.6766  0.7258
              Bcc     0.0006     0.338     0.120     0.113  0.7644  0.4011 -0.5047
 
              Baa    -0.0003    -0.171    -0.061    -0.057 -0.4592  0.8665 -0.1955
    37 H(1)   Bbb    -0.0003    -0.166    -0.059    -0.055  0.5792  0.4589  0.6737
              Bcc     0.0006     0.337     0.120     0.112 -0.6735 -0.1962  0.7126
 
              Baa    -0.0007    -0.355    -0.127    -0.118 -0.2311  0.9415 -0.2453
    38 H(1)   Bbb    -0.0006    -0.319    -0.114    -0.106  0.7446  0.3334  0.5783
              Bcc     0.0013     0.674     0.240     0.225 -0.6262  0.0490  0.7781
 
              Baa    -0.0013    -0.688    -0.246    -0.230  0.2002  0.8798 -0.4312
    39 H(1)   Bbb    -0.0006    -0.338    -0.121    -0.113  0.4524  0.3074  0.8372
              Bcc     0.0019     1.026     0.366     0.342  0.8691 -0.3627 -0.3364
 
              Baa    -0.0010    -0.518    -0.185    -0.173  0.2006 -0.1904  0.9610
    40 H(1)   Bbb    -0.0006    -0.334    -0.119    -0.112  0.7836  0.6199 -0.0408
              Bcc     0.0016     0.852     0.304     0.284 -0.5880  0.7612  0.2736
 
              Baa    -0.0007    -0.362    -0.129    -0.121  0.3267  0.9100 -0.2554
    41 H(1)   Bbb    -0.0006    -0.325    -0.116    -0.108  0.7346 -0.4145 -0.5371
              Bcc     0.0013     0.687     0.245     0.229  0.5946  0.0122  0.8039
 
              Baa    -0.0003    -0.173    -0.062    -0.058  0.5123  0.8412 -0.1732
    42 H(1)   Bbb    -0.0003    -0.168    -0.060    -0.056 -0.5797  0.4875  0.6530
              Bcc     0.0006     0.342     0.122     0.114  0.6337 -0.2341  0.7373
 
              Baa    -0.0296     0.641     0.229     0.214 -0.0084  0.0820  0.9966
    43 Ag(107 Bbb     0.0120    -0.261    -0.093    -0.087  0.9971  0.0756  0.0022
              Bcc     0.0175    -0.380    -0.136    -0.127 -0.0752  0.9938 -0.0824
 

 ---------------------------------------------------------------------------------

 No NMR shielding tensors so no spin-rotation constants.
 Leave Link  601 at Fri Sep 11 23:44:10 2026, MaxMem=  6442450944 cpu:               4.0 elap:               4.4
 (Enter C:\G16W\l9999.exe)
 Unable to Open any file for archive entry.
 1|1|UNPC-DESKTOP-2JKEGCA|SP|UPBE1PBE|def2SVP|C24H16Ag1N2(2)|JHKIM|11-S
 ep-2026|0||#P PBE1PBE/Def2SVP EmpiricalDispersion=GD3BJ SP SCF=(XQC,Ma
 xCycle=128) NoSymm Guess=Read||Bphen t=1.000 dz=+0.00 class=toface||0,
 2|C,0,-5.075104,2.596057,-0.848582|C,0,-4.715716,2.434163,0.478857|C,0
 ,-3.985648,1.326254,0.870754|C,0,-3.608814,0.370482,-0.0652|C,0,-2.849
 893,-0.827816,0.356392|C,0,-3.512903,-1.97087,0.7492|C,0,-2.764008,-3.
 084836,1.14144|N,0,-1.457428,-3.11297,1.160054|C,0,-0.787031,-2.018643
 ,0.784213|C,0,-1.437298,-0.832182,0.367434|C,0,-0.667287,0.300298,-0.0
 21018|C,0,0.685824,0.263426,0.000908|C,0,1.380055,-0.908949,0.413101|C
 ,0,2.790408,-0.981482,0.44787|C,0,3.626694,0.173326,0.052066|C,0,4.025
 328,1.1075,1.000707|C,0,4.826918,2.173661,0.633555|C,0,5.236571,2.3150
 29,-0.681611|C,0,4.841079,1.387397,-1.630584|C,0,4.039486,0.320062,-1.
 266868|C,0,3.377135,-2.158548,0.861055|C,0,2.556396,-3.229745,1.227851
 |N,0,1.250307,-3.186722,1.204024|C,0,0.653004,-2.057874,0.807573|C,0,-
 3.970941,0.537891,-1.396496|C,0,-4.70102,1.647,-1.784966|H,0,-5.646599
 ,3.460423,-1.152844|H,0,-5.005817,3.172287,1.212213|H,0,-3.703341,1.19
 5908,1.905798|H,0,-4.592243,-2.003673,0.753324|H,0,-3.258742,-3.995483
 ,1.454638|H,0,-1.191655,1.191943,-0.334479|H,0,1.267832,1.124926,-0.29
 4617|H,0,3.703614,0.993274,2.026112|H,0,5.133493,2.89518,1.376669|H,0,
 5.863825,3.146713,-0.966506|H,0,5.158745,1.49424,-2.657458|H,0,3.72879
 3,-0.40634,-2.004305|H,0,4.452389,-2.250041,0.900153|H,0,2.990418,-4.1
 65689,1.556131|H,0,-3.677198,-0.205338,-2.124046|H,0,-4.979626,1.76976
 2,-2.821356|Ag,0,-0.06485851,-0.00551148,2.50289837||Version=EM64W-G16
 RevC.01|HF=-1178.7498267|S2=0.752224|S2-1=0.|S2A=0.750004|RMSD=5.717e-
 009|Dipole=0.0569494,1.0598029,-1.5112907|Quadrupole=14.7710099,-5.398
 4315,-9.3725784,-0.5509598,0.4708961,1.0119193|PG=C01 [X(C24H16Ag1N2)]
 ||@
 The archive entry for this job was punched.


 FRICTION IS A DRAG,
 AND ENTROPY AIN'T WHAT IT USED TO BE.
 Job cpu time:       0 days  0 hours 12 minutes 19.0 seconds.
 Elapsed time:       0 days  0 hours 12 minutes 17.0 seconds.
 File lengths (MBytes):  RWF=    212 Int=      0 D2E=      0 Chk=     17 Scr=      1
 Normal termination of Gaussian 16 at Fri Sep 11 23:44:11 2026.
