 Entering Gaussian System, Link 0=C:\G16W\g16.exe
 Input=BTD_t0_z0.gjf
 Output=BTD_t0_z0.out
 Initial command:
 C:\G16W\l1.exe ".\Gau-106920.inp" "BTD_t0_z0.out" /scrdir=".\"
 Entering Link 1 = C:\G16W\l1.exe PID=    105820.
  
 Copyright (c) 1988-2019, Gaussian, Inc.  All Rights Reserved.
  
 This is part of the Gaussian(R) 16 program.  It is based on
 the Gaussian(R) 09 system (copyright 2009, Gaussian, Inc.),
 the Gaussian(R) 03 system (copyright 2003, Gaussian, Inc.),
 the Gaussian(R) 98 system (copyright 1998, Gaussian, Inc.),
 the Gaussian(R) 94 system (copyright 1995, Gaussian, Inc.),
 the Gaussian 92(TM) system (copyright 1992, Gaussian, Inc.),
 the Gaussian 90(TM) system (copyright 1990, Gaussian, Inc.),
 the Gaussian 88(TM) system (copyright 1988, Gaussian, Inc.),
 the Gaussian 86(TM) system (copyright 1986, Carnegie Mellon
 University), and the Gaussian 82(TM) system (copyright 1983,
 Carnegie Mellon University). Gaussian is a federally registered
 trademark of Gaussian, Inc.
  
 This software contains proprietary and confidential information,
 including trade secrets, belonging to Gaussian, Inc.
  
 This software is provided under written license and may be
 used, copied, transmitted, or stored only in accord with that
 written license.
  
 The following legend is applicable only to US Government
 contracts under FAR:
  
                    RESTRICTED RIGHTS LEGEND
  
 Use, reproduction and disclosure by the US Government is
 subject to restrictions as set forth in subparagraphs (a)
 and (c) of the Commercial Computer Software - Restricted
 Rights clause in FAR 52.227-19.
  
 Gaussian, Inc.
 340 Quinnipiac St., Bldg. 40, Wallingford CT 06492
  
  
 ---------------------------------------------------------------
 Warning -- This program may not be used in any manner that
 competes with the business of Gaussian, Inc. or will provide
 assistance to any competitor of Gaussian, Inc.  The licensee
 of this program is prohibited from giving any competitor of
 Gaussian, Inc. access to this program.  By using this program,
 the user acknowledges that Gaussian, Inc. is engaged in the
 business of creating and licensing software in the field of
 computational chemistry and represents and warrants to the
 licensee that it is not a competitor of Gaussian, Inc. and that
 it will not use this program in any manner prohibited above.
 ---------------------------------------------------------------
  

 Cite this work as:
 Gaussian 16, Revision C.01,
 M. J. Frisch, G. W. Trucks, H. B. Schlegel, G. E. Scuseria, 
 M. A. Robb, J. R. Cheeseman, G. Scalmani, V. Barone, 
 G. A. Petersson, H. Nakatsuji, X. Li, M. Caricato, A. V. Marenich, 
 J. Bloino, B. G. Janesko, R. Gomperts, B. Mennucci, H. P. Hratchian, 
 J. V. Ortiz, A. F. Izmaylov, J. L. Sonnenberg, D. Williams-Young, 
 F. Ding, F. Lipparini, F. Egidi, J. Goings, B. Peng, A. Petrone, 
 T. Henderson, D. Ranasinghe, V. G. Zakrzewski, J. Gao, N. Rega, 
 G. Zheng, W. Liang, M. Hada, M. Ehara, K. Toyota, R. Fukuda, 
 J. Hasegawa, M. Ishida, T. Nakajima, Y. Honda, O. Kitao, H. Nakai, 
 T. Vreven, K. Throssell, J. A. Montgomery, Jr., J. E. Peralta, 
 F. Ogliaro, M. J. Bearpark, J. J. Heyd, E. N. Brothers, K. N. Kudin, 
 V. N. Staroverov, T. A. Keith, R. Kobayashi, J. Normand, 
 K. Raghavachari, A. P. Rendell, J. C. Burant, S. S. Iyengar, 
 J. Tomasi, M. Cossi, J. M. Millam, M. Klene, C. Adamo, R. Cammi, 
 J. W. Ochterski, R. L. Martin, K. Morokuma, O. Farkas, 
 J. B. Foresman, and D. J. Fox, Gaussian, Inc., Wallingford CT, 2019.
 
 ******************************************
 Gaussian 16:  EM64W-G16RevC.01 30-May-2019
                11-Sep-2026 
 ******************************************
 %Chk=BTD.chk
 %NProcShared=8
 Will use up to    8 processors via shared memory.
 %Mem=48GB
 ----------------------------------------------------------------------
 #P PBE1PBE/Def2SVP EmpiricalDispersion=GD3BJ SP SCF=(XQC,MaxCycle=128,
 VShift=300) NoSymm
 ----------------------------------------------------------------------
 1/38=1,172=1/1;
 2/12=2,15=1,17=6,18=5,40=1/2;
 3/5=43,7=101,11=2,25=1,30=1,74=-13,124=41/1,2,3;
 4//1;
 5/5=2,7=128,8=3,10=300,13=1,38=5/2,8;
 6/7=2,8=2,9=2,10=2,28=1/1;
 99/5=1,9=1/99;
 Leave Link    1 at Fri Sep 11 20:32:35 2026, MaxMem=  6442450944 cpu:               0.0 elap:               0.2
 (Enter C:\G16W\l101.exe)
 ------------------------------------
 BTD t=0.000 dz=+0.00 class=site2site
 ------------------------------------
 Symbolic Z-matrix:
 Charge =  0 Multiplicity = 2
 C                    -1.40002   0.71901   0.07961 
 C                    -1.39414  -0.67223   0.12659 
 C                    -0.19866  -1.37337   0.06155 
 C                     0.98394  -0.66116  -0.05075 
 N                     2.24459  -1.19124  -0.12662 
 S                     3.33076   0.13763  -0.25254 
 N                     2.20699   1.30406  -0.20856 
 C                     0.98648   0.76324  -0.09941 
 C                    -0.23232   1.44807  -0.03207 
 H                    -2.34429   1.24056   0.13209 
 H                    -2.32581  -1.21033   0.21425 
 H                    -0.1643   -2.47148   0.09641 
 H                    -0.2381    2.52496  -0.06831 
 Ag                    2.47385  -3.72046  -0.05615 
 
 ITRead=  0  0  0  0  0  0  0  0  0  0  0  0  0  0
 MicOpt= -1 -1 -1 -1 -1 -1 -1 -1 -1 -1 -1 -1 -1 -1
 NAtoms=     14 NQM=       14 NQMF=       0 NMMI=      0 NMMIF=      0
                NMic=       0 NMicF=      0.
                    Isotopes and Nuclear Properties:
 (Nuclear quadrupole moments (NQMom) in fm**2, nuclear magnetic moments (NMagM)
  in nuclear magnetons)

  Atom         1           2           3           4           5           6           7           8           9          10
 IAtWgt=          12          12          12          12          14          32          14          12          12           1
 AtmWgt=  12.0000000  12.0000000  12.0000000  12.0000000  14.0030740  31.9720718  14.0030740  12.0000000  12.0000000   1.0078250
 NucSpn=           0           0           0           0           2           0           2           0           0           1
 AtZEff=   0.0000000   0.0000000   0.0000000   0.0000000   0.0000000   0.0000000   0.0000000   0.0000000   0.0000000   0.0000000
 NQMom=    0.0000000   0.0000000   0.0000000   0.0000000   2.0440000   0.0000000   2.0440000   0.0000000   0.0000000   0.0000000
 NMagM=    0.0000000   0.0000000   0.0000000   0.0000000   0.4037610   0.0000000   0.4037610   0.0000000   0.0000000   2.7928460
 AtZNuc=   6.0000000   6.0000000   6.0000000   6.0000000   7.0000000  16.0000000   7.0000000   6.0000000   6.0000000   1.0000000

  Atom        11          12          13          14
 IAtWgt=           1           1           1         107
 AtmWgt=   1.0078250   1.0078250   1.0078250 106.9050900
 NucSpn=           1           1           1           1
 AtZEff=   0.0000000   0.0000000   0.0000000   0.0000000
 NQMom=    0.0000000   0.0000000   0.0000000   0.0000000
 NMagM=    2.7928460   2.7928460   2.7928460  -0.1135700
 AtZNuc=   1.0000000   1.0000000   1.0000000  47.0000000
 Leave Link  101 at Fri Sep 11 20:32:36 2026, MaxMem=  6442450944 cpu:               1.0 elap:               0.3
 (Enter C:\G16W\l202.exe)
                          Input orientation:                          
 ---------------------------------------------------------------------
 Center     Atomic      Atomic             Coordinates (Angstroms)
 Number     Number       Type             X           Y           Z
 ---------------------------------------------------------------------
      1          6           0       -1.400023    0.719011    0.079614
      2          6           0       -1.394141   -0.672233    0.126589
      3          6           0       -0.198659   -1.373371    0.061546
      4          6           0        0.983943   -0.661156   -0.050750
      5          7           0        2.244593   -1.191239   -0.126615
      6         16           0        3.330762    0.137630   -0.252539
      7          7           0        2.206990    1.304055   -0.208559
      8          6           0        0.986478    0.763236   -0.099412
      9          6           0       -0.232315    1.448065   -0.032072
     10          1           0       -2.344291    1.240556    0.132090
     11          1           0       -2.325813   -1.210325    0.214251
     12          1           0       -0.164295   -2.471476    0.096407
     13          1           0       -0.238097    2.524956   -0.068309
     14         47           0        2.473846   -3.720464   -0.056150
 ---------------------------------------------------------------------
                    Distance matrix (angstroms):
                    1          2          3          4          5
     1  C    0.000000
     2  C    1.392049   0.000000
     3  C    2.412813   1.387445   0.000000
     4  C    2.757744   2.384713   1.385066   0.000000
     5  N    4.120050   3.684273   2.457246   1.369665   0.000000
     6  S    4.777934   4.808776   3.852089   2.487235   1.720905
     7  N    3.665496   4.121430   3.609531   2.320087   2.496922
     8  C    2.393615   2.789085   2.448581   1.425225   2.324557
     9  C    1.381136   2.422948   2.823189   2.434840   3.620765
    10  H    1.080002   2.135785   3.382503   3.837588   5.199847
    11  H    2.144190   1.079463   2.138852   3.365456   4.583139
    12  H    3.421478   2.179612   1.099196   2.148805   2.737058
    13  H    2.152531   3.405355   3.900689   3.412477   4.469592
    14  Ag   5.893575   4.928126   3.558789   3.402823   2.540571
                    6          7          8          9         10
     6  S    0.000000
     7  N    1.620292   0.000000
     8  C    2.431152   1.339421   0.000000
     9  C    3.802810   2.449917   1.399636   0.000000
    10  H    5.794015   4.564453   3.372751   2.128486   0.000000
    11  H    5.833671   5.200690   3.868410   3.392705   2.452327
    12  H    4.375457   4.468851   3.438893   3.922236   4.304978
    13  H    4.297676   2.736553   2.145742   1.077516   2.475055
    14  Ag   3.956989   5.033908   4.724161   5.834173   6.918208
                   11         12         13         14
    11  H    0.000000
    12  H    2.505304   0.000000
    13  H    4.288441   4.999691   0.000000
    14  Ag   5.423158   2.922847   6.808822   0.000000
 Symmetry turned off by external request.
 Stoichiometry    C6H4AgN2S(2)
 Framework group  C1[X(C6H4AgN2S)]
 Deg. of freedom    36
 Full point group                 C1      NOp   1
 Rotational constants (GHZ):           1.3379553           0.4430622           0.3328420
 Leave Link  202 at Fri Sep 11 20:32:36 2026, MaxMem=  6442450944 cpu:               0.0 elap:               0.1
 (Enter C:\G16W\l301.exe)
 Standard basis: def2SVP (5D, 7F)
 Ernie: Thresh=  0.10000D-02 Tol=  0.10000D-05 Strict=F.
   181 basis functions,   330 primitive gaussians,   195 cartesian basis functions
    45 alpha electrons       44 beta electrons
       nuclear repulsion energy       645.8028480095 Hartrees.
 IExCor= 1009 DFT=T Ex+Corr=PBE1PBE ExCW=0 ScaHFX=  0.250000
 ScaDFX=  0.750000  0.750000  1.000000  1.000000 ScalE2=  1.000000  1.000000
 IRadAn=      5 IRanWt=     -1 IRanGd=            0 ICorTp=0 IEmpDi=141
 NAtoms=   14 NActive=   14 NUniq=   14 SFac= 1.00D+00 NAtFMM=   60 NAOKFM=F Big=F
 Integral buffers will be    131072 words long.
 Raffenetti 2 integral format.
 Two-electron integral symmetry is turned off.
 R6Disp:  Grimme-D3(BJ) Dispersion energy=       -0.0177147823 Hartrees.
 Nuclear repulsion after empirical dispersion term =      645.7851332272 Hartrees.
 Leave Link  301 at Fri Sep 11 20:32:36 2026, MaxMem=  6442450944 cpu:               0.0 elap:               0.2
 (Enter C:\G16W\l302.exe)
 NPDir=0 NMtPBC=     1 NCelOv=     1 NCel=       1 NClECP=     1 NCelD=      1
         NCelK=      1 NCelE2=     1 NClLst=     1 CellRange=     0.0.
 One-electron integrals computed using PRISM.
   1 Symmetry operations used in ECPInt.
 ECPInt:  NShTT=    3160 NPrTT=   11935 LenC2=    3087 LenP2D=    9037.
 LDataN:  DoStor=T MaxTD1= 7 Len=  274
 NBasis=   181 RedAO= T EigKep=  2.17D-04  NBF=   181
 NBsUse=   181 1.00D-06 EigRej= -1.00D+00 NBFU=   181
 Precomputing XC quadrature grid using
 IXCGrd= 4 IRadAn=           5 IRanWt=          -1 IRanGd=           0 AccXCQ= 0.00D+00.
 Defaulting to unpruned grid for atomic number  47.
 Generated NRdTot=       0 NPtTot=           0 NUsed=           0 NTot=          32
 NSgBfM=   194   194   194   194   194 MxSgAt=    14 MxSgA2=    14.
 Leave Link  302 at Fri Sep 11 20:32:38 2026, MaxMem=  6442450944 cpu:               2.0 elap:               1.4
 (Enter C:\G16W\l303.exe)
 DipDrv:  MaxL=1.
 Leave Link  303 at Fri Sep 11 20:32:38 2026, MaxMem=  6442450944 cpu:               0.0 elap:               0.2
 (Enter C:\G16W\l401.exe)
 ExpMin= 3.75D-02 ExpMax= 9.18D+03 ExpMxC= 1.38D+03 IAcc=3 IRadAn=         5 AccDes= 0.00D+00
 Harris functional with IExCor= 1009 and IRadAn=       5 diagonalized for initial guess.
 HarFok:  IExCor= 1009 AccDes= 0.00D+00 IRadAn=         5 IDoV= 1 UseB2=F ITyADJ=14
 ICtDFT=  3500011 ScaDFX=  1.000000  1.000000  1.000000  1.000000
 Defaulting to unpruned grid for atomic number  47.
 FoFCou: FMM=F IPFlag=           0 FMFlag=      100000 FMFlg1=           0
         NFxFlg=           0 DoJE=T BraDBF=F KetDBF=T FulRan=T
         wScrn=  0.000000 ICntrl=       500 IOpCl=  0 I1Cent=   200000004 NGrid=           0
         NMat0=    1 NMatS0=      1 NMatT0=    0 NMatD0=    1 NMtDS0=    0 NMtDT0=    0
 Symmetry not used in FoFCou.
 Harris En= -885.149236836787    
 JPrj=0 DoOrth=F DoCkMO=F.
 Initial guess <Sx>= 0.0000 <Sy>= 0.0000 <Sz>= 0.5000 <S**2>= 0.7500 S= 0.5000
 Leave Link  401 at Fri Sep 11 20:32:39 2026, MaxMem=  6442450944 cpu:               1.0 elap:               1.6
 (Enter C:\G16W\l502.exe)
 Two-electron integral symmetry not used.
 UHF open shell SCF:
 Using DIIS extrapolation, IDIIS=  1040.
 NGot=  6442450944 LenX=  6442371465 LenY=  6442332999
 Requested convergence on RMS density matrix=1.00D-08 within 128 cycles.
 Requested convergence on MAX density matrix=1.00D-06.
 Requested convergence on             energy=1.00D-06.
 Virtual orbitals will be shifted by   0.300 hartree.
 No special actions if energy rises.
 Fock matrices will be formed incrementally for  20 cycles.

 Cycle   1  Pass 1  IDiag  1:
 FoFJK:  IHMeth= 1 ICntrl=       0 DoSepK=F KAlg= 0 I1Cent=           0 FoldK=F
 IRaf= 950000000 NMat=       1 IRICut=       1 DoRegI=T DoRafI=F ISym2E= 0 IDoP0=0 IntGTp=1.
 FoFCou: FMM=F IPFlag=           0 FMFlag=      100000 FMFlg1=           0
         NFxFlg=           0 DoJE=F BraDBF=F KetDBF=F FulRan=T
         wScrn=  0.000000 ICntrl=         0 IOpCl=  1 I1Cent=           0 NGrid=           0
         NMat0=    1 NMatS0=      1 NMatT0=    0 NMatD0=    1 NMtDS0=    0 NMtDT0=    0
 Symmetry not used in FoFCou.
 Defaulting to unpruned grid for atomic number  47.
 Defaulting to unpruned grid for atomic number  47.
 Defaulting to unpruned grid for atomic number  47.
 Defaulting to unpruned grid for atomic number  47.
 Defaulting to unpruned grid for atomic number  47.
 Defaulting to unpruned grid for atomic number  47.
 Defaulting to unpruned grid for atomic number  47.
 Defaulting to unpruned grid for atomic number  47.
 E= -884.247319502434    
 DIIS: error= 5.50D-02 at cycle   1 NSaved=   1.
 NSaved= 1 IEnMin= 1 EnMin= -884.247319502434     IErMin= 1 ErrMin= 5.50D-02
 ErrMax= 5.50D-02  0.00D+00 EMaxC= 1.00D-01 BMatC= 1.57D+00 BMatP= 1.57D+00
 IDIUse=3 WtCom= 4.50D-01 WtEn= 5.50D-01
 Coeff-Com:  0.100D+01
 Coeff-En:   0.100D+01
 Coeff:      0.100D+01
 Gap=    -0.197 Goal=   None    Shift=    0.300
 Gap=     0.629 Goal=   None    Shift=    0.300
 GapD=   -0.197 DampG=0.250 DampE=0.250 DampFc=0.1250 IDamp=-1.
 Damping current iteration by 1.25D-01
 RMSDP=7.40D-03 MaxDP=1.77D-01              OVMax= 2.39D-01

 Cycle   2  Pass 1  IDiag  1:
 RMSU=  9.12D-04    CP:  9.95D-01
 E= -884.358394546862     Delta-E=       -0.111075044427 Rises=F Damp=T
 DIIS: error= 4.44D-02 at cycle   2 NSaved=   2.
 NSaved= 2 IEnMin= 2 EnMin= -884.358394546862     IErMin= 2 ErrMin= 4.44D-02
 ErrMax= 4.44D-02  0.00D+00 EMaxC= 1.00D-01 BMatC= 9.79D-01 BMatP= 1.57D+00
 IDIUse=3 WtCom= 5.56D-01 WtEn= 4.44D-01
 Coeff-Com: -0.363D+01 0.463D+01
 Coeff-En:   0.000D+00 0.100D+01
 Coeff:     -0.202D+01 0.302D+01
 Gap=    -0.134 Goal=   None    Shift=    0.300
 Gap=    -0.075 Goal=   None    Shift=    0.300
 RMSDP=6.38D-03 MaxDP=1.37D-01 DE=-1.11D-01 OVMax= 7.47D-02

 Cycle   3  Pass 1  IDiag  1:
 RMSU=  4.51D-03    CP:  9.62D-01  3.00D+00
 E= -884.574351687170     Delta-E=       -0.215957140308 Rises=F Damp=F
 DIIS: error= 2.34D-02 at cycle   3 NSaved=   3.
 NSaved= 3 IEnMin= 3 EnMin= -884.574351687170     IErMin= 3 ErrMin= 2.34D-02
 ErrMax= 2.34D-02  0.00D+00 EMaxC= 1.00D-01 BMatC= 5.12D-01 BMatP= 9.79D-01
 IDIUse=3 WtCom= 7.66D-01 WtEn= 2.34D-01
 EnCoef did   100 forward-backward iterations
 Coeff-Com: -0.134D+01 0.197D+01 0.373D+00
 Coeff-En:   0.240D+00 0.894D-02 0.751D+00
 Coeff:     -0.969D+00 0.151D+01 0.461D+00
 Gap=    -0.052 Goal=   None    Shift=    0.300
 Gap=     0.035 Goal=   None    Shift=    0.300
 RMSDP=1.85D-03 MaxDP=7.10D-02 DE=-2.16D-01 OVMax= 6.51D-02

 Cycle   4  Pass 1  IDiag  1:
 RMSU=  1.26D-03    CP:  9.66D-01  3.00D+00  7.02D-01
 E= -884.705009301132     Delta-E=       -0.130657613962 Rises=F Damp=F
 DIIS: error= 7.86D-03 at cycle   4 NSaved=   4.
 NSaved= 4 IEnMin= 4 EnMin= -884.705009301132     IErMin= 4 ErrMin= 7.86D-03
 ErrMax= 7.86D-03  0.00D+00 EMaxC= 1.00D-01 BMatC= 3.71D-02 BMatP= 5.12D-01
 IDIUse=3 WtCom= 9.21D-01 WtEn= 7.86D-02
 Coeff-Com: -0.107D+01 0.134D+01-0.273D+00 0.998D+00
 Coeff-En:   0.000D+00 0.000D+00 0.000D+00 0.100D+01
 Coeff:     -0.982D+00 0.124D+01-0.252D+00 0.998D+00
 Gap=    -0.044 Goal=   None    Shift=    0.300
 Gap=     0.044 Goal=   None    Shift=    0.300
 RMSDP=6.63D-04 MaxDP=1.11D-02 DE=-1.31D-01 OVMax= 2.75D-02

 Cycle   5  Pass 1  IDiag  1:
 RMSU=  4.05D-04    CP:  9.66D-01  3.00D+00  6.07D-01  1.24D+00
 E= -884.717248207905     Delta-E=       -0.012238906773 Rises=F Damp=F
 DIIS: error= 2.77D-03 at cycle   5 NSaved=   5.
 NSaved= 5 IEnMin= 5 EnMin= -884.717248207905     IErMin= 5 ErrMin= 2.77D-03
 ErrMax= 2.77D-03  0.00D+00 EMaxC= 1.00D-01 BMatC= 3.76D-03 BMatP= 3.71D-02
 IDIUse=3 WtCom= 9.72D-01 WtEn= 2.77D-02
 Coeff-Com: -0.450D+00 0.544D+00-0.151D+00 0.205D+00 0.851D+00
 Coeff-En:   0.000D+00 0.000D+00 0.000D+00 0.000D+00 0.100D+01
 Coeff:     -0.437D+00 0.529D+00-0.147D+00 0.200D+00 0.855D+00
 Gap=    -0.040 Goal=   None    Shift=    0.300
 Gap=     0.045 Goal=   None    Shift=    0.300
 RMSDP=3.16D-04 MaxDP=6.11D-03 DE=-1.22D-02 OVMax= 2.14D-02

 Cycle   6  Pass 1  IDiag  1:
 RMSU=  1.67D-04    CP:  9.66D-01  3.00D+00  5.78D-01  1.34D+00  1.48D+00
 E= -884.719258068949     Delta-E=       -0.002009861043 Rises=F Damp=F
 DIIS: error= 1.19D-03 at cycle   6 NSaved=   6.
 NSaved= 6 IEnMin= 6 EnMin= -884.719258068949     IErMin= 6 ErrMin= 1.19D-03
 ErrMax= 1.19D-03  0.00D+00 EMaxC= 1.00D-01 BMatC= 7.04D-04 BMatP= 3.76D-03
 IDIUse=3 WtCom= 9.88D-01 WtEn= 1.19D-02
 Coeff-Com: -0.125D+00 0.142D+00-0.223D-01-0.121D+00 0.150D+00 0.977D+00
 Coeff-En:   0.000D+00 0.000D+00 0.000D+00 0.000D+00 0.000D+00 0.100D+01
 Coeff:     -0.123D+00 0.140D+00-0.220D-01-0.120D+00 0.148D+00 0.977D+00
 Gap=    -0.039 Goal=   None    Shift=    0.300
 Gap=     0.044 Goal=   None    Shift=    0.300
 RMSDP=2.02D-04 MaxDP=7.76D-03 DE=-2.01D-03 OVMax= 2.68D-02

 Cycle   7  Pass 1  IDiag  1:
 RMSU=  1.15D-04    CP:  9.65D-01  3.00D+00  5.73D-01  1.39D+00  1.78D+00
                    CP:  1.55D+00
 E= -884.720126506152     Delta-E=       -0.000868437204 Rises=F Damp=F
 DIIS: error= 1.24D-03 at cycle   7 NSaved=   7.
 NSaved= 7 IEnMin= 7 EnMin= -884.720126506152     IErMin= 6 ErrMin= 1.19D-03
 ErrMax= 1.24D-03  0.00D+00 EMaxC= 1.00D-01 BMatC= 3.42D-04 BMatP= 7.04D-04
 IDIUse=3 WtCom= 9.88D-01 WtEn= 1.19D-02
 Coeff-Com: -0.380D-01 0.395D-01 0.542D-02-0.972D-01-0.697D-01 0.357D+00
 Coeff-Com:  0.803D+00
 Coeff-En:   0.000D+00 0.000D+00 0.000D+00 0.000D+00 0.000D+00 0.000D+00
 Coeff-En:   0.100D+01
 Coeff:     -0.375D-01 0.391D-01 0.536D-02-0.960D-01-0.688D-01 0.353D+00
 Coeff:      0.805D+00
 Gap=    -0.037 Goal=   None    Shift=    0.300
 Gap=     0.045 Goal=   None    Shift=    0.300
 RMSDP=1.94D-04 MaxDP=9.39D-03 DE=-8.68D-04 OVMax= 3.11D-02

 Cycle   8  Pass 1  IDiag  1:
 RMSU=  6.54D-05    CP:  9.65D-01  3.00D+00  5.73D-01  1.42D+00  1.99D+00
                    CP:  2.14D+00  2.08D+00
 E= -884.720896499006     Delta-E=       -0.000769992854 Rises=F Damp=F
 DIIS: error= 1.53D-03 at cycle   8 NSaved=   8.
 NSaved= 8 IEnMin= 8 EnMin= -884.720896499006     IErMin= 6 ErrMin= 1.19D-03
 ErrMax= 1.53D-03  0.00D+00 EMaxC= 1.00D-01 BMatC= 2.86D-04 BMatP= 3.42D-04
 IDIUse=3 WtCom= 9.88D-01 WtEn= 1.19D-02
 Coeff-Com: -0.445D-01 0.496D-01-0.414D-03-0.549D-01-0.536D-01 0.205D+00
 Coeff-Com:  0.390D+00 0.509D+00
 Coeff-En:   0.000D+00 0.000D+00 0.000D+00 0.000D+00 0.000D+00 0.000D+00
 Coeff-En:   0.000D+00 0.100D+01
 Coeff:     -0.439D-01 0.490D-01-0.409D-03-0.542D-01-0.530D-01 0.202D+00
 Coeff:      0.386D+00 0.515D+00
 Gap=    -0.036 Goal=   None    Shift=    0.300
 Gap=     0.045 Goal=   None    Shift=    0.300
 RMSDP=2.09D-04 MaxDP=1.09D-02 DE=-7.70D-04 OVMax= 3.58D-02

 Cycle   9  Pass 1  IDiag  1:
 RMSU=  5.43D-05    CP:  9.65D-01  3.00D+00  5.74D-01  1.45D+00  2.13D+00
                    CP:  2.73D+00  3.00D+00  2.27D+00
 E= -884.721775657276     Delta-E=       -0.000879158270 Rises=F Damp=F
 DIIS: error= 1.85D-03 at cycle   9 NSaved=   9.
 NSaved= 9 IEnMin= 9 EnMin= -884.721775657276     IErMin= 6 ErrMin= 1.19D-03
 ErrMax= 1.85D-03  0.00D+00 EMaxC= 1.00D-01 BMatC= 3.60D-04 BMatP= 2.86D-04
 IDIUse=3 WtCom= 9.88D-01 WtEn= 1.19D-02
 Coeff-Com: -0.115D-01 0.672D-02 0.241D-02 0.173D-01-0.221D+00-0.380D+00
 Coeff-Com: -0.538D-01 0.484D+01-0.320D+01
 Coeff-En:   0.000D+00 0.000D+00 0.000D+00 0.000D+00 0.000D+00 0.000D+00
 Coeff-En:   0.000D+00 0.000D+00 0.100D+01
 Coeff:     -0.114D-01 0.664D-02 0.239D-02 0.171D-01-0.219D+00-0.376D+00
 Coeff:     -0.531D-01 0.478D+01-0.315D+01
 Gap=    -0.036 Goal=   None    Shift=    0.300
 Gap=     0.041 Goal=   None    Shift=    0.300
 RMSDP=1.97D-04 MaxDP=9.92D-03 DE=-8.79D-04 OVMax= 3.39D-02

 Cycle  10  Pass 1  IDiag  1:
 RMSU=  9.15D-05    CP:  9.65D-01  3.00D+00  5.78D-01  1.47D+00  2.22D+00
                    CP:  3.00D+00  3.00D+00  3.00D+00  3.00D+00
 E= -884.722616794581     Delta-E=       -0.000841137304 Rises=F Damp=F
 DIIS: error= 2.08D-03 at cycle  10 NSaved=  10.
 NSaved=10 IEnMin=10 EnMin= -884.722616794581     IErMin= 6 ErrMin= 1.19D-03
 ErrMax= 2.08D-03  0.00D+00 EMaxC= 1.00D-01 BMatC= 6.57D-04 BMatP= 2.86D-04
 IDIUse=3 WtCom= 9.88D-01 WtEn= 1.19D-02
 Coeff-Com: -0.164D-01 0.140D-01 0.405D-02 0.200D-01-0.247D+00-0.437D+00
 Coeff-Com: -0.195D+00 0.602D+01-0.458D+01 0.418D+00
 Coeff-En:   0.000D+00 0.000D+00 0.000D+00 0.000D+00 0.000D+00 0.000D+00
 Coeff-En:   0.000D+00 0.000D+00 0.000D+00 0.100D+01
 Coeff:     -0.162D-01 0.139D-01 0.400D-02 0.198D-01-0.244D+00-0.431D+00
 Coeff:     -0.193D+00 0.595D+01-0.452D+01 0.425D+00
 Gap=    -0.035 Goal=   None    Shift=    0.300
 Gap=     0.041 Goal=   None    Shift=    0.300
 RMSDP=2.05D-04 MaxDP=1.02D-02 DE=-8.41D-04 OVMax= 3.62D-02

 Cycle  11  Pass 1  IDiag  1:
 RMSU=  1.34D-04    CP:  9.64D-01  3.00D+00  5.81D-01  1.48D+00  2.30D+00
                    CP:  3.00D+00  3.00D+00  3.00D+00  3.00D+00  2.64D+00
 E= -884.723603484937     Delta-E=       -0.000986690356 Rises=F Damp=F
 DIIS: error= 2.30D-03 at cycle  11 NSaved=  11.
 NSaved=11 IEnMin=11 EnMin= -884.723603484937     IErMin= 6 ErrMin= 1.19D-03
 ErrMax= 2.30D-03  0.00D+00 EMaxC= 1.00D-01 BMatC= 9.95D-04 BMatP= 2.86D-04
 IDIUse=3 WtCom= 9.88D-01 WtEn= 1.19D-02
 Coeff-Com: -0.607D-02 0.116D-02 0.352D-02 0.277D-01-0.223D+00-0.443D+00
 Coeff-Com: -0.172D+00 0.546D+01-0.447D+01 0.184D+01-0.102D+01
 Coeff-En:   0.000D+00 0.000D+00 0.000D+00 0.000D+00 0.000D+00 0.000D+00
 Coeff-En:   0.000D+00 0.000D+00 0.000D+00 0.000D+00 0.100D+01
 Coeff:     -0.599D-02 0.114D-02 0.348D-02 0.274D-01-0.220D+00-0.437D+00
 Coeff:     -0.170D+00 0.539D+01-0.441D+01 0.181D+01-0.992D+00
 Gap=    -0.034 Goal=   None    Shift=    0.300
 Gap=     0.039 Goal=   None    Shift=    0.300
 RMSDP=2.29D-04 MaxDP=1.18D-02 DE=-9.87D-04 OVMax= 4.04D-02

 Cycle  12  Pass 1  IDiag  1:
 RMSU=  1.33D-04    CP:  9.64D-01  3.00D+00  5.83D-01  1.50D+00  2.38D+00
                    CP:  3.00D+00  3.00D+00  3.00D+00  3.00D+00  3.00D+00
                    CP:  2.15D+00
 E= -884.724773385846     Delta-E=       -0.001169900909 Rises=F Damp=F
 DIIS: error= 2.49D-03 at cycle  12 NSaved=  12.
 NSaved=12 IEnMin=12 EnMin= -884.724773385846     IErMin= 6 ErrMin= 1.19D-03
 ErrMax= 2.49D-03  0.00D+00 EMaxC= 1.00D-01 BMatC= 1.55D-03 BMatP= 2.86D-04
 IDIUse=3 WtCom= 9.88D-01 WtEn= 1.19D-02
 Coeff-Com: -0.759D-02 0.311D-02 0.176D-02 0.365D-01-0.227D+00-0.494D+00
 Coeff-Com: -0.334D+00 0.624D+01-0.518D+01 0.117D+01 0.446D+00-0.655D+00
 Coeff-En:   0.000D+00 0.000D+00 0.000D+00 0.000D+00 0.000D+00 0.000D+00
 Coeff-En:   0.000D+00 0.000D+00 0.000D+00 0.000D+00 0.000D+00 0.100D+01
 Coeff:     -0.750D-02 0.307D-02 0.174D-02 0.360D-01-0.224D+00-0.488D+00
 Coeff:     -0.330D+00 0.616D+01-0.512D+01 0.116D+01 0.440D+00-0.635D+00
 Gap=    -0.032 Goal=   None    Shift=    0.300
 Gap=     0.039 Goal=   None    Shift=    0.300
 RMSDP=2.51D-04 MaxDP=1.46D-02 DE=-1.17D-03 OVMax= 4.45D-02

 Cycle  13  Pass 1  IDiag  1:
 RMSU=  6.21D-05    CP:  9.64D-01  3.00D+00  5.84D-01  1.51D+00  2.46D+00
                    CP:  3.00D+00  3.00D+00  3.00D+00  3.00D+00  3.00D+00
                    CP:  3.00D+00  2.33D+00
 E= -884.726123699285     Delta-E=       -0.001350313439 Rises=F Damp=F
 DIIS: error= 2.63D-03 at cycle  13 NSaved=  13.
 NSaved=13 IEnMin=13 EnMin= -884.726123699285     IErMin= 6 ErrMin= 1.19D-03
 ErrMax= 2.63D-03  0.00D+00 EMaxC= 1.00D-01 BMatC= 2.37D-03 BMatP= 2.86D-04
 IDIUse=3 WtCom= 9.88D-01 WtEn= 1.19D-02
 Coeff-Com: -0.566D-02 0.976D-03 0.153D-04 0.440D-01-0.226D+00-0.502D+00
 Coeff-Com: -0.361D+00 0.609D+01-0.486D+01 0.165D+00 0.392D+01-0.508D+01
 Coeff-Com:  0.182D+01
 Coeff-En:   0.000D+00 0.000D+00 0.000D+00 0.000D+00 0.000D+00 0.000D+00
 Coeff-En:   0.000D+00 0.000D+00 0.000D+00 0.000D+00 0.000D+00 0.000D+00
 Coeff-En:   0.100D+01
 Coeff:     -0.559D-02 0.965D-03 0.152D-04 0.434D-01-0.223D+00-0.496D+00
 Coeff:     -0.357D+00 0.602D+01-0.480D+01 0.163D+00 0.387D+01-0.502D+01
 Coeff:      0.181D+01
 Gap=    -0.029 Goal=   None    Shift=    0.300
 Gap=     0.040 Goal=   None    Shift=    0.300
 RMSDP=2.79D-04 MaxDP=1.74D-02 DE=-1.35D-03 OVMax= 4.95D-02

 Cycle  14  Pass 1  IDiag  1:
 RMSU=  1.27D-04    CP:  9.64D-01  3.00D+00  5.82D-01  1.51D+00  2.55D+00
                    CP:  3.00D+00  3.00D+00  3.00D+00  3.00D+00  3.00D+00
                    CP:  3.00D+00  3.00D+00  3.00D+00
 E= -884.727775148392     Delta-E=       -0.001651449107 Rises=F Damp=F
 DIIS: error= 2.72D-03 at cycle  14 NSaved=  14.
 NSaved=14 IEnMin=14 EnMin= -884.727775148392     IErMin= 6 ErrMin= 1.19D-03
 ErrMax= 2.72D-03  0.00D+00 EMaxC= 1.00D-01 BMatC= 3.30D-03 BMatP= 2.86D-04
 IDIUse=3 WtCom= 9.88D-01 WtEn= 1.19D-02
 Coeff-Com:  0.534D-02-0.131D-01-0.380D-02 0.699D-01-0.190D+00-0.478D+00
 Coeff-Com: -0.241D+00 0.353D+01-0.276D+01 0.258D+01 0.535D+01-0.783D+01
 Coeff-Com: -0.392D+01 0.490D+01
 Coeff-En:   0.000D+00 0.000D+00 0.000D+00 0.000D+00 0.000D+00 0.000D+00
 Coeff-En:   0.000D+00 0.000D+00 0.000D+00 0.000D+00 0.000D+00 0.000D+00
 Coeff-En:   0.000D+00 0.100D+01
 Coeff:      0.527D-02-0.130D-01-0.375D-02 0.691D-01-0.187D+00-0.472D+00
 Coeff:     -0.238D+00 0.349D+01-0.273D+01 0.255D+01 0.529D+01-0.774D+01
 Coeff:     -0.387D+01 0.486D+01
 Gap=    -0.025 Goal=   None    Shift=    0.300
 Gap=     0.049 Goal=   None    Shift=    0.300
 RMSDP=3.35D-04 MaxDP=2.04D-02 DE=-1.65D-03 OVMax= 5.74D-02

 Cycle  15  Pass 1  IDiag  1:
 RMSU=  1.19D-04    CP:  9.64D-01  3.00D+00  5.72D-01  1.50D+00  2.68D+00
                    CP:  3.00D+00  3.00D+00  3.00D+00  3.00D+00  3.00D+00
                    CP:  3.00D+00  3.00D+00  3.00D+00  3.00D+00
 E= -884.730281541370     Delta-E=       -0.002506392978 Rises=F Damp=F
 DIIS: error= 2.85D-03 at cycle  15 NSaved=  15.
 NSaved=15 IEnMin=15 EnMin= -884.730281541370     IErMin= 6 ErrMin= 1.19D-03
 ErrMax= 2.85D-03  0.00D+00 EMaxC= 1.00D-01 BMatC= 3.53D-03 BMatP= 2.86D-04
 IDIUse=3 WtCom= 9.88D-01 WtEn= 1.19D-02
 Coeff-Com:  0.181D-02-0.881D-02-0.429D-02 0.714D-01-0.185D+00-0.488D+00
 Coeff-Com: -0.271D+00 0.377D+01-0.315D+01 0.307D+01 0.432D+01-0.620D+01
 Coeff-Com: -0.510D+01 0.483D+01 0.345D+00
 Coeff-En:   0.000D+00 0.000D+00 0.000D+00 0.000D+00 0.000D+00 0.000D+00
 Coeff-En:   0.000D+00 0.000D+00 0.000D+00 0.000D+00 0.000D+00 0.000D+00
 Coeff-En:   0.000D+00 0.000D+00 0.100D+01
 Coeff:      0.179D-02-0.870D-02-0.424D-02 0.705D-01-0.183D+00-0.482D+00
 Coeff:     -0.267D+00 0.372D+01-0.311D+01 0.303D+01 0.427D+01-0.613D+01
 Coeff:     -0.504D+01 0.478D+01 0.353D+00
 Gap=    -0.021 Goal=   None    Shift=    0.300
 Gap=     0.051 Goal=   None    Shift=    0.300
 RMSDP=3.54D-04 MaxDP=2.55D-02 DE=-2.51D-03 OVMax= 6.19D-02

 Cycle  16  Pass 1  IDiag  1:
 RMSU=  2.45D-04    CP:  9.64D-01  3.00D+00  5.64D-01  1.49D+00  2.79D+00
                    CP:  3.00D+00  3.00D+00  3.00D+00  3.00D+00  3.00D+00
                    CP:  3.00D+00  3.00D+00  3.00D+00  3.00D+00  3.00D+00
 E= -884.732777931896     Delta-E=       -0.002496390525 Rises=F Damp=F
 DIIS: error= 2.79D-03 at cycle  16 NSaved=  16.
 NSaved=16 IEnMin=16 EnMin= -884.732777931896     IErMin= 6 ErrMin= 1.19D-03
 ErrMax= 2.79D-03  0.00D+00 EMaxC= 1.00D-01 BMatC= 4.68D-03 BMatP= 2.86D-04
 IDIUse=3 WtCom= 9.88D-01 WtEn= 1.19D-02
 Coeff-Com: -0.160D-02-0.336D-02-0.181D-02 0.511D-01-0.161D+00-0.415D+00
 Coeff-Com: -0.287D+00 0.361D+01-0.276D+01 0.226D+01 0.245D+01-0.193D+01
 Coeff-Com: -0.516D+01 0.293D+01-0.119D+01 0.161D+01
 Coeff-En:   0.000D+00 0.000D+00 0.000D+00 0.000D+00 0.000D+00 0.000D+00
 Coeff-En:   0.000D+00 0.000D+00 0.000D+00 0.000D+00 0.000D+00 0.000D+00
 Coeff-En:   0.000D+00 0.000D+00 0.000D+00 0.100D+01
 Coeff:     -0.158D-02-0.332D-02-0.179D-02 0.505D-01-0.159D+00-0.410D+00
 Coeff:     -0.284D+00 0.357D+01-0.273D+01 0.223D+01 0.242D+01-0.191D+01
 Coeff:     -0.510D+01 0.290D+01-0.117D+01 0.161D+01
 Gap=    -0.016 Goal=   None    Shift=    0.300
 Gap=     0.055 Goal=   None    Shift=    0.300
 RMSDP=3.81D-04 MaxDP=2.98D-02 DE=-2.50D-03 OVMax= 6.64D-02

 Cycle  17  Pass 1  IDiag  1:
 RMSU=  2.76D-04    CP:  9.63D-01  3.00D+00  5.54D-01  1.47D+00  2.89D+00
                    CP:  3.00D+00  3.00D+00  3.00D+00  3.00D+00  3.00D+00
                    CP:  3.00D+00  3.00D+00  3.00D+00  3.00D+00  3.00D+00
                    CP:  2.04D+00
 E= -884.735469765637     Delta-E=       -0.002691833742 Rises=F Damp=F
 DIIS: error= 2.79D-03 at cycle  17 NSaved=  17.
 NSaved=17 IEnMin=17 EnMin= -884.735469765637     IErMin= 6 ErrMin= 1.19D-03
 ErrMax= 2.79D-03  0.00D+00 EMaxC= 1.00D-01 BMatC= 6.05D-03 BMatP= 2.86D-04
 IDIUse=3 WtCom= 9.88D-01 WtEn= 1.19D-02
 Coeff-Com:  0.717D-02-0.118D-01 0.103D-02 0.320D-01-0.153D+00-0.313D+00
 Coeff-Com: -0.266D+00 0.297D+01-0.169D+01-0.291D+00 0.288D+01-0.712D+00
 Coeff-Com: -0.841D+00-0.414D+00-0.712D+00-0.197D+01 0.248D+01
 Coeff-En:   0.000D+00 0.000D+00 0.000D+00 0.000D+00 0.000D+00 0.000D+00
 Coeff-En:   0.000D+00 0.000D+00 0.000D+00 0.000D+00 0.000D+00 0.000D+00
 Coeff-En:   0.000D+00 0.000D+00 0.000D+00 0.000D+00 0.100D+01
 Coeff:      0.709D-02-0.116D-01 0.102D-02 0.316D-01-0.152D+00-0.310D+00
 Coeff:     -0.262D+00 0.293D+01-0.166D+01-0.287D+00 0.284D+01-0.703D+00
 Coeff:     -0.831D+00-0.409D+00-0.703D+00-0.195D+01 0.247D+01
 Gap=    -0.011 Goal=   None    Shift=    0.300
 Gap=     0.057 Goal=   None    Shift=    0.300
 RMSDP=3.83D-04 MaxDP=3.28D-02 DE=-2.69D-03 OVMax= 6.75D-02

 Cycle  18  Pass 1  IDiag  1:
 RMSU=  5.86D-05    CP:  9.63D-01  3.00D+00  5.46D-01  1.45D+00  2.96D+00
                    CP:  3.00D+00  3.00D+00  3.00D+00  3.00D+00  3.00D+00
                    CP:  3.00D+00  3.00D+00  3.00D+00  3.00D+00  3.00D+00
                    CP:  3.00D+00  2.02D+00
 E= -884.737712028750     Delta-E=       -0.002242263113 Rises=F Damp=F
 DIIS: error= 3.30D-03 at cycle  18 NSaved=  18.
 NSaved=18 IEnMin=18 EnMin= -884.737712028750     IErMin= 6 ErrMin= 1.19D-03
 ErrMax= 3.30D-03  0.00D+00 EMaxC= 1.00D-01 BMatC= 8.62D-03 BMatP= 2.86D-04
 IDIUse=3 WtCom= 9.88D-01 WtEn= 1.19D-02
 Coeff-Com:  0.392D-02-0.638D-02-0.363D-02 0.537D-01-0.160D+00-0.198D+00
 Coeff-Com: -0.222D+00 0.123D+01-0.350D-01-0.639D+00 0.451D+01-0.368D+01
 Coeff-Com:  0.523D-01 0.688D-01 0.477D+01-0.724D+01 0.155D+00 0.234D+01
 Coeff-En:   0.000D+00 0.000D+00 0.000D+00 0.000D+00 0.000D+00 0.000D+00
 Coeff-En:   0.000D+00 0.000D+00 0.000D+00 0.000D+00 0.000D+00 0.000D+00
 Coeff-En:   0.000D+00 0.000D+00 0.000D+00 0.000D+00 0.000D+00 0.100D+01
 Coeff:      0.387D-02-0.631D-02-0.359D-02 0.531D-01-0.158D+00-0.196D+00
 Coeff:     -0.219D+00 0.122D+01-0.346D-01-0.631D+00 0.445D+01-0.363D+01
 Coeff:      0.517D-01 0.680D-01 0.471D+01-0.716D+01 0.153D+00 0.233D+01
 Gap=    -0.007 Goal=   None    Shift=    0.300
 Gap=     0.050 Goal=   None    Shift=    0.300
 RMSDP=3.71D-04 MaxDP=3.50D-02 DE=-2.24D-03 OVMax= 6.51D-02

 Cycle  19  Pass 1  IDiag  1:
 RMSU=  2.29D-04    CP:  9.63D-01  3.00D+00  5.44D-01  1.43D+00  2.98D+00
                    CP:  3.00D+00  3.00D+00  3.00D+00  3.00D+00  3.00D+00
                    CP:  3.00D+00  3.00D+00  3.00D+00  3.00D+00  3.00D+00
                    CP:  3.00D+00  2.87D+00  3.00D+00
 E= -884.738217695721     Delta-E=       -0.000505666971 Rises=F Damp=F
 DIIS: error= 4.17D-03 at cycle  19 NSaved=  19.
 NSaved=19 IEnMin=19 EnMin= -884.738217695721     IErMin= 6 ErrMin= 1.19D-03
 ErrMax= 4.17D-03  0.00D+00 EMaxC= 1.00D-01 BMatC= 1.47D-02 BMatP= 2.86D-04
 IDIUse=3 WtCom= 9.88D-01 WtEn= 1.19D-02
 Coeff-Com:  0.184D-02-0.385D-02-0.467D-02 0.544D-01-0.131D+00-0.969D-01
 Coeff-Com: -0.191D+00-0.142D+00 0.110D+01 0.102D+01 0.289D+01-0.294D+01
 Coeff-Com: -0.339D+01 0.186D+01 0.826D+01-0.790D+01-0.174D+01 0.125D+01
 Coeff-Com:  0.110D+01
 Coeff-En:   0.000D+00 0.000D+00 0.000D+00 0.000D+00 0.000D+00 0.000D+00
 Coeff-En:   0.000D+00 0.000D+00 0.000D+00 0.000D+00 0.000D+00 0.000D+00
 Coeff-En:   0.000D+00 0.000D+00 0.000D+00 0.000D+00 0.000D+00 0.000D+00
 Coeff-En:   0.100D+01
 Coeff:      0.181D-02-0.380D-02-0.461D-02 0.538D-01-0.129D+00-0.958D-01
 Coeff:     -0.188D+00-0.141D+00 0.109D+01 0.101D+01 0.285D+01-0.290D+01
 Coeff:     -0.335D+01 0.183D+01 0.816D+01-0.780D+01-0.172D+01 0.124D+01
 Coeff:      0.110D+01
 Gap=    -0.005 Goal=   None    Shift=    0.300
 Gap=     0.039 Goal=   None    Shift=    0.300
 RMSDP=3.73D-04 MaxDP=3.65D-02 DE=-5.06D-04 OVMax= 6.28D-02

 Cycle  20  Pass 1  IDiag  1:
 RMSU=  2.38D-04    CP:  9.62D-01  3.00D+00  5.48D-01  1.42D+00  2.93D+00
                    CP:  3.00D+00  3.00D+00  3.00D+00  3.00D+00  3.00D+00
                    CP:  3.00D+00  3.00D+00  3.00D+00  3.00D+00  3.00D+00
                    CP:  3.00D+00  3.00D+00  3.00D+00  2.15D+00
 E= -884.736467199246     Delta-E=        0.001750496475 Rises=F Damp=F
 DIIS: error= 5.44D-03 at cycle  20 NSaved=  20.
 NSaved=20 IEnMin=19 EnMin= -884.738217695721     IErMin= 6 ErrMin= 1.19D-03
 ErrMax= 5.44D-03  0.00D+00 EMaxC= 1.00D-01 BMatC= 2.52D-02 BMatP= 2.86D-04
 IDIUse=3 WtCom= 9.88D-01 WtEn= 1.19D-02
 Rare condition: small coef for last iteration:  0.000D+00
 Coeff-Com:  0.443D-02-0.695D-02-0.446D-02 0.563D-01-0.141D+00-0.672D-01
 Coeff-Com: -0.164D+00-0.310D+00 0.125D+01 0.990D+00 0.313D+01-0.332D+01
 Coeff-Com: -0.337D+01 0.200D+01 0.856D+01-0.845D+01-0.190D+01 0.147D+01
 Coeff-Com:  0.161D+01-0.327D+00
 Coeff-En:   0.000D+00 0.000D+00 0.000D+00 0.000D+00 0.000D+00 0.000D+00
 Coeff-En:   0.000D+00 0.000D+00 0.000D+00 0.000D+00 0.000D+00 0.000D+00
 Coeff-En:   0.000D+00 0.000D+00 0.000D+00 0.000D+00 0.000D+00 0.864D+00
 Coeff-En:   0.000D+00 0.136D+00
 Coeff:      0.443D-02-0.695D-02-0.446D-02 0.563D-01-0.141D+00-0.672D-01
 Coeff:     -0.164D+00-0.310D+00 0.125D+01 0.990D+00 0.313D+01-0.332D+01
 Coeff:     -0.337D+01 0.200D+01 0.856D+01-0.845D+01-0.190D+01 0.147D+01
 Coeff:      0.161D+01-0.327D+00
 Gap=     0.000 Goal=   None    Shift=    0.000
 Gap=     0.041 Goal=   None    Shift=    0.000
 RMSDP=3.97D-03 MaxDP=2.87D-01 DE= 1.75D-03 OVMax= 7.04D-01

 Cycle  21  Pass 1  IDiag  1:
 Restarting incremental Fock formation.
 E= -884.707233999258     Delta-E=        0.029233199988 Rises=F Damp=F
 DIIS: error= 1.25D-02 at cycle  21 NSaved=  20.
 NSaved=20 IEnMin=18 EnMin= -884.738217695721     IErMin= 5 ErrMin= 1.19D-03
 ErrMax= 1.25D-02  0.00D+00 EMaxC= 1.00D-01 BMatC= 1.21D-01 BMatP= 2.86D-04
 IDIUse=2 WtCom= 0.00D+00 WtEn= 1.00D+00
 Rare condition: small coef for last iteration:  0.000D+00
 Coeff-En:   0.000D+00 0.000D+00 0.000D+00 0.000D+00 0.000D+00 0.000D+00
 Coeff-En:   0.000D+00 0.000D+00 0.000D+00 0.000D+00 0.000D+00 0.000D+00
 Coeff-En:   0.000D+00 0.000D+00 0.915D+00 0.000D+00 0.000D+00 0.000D+00
 Coeff-En:   0.000D+00 0.847D-01
 Coeff:      0.000D+00 0.000D+00 0.000D+00 0.000D+00 0.000D+00 0.000D+00
 Coeff:      0.000D+00 0.000D+00 0.000D+00 0.000D+00 0.000D+00 0.000D+00
 Coeff:      0.000D+00 0.000D+00 0.915D+00 0.000D+00 0.000D+00 0.000D+00
 Coeff:      0.000D+00 0.847D-01
 Gap=     0.016 Goal=   None    Shift=    0.000
 Gap=     0.111 Goal=   None    Shift=    0.000
 RMSDP=2.97D-03 MaxDP=2.10D-01 DE= 2.92D-02 OVMax= 4.79D-01

 Cycle  22  Pass 1  IDiag  1:
 RMSU=  2.97D-03    CP:  9.94D-01
 E= -884.753127599544     Delta-E=       -0.045893600286 Rises=F Damp=F
 DIIS: error= 2.71D-03 at cycle  22 NSaved=  20.
 NSaved=20 IEnMin=20 EnMin= -884.753127599544     IErMin= 5 ErrMin= 1.19D-03
 ErrMax= 2.71D-03  0.00D+00 EMaxC= 1.00D-01 BMatC= 7.81D-03 BMatP= 2.86D-04
 IDIUse=3 WtCom= 9.88D-01 WtEn= 1.19D-02
 Coeff-Com: -0.156D-02-0.174D-02 0.438D-01-0.727D-01-0.100D+00 0.235D+00
 Coeff-Com: -0.215D+01 0.255D+01 0.278D+01-0.639D+00-0.987D+00-0.245D+01
 Coeff-Com:  0.533D+00 0.872D+01-0.879D+01-0.875D+00 0.774D+00 0.142D+01
 Coeff-Com: -0.487D-01 0.542D-01
 Coeff-En:   0.000D+00 0.000D+00 0.000D+00 0.000D+00 0.000D+00 0.000D+00
 Coeff-En:   0.000D+00 0.000D+00 0.000D+00 0.000D+00 0.000D+00 0.000D+00
 Coeff-En:   0.000D+00 0.000D+00 0.000D+00 0.000D+00 0.000D+00 0.000D+00
 Coeff-En:   0.000D+00 0.100D+01
 Coeff:     -0.154D-02-0.172D-02 0.433D-01-0.719D-01-0.991D-01 0.232D+00
 Coeff:     -0.212D+01 0.252D+01 0.275D+01-0.631D+00-0.975D+00-0.242D+01
 Coeff:      0.527D+00 0.861D+01-0.868D+01-0.864D+00 0.764D+00 0.141D+01
 Coeff:     -0.481D-01 0.655D-01
 Gap=     0.024 Goal=   None    Shift=    0.300
 Gap=     0.046 Goal=   None    Shift=    0.300
 RMSDP=7.01D-04 MaxDP=5.15D-02 DE=-4.59D-02 OVMax= 5.07D-02

 Cycle  23  Pass 1  IDiag  1:
 RMSU=  5.20D-04    CP:  9.95D-01  8.42D-01
 E= -884.742476101774     Delta-E=        0.010651497770 Rises=F Damp=F
 DIIS: error= 6.61D-03 at cycle  23 NSaved=  20.
 NSaved=20 IEnMin=19 EnMin= -884.753127599544     IErMin= 4 ErrMin= 1.19D-03
 ErrMax= 6.61D-03  0.00D+00 EMaxC= 1.00D-01 BMatC= 3.83D-02 BMatP= 2.86D-04
 IDIUse=3 WtCom= 9.88D-01 WtEn= 1.19D-02
 Rare condition: small coef for last iteration:  0.000D+00
 Coeff-Com:  0.163D-02 0.687D-01-0.155D+00-0.860D-01 0.316D+00-0.239D+01
 Coeff-Com:  0.259D+01 0.325D+01-0.217D+01 0.582D-01 0.172D+00-0.931D+00
 Coeff-Com:  0.722D+01-0.950D+01-0.704D+00 0.196D+01 0.142D+01-0.938D-02
 Coeff-Com:  0.175D+00-0.293D+00
 Coeff-En:   0.000D+00 0.000D+00 0.000D+00 0.000D+00 0.000D+00 0.000D+00
 Coeff-En:   0.000D+00 0.000D+00 0.000D+00 0.000D+00 0.000D+00 0.000D+00
 Coeff-En:   0.000D+00 0.000D+00 0.000D+00 0.000D+00 0.000D+00 0.000D+00
 Coeff-En:   0.000D+00 0.100D+01
 Coeff:      0.163D-02 0.687D-01-0.155D+00-0.860D-01 0.316D+00-0.239D+01
 Coeff:      0.259D+01 0.325D+01-0.217D+01 0.582D-01 0.172D+00-0.931D+00
 Coeff:      0.722D+01-0.950D+01-0.704D+00 0.196D+01 0.142D+01-0.938D-02
 Coeff:      0.175D+00-0.293D+00
 Gap=     0.026 Goal=   None    Shift=    0.000
 Gap=     0.046 Goal=   None    Shift=    0.000
 RMSDP=2.34D-03 MaxDP=1.53D-01 DE= 1.07D-02 OVMax= 4.01D-01

 Cycle  24  Pass 1  IDiag  1:
 RMSU=  1.10D-04    CP:  1.00D+00  7.38D-02  8.00D-02
 E= -884.711726242237     Delta-E=        0.030749859537 Rises=F Damp=F
 DIIS: error= 1.18D-02 at cycle  24 NSaved=  20.
 NSaved=20 IEnMin=18 EnMin= -884.753127599544     IErMin= 3 ErrMin= 1.19D-03
 ErrMax= 1.18D-02  0.00D+00 EMaxC= 1.00D-01 BMatC= 1.11D-01 BMatP= 2.86D-04
 IDIUse=2 WtCom= 0.00D+00 WtEn= 1.00D+00
 Rare condition: small coef for last iteration:  0.000D+00
 Coeff-En:   0.000D+00 0.000D+00 0.000D+00 0.000D+00 0.000D+00 0.000D+00
 Coeff-En:   0.000D+00 0.000D+00 0.000D+00 0.000D+00 0.000D+00 0.000D+00
 Coeff-En:   0.000D+00 0.974D+00 0.000D+00 0.000D+00 0.000D+00 0.000D+00
 Coeff-En:   0.000D+00 0.263D-01
 Coeff:      0.000D+00 0.000D+00 0.000D+00 0.000D+00 0.000D+00 0.000D+00
 Coeff:      0.000D+00 0.000D+00 0.000D+00 0.000D+00 0.000D+00 0.000D+00
 Coeff:      0.000D+00 0.974D+00 0.000D+00 0.000D+00 0.000D+00 0.000D+00
 Coeff:      0.000D+00 0.263D-01
 Gap=     0.021 Goal=   None    Shift=    0.000
 Gap=     0.111 Goal=   None    Shift=    0.000
 RMSDP=2.73D-03 MaxDP=1.99D-01 DE= 3.07D-02 OVMax= 4.39D-01

 Cycle  25  Pass 1  IDiag  1:
 RMSU=  3.03D-05    CP:  9.94D-01  9.91D-01  8.87D-03  2.70D-01
 E= -884.753263856255     Delta-E=       -0.041537614018 Rises=F Damp=F
 DIIS: error= 2.76D-03 at cycle  25 NSaved=  20.
 NSaved=20 IEnMin=20 EnMin= -884.753263856255     IErMin= 3 ErrMin= 1.19D-03
 ErrMax= 2.76D-03  0.00D+00 EMaxC= 1.00D-01 BMatC= 7.77D-03 BMatP= 2.86D-04
 IDIUse=3 WtCom= 9.88D-01 WtEn= 1.19D-02
 Large coefficients: NSaved= 20 BigCof=   10.84 CofMax=   10.00 Det=-8.87D-08
 Inversion failed.  Reducing to 19 matrices.
 Large coefficients: NSaved= 19 BigCof=   11.02 CofMax=   10.00 Det=-9.46D-08
 Inversion failed.  Reducing to 18 matrices.
 Coeff-Com: -0.134D-01 0.168D+00 0.258D+00-0.334D+01 0.398D+01 0.139D+01
 Coeff-Com: -0.123D+01 0.110D+01-0.134D+01-0.992D+00 0.838D+01-0.928D+01
 Coeff-Com: -0.509D+00 0.964D+00 0.149D+01 0.107D+00-0.582D-01-0.757D-01
 Coeff-En:   0.000D+00 0.000D+00 0.000D+00 0.000D+00 0.000D+00 0.000D+00
 Coeff-En:   0.000D+00 0.000D+00 0.000D+00 0.000D+00 0.000D+00 0.000D+00
 Coeff-En:   0.000D+00 0.000D+00 0.000D+00 0.000D+00 0.000D+00 0.100D+01
 Coeff:     -0.133D-01 0.166D+00 0.255D+00-0.330D+01 0.393D+01 0.137D+01
 Coeff:     -0.122D+01 0.108D+01-0.132D+01-0.980D+00 0.828D+01-0.916D+01
 Coeff:     -0.503D+00 0.953D+00 0.147D+01 0.106D+00-0.575D-01-0.628D-01
 Gap=     0.025 Goal=   None    Shift=    0.300
 Gap=     0.046 Goal=   None    Shift=    0.300
 RMSDP=6.93D-04 MaxDP=4.98D-02 DE=-4.15D-02 OVMax= 4.99D-02

 Cycle  26  Pass 1  IDiag  1:
 RMSU=  7.48D-06    CP:  9.95D-01  8.34D-01  9.94D-01  1.85D-01  4.75D-01
 E= -884.742341125030     Delta-E=        0.010922731226 Rises=F Damp=F
 DIIS: error= 6.71D-03 at cycle  26 NSaved=  19.
 NSaved=19 IEnMin=18 EnMin= -884.753263856255     IErMin= 2 ErrMin= 1.19D-03
 ErrMax= 6.71D-03  0.00D+00 EMaxC= 1.00D-01 BMatC= 3.91D-02 BMatP= 2.86D-04
 IDIUse=3 WtCom= 9.88D-01 WtEn= 1.19D-02
 Rare condition: small coef for last iteration:  0.000D+00
 Coeff-Com: -0.348D-01 0.265D+00 0.274D+00-0.369D+01 0.429D+01 0.114D+01
 Coeff-Com: -0.190D+01 0.207D+01 0.125D+00-0.197D+01 0.751D+01-0.969D+01
 Coeff-Com: -0.406D+00 0.164D+01 0.149D+01 0.804D-01-0.354D-01 0.594D-02
 Coeff-Com: -0.154D+00
 Coeff-En:   0.000D+00 0.000D+00 0.000D+00 0.000D+00 0.000D+00 0.000D+00
 Coeff-En:   0.000D+00 0.000D+00 0.000D+00 0.000D+00 0.000D+00 0.000D+00
 Coeff-En:   0.000D+00 0.000D+00 0.000D+00 0.000D+00 0.000D+00 0.000D+00
 Coeff-En:   0.100D+01
 Coeff:     -0.348D-01 0.265D+00 0.274D+00-0.369D+01 0.429D+01 0.114D+01
 Coeff:     -0.190D+01 0.207D+01 0.125D+00-0.197D+01 0.751D+01-0.969D+01
 Coeff:     -0.406D+00 0.164D+01 0.149D+01 0.804D-01-0.354D-01 0.594D-02
 Coeff:     -0.154D+00
 Gap=     0.027 Goal=   None    Shift=    0.000
 Gap=     0.044 Goal=   None    Shift=    0.000
 RMSDP=2.28D-03 MaxDP=1.48D-01 DE= 1.09D-02 OVMax= 3.91D-01

 Cycle  27  Pass 1  IDiag  1:
 RMSU=  2.42D-05    CP:  1.00D+00  8.14D-02  1.44D-01  9.85D-01 -1.88D-01
                    CP:  2.45D-01
 E= -884.710706073406     Delta-E=        0.031635051623 Rises=F Damp=F
 DIIS: error= 1.19D-02 at cycle  27 NSaved=  20.
 NSaved=20 IEnMin=18 EnMin= -884.753263856255     IErMin= 2 ErrMin= 1.19D-03
 ErrMax= 1.19D-02  0.00D+00 EMaxC= 1.00D-01 BMatC= 1.14D-01 BMatP= 2.86D-04
 IDIUse=2 WtCom= 0.00D+00 WtEn= 1.00D+00
 Rare condition: small coef for last iteration:  0.000D+00
 Coeff-En:   0.000D+00 0.000D+00 0.000D+00 0.000D+00 0.000D+00 0.000D+00
 Coeff-En:   0.000D+00 0.000D+00 0.000D+00 0.000D+00 0.000D+00 0.000D+00
 Coeff-En:   0.976D+00 0.000D+00 0.000D+00 0.000D+00 0.000D+00 0.000D+00
 Coeff-En:   0.000D+00 0.236D-01
 Coeff:      0.000D+00 0.000D+00 0.000D+00 0.000D+00 0.000D+00 0.000D+00
 Coeff:      0.000D+00 0.000D+00 0.000D+00 0.000D+00 0.000D+00 0.000D+00
 Coeff:      0.976D+00 0.000D+00 0.000D+00 0.000D+00 0.000D+00 0.000D+00
 Coeff:      0.000D+00 0.236D-01
 Gap=     0.021 Goal=   None    Shift=    0.000
 Gap=     0.111 Goal=   None    Shift=    0.000
 RMSDP=2.69D-03 MaxDP=1.97D-01 DE= 3.16D-02 OVMax= 4.31D-01

 Cycle  28  Pass 1  IDiag  1:
 RMSU=  1.71D-06    CP:  9.94D-01  9.87D-01  1.72D-02  3.08D-01  9.97D-01
                    CP:  1.94D-02  5.88D-02
 E= -884.753202271855     Delta-E=       -0.042496198448 Rises=F Damp=F
 DIIS: error= 2.82D-03 at cycle  28 NSaved=  20.
 NSaved=20 IEnMin=18 EnMin= -884.753263856255     IErMin= 2 ErrMin= 1.19D-03
 ErrMax= 2.82D-03  0.00D+00 EMaxC= 1.00D-01 BMatC= 7.93D-03 BMatP= 2.86D-04
 IDIUse=3 WtCom= 9.88D-01 WtEn= 1.19D-02
 Large coefficients: NSaved= 20 BigCof=   23.70 CofMax=   10.00 Det=-8.37D-09
 Inversion failed.  Reducing to 19 matrices.
 Large coefficients: NSaved= 19 BigCof=   20.53 CofMax=   10.00 Det=-1.14D-08
 Inversion failed.  Reducing to 18 matrices.
 Large coefficients: NSaved= 18 BigCof=   20.19 CofMax=   10.00 Det=-1.14D-08
 Inversion failed.  Reducing to 17 matrices.
 Large coefficients: NSaved= 17 BigCof=   22.46 CofMax=   10.00 Det=-1.19D-08
 Inversion failed.  Reducing to 16 matrices.
 Large coefficients: NSaved= 16 BigCof=   21.17 CofMax=   10.00 Det=-1.20D-08
 Inversion failed.  Reducing to 15 matrices.
 Large coefficients: NSaved= 15 BigCof=   18.34 CofMax=   10.00 Det=-1.22D-08
 Inversion failed.  Reducing to 14 matrices.
 Large coefficients: NSaved= 14 BigCof=   17.05 CofMax=   10.00 Det=-1.23D-08
 Inversion failed.  Reducing to 13 matrices.
 Large coefficients: NSaved= 13 BigCof=   13.23 CofMax=   10.00 Det=-1.25D-08
 Inversion failed.  Reducing to 12 matrices.
 Large coefficients: NSaved= 12 BigCof=   12.61 CofMax=   10.00 Det=-1.25D-08
 Inversion failed.  Reducing to 11 matrices.
 Large coefficients: NSaved= 11 BigCof=   18.03 CofMax=   10.00 Det=-1.29D-08
 Inversion failed.  Reducing to 10 matrices.
 Large coefficients: NSaved= 10 BigCof=   25.40 CofMax=   10.00 Det=-1.30D-08
 Inversion failed.  Reducing to  9 matrices.
 Large coefficients: NSaved=  9 BigCof=   34.93 CofMax=   10.00 Det=-1.39D-08
 Inversion failed.  Reducing to  8 matrices.
 Large coefficients: NSaved=  8 BigCof=   87.64 CofMax=   10.00 Det=-2.00D-08
 Inversion failed.  Reducing to  7 matrices.
 Large coefficients: NSaved=  7 BigCof=   26.50 CofMax=   10.00 Det=-3.74D-08
 Inversion failed.  Reducing to  6 matrices.
 Large coefficients: NSaved=  6 BigCof=   22.31 CofMax=   10.00 Det=-3.78D-08
 Inversion failed.  Reducing to  5 matrices.
 Large coefficients: NSaved=  5 BigCof=   53.22 CofMax=   10.00 Det=-1.79D-07
 Inversion failed.  Reducing to  4 matrices.
 Large coefficients: NSaved=  4 BigCof=   72.20 CofMax=   10.00 Det=-1.83D-07
 Inversion failed.  Reducing to  3 matrices.
 Coeff-Com:  0.655D+01-0.909D-01-0.546D+01
 Coeff-En:   0.000D+00 0.000D+00 0.100D+01
 Coeff:      0.648D+01-0.898D-01-0.539D+01
 Gap=     0.040 Goal=   None    Shift=    0.000
 Gap=     0.169 Goal=   None    Shift=    0.000
 RMSDP=1.07D-03 MaxDP=3.25D-02 DE=-4.25D-02 OVMax= 1.08D-01

 Cycle  29  Pass 1  IDiag  1:
 RMSU=  7.41D-04    CP:  9.97D-01  9.08D-01 -1.01D+00  3.00D+00  3.00D+00
                    CP: -3.00D+00 -3.00D+00 -3.00D+00
 E= -884.754474362763     Delta-E=       -0.001272090909 Rises=F Damp=F
 DIIS: error= 5.62D-03 at cycle  29 NSaved=   4.
 NSaved= 4 IEnMin= 4 EnMin= -884.754474362763     IErMin= 1 ErrMin= 2.76D-03
 ErrMax= 5.62D-03  0.00D+00 EMaxC= 1.00D-01 BMatC= 1.96D-02 BMatP= 7.77D-03
 IDIUse=3 WtCom= 9.88D-01 WtEn= 1.19D-02
 EnCoef did   100 forward-backward iterations
 Coeff-Com:  0.613D+01-0.144D+00-0.538D+01 0.389D+00
 Coeff-En:   0.335D+00 0.000D+00 0.152D-01 0.650D+00
 Coeff:      0.606D+01-0.142D+00-0.531D+01 0.392D+00
 Gap=     0.046 Goal=   None    Shift=    0.300
 Gap=     0.159 Goal=   None    Shift=    0.300
 RMSDP=2.64D-04 MaxDP=8.26D-03 DE=-1.27D-03 OVMax= 1.43D-02

 Cycle  30  Pass 1  IDiag  1:
 RMSU=  1.99D-04    CP:  9.96D-01  9.03D-01 -1.12D+00  3.00D+00  3.00D+00
                    CP: -3.00D+00 -3.00D+00 -3.00D+00  7.83D-01
 E= -884.758547096400     Delta-E=       -0.004072733637 Rises=F Damp=F
 DIIS: error= 2.58D-03 at cycle  30 NSaved=   5.
 NSaved= 5 IEnMin= 5 EnMin= -884.758547096400     IErMin= 5 ErrMin= 2.58D-03
 ErrMax= 2.58D-03  0.00D+00 EMaxC= 1.00D-01 BMatC= 3.41D-03 BMatP= 7.77D-03
 IDIUse=3 WtCom= 9.88D-01 WtEn= 1.19D-02
 Coeff-Com:  0.826D+01-0.100D+00-0.803D+01-0.121D+00 0.988D+00
 Coeff-En:   0.000D+00 0.000D+00 0.000D+00 0.000D+00 0.100D+01
 Coeff:      0.816D+01-0.991D-01-0.793D+01-0.120D+00 0.988D+00
 Gap=     0.046 Goal=   None    Shift=    0.300
 Gap=     0.159 Goal=   None    Shift=    0.300
 RMSDP=1.57D-04 MaxDP=5.02D-03 DE=-4.07D-03 OVMax= 1.39D-02

 Cycle  31  Pass 1  IDiag  1:
 RMSU=  8.61D-05    CP:  9.96D-01  8.93D-01 -1.31D+00  3.00D+00  3.00D+00
                    CP: -3.00D+00 -3.00D+00 -3.00D+00  7.36D-01  1.38D+00
 E= -884.759566135663     Delta-E=       -0.001019039262 Rises=F Damp=F
 DIIS: error= 1.43D-03 at cycle  31 NSaved=   6.
 NSaved= 6 IEnMin= 6 EnMin= -884.759566135663     IErMin= 6 ErrMin= 1.43D-03
 ErrMax= 1.43D-03  0.00D+00 EMaxC= 1.00D-01 BMatC= 1.03D-03 BMatP= 3.41D-03
 IDIUse=3 WtCom= 9.88D-01 WtEn= 1.19D-02
 Coeff-Com:  0.232D+01-0.781D-01-0.231D+01-0.111D+00 0.197D+00 0.980D+00
 Coeff-En:   0.000D+00 0.000D+00 0.000D+00 0.000D+00 0.000D+00 0.100D+01
 Coeff:      0.230D+01-0.771D-01-0.229D+01-0.110D+00 0.195D+00 0.980D+00
 Gap=     0.046 Goal=   None    Shift=    0.300
 Gap=     0.158 Goal=   None    Shift=    0.300
 RMSDP=1.39D-04 MaxDP=4.14D-03 DE=-1.02D-03 OVMax= 1.54D-02

 Cycle  32  Pass 1  IDiag  1:
 RMSU=  4.66D-05    CP:  9.96D-01  8.80D-01 -1.50D+00  3.00D+00  3.00D+00
                    CP: -3.00D+00 -3.00D+00 -3.00D+00  7.72D-01  1.63D+00
                    CP:  1.52D+00
 E= -884.760102037480     Delta-E=       -0.000535901817 Rises=F Damp=F
 DIIS: error= 8.94D-04 at cycle  32 NSaved=   7.
 NSaved= 7 IEnMin= 7 EnMin= -884.760102037480     IErMin= 7 ErrMin= 8.94D-04
 ErrMax= 8.94D-04  0.00D+00 EMaxC= 1.00D-01 BMatC= 3.33D-04 BMatP= 1.03D-03
 IDIUse=3 WtCom= 9.91D-01 WtEn= 8.94D-03
 Coeff-Com: -0.624D+01-0.527D-01 0.621D+01 0.645D-01-0.392D+00-0.337D-01
 Coeff-Com:  0.144D+01
 Coeff-En:   0.000D+00 0.000D+00 0.000D+00 0.000D+00 0.000D+00 0.000D+00
 Coeff-En:   0.100D+01
 Coeff:     -0.618D+01-0.522D-01 0.615D+01 0.639D-01-0.388D+00-0.334D-01
 Coeff:      0.144D+01
 Gap=     0.044 Goal=   None    Shift=    0.300
 Gap=     0.157 Goal=   None    Shift=    0.300
 RMSDP=1.38D-04 MaxDP=3.97D-03 DE=-5.36D-04 OVMax= 1.58D-02

 Cycle  33  Pass 1  IDiag  1:
 RMSU=  2.39D-05    CP:  9.97D-01  8.66D-01 -1.69D+00  3.00D+00  3.00D+00
                    CP: -3.00D+00 -3.00D+00 -3.00D+00  8.42D-01  1.82D+00
                    CP:  2.05D+00  1.60D+00
 E= -884.760449937576     Delta-E=       -0.000347900096 Rises=F Damp=F
 DIIS: error= 6.71D-04 at cycle  33 NSaved=   8.
 NSaved= 8 IEnMin= 8 EnMin= -884.760449937576     IErMin= 8 ErrMin= 6.71D-04
 ErrMax= 6.71D-04  0.00D+00 EMaxC= 1.00D-01 BMatC= 9.79D-05 BMatP= 3.33D-04
 IDIUse=3 WtCom= 9.93D-01 WtEn= 6.71D-03
 Coeff-Com: -0.977D+01-0.477D-01 0.980D+01 0.446D-01-0.195D+00-0.290D+00
 Coeff-Com:  0.238D+00 0.122D+01
 Coeff-En:   0.000D+00 0.000D+00 0.000D+00 0.000D+00 0.000D+00 0.000D+00
 Coeff-En:   0.000D+00 0.100D+01
 Coeff:     -0.970D+01-0.473D-01 0.973D+01 0.443D-01-0.194D+00-0.288D+00
 Coeff:      0.237D+00 0.121D+01
 Gap=     0.044 Goal=   None    Shift=    0.300
 Gap=     0.157 Goal=   None    Shift=    0.300
 RMSDP=1.05D-04 MaxDP=3.52D-03 DE=-3.48D-04 OVMax= 1.44D-02

 Cycle  34  Pass 1  IDiag  1:
 RMSU=  1.82D-05    CP:  9.97D-01  8.50D-01 -1.82D+00  3.00D+00  3.00D+00
                    CP: -3.00D+00 -3.00D+00 -3.00D+00  8.98D-01  1.97D+00
                    CP:  2.40D+00  2.03D+00  1.53D+00
 E= -884.760652316484     Delta-E=       -0.000202378909 Rises=F Damp=F
 DIIS: error= 6.84D-04 at cycle  34 NSaved=   9.
 NSaved= 9 IEnMin= 9 EnMin= -884.760652316484     IErMin= 8 ErrMin= 6.71D-04
 ErrMax= 6.84D-04  0.00D+00 EMaxC= 1.00D-01 BMatC= 6.18D-05 BMatP= 9.79D-05
 IDIUse=3 WtCom= 9.93D-01 WtEn= 6.71D-03
 Coeff-Com: -0.987D+01-0.408D-01 0.994D+01-0.424D-01 0.138D+00-0.166D+00
 Coeff-Com: -0.635D+00-0.102D+00 0.178D+01
 Coeff-En:   0.000D+00 0.000D+00 0.000D+00 0.000D+00 0.000D+00 0.000D+00
 Coeff-En:   0.000D+00 0.000D+00 0.100D+01
 Coeff:     -0.980D+01-0.405D-01 0.987D+01-0.422D-01 0.137D+00-0.165D+00
 Coeff:     -0.631D+00-0.101D+00 0.178D+01
 Gap=     0.044 Goal=   None    Shift=    0.300
 Gap=     0.157 Goal=   None    Shift=    0.300
 RMSDP=9.66D-05 MaxDP=3.34D-03 DE=-2.02D-04 OVMax= 1.43D-02

 Cycle  35  Pass 1  IDiag  1:
 RMSU=  1.08D-05    CP:  9.97D-01  8.31D-01 -1.92D+00  3.00D+00  3.00D+00
                    CP: -3.00D+00 -3.00D+00 -3.00D+00  9.46D-01  2.11D+00
                    CP:  2.66D+00  2.40D+00  2.17D+00  1.86D+00
 E= -884.760813916919     Delta-E=       -0.000161600435 Rises=F Damp=F
 DIIS: error= 6.60D-04 at cycle  35 NSaved=  10.
 NSaved=10 IEnMin=10 EnMin= -884.760813916919     IErMin=10 ErrMin= 6.60D-04
 ErrMax= 6.60D-04  0.00D+00 EMaxC= 1.00D-01 BMatC= 5.52D-05 BMatP= 6.18D-05
 IDIUse=3 WtCom= 9.93D-01 WtEn= 6.60D-03
 Coeff-Com: -0.816D+01-0.391D-01 0.823D+01-0.574D-01 0.161D+00-0.339D-01
 Coeff-Com: -0.335D+00-0.786D+00 0.598D+00 0.143D+01
 Coeff-En:   0.000D+00 0.000D+00 0.000D+00 0.000D+00 0.000D+00 0.000D+00
 Coeff-En:   0.000D+00 0.000D+00 0.000D+00 0.100D+01
 Coeff:     -0.811D+01-0.388D-01 0.817D+01-0.570D-01 0.160D+00-0.337D-01
 Coeff:     -0.333D+00-0.781D+00 0.594D+00 0.142D+01
 Gap=     0.044 Goal=   None    Shift=    0.300
 Gap=     0.157 Goal=   None    Shift=    0.300
 RMSDP=8.55D-05 MaxDP=3.21D-03 DE=-1.62D-04 OVMax= 1.36D-02

 Cycle  36  Pass 1  IDiag  1:
 RMSU=  8.40D-06    CP:  9.97D-01  8.12D-01 -2.01D+00  3.00D+00  3.00D+00
                    CP: -3.00D+00 -3.00D+00 -3.00D+00  9.80D-01  2.22D+00
                    CP:  2.87D+00  2.67D+00  2.66D+00  2.82D+00  1.70D+00
 E= -884.760947371854     Delta-E=       -0.000133454935 Rises=F Damp=F
 DIIS: error= 6.24D-04 at cycle  36 NSaved=  11.
 NSaved=11 IEnMin=11 EnMin= -884.760947371854     IErMin=11 ErrMin= 6.24D-04
 ErrMax= 6.24D-04  0.00D+00 EMaxC= 1.00D-01 BMatC= 4.48D-05 BMatP= 5.52D-05
 IDIUse=3 WtCom= 9.94D-01 WtEn= 6.24D-03
 Coeff-Com: -0.608D+01-0.377D-01 0.614D+01-0.110D-01 0.123D-01-0.317D-01
 Coeff-Com:  0.210D+00-0.441D+00-0.805D+00 0.107D+00 0.194D+01
 Coeff-En:   0.000D+00 0.000D+00 0.000D+00 0.000D+00 0.000D+00 0.000D+00
 Coeff-En:   0.000D+00 0.000D+00 0.000D+00 0.000D+00 0.100D+01
 Coeff:     -0.605D+01-0.374D-01 0.611D+01-0.109D-01 0.122D-01-0.315D-01
 Coeff:      0.209D+00-0.438D+00-0.800D+00 0.106D+00 0.193D+01
 Gap=     0.043 Goal=   None    Shift=    0.300
 Gap=     0.157 Goal=   None    Shift=    0.300
 RMSDP=8.23D-05 MaxDP=3.16D-03 DE=-1.33D-04 OVMax= 1.31D-02

 Cycle  37  Pass 1  IDiag  1:
 RMSU=  1.61D-05    CP:  9.97D-01  7.93D-01 -2.09D+00  3.00D+00  3.00D+00
                    CP: -3.00D+00 -3.00D+00 -3.00D+00  1.01D+00  2.32D+00
                    CP:  3.00D+00  2.90D+00  3.00D+00  3.00D+00  2.83D+00
                    CP:  1.73D+00
 E= -884.761063338541     Delta-E=       -0.000115966687 Rises=F Damp=F
 DIIS: error= 5.91D-04 at cycle  37 NSaved=  12.
 NSaved=12 IEnMin=12 EnMin= -884.761063338541     IErMin=12 ErrMin= 5.91D-04
 ErrMax= 5.91D-04  0.00D+00 EMaxC= 1.00D-01 BMatC= 4.04D-05 BMatP= 4.48D-05
 IDIUse=3 WtCom= 9.94D-01 WtEn= 5.91D-03
 Coeff-Com: -0.527D+01-0.338D-01 0.531D+01 0.146D-01-0.792D-01-0.643D-01
 Coeff-Com:  0.229D+00 0.539D+00-0.750D+00-0.160D+01 0.512D+00 0.219D+01
 Coeff-En:   0.000D+00 0.000D+00 0.000D+00 0.000D+00 0.000D+00 0.000D+00
 Coeff-En:   0.000D+00 0.000D+00 0.000D+00 0.000D+00 0.000D+00 0.100D+01
 Coeff:     -0.524D+01-0.336D-01 0.528D+01 0.146D-01-0.787D-01-0.639D-01
 Coeff:      0.227D+00 0.536D+00-0.745D+00-0.159D+01 0.509D+00 0.219D+01
 Gap=     0.043 Goal=   None    Shift=    0.300
 Gap=     0.156 Goal=   None    Shift=    0.300
 RMSDP=8.13D-05 MaxDP=3.10D-03 DE=-1.16D-04 OVMax= 1.27D-02

 Cycle  38  Pass 1  IDiag  1:
 RMSU=  1.81D-05    CP:  9.97D-01  7.76D-01 -2.18D+00  3.00D+00  3.00D+00
                    CP: -3.00D+00 -3.00D+00 -3.00D+00  1.04D+00  2.41D+00
                    CP:  3.00D+00  3.00D+00  3.00D+00  3.00D+00  3.00D+00
                    CP:  2.85D+00  2.33D+00
 E= -884.761165183005     Delta-E=       -0.000101844465 Rises=F Damp=F
 DIIS: error= 5.65D-04 at cycle  38 NSaved=  13.
 NSaved=13 IEnMin=13 EnMin= -884.761165183005     IErMin=13 ErrMin= 5.65D-04
 ErrMax= 5.65D-04  0.00D+00 EMaxC= 1.00D-01 BMatC= 4.02D-05 BMatP= 4.04D-05
 IDIUse=3 WtCom= 9.94D-01 WtEn= 5.65D-03
 Coeff-Com: -0.587D+01-0.309D-01 0.591D+01-0.264D-02-0.144D-01-0.455D-01
 Coeff-Com:  0.215D-01 0.484D+00-0.367D-01-0.134D+01-0.213D+00 0.171D+00
 Coeff-Com:  0.197D+01
 Coeff-En:   0.000D+00 0.000D+00 0.000D+00 0.000D+00 0.000D+00 0.000D+00
 Coeff-En:   0.000D+00 0.000D+00 0.000D+00 0.000D+00 0.000D+00 0.000D+00
 Coeff-En:   0.100D+01
 Coeff:     -0.584D+01-0.308D-01 0.587D+01-0.262D-02-0.143D-01-0.452D-01
 Coeff:      0.214D-01 0.481D+00-0.365D-01-0.133D+01-0.212D+00 0.170D+00
 Coeff:      0.196D+01
 Gap=     0.043 Goal=   None    Shift=    0.300
 Gap=     0.156 Goal=   None    Shift=    0.300
 RMSDP=7.45D-05 MaxDP=2.93D-03 DE=-1.02D-04 OVMax= 1.19D-02

 Cycle  39  Pass 1  IDiag  1:
 RMSU=  1.38D-05    CP:  9.97D-01  7.59D-01 -2.25D+00  3.00D+00  3.00D+00
                    CP: -3.00D+00 -3.00D+00 -3.00D+00  1.06D+00  2.49D+00
                    CP:  3.00D+00  3.00D+00  3.00D+00  3.00D+00  3.00D+00
                    CP:  3.00D+00  3.00D+00  1.95D+00
 E= -884.761252023104     Delta-E=       -0.000086840099 Rises=F Damp=F
 DIIS: error= 5.37D-04 at cycle  39 NSaved=  14.
 NSaved=14 IEnMin=14 EnMin= -884.761252023104     IErMin=14 ErrMin= 5.37D-04
 ErrMax= 5.37D-04  0.00D+00 EMaxC= 1.00D-01 BMatC= 3.79D-05 BMatP= 4.02D-05
 IDIUse=3 WtCom= 9.95D-01 WtEn= 5.37D-03
 Coeff-Com: -0.599D+01-0.257D-01 0.602D+01-0.217D-02 0.728D-02-0.422D-01
 Coeff-Com:  0.427D-01 0.193D-01 0.195D+00-0.407D+00 0.226D-01-0.977D+00
 Coeff-Com:  0.987D-01 0.204D+01
 Coeff-En:   0.000D+00 0.000D+00 0.000D+00 0.000D+00 0.000D+00 0.000D+00
 Coeff-En:   0.000D+00 0.000D+00 0.000D+00 0.000D+00 0.000D+00 0.000D+00
 Coeff-En:   0.000D+00 0.100D+01
 Coeff:     -0.596D+01-0.255D-01 0.599D+01-0.216D-02 0.724D-02-0.420D-01
 Coeff:      0.425D-01 0.192D-01 0.194D+00-0.404D+00 0.225D-01-0.972D+00
 Coeff:      0.982D-01 0.203D+01
 Gap=     0.042 Goal=   None    Shift=    0.300
 Gap=     0.156 Goal=   None    Shift=    0.300
 RMSDP=6.98D-05 MaxDP=2.82D-03 DE=-8.68D-05 OVMax= 1.12D-02

 Cycle  40  Pass 1  IDiag  1:
 RMSU=  7.61D-06    CP:  9.98D-01  7.43D-01 -2.33D+00  3.00D+00  3.00D+00
                    CP: -3.00D+00 -3.00D+00 -3.00D+00  1.08D+00  2.56D+00
                    CP:  3.00D+00  3.00D+00  3.00D+00  3.00D+00  3.00D+00
                    CP:  3.00D+00  3.00D+00  2.83D+00  2.52D+00
 E= -884.761326809134     Delta-E=       -0.000074786029 Rises=F Damp=F
 DIIS: error= 5.09D-04 at cycle  40 NSaved=  15.
 NSaved=15 IEnMin=15 EnMin= -884.761326809134     IErMin=15 ErrMin= 5.09D-04
 ErrMax= 5.09D-04  0.00D+00 EMaxC= 1.00D-01 BMatC= 3.71D-05 BMatP= 3.79D-05
 IDIUse=3 WtCom= 9.95D-01 WtEn= 5.09D-03
 Coeff-Com: -0.564D+01-0.216D-01 0.567D+01 0.245D-01-0.636D-01-0.660D-01
 Coeff-Com:  0.316D+00-0.455D+00-0.281D+00 0.477D+00 0.988D+00 0.399D+00
 Coeff-Com: -0.399D+01 0.512D+00 0.313D+01
 Coeff-En:   0.000D+00 0.000D+00 0.000D+00 0.000D+00 0.000D+00 0.000D+00
 Coeff-En:   0.000D+00 0.000D+00 0.000D+00 0.000D+00 0.000D+00 0.000D+00
 Coeff-En:   0.000D+00 0.000D+00 0.100D+01
 Coeff:     -0.562D+01-0.214D-01 0.565D+01 0.244D-01-0.633D-01-0.656D-01
 Coeff:      0.315D+00-0.453D+00-0.280D+00 0.475D+00 0.983D+00 0.397D+00
 Coeff:     -0.397D+01 0.509D+00 0.312D+01
 Gap=     0.042 Goal=   None    Shift=    0.300
 Gap=     0.156 Goal=   None    Shift=    0.300
 RMSDP=7.23D-05 MaxDP=2.86D-03 DE=-7.48D-05 OVMax= 1.13D-02

 Cycle  41  Pass 1  IDiag  1:
 Restarting incremental Fock formation.
 E= -884.761393608107     Delta-E=       -0.000066798973 Rises=F Damp=F
 DIIS: error= 4.87D-04 at cycle  41 NSaved=  16.
 NSaved=16 IEnMin=16 EnMin= -884.761393608107     IErMin=16 ErrMin= 4.87D-04
 ErrMax= 4.87D-04  0.00D+00 EMaxC= 1.00D-01 BMatC= 4.26D-05 BMatP= 3.71D-05
 IDIUse=3 WtCom= 9.95D-01 WtEn= 5.09D-03
 Coeff-Com: -0.549D+01-0.217D-01 0.552D+01 0.214D-01-0.697D-01-0.608D-01
 Coeff-Com:  0.342D+00-0.426D+00-0.444D+00 0.395D+00 0.116D+01 0.983D+00
 Coeff-Com: -0.402D+01-0.362D+00 0.272D+01 0.754D+00
 Coeff-En:   0.000D+00 0.000D+00 0.000D+00 0.000D+00 0.000D+00 0.000D+00
 Coeff-En:   0.000D+00 0.000D+00 0.000D+00 0.000D+00 0.000D+00 0.000D+00
 Coeff-En:   0.000D+00 0.000D+00 0.000D+00 0.100D+01
 Coeff:     -0.546D+01-0.216D-01 0.549D+01 0.213D-01-0.694D-01-0.605D-01
 Coeff:      0.341D+00-0.423D+00-0.441D+00 0.393D+00 0.115D+01 0.978D+00
 Coeff:     -0.400D+01-0.360D+00 0.270D+01 0.755D+00
 Gap=     0.042 Goal=   None    Shift=    0.300
 Gap=     0.156 Goal=   None    Shift=    0.300
 RMSDP=5.97D-05 MaxDP=2.57D-03 DE=-6.68D-05 OVMax= 9.99D-03

 Cycle  42  Pass 1  IDiag  1:
 RMSU=  5.97D-05    CP:  1.00D+00
 E= -884.761452115631     Delta-E=       -0.000058507524 Rises=F Damp=F
 DIIS: error= 4.54D-04 at cycle  42 NSaved=  17.
 NSaved=17 IEnMin=17 EnMin= -884.761452115631     IErMin=17 ErrMin= 4.54D-04
 ErrMax= 4.54D-04  0.00D+00 EMaxC= 1.00D-01 BMatC= 3.34D-05 BMatP= 3.71D-05
 IDIUse=3 WtCom= 9.95D-01 WtEn= 4.54D-03
 Coeff-Com: -0.391D+01-0.158D-01 0.393D+01 0.654D-02-0.612D-01-0.105D+00
 Coeff-Com: -0.551D-02 0.647D+00-0.874D-01-0.929D+00-0.238D+00 0.521D+00
 Coeff-Com:  0.122D+01-0.123D+01-0.183D+00-0.374D+01 0.519D+01
 Coeff-En:   0.000D+00 0.000D+00 0.000D+00 0.000D+00 0.000D+00 0.000D+00
 Coeff-En:   0.000D+00 0.000D+00 0.000D+00 0.000D+00 0.000D+00 0.000D+00
 Coeff-En:   0.000D+00 0.000D+00 0.000D+00 0.000D+00 0.100D+01
 Coeff:     -0.389D+01-0.157D-01 0.391D+01 0.651D-02-0.610D-01-0.105D+00
 Coeff:     -0.549D-02 0.644D+00-0.870D-01-0.925D+00-0.237D+00 0.519D+00
 Coeff:      0.122D+01-0.123D+01-0.183D+00-0.373D+01 0.517D+01
 Gap=     0.041 Goal=   None    Shift=    0.300
 Gap=     0.156 Goal=   None    Shift=    0.300
 RMSDP=7.85D-05 MaxDP=2.99D-03 DE=-5.85D-05 OVMax= 1.16D-02

 Cycle  43  Pass 1  IDiag  1:
 RMSU=  2.38D-05    CP:  1.00D+00  2.25D+00
 E= -884.761501113208     Delta-E=       -0.000048997577 Rises=F Damp=F
 DIIS: error= 4.57D-04 at cycle  43 NSaved=  18.
 NSaved=18 IEnMin=18 EnMin= -884.761501113208     IErMin=17 ErrMin= 4.54D-04
 ErrMax= 4.57D-04  0.00D+00 EMaxC= 1.00D-01 BMatC= 5.94D-05 BMatP= 3.34D-05
 IDIUse=3 WtCom= 9.95D-01 WtEn= 4.54D-03
 Coeff-Com: -0.363D+01-0.158D-01 0.365D+01-0.788D-02-0.213D-01-0.899D-01
 Coeff-Com: -0.876D-01 0.745D+00-0.868D-01-0.996D+00-0.302D+00 0.807D-01
 Coeff-Com:  0.259D+01-0.971D+00-0.101D+01-0.590D+01 0.605D+01 0.989D+00
 Coeff-En:   0.000D+00 0.000D+00 0.000D+00 0.000D+00 0.000D+00 0.000D+00
 Coeff-En:   0.000D+00 0.000D+00 0.000D+00 0.000D+00 0.000D+00 0.000D+00
 Coeff-En:   0.000D+00 0.000D+00 0.000D+00 0.000D+00 0.000D+00 0.100D+01
 Coeff:     -0.361D+01-0.157D-01 0.363D+01-0.784D-02-0.212D-01-0.895D-01
 Coeff:     -0.872D-01 0.742D+00-0.865D-01-0.991D+00-0.300D+00 0.803D-01
 Coeff:      0.258D+01-0.966D+00-0.100D+01-0.587D+01 0.603D+01 0.989D+00
 Gap=     0.041 Goal=   None    Shift=    0.300
 Gap=     0.156 Goal=   None    Shift=    0.300
 RMSDP=6.77D-05 MaxDP=2.84D-03 DE=-4.90D-05 OVMax= 1.08D-02

 Cycle  44  Pass 1  IDiag  1:
 RMSU=  2.28D-05    CP:  1.00D+00  3.00D+00  1.34D+00
 E= -884.761548598880     Delta-E=       -0.000047485672 Rises=F Damp=F
 DIIS: error= 4.38D-04 at cycle  44 NSaved=  19.
 NSaved=19 IEnMin=19 EnMin= -884.761548598880     IErMin=19 ErrMin= 4.38D-04
 ErrMax= 4.38D-04  0.00D+00 EMaxC= 1.00D-01 BMatC= 5.85D-05 BMatP= 3.34D-05
 IDIUse=3 WtCom= 9.95D-01 WtEn= 4.54D-03
 Coeff-Com: -0.365D+01-0.156D-01 0.366D+01-0.390D-02-0.243D-01-0.907D-01
 Coeff-Com: -0.661D-01 0.747D+00-0.948D-01-0.976D+00-0.293D+00-0.550D-01
 Coeff-Com:  0.254D+01-0.501D+00-0.939D+00-0.606D+01 0.566D+01 0.352D+00
 Coeff-Com:  0.800D+00
 Coeff-En:   0.000D+00 0.000D+00 0.000D+00 0.000D+00 0.000D+00 0.000D+00
 Coeff-En:   0.000D+00 0.000D+00 0.000D+00 0.000D+00 0.000D+00 0.000D+00
 Coeff-En:   0.000D+00 0.000D+00 0.000D+00 0.000D+00 0.000D+00 0.000D+00
 Coeff-En:   0.100D+01
 Coeff:     -0.363D+01-0.156D-01 0.365D+01-0.388D-02-0.242D-01-0.902D-01
 Coeff:     -0.658D-01 0.744D+00-0.944D-01-0.972D+00-0.291D+00-0.548D-01
 Coeff:      0.253D+01-0.499D+00-0.934D+00-0.603D+01 0.563D+01 0.350D+00
 Coeff:      0.801D+00
 Gap=     0.041 Goal=   None    Shift=    0.300
 Gap=     0.156 Goal=   None    Shift=    0.300
 RMSDP=5.71D-05 MaxDP=2.55D-03 DE=-4.75D-05 OVMax= 9.58D-03

 Cycle  45  Pass 1  IDiag  1:
 RMSU=  1.41D-05    CP:  1.00D+00  3.00D+00  1.29D+00  3.00D+00
 E= -884.761592242325     Delta-E=       -0.000043643445 Rises=F Damp=F
 DIIS: error= 4.05D-04 at cycle  45 NSaved=  20.
 NSaved=20 IEnMin=20 EnMin= -884.761592242325     IErMin=20 ErrMin= 4.05D-04
 ErrMax= 4.05D-04  0.00D+00 EMaxC= 1.00D-01 BMatC= 4.61D-05 BMatP= 3.34D-05
 IDIUse=3 WtCom= 9.95D-01 WtEn= 4.54D-03
 Coeff-Com: -0.361D+01-0.134D-01 0.362D+01 0.147D-01-0.381D-01-0.837D-01
 Coeff-Com: -0.586D-01 0.509D+00 0.117D+00-0.510D+00-0.513D+00-0.214D+00
 Coeff-Com:  0.125D+01 0.188D+00-0.394D+00-0.157D+01 0.119D+01 0.892D+00
 Coeff-Com: -0.479D+01 0.501D+01
 Coeff-En:   0.000D+00 0.000D+00 0.000D+00 0.000D+00 0.000D+00 0.000D+00
 Coeff-En:   0.000D+00 0.000D+00 0.000D+00 0.000D+00 0.000D+00 0.000D+00
 Coeff-En:   0.000D+00 0.000D+00 0.000D+00 0.000D+00 0.000D+00 0.000D+00
 Coeff-En:   0.000D+00 0.100D+01
 Coeff:     -0.359D+01-0.134D-01 0.361D+01 0.146D-01-0.379D-01-0.834D-01
 Coeff:     -0.583D-01 0.507D+00 0.117D+00-0.508D+00-0.510D+00-0.213D+00
 Coeff:      0.124D+01 0.187D+00-0.392D+00-0.156D+01 0.119D+01 0.888D+00
 Coeff:     -0.477D+01 0.499D+01
 Gap=     0.041 Goal=   None    Shift=    0.300
 Gap=     0.156 Goal=   None    Shift=    0.300
 RMSDP=5.53D-05 MaxDP=2.49D-03 DE=-4.36D-05 OVMax= 9.27D-03

 Cycle  46  Pass 1  IDiag  1:
 RMSU=  3.44D-05    CP:  1.00D+00  3.00D+00  1.32D+00  3.00D+00  3.00D+00
 E= -884.761628968519     Delta-E=       -0.000036726194 Rises=F Damp=F
 DIIS: error= 3.79D-04 at cycle  46 NSaved=  20.
 NSaved=20 IEnMin=20 EnMin= -884.761628968519     IErMin=20 ErrMin= 3.79D-04
 ErrMax= 3.79D-04  0.00D+00 EMaxC= 1.00D-01 BMatC= 4.11D-05 BMatP= 3.34D-05
 IDIUse=3 WtCom= 9.95D-01 WtEn= 4.54D-03
 Coeff-Com: -0.209D+01 0.209D+01 0.194D-01-0.388D-01-0.765D-01-0.748D-01
 Coeff-Com:  0.164D+00 0.356D+00 0.386D-01-0.617D+00-0.688D-01-0.397D-01
 Coeff-Com: -0.175D+00 0.533D-01 0.215D+01-0.145D+01 0.193D+01-0.897D+01
 Coeff-Com:  0.561D+01 0.220D+01
 Coeff-En:   0.000D+00 0.000D+00 0.000D+00 0.000D+00 0.000D+00 0.000D+00
 Coeff-En:   0.000D+00 0.000D+00 0.000D+00 0.000D+00 0.000D+00 0.000D+00
 Coeff-En:   0.000D+00 0.000D+00 0.000D+00 0.000D+00 0.000D+00 0.000D+00
 Coeff-En:   0.000D+00 0.100D+01
 Coeff:     -0.208D+01 0.208D+01 0.193D-01-0.386D-01-0.762D-01-0.745D-01
 Coeff:      0.163D+00 0.354D+00 0.384D-01-0.614D+00-0.685D-01-0.395D-01
 Coeff:     -0.174D+00 0.530D-01 0.214D+01-0.145D+01 0.192D+01-0.893D+01
 Coeff:      0.559D+01 0.219D+01
 Gap=     0.040 Goal=   None    Shift=    0.300
 Gap=     0.155 Goal=   None    Shift=    0.300
 RMSDP=6.29D-05 MaxDP=2.70D-03 DE=-3.67D-05 OVMax= 1.00D-02

 Cycle  47  Pass 1  IDiag  1:
 RMSU=  2.72D-05    CP:  1.00D+00  3.00D+00  1.77D+00  3.00D+00  3.00D+00
                    CP:  2.62D+00
 E= -884.761657164348     Delta-E=       -0.000028195829 Rises=F Damp=F
 DIIS: error= 3.74D-04 at cycle  47 NSaved=  20.
 NSaved=20 IEnMin=20 EnMin= -884.761657164348     IErMin=20 ErrMin= 3.74D-04
 ErrMax= 3.74D-04  0.00D+00 EMaxC= 1.00D-01 BMatC= 5.43D-05 BMatP= 3.34D-05
 IDIUse=3 WtCom= 9.95D-01 WtEn= 4.54D-03
 Coeff-Com: -0.683D-02 0.564D-02-0.481D-01-0.139D-02 0.800D-01 0.223D+00
 Coeff-Com: -0.142D+00-0.476D+00-0.161D+00 0.105D+01 0.425D+00-0.174D+01
 Coeff-Com:  0.958D-01-0.257D+00 0.207D+01 0.160D+01-0.724D+01 0.274D+01
 Coeff-Com:  0.297D+00 0.248D+01
 Coeff-En:   0.000D+00 0.000D+00 0.000D+00 0.000D+00 0.000D+00 0.000D+00
 Coeff-En:   0.000D+00 0.000D+00 0.000D+00 0.000D+00 0.000D+00 0.000D+00
 Coeff-En:   0.000D+00 0.000D+00 0.000D+00 0.000D+00 0.000D+00 0.000D+00
 Coeff-En:   0.000D+00 0.100D+01
 Coeff:     -0.680D-02 0.561D-02-0.478D-01-0.138D-02 0.796D-01 0.222D+00
 Coeff:     -0.142D+00-0.474D+00-0.160D+00 0.105D+01 0.423D+00-0.173D+01
 Coeff:      0.953D-01-0.256D+00 0.206D+01 0.159D+01-0.721D+01 0.273D+01
 Coeff:      0.296D+00 0.247D+01
 Gap=     0.040 Goal=   None    Shift=    0.300
 Gap=     0.155 Goal=   None    Shift=    0.300
 RMSDP=5.56D-05 MaxDP=2.56D-03 DE=-2.82D-05 OVMax= 9.42D-03

 Cycle  48  Pass 1  IDiag  1:
 RMSU=  3.75D-05    CP:  1.00D+00  3.00D+00  1.71D+00  3.00D+00  3.00D+00
                    CP:  3.00D+00  1.85D+00
 E= -884.761689548716     Delta-E=       -0.000032384368 Rises=F Damp=F
 DIIS: error= 3.47D-04 at cycle  48 NSaved=  20.
 NSaved=20 IEnMin=20 EnMin= -884.761689548716     IErMin=20 ErrMin= 3.47D-04
 ErrMax= 3.47D-04  0.00D+00 EMaxC= 1.00D-01 BMatC= 4.39D-05 BMatP= 3.34D-05
 IDIUse=3 WtCom= 9.95D-01 WtEn= 4.54D-03
 Coeff-Com:  0.179D-02-0.338D-01-0.231D-01-0.219D-01 0.358D+00-0.119D+00
 Coeff-Com: -0.578D+00-0.938D-01 0.967D+00 0.891D+00-0.193D+01 0.178D-01
 Coeff-Com: -0.222D+01 0.416D+01 0.135D+01-0.501D+01 0.968D+00-0.919D+00
 Coeff-Com:  0.187D+01 0.136D+01
 Coeff-En:   0.000D+00 0.000D+00 0.000D+00 0.000D+00 0.000D+00 0.000D+00
 Coeff-En:   0.000D+00 0.000D+00 0.000D+00 0.000D+00 0.000D+00 0.000D+00
 Coeff-En:   0.000D+00 0.000D+00 0.000D+00 0.000D+00 0.000D+00 0.000D+00
 Coeff-En:   0.000D+00 0.100D+01
 Coeff:      0.178D-02-0.336D-01-0.230D-01-0.218D-01 0.356D+00-0.119D+00
 Coeff:     -0.575D+00-0.934D-01 0.963D+00 0.887D+00-0.192D+01 0.177D-01
 Coeff:     -0.221D+01 0.414D+01 0.135D+01-0.499D+01 0.963D+00-0.915D+00
 Coeff:      0.186D+01 0.136D+01
 Gap=     0.040 Goal=   None    Shift=    0.300
 Gap=     0.155 Goal=   None    Shift=    0.300
 RMSDP=4.88D-05 MaxDP=2.33D-03 DE=-3.24D-05 OVMax= 8.50D-03

 Cycle  49  Pass 1  IDiag  1:
 RMSU=  3.15D-06    CP:  1.00D+00  3.00D+00  1.48D+00  3.00D+00  3.00D+00
                    CP:  3.00D+00  2.66D+00  2.14D+00
 E= -884.761719058414     Delta-E=       -0.000029509698 Rises=F Damp=F
 DIIS: error= 3.19D-04 at cycle  49 NSaved=  20.
 NSaved=20 IEnMin=20 EnMin= -884.761719058414     IErMin=20 ErrMin= 3.19D-04
 ErrMax= 3.19D-04  0.00D+00 EMaxC= 1.00D-01 BMatC= 3.31D-05 BMatP= 3.34D-05
 IDIUse=3 WtCom= 9.97D-01 WtEn= 3.19D-03
 Coeff-Com: -0.276D-01-0.249D-01-0.107D+00 0.525D+00-0.104D+00-0.584D+00
 Coeff-Com: -0.299D+00 0.291D+00 0.157D+01-0.118D+01-0.744D+00-0.165D+01
 Coeff-Com:  0.287D+01 0.174D+01-0.300D+01 0.292D+00-0.650D-01-0.909D-01
 Coeff-Com: -0.203D+01 0.361D+01
 Coeff-En:   0.000D+00 0.000D+00 0.000D+00 0.000D+00 0.000D+00 0.000D+00
 Coeff-En:   0.000D+00 0.000D+00 0.000D+00 0.000D+00 0.000D+00 0.000D+00
 Coeff-En:   0.000D+00 0.000D+00 0.000D+00 0.000D+00 0.000D+00 0.000D+00
 Coeff-En:   0.000D+00 0.100D+01
 Coeff:     -0.275D-01-0.249D-01-0.107D+00 0.523D+00-0.104D+00-0.582D+00
 Coeff:     -0.298D+00 0.290D+00 0.157D+01-0.118D+01-0.741D+00-0.164D+01
 Coeff:      0.286D+01 0.174D+01-0.299D+01 0.291D+00-0.648D-01-0.906D-01
 Coeff:     -0.203D+01 0.361D+01
 Gap=     0.040 Goal=   None    Shift=    0.300
 Gap=     0.155 Goal=   None    Shift=    0.300
 RMSDP=4.59D-05 MaxDP=2.21D-03 DE=-2.95D-05 OVMax= 8.06D-03

 Cycle  50  Pass 1  IDiag  1:
 RMSU=  1.65D-05    CP:  1.00D+00  3.00D+00  1.29D+00  3.00D+00  3.00D+00
                    CP:  3.00D+00  3.00D+00  3.00D+00  2.70D+00
 E= -884.761744667296     Delta-E=       -0.000025608882 Rises=F Damp=F
 DIIS: error= 2.99D-04 at cycle  50 NSaved=  20.
 NSaved=20 IEnMin=20 EnMin= -884.761744667296     IErMin=20 ErrMin= 2.99D-04
 ErrMax= 2.99D-04  0.00D+00 EMaxC= 1.00D-01 BMatC= 2.90D-05 BMatP= 3.31D-05
 IDIUse=3 WtCom= 9.97D-01 WtEn= 2.99D-03
 Coeff-Com: -0.107D-02 0.777D-02 0.149D+00-0.742D-01-0.182D+00-0.181D+00
 Coeff-Com:  0.701D-02 0.341D+00-0.359D-01-0.536D+00 0.148D+01-0.118D+01
 Coeff-Com:  0.110D+01-0.326D+01 0.184D+01 0.171D+01-0.365D+00-0.383D+01
 Coeff-Com:  0.180D+01 0.222D+01
 Coeff-En:   0.000D+00 0.000D+00 0.000D+00 0.000D+00 0.000D+00 0.000D+00
 Coeff-En:   0.000D+00 0.000D+00 0.000D+00 0.000D+00 0.000D+00 0.000D+00
 Coeff-En:   0.000D+00 0.000D+00 0.000D+00 0.000D+00 0.000D+00 0.000D+00
 Coeff-En:   0.000D+00 0.100D+01
 Coeff:     -0.107D-02 0.775D-02 0.149D+00-0.740D-01-0.182D+00-0.181D+00
 Coeff:      0.699D-02 0.340D+00-0.358D-01-0.534D+00 0.147D+01-0.118D+01
 Coeff:      0.110D+01-0.325D+01 0.184D+01 0.171D+01-0.364D+00-0.381D+01
 Coeff:      0.179D+01 0.221D+01
 Gap=     0.040 Goal=   None    Shift=    0.300
 Gap=     0.155 Goal=   None    Shift=    0.300
 RMSDP=4.28D-05 MaxDP=2.09D-03 DE=-2.56D-05 OVMax= 7.56D-03

 Cycle  51  Pass 1  IDiag  1:
 RMSU=  2.52D-05    CP:  1.00D+00  3.00D+00  1.05D+00  3.00D+00  3.00D+00
                    CP:  3.00D+00  3.00D+00  3.00D+00  3.00D+00  3.00D+00
 E= -884.761768122815     Delta-E=       -0.000023455519 Rises=F Damp=F
 DIIS: error= 2.78D-04 at cycle  51 NSaved=  20.
 NSaved=20 IEnMin=20 EnMin= -884.761768122815     IErMin=20 ErrMin= 2.78D-04
 ErrMax= 2.78D-04  0.00D+00 EMaxC= 1.00D-01 BMatC= 2.38D-05 BMatP= 2.90D-05
 IDIUse=3 WtCom= 9.97D-01 WtEn= 2.78D-03
 Coeff-Com:  0.197D+00-0.338D+00-0.127D+00 0.878D-01 0.246D+00 0.840D+00
 Coeff-Com: -0.103D+01-0.973D+00 0.475D+00 0.136D+01-0.648D+00 0.764D+00
 Coeff-Com: -0.284D+01 0.749D+00 0.201D+01 0.157D+01-0.253D+01-0.169D+01
 Coeff-Com: -0.932D+00 0.382D+01
 Coeff-En:   0.000D+00 0.000D+00 0.000D+00 0.000D+00 0.000D+00 0.000D+00
 Coeff-En:   0.000D+00 0.000D+00 0.000D+00 0.000D+00 0.000D+00 0.000D+00
 Coeff-En:   0.000D+00 0.000D+00 0.000D+00 0.000D+00 0.000D+00 0.000D+00
 Coeff-En:   0.000D+00 0.100D+01
 Coeff:      0.197D+00-0.337D+00-0.127D+00 0.876D-01 0.245D+00 0.838D+00
 Coeff:     -0.103D+01-0.970D+00 0.474D+00 0.135D+01-0.647D+00 0.762D+00
 Coeff:     -0.283D+01 0.747D+00 0.200D+01 0.156D+01-0.252D+01-0.169D+01
 Coeff:     -0.929D+00 0.381D+01
 Gap=     0.040 Goal=   None    Shift=    0.300
 Gap=     0.155 Goal=   None    Shift=    0.300
 RMSDP=4.11D-05 MaxDP=1.99D-03 DE=-2.35D-05 OVMax= 7.18D-03

 Cycle  52  Pass 1  IDiag  1:
 RMSU=  3.45D-05    CP:  1.00D+00  3.00D+00  7.69D-01  3.00D+00  3.00D+00
                    CP:  3.00D+00  3.00D+00  3.00D+00  3.00D+00  3.00D+00
                    CP:  1.84D+00
 E= -884.761791012672     Delta-E=       -0.000022889857 Rises=F Damp=F
 DIIS: error= 2.60D-04 at cycle  52 NSaved=  20.
 NSaved=20 IEnMin=20 EnMin= -884.761791012672     IErMin=20 ErrMin= 2.60D-04
 ErrMax= 2.60D-04  0.00D+00 EMaxC= 1.00D-01 BMatC= 2.04D-05 BMatP= 2.38D-05
 IDIUse=3 WtCom= 9.97D-01 WtEn= 2.60D-03
 Coeff-Com:  0.812D-02 0.112D+00-0.414D+00-0.177D+00 0.108D+01 0.301D+00
 Coeff-Com: -0.192D+01 0.579D+00-0.196D+01 0.335D+01 0.108D+01-0.331D+01
 Coeff-Com: -0.376D+00 0.297D+00 0.288D+01 0.113D+01-0.197D+01-0.491D+01
 Coeff-Com:  0.335D+01 0.186D+01
 Coeff-En:   0.000D+00 0.000D+00 0.000D+00 0.000D+00 0.000D+00 0.000D+00
 Coeff-En:   0.000D+00 0.000D+00 0.000D+00 0.000D+00 0.000D+00 0.000D+00
 Coeff-En:   0.000D+00 0.000D+00 0.000D+00 0.000D+00 0.000D+00 0.000D+00
 Coeff-En:   0.000D+00 0.100D+01
 Coeff:      0.810D-02 0.112D+00-0.413D+00-0.177D+00 0.108D+01 0.300D+00
 Coeff:     -0.191D+01 0.578D+00-0.195D+01 0.334D+01 0.108D+01-0.331D+01
 Coeff:     -0.375D+00 0.297D+00 0.288D+01 0.113D+01-0.197D+01-0.489D+01
 Coeff:      0.334D+01 0.186D+01
 Gap=     0.040 Goal=   None    Shift=    0.300
 Gap=     0.155 Goal=   None    Shift=    0.300
 RMSDP=3.84D-05 MaxDP=1.86D-03 DE=-2.29D-05 OVMax= 6.67D-03

 Cycle  53  Pass 1  IDiag  1:
 RMSU=  2.91D-06    CP:  1.00D+00  3.00D+00  5.43D-01  3.00D+00  3.00D+00
                    CP:  3.00D+00  3.00D+00  3.00D+00  3.00D+00  3.00D+00
                    CP:  2.60D+00  1.95D+00
 E= -884.761810667885     Delta-E=       -0.000019655213 Rises=F Damp=F
 DIIS: error= 2.45D-04 at cycle  53 NSaved=  20.
 NSaved=20 IEnMin=20 EnMin= -884.761810667885     IErMin=20 ErrMin= 2.45D-04
 ErrMax= 2.45D-04  0.00D+00 EMaxC= 1.00D-01 BMatC= 1.92D-05 BMatP= 2.04D-05
 IDIUse=3 WtCom= 9.98D-01 WtEn= 2.45D-03
 Coeff-Com: -0.345D-01-0.277D+00 0.235D-01 0.115D+01 0.626D-01-0.251D+01
 Coeff-Com:  0.868D+00-0.240D+01 0.500D+01 0.133D+01-0.389D+01-0.161D+01
 Coeff-Com: -0.487D+00 0.302D+01 0.345D+01-0.720D+00-0.606D+01 0.140D+01
 Coeff-Com: -0.133D+00 0.281D+01
 Coeff-En:   0.000D+00 0.000D+00 0.000D+00 0.000D+00 0.000D+00 0.000D+00
 Coeff-En:   0.000D+00 0.000D+00 0.000D+00 0.000D+00 0.000D+00 0.000D+00
 Coeff-En:   0.000D+00 0.000D+00 0.000D+00 0.000D+00 0.000D+00 0.000D+00
 Coeff-En:   0.000D+00 0.100D+01
 Coeff:     -0.344D-01-0.277D+00 0.234D-01 0.115D+01 0.625D-01-0.250D+01
 Coeff:      0.866D+00-0.240D+01 0.498D+01 0.132D+01-0.388D+01-0.160D+01
 Coeff:     -0.486D+00 0.301D+01 0.344D+01-0.718D+00-0.605D+01 0.139D+01
 Coeff:     -0.133D+00 0.281D+01
 Gap=     0.040 Goal=   None    Shift=    0.300
 Gap=     0.155 Goal=   None    Shift=    0.300
 RMSDP=3.76D-05 MaxDP=1.78D-03 DE=-1.97D-05 OVMax= 6.35D-03

 Cycle  54  Pass 1  IDiag  1:
 RMSU=  6.50D-06    CP:  1.00D+00  3.00D+00  1.87D-01  3.00D+00  3.00D+00
                    CP:  3.00D+00  3.00D+00  3.00D+00  3.00D+00  3.00D+00
                    CP:  3.00D+00  2.90D+00  2.26D+00
 E= -884.761830051486     Delta-E=       -0.000019383602 Rises=F Damp=F
 DIIS: error= 2.30D-04 at cycle  54 NSaved=  20.
 NSaved=20 IEnMin=20 EnMin= -884.761830051486     IErMin=20 ErrMin= 2.30D-04
 ErrMax= 2.30D-04  0.00D+00 EMaxC= 1.00D-01 BMatC= 1.75D-05 BMatP= 1.92D-05
 IDIUse=3 WtCom= 9.98D-01 WtEn= 2.30D-03
 Coeff-Com: -0.242D+00-0.679D-01 0.102D+01 0.805D-01-0.255D+01 0.917D+00
 Coeff-Com: -0.176D+01 0.485D+01 0.158D+01-0.521D+01-0.137D+01-0.578D+00
 Coeff-Com:  0.295D+01 0.405D+01 0.252D+00-0.557D+01 0.371D+00-0.102D+01
 Coeff-Com:  0.185D+01 0.144D+01
 Coeff-En:   0.000D+00 0.000D+00 0.000D+00 0.000D+00 0.000D+00 0.000D+00
 Coeff-En:   0.000D+00 0.000D+00 0.000D+00 0.000D+00 0.000D+00 0.000D+00
 Coeff-En:   0.000D+00 0.000D+00 0.000D+00 0.000D+00 0.000D+00 0.000D+00
 Coeff-En:   0.000D+00 0.100D+01
 Coeff:     -0.241D+00-0.677D-01 0.102D+01 0.803D-01-0.254D+01 0.914D+00
 Coeff:     -0.176D+01 0.484D+01 0.158D+01-0.520D+01-0.137D+01-0.576D+00
 Coeff:      0.295D+01 0.404D+01 0.252D+00-0.556D+01 0.370D+00-0.102D+01
 Coeff:      0.185D+01 0.144D+01
 Gap=     0.040 Goal=   None    Shift=    0.300
 Gap=     0.155 Goal=   None    Shift=    0.300
 RMSDP=3.43D-05 MaxDP=1.67D-03 DE=-1.94D-05 OVMax= 5.91D-03

 Cycle  55  Pass 1  IDiag  1:
 RMSU=  2.73D-05    CP:  1.00D+00  3.00D+00 -9.74D-02  3.00D+00  3.00D+00
                    CP:  3.00D+00  3.00D+00  3.00D+00  3.00D+00  3.00D+00
                    CP:  3.00D+00  3.00D+00  3.00D+00  3.00D+00
 E= -884.761846384070     Delta-E=       -0.000016332584 Rises=F Damp=F
 DIIS: error= 2.16D-04 at cycle  55 NSaved=  20.
 NSaved=20 IEnMin=20 EnMin= -884.761846384070     IErMin=20 ErrMin= 2.16D-04
 ErrMax= 2.16D-04  0.00D+00 EMaxC= 1.00D-01 BMatC= 1.54D-05 BMatP= 1.75D-05
 IDIUse=3 WtCom= 9.98D-01 WtEn= 2.16D-03
 Coeff-Com: -0.128D+00 0.277D+00 0.118D+00-0.118D+01 0.321D+00-0.386D+00
 Coeff-Com:  0.171D+01 0.114D+01-0.272D+01-0.779D+00 0.102D+01 0.639D+00
 Coeff-Com:  0.151D+00 0.124D+01-0.243D+01 0.149D+01-0.734D+00-0.756D+00
 Coeff-Com: -0.167D+01 0.368D+01
 Coeff-En:   0.000D+00 0.000D+00 0.000D+00 0.000D+00 0.000D+00 0.000D+00
 Coeff-En:   0.000D+00 0.000D+00 0.000D+00 0.000D+00 0.000D+00 0.000D+00
 Coeff-En:   0.000D+00 0.000D+00 0.000D+00 0.000D+00 0.000D+00 0.000D+00
 Coeff-En:   0.000D+00 0.100D+01
 Coeff:     -0.127D+00 0.277D+00 0.118D+00-0.117D+01 0.321D+00-0.385D+00
 Coeff:      0.171D+01 0.114D+01-0.272D+01-0.778D+00 0.101D+01 0.638D+00
 Coeff:      0.150D+00 0.123D+01-0.242D+01 0.149D+01-0.732D+00-0.754D+00
 Coeff:     -0.167D+01 0.367D+01
 Gap=     0.040 Goal=   None    Shift=    0.300
 Gap=     0.155 Goal=   None    Shift=    0.300
 RMSDP=3.84D-05 MaxDP=1.84D-03 DE=-1.63D-05 OVMax= 6.53D-03

 Cycle  56  Pass 1  IDiag  1:
 RMSU=  1.54D-05    CP:  1.00D+00  3.00D+00 -2.64D-01  3.00D+00  3.00D+00
                    CP:  3.00D+00  3.00D+00  3.00D+00  3.00D+00  3.00D+00
                    CP:  3.00D+00  3.00D+00  3.00D+00  3.00D+00  2.28D+00
 E= -884.761861191128     Delta-E=       -0.000014807058 Rises=F Damp=F
 DIIS: error= 2.09D-04 at cycle  56 NSaved=  20.
 NSaved=20 IEnMin=20 EnMin= -884.761861191128     IErMin=20 ErrMin= 2.09D-04
 ErrMax= 2.09D-04  0.00D+00 EMaxC= 1.00D-01 BMatC= 1.80D-05 BMatP= 1.54D-05
 IDIUse=3 WtCom= 9.98D-01 WtEn= 2.16D-03
 Coeff-Com:  0.317D+00-0.361D-01-0.966D+00 0.530D+00-0.201D+01 0.239D+01
 Coeff-Com:  0.492D+00-0.820D+00-0.405D+00 0.103D+01 0.445D+00-0.678D+00
 Coeff-Com: -0.106D+00-0.330D+01 0.390D+01 0.107D+01-0.121D+01-0.507D+01
 Coeff-Com:  0.283D+01 0.259D+01
 Coeff-En:   0.000D+00 0.000D+00 0.000D+00 0.000D+00 0.000D+00 0.000D+00
 Coeff-En:   0.000D+00 0.000D+00 0.000D+00 0.000D+00 0.000D+00 0.000D+00
 Coeff-En:   0.000D+00 0.000D+00 0.000D+00 0.000D+00 0.000D+00 0.000D+00
 Coeff-En:   0.000D+00 0.100D+01
 Coeff:      0.316D+00-0.360D-01-0.964D+00 0.529D+00-0.201D+01 0.239D+01
 Coeff:      0.491D+00-0.818D+00-0.404D+00 0.103D+01 0.444D+00-0.677D+00
 Coeff:     -0.106D+00-0.329D+01 0.389D+01 0.107D+01-0.121D+01-0.506D+01
 Coeff:      0.283D+01 0.259D+01
 Gap=     0.039 Goal=   None    Shift=    0.300
 Gap=     0.155 Goal=   None    Shift=    0.300
 RMSDP=3.82D-05 MaxDP=1.81D-03 DE=-1.48D-05 OVMax= 6.42D-03

 Cycle  57  Pass 1  IDiag  1:
 RMSU=  1.45D-05    CP:  1.00D+00  3.00D+00 -5.91D-01  3.00D+00  3.00D+00
                    CP:  3.00D+00  3.00D+00  3.00D+00  3.00D+00  3.00D+00
                    CP:  3.00D+00  3.00D+00  3.00D+00  3.00D+00  3.00D+00
                    CP:  2.01D+00
 E= -884.761876174851     Delta-E=       -0.000014983722 Rises=F Damp=F
 DIIS: error= 1.99D-04 at cycle  57 NSaved=  20.
 NSaved=20 IEnMin=20 EnMin= -884.761876174851     IErMin=20 ErrMin= 1.99D-04
 ErrMax= 1.99D-04  0.00D+00 EMaxC= 1.00D-01 BMatC= 1.77D-05 BMatP= 1.54D-05
 IDIUse=3 WtCom= 9.98D-01 WtEn= 2.16D-03
 Coeff-Com:  0.292D+00-0.736D+00 0.292D+00-0.188D+01 0.215D+01 0.692D+00
 Coeff-Com: -0.117D+01-0.235D-01 0.117D+01 0.214D+00-0.117D+01 0.341D+00
 Coeff-Com: -0.296D+01 0.375D+01 0.996D+00-0.132D+01-0.506D+01 0.280D+01
 Coeff-Com:  0.227D+01 0.346D+00
 Coeff-En:   0.000D+00 0.000D+00 0.000D+00 0.000D+00 0.000D+00 0.000D+00
 Coeff-En:   0.000D+00 0.000D+00 0.000D+00 0.000D+00 0.000D+00 0.000D+00
 Coeff-En:   0.000D+00 0.000D+00 0.000D+00 0.000D+00 0.000D+00 0.000D+00
 Coeff-En:   0.000D+00 0.100D+01
 Coeff:      0.291D+00-0.735D+00 0.292D+00-0.188D+01 0.215D+01 0.691D+00
 Coeff:     -0.117D+01-0.235D-01 0.117D+01 0.214D+00-0.116D+01 0.340D+00
 Coeff:     -0.296D+01 0.374D+01 0.994D+00-0.131D+01-0.505D+01 0.279D+01
 Coeff:      0.227D+01 0.348D+00
 Gap=     0.039 Goal=   None    Shift=    0.300
 Gap=     0.155 Goal=   None    Shift=    0.300
 RMSDP=3.31D-05 MaxDP=1.63D-03 DE=-1.50D-05 OVMax= 5.73D-03

 Cycle  58  Pass 1  IDiag  1:
 RMSU=  7.04D-06    CP:  1.00D+00  3.00D+00 -8.89D-01  3.00D+00  3.00D+00
                    CP:  3.00D+00  3.00D+00  3.00D+00  3.00D+00  3.00D+00
                    CP:  3.00D+00  3.00D+00  3.00D+00  3.00D+00  3.00D+00
                    CP:  2.87D+00  2.98D+00
 E= -884.761888923920     Delta-E=       -0.000012749069 Rises=F Damp=F
 DIIS: error= 1.86D-04 at cycle  58 NSaved=  20.
 NSaved=20 IEnMin=20 EnMin= -884.761888923920     IErMin=20 ErrMin= 1.86D-04
 ErrMax= 1.86D-04  0.00D+00 EMaxC= 1.00D-01 BMatC= 1.52D-05 BMatP= 1.54D-05
 IDIUse=3 WtCom= 9.98D-01 WtEn= 1.86D-03
 Coeff-Com: -0.334D+00-0.853D-01 0.479D-01 0.147D+00 0.110D+01-0.135D+01
 Coeff-Com: -0.604D-01 0.141D+01-0.226D+00-0.181D+01 0.969D+00-0.188D+01
 Coeff-Com:  0.221D+01 0.757D+00-0.139D+00-0.196D+01 0.347D+00 0.161D+01
 Coeff-Com: -0.549D+01 0.574D+01
 Coeff-En:   0.000D+00 0.000D+00 0.000D+00 0.000D+00 0.000D+00 0.000D+00
 Coeff-En:   0.000D+00 0.000D+00 0.000D+00 0.000D+00 0.000D+00 0.000D+00
 Coeff-En:   0.000D+00 0.000D+00 0.000D+00 0.000D+00 0.000D+00 0.000D+00
 Coeff-En:   0.000D+00 0.100D+01
 Coeff:     -0.334D+00-0.851D-01 0.478D-01 0.147D+00 0.110D+01-0.135D+01
 Coeff:     -0.602D-01 0.140D+01-0.226D+00-0.181D+01 0.967D+00-0.188D+01
 Coeff:      0.221D+01 0.756D+00-0.138D+00-0.196D+01 0.347D+00 0.161D+01
 Coeff:     -0.548D+01 0.573D+01
 Gap=     0.039 Goal=   None    Shift=    0.300
 Gap=     0.155 Goal=   None    Shift=    0.300
 RMSDP=4.30D-05 MaxDP=2.03D-03 DE=-1.27D-05 OVMax= 7.20D-03

 Cycle  59  Pass 1  IDiag  1:
 RMSU=  4.13D-05    CP:  1.00D+00  3.00D+00 -9.24D-01  3.00D+00  3.00D+00
                    CP:  3.00D+00  3.00D+00  3.00D+00  3.00D+00  3.00D+00
                    CP:  3.00D+00  3.00D+00  3.00D+00  3.00D+00  3.00D+00
                    CP:  3.00D+00  3.00D+00  2.04D+00
 E= -884.761899392377     Delta-E=       -0.000010468457 Rises=F Damp=F
 DIIS: error= 1.87D-04 at cycle  59 NSaved=  20.
 NSaved=20 IEnMin=20 EnMin= -884.761899392377     IErMin=19 ErrMin= 1.86D-04
 ErrMax= 1.87D-04  0.00D+00 EMaxC= 1.00D-01 BMatC= 2.29D-05 BMatP= 1.52D-05
 IDIUse=3 WtCom= 9.98D-01 WtEn= 1.86D-03
 Coeff-Com: -0.242D+00-0.111D+00 0.492D+00 0.104D+01-0.271D+01 0.979D+00
 Coeff-Com:  0.585D+00 0.505D-01-0.683D+00 0.124D+01-0.144D+01 0.412D+00
 Coeff-Com:  0.142D+00 0.655D+00 0.795D+00-0.948D+00 0.583D+00-0.828D+01
 Coeff-Com:  0.727D+01 0.117D+01
 Coeff-En:   0.000D+00 0.000D+00 0.000D+00 0.000D+00 0.000D+00 0.000D+00
 Coeff-En:   0.000D+00 0.000D+00 0.000D+00 0.000D+00 0.000D+00 0.000D+00
 Coeff-En:   0.000D+00 0.000D+00 0.000D+00 0.000D+00 0.000D+00 0.000D+00
 Coeff-En:   0.000D+00 0.100D+01
 Coeff:     -0.242D+00-0.111D+00 0.491D+00 0.104D+01-0.270D+01 0.977D+00
 Coeff:      0.584D+00 0.504D-01-0.682D+00 0.124D+01-0.144D+01 0.411D+00
 Coeff:      0.142D+00 0.654D+00 0.793D+00-0.946D+00 0.582D+00-0.826D+01
 Coeff:      0.725D+01 0.117D+01
 Gap=     0.039 Goal=   None    Shift=    0.300
 Gap=     0.155 Goal=   None    Shift=    0.300
 RMSDP=3.97D-05 MaxDP=1.95D-03 DE=-1.05D-05 OVMax= 6.86D-03

 Cycle  60  Pass 1  IDiag  1:
 RMSU=  4.10D-06    CP:  1.00D+00  3.00D+00 -1.21D+00  3.00D+00  3.00D+00
                    CP:  3.00D+00  3.00D+00  3.00D+00  3.00D+00  3.00D+00
                    CP:  3.00D+00  3.00D+00  3.00D+00  3.00D+00  3.00D+00
                    CP:  3.00D+00  3.00D+00  3.00D+00  1.92D+00
 E= -884.761911251706     Delta-E=       -0.000011859329 Rises=F Damp=F
 DIIS: error= 1.78D-04 at cycle  60 NSaved=  20.
 NSaved=20 IEnMin=20 EnMin= -884.761911251706     IErMin=20 ErrMin= 1.78D-04
 ErrMax= 1.78D-04  0.00D+00 EMaxC= 1.00D-01 BMatC= 2.15D-05 BMatP= 1.52D-05
 IDIUse=3 WtCom= 9.98D-01 WtEn= 1.86D-03
 Coeff-Com: -0.919D+00 0.121D+01 0.852D+00-0.233D+01 0.798D+00 0.608D-01
 Coeff-Com:  0.254D+00-0.224D+00 0.105D+01-0.169D+01 0.483D+00 0.205D+00
 Coeff-Com:  0.738D+00 0.821D+00-0.120D+01 0.764D+00-0.860D+01 0.744D+01
 Coeff-Com:  0.180D+01-0.505D+00
 Coeff-En:   0.000D+00 0.000D+00 0.000D+00 0.000D+00 0.000D+00 0.000D+00
 Coeff-En:   0.000D+00 0.000D+00 0.000D+00 0.000D+00 0.000D+00 0.000D+00
 Coeff-En:   0.000D+00 0.000D+00 0.000D+00 0.000D+00 0.000D+00 0.000D+00
 Coeff-En:   0.000D+00 0.100D+01
 Coeff:     -0.918D+00 0.121D+01 0.851D+00-0.233D+01 0.797D+00 0.606D-01
 Coeff:      0.254D+00-0.224D+00 0.105D+01-0.169D+01 0.482D+00 0.205D+00
 Coeff:      0.737D+00 0.819D+00-0.120D+01 0.763D+00-0.858D+01 0.742D+01
 Coeff:      0.179D+01-0.502D+00
 Gap=     0.039 Goal=   None    Shift=    0.300
 Gap=     0.155 Goal=   None    Shift=    0.300
 RMSDP=3.37D-05 MaxDP=1.70D-03 DE=-1.19D-05 OVMax= 5.95D-03

 Cycle  61  Pass 1  IDiag  1:
 Restarting incremental Fock formation.
 E= -884.761921947160     Delta-E=       -0.000010695454 Rises=F Damp=F
 DIIS: error= 1.66D-04 at cycle  61 NSaved=  20.
 NSaved=20 IEnMin=20 EnMin= -884.761921947160     IErMin=20 ErrMin= 1.66D-04
 ErrMax= 1.66D-04  0.00D+00 EMaxC= 1.00D-01 BMatC= 1.76D-05 BMatP= 1.52D-05
 IDIUse=3 WtCom= 9.98D-01 WtEn= 1.86D-03
 Coeff-Com: -0.114D-01 0.823D+00-0.171D+01 0.197D+00 0.753D+00-0.232D-01
 Coeff-Com: -0.853D+00 0.860D+00-0.761D+00 0.341D+00 0.446D+00 0.273D+00
 Coeff-Com:  0.935D+00-0.123D+01 0.243D+00-0.454D+01 0.392D+01 0.194D+01
 Coeff-Com: -0.483D+01 0.422D+01
 Coeff-En:   0.000D+00 0.000D+00 0.000D+00 0.000D+00 0.000D+00 0.000D+00
 Coeff-En:   0.000D+00 0.000D+00 0.000D+00 0.000D+00 0.000D+00 0.000D+00
 Coeff-En:   0.000D+00 0.000D+00 0.000D+00 0.000D+00 0.000D+00 0.000D+00
 Coeff-En:   0.000D+00 0.100D+01
 Coeff:     -0.113D-01 0.821D+00-0.171D+01 0.197D+00 0.752D+00-0.232D-01
 Coeff:     -0.851D+00 0.858D+00-0.759D+00 0.341D+00 0.445D+00 0.273D+00
 Coeff:      0.934D+00-0.123D+01 0.243D+00-0.454D+01 0.392D+01 0.194D+01
 Coeff:     -0.482D+01 0.421D+01
 Gap=     0.039 Goal=   None    Shift=    0.300
 Gap=     0.155 Goal=   None    Shift=    0.300
 RMSDP=3.50D-05 MaxDP=1.76D-03 DE=-1.07D-05 OVMax= 6.17D-03

 Cycle  62  Pass 1  IDiag  1:
 RMSU=  3.50D-05    CP:  1.00D+00
 E= -884.761931229119     Delta-E=       -0.000009281959 Rises=F Damp=F
 DIIS: error= 1.57D-04 at cycle  62 NSaved=  20.
 NSaved=20 IEnMin=20 EnMin= -884.761931229119     IErMin=20 ErrMin= 1.57D-04
 ErrMax= 1.57D-04  0.00D+00 EMaxC= 1.00D-01 BMatC= 1.64D-05 BMatP= 1.52D-05
 IDIUse=3 WtCom= 9.98D-01 WtEn= 1.57D-03
 Coeff-Com:  0.664D+00-0.196D+01 0.981D+00 0.475D+00 0.704D-02-0.722D+00
 Coeff-Com:  0.648D+00-0.247D+00-0.302D+00-0.226D-01 0.562D+00 0.113D+01
 Coeff-Com: -0.930D+00-0.173D+00-0.243D+01 0.193D+01 0.249D+01-0.638D+01
 Coeff-Com:  0.264D+01 0.265D+01
 Coeff-En:   0.000D+00 0.000D+00 0.000D+00 0.000D+00 0.000D+00 0.000D+00
 Coeff-En:   0.000D+00 0.000D+00 0.000D+00 0.000D+00 0.000D+00 0.000D+00
 Coeff-En:   0.000D+00 0.000D+00 0.000D+00 0.000D+00 0.000D+00 0.000D+00
 Coeff-En:   0.000D+00 0.100D+01
 Coeff:      0.663D+00-0.195D+01 0.979D+00 0.474D+00 0.703D-02-0.721D+00
 Coeff:      0.647D+00-0.247D+00-0.302D+00-0.226D-01 0.561D+00 0.112D+01
 Coeff:     -0.929D+00-0.173D+00-0.242D+01 0.192D+01 0.249D+01-0.637D+01
 Coeff:      0.264D+01 0.265D+01
 Gap=     0.039 Goal=   None    Shift=    0.300
 Gap=     0.155 Goal=   None    Shift=    0.300
 RMSDP=3.44D-05 MaxDP=1.73D-03 DE=-9.28D-06 OVMax= 6.07D-03

 Cycle  63  Pass 1  IDiag  1:
 RMSU=  1.85D-06    CP:  1.00D+00  1.98D+00
 E= -884.761939923319     Delta-E=       -0.000008694200 Rises=F Damp=F
 DIIS: error= 1.48D-04 at cycle  63 NSaved=  20.
 NSaved=20 IEnMin=20 EnMin= -884.761939923319     IErMin=20 ErrMin= 1.48D-04
 ErrMax= 1.48D-04  0.00D+00 EMaxC= 1.00D-01 BMatC= 1.48D-05 BMatP= 1.52D-05
 IDIUse=3 WtCom= 9.99D-01 WtEn= 1.48D-03
 Coeff-Com: -0.136D+01 0.162D+01 0.188D-02 0.406D+00-0.955D+00-0.682D-01
 Coeff-Com:  0.192D+00 0.245D+00-0.472D+00 0.359D+00-0.496D+00 0.439D+00
 Coeff-Com:  0.463D+00-0.132D+01 0.113D+01 0.332D+01-0.683D+01 0.214D-01
 Coeff-Com:  0.984D+00 0.332D+01
 Coeff-En:   0.000D+00 0.000D+00 0.000D+00 0.000D+00 0.000D+00 0.000D+00
 Coeff-En:   0.000D+00 0.000D+00 0.000D+00 0.000D+00 0.000D+00 0.000D+00
 Coeff-En:   0.000D+00 0.000D+00 0.000D+00 0.000D+00 0.000D+00 0.000D+00
 Coeff-En:   0.000D+00 0.100D+01
 Coeff:     -0.136D+01 0.162D+01 0.188D-02 0.406D+00-0.954D+00-0.681D-01
 Coeff:      0.192D+00 0.245D+00-0.471D+00 0.358D+00-0.495D+00 0.438D+00
 Coeff:      0.462D+00-0.132D+01 0.113D+01 0.332D+01-0.682D+01 0.214D-01
 Coeff:      0.982D+00 0.332D+01
 Gap=     0.039 Goal=   None    Shift=    0.300
 Gap=     0.155 Goal=   None    Shift=    0.300
 RMSDP=3.50D-05 MaxDP=1.77D-03 DE=-8.69D-06 OVMax= 6.18D-03

 Cycle  64  Pass 1  IDiag  1:
 RMSU=  1.88D-06    CP:  1.00D+00  2.98D+00  1.46D+00
 E= -884.761947568518     Delta-E=       -0.000007645199 Rises=F Damp=F
 DIIS: error= 1.40D-04 at cycle  64 NSaved=  20.
 NSaved=20 IEnMin=20 EnMin= -884.761947568518     IErMin=20 ErrMin= 1.40D-04
 ErrMax= 1.40D-04  0.00D+00 EMaxC= 1.00D-01 BMatC= 1.49D-05 BMatP= 1.48D-05
 IDIUse=3 WtCom= 9.99D-01 WtEn= 1.40D-03
 Coeff-Com: -0.147D+00 0.227D+00 0.198D+00-0.107D+01 0.403D+00-0.157D+00
 Coeff-Com:  0.494D+00-0.321D+00 0.325D+00-0.237D+00 0.476D+00 0.494D+00
 Coeff-Com: -0.228D+01 0.203D+01 0.207D+01-0.561D+01 0.170D+01-0.598D+00
 Coeff-Com:  0.214D+01 0.874D+00
 Coeff-En:   0.000D+00 0.000D+00 0.000D+00 0.000D+00 0.000D+00 0.000D+00
 Coeff-En:   0.000D+00 0.000D+00 0.000D+00 0.000D+00 0.000D+00 0.000D+00
 Coeff-En:   0.000D+00 0.000D+00 0.000D+00 0.000D+00 0.000D+00 0.000D+00
 Coeff-En:   0.000D+00 0.100D+01
 Coeff:     -0.147D+00 0.226D+00 0.198D+00-0.107D+01 0.402D+00-0.157D+00
 Coeff:      0.493D+00-0.321D+00 0.324D+00-0.237D+00 0.475D+00 0.493D+00
 Coeff:     -0.227D+01 0.203D+01 0.207D+01-0.561D+01 0.169D+01-0.597D+00
 Coeff:      0.214D+01 0.874D+00
 Gap=     0.039 Goal=   None    Shift=    0.300
 Gap=     0.155 Goal=   None    Shift=    0.300
 RMSDP=3.02D-05 MaxDP=1.55D-03 DE=-7.65D-06 OVMax= 5.37D-03

 Cycle  65  Pass 1  IDiag  1:
 RMSU=  2.95D-05    CP:  1.00D+00  3.00D+00  1.96D+00  1.20D+00
 E= -884.761954625948     Delta-E=       -0.000007057430 Rises=F Damp=F
 DIIS: error= 1.30D-04 at cycle  65 NSaved=  20.
 NSaved=20 IEnMin=20 EnMin= -884.761954625948     IErMin=20 ErrMin= 1.30D-04
 ErrMax= 1.30D-04  0.00D+00 EMaxC= 1.00D-01 BMatC= 1.23D-05 BMatP= 1.48D-05
 IDIUse=3 WtCom= 9.99D-01 WtEn= 1.30D-03
 Coeff-Com:  0.788D-01 0.149D+00-0.122D+01 0.489D+00 0.211D+00 0.509D+00
 Coeff-Com: -0.395D+00 0.918D-01-0.448D+00 0.570D+00 0.529D+00-0.224D+01
 Coeff-Com:  0.217D+01 0.183D+01-0.451D+01 0.102D+01-0.103D+01 0.198D+01
 Coeff-Com:  0.221D+00 0.992D+00
 Coeff-En:   0.000D+00 0.000D+00 0.000D+00 0.000D+00 0.000D+00 0.000D+00
 Coeff-En:   0.000D+00 0.000D+00 0.000D+00 0.000D+00 0.000D+00 0.000D+00
 Coeff-En:   0.000D+00 0.000D+00 0.000D+00 0.000D+00 0.000D+00 0.000D+00
 Coeff-En:   0.000D+00 0.100D+01
 Coeff:      0.787D-01 0.149D+00-0.122D+01 0.488D+00 0.211D+00 0.508D+00
 Coeff:     -0.395D+00 0.917D-01-0.447D+00 0.570D+00 0.529D+00-0.223D+01
 Coeff:      0.216D+01 0.183D+01-0.450D+01 0.102D+01-0.103D+01 0.198D+01
 Coeff:      0.220D+00 0.992D+00
 Gap=     0.039 Goal=   None    Shift=    0.300
 Gap=     0.155 Goal=   None    Shift=    0.300
 RMSDP=2.79D-05 MaxDP=1.43D-03 DE=-7.06D-06 OVMax= 4.98D-03

 Cycle  66  Pass 1  IDiag  1:
 RMSU=  8.29D-07    CP:  1.00D+00  3.00D+00  2.69D+00  1.42D+00  1.94D+00
 E= -884.761960732808     Delta-E=       -0.000006106859 Rises=F Damp=F
 DIIS: error= 1.21D-04 at cycle  66 NSaved=  20.
 NSaved=20 IEnMin=20 EnMin= -884.761960732808     IErMin=20 ErrMin= 1.21D-04
 ErrMax= 1.21D-04  0.00D+00 EMaxC= 1.00D-01 BMatC= 1.03D-05 BMatP= 1.23D-05
 IDIUse=3 WtCom= 9.99D-01 WtEn= 1.21D-03
 Coeff-Com:  0.617D-01-0.844D+00 0.364D+00 0.261D+00 0.368D+00-0.254D+00
 Coeff-Com:  0.881D-01-0.147D+00 0.139D+00 0.618D+00-0.376D+01 0.342D+01
 Coeff-Com:  0.105D+01-0.854D+00-0.194D+00-0.173D+01 0.101D+01-0.189D+00
 Coeff-Com: -0.282D+01 0.442D+01
 Coeff-En:   0.000D+00 0.000D+00 0.000D+00 0.000D+00 0.000D+00 0.000D+00
 Coeff-En:   0.000D+00 0.000D+00 0.000D+00 0.000D+00 0.000D+00 0.000D+00
 Coeff-En:   0.000D+00 0.000D+00 0.000D+00 0.000D+00 0.000D+00 0.000D+00
 Coeff-En:   0.000D+00 0.100D+01
 Coeff:      0.616D-01-0.843D+00 0.363D+00 0.261D+00 0.368D+00-0.254D+00
 Coeff:      0.880D-01-0.147D+00 0.139D+00 0.618D+00-0.376D+01 0.342D+01
 Coeff:      0.104D+01-0.853D+00-0.193D+00-0.173D+01 0.101D+01-0.189D+00
 Coeff:     -0.282D+01 0.442D+01
 Gap=     0.039 Goal=   None    Shift=    0.300
 Gap=     0.155 Goal=   None    Shift=    0.300
 RMSDP=2.84D-05 MaxDP=1.45D-03 DE=-6.11D-06 OVMax= 5.05D-03

 Cycle  67  Pass 1  IDiag  1:
 RMSU=  1.34D-06    CP:  1.00D+00  3.00D+00  3.00D+00  1.90D+00  2.90D+00
                    CP:  2.15D+00
 E= -884.761966182854     Delta-E=       -0.000005450046 Rises=F Damp=F
 DIIS: error= 1.13D-04 at cycle  67 NSaved=  20.
 NSaved=20 IEnMin=20 EnMin= -884.761966182854     IErMin=20 ErrMin= 1.13D-04
 ErrMax= 1.13D-04  0.00D+00 EMaxC= 1.00D-01 BMatC= 9.31D-06 BMatP= 1.03D-05
 IDIUse=3 WtCom= 9.99D-01 WtEn= 1.13D-03
 Coeff-Com: -0.176D+00 0.410D-01-0.441D+00 0.216D+00 0.153D+00 0.581D+00
 Coeff-Com:  0.409D+00-0.803D+00 0.244D+00-0.290D+01 0.254D+01 0.155D+01
 Coeff-Com: -0.212D+01 0.173D+01-0.380D-01-0.240D+00-0.111D+01-0.528D+01
 Coeff-Com:  0.375D+01 0.290D+01
 Coeff-En:   0.000D+00 0.000D+00 0.000D+00 0.000D+00 0.000D+00 0.000D+00
 Coeff-En:   0.000D+00 0.000D+00 0.000D+00 0.000D+00 0.000D+00 0.000D+00
 Coeff-En:   0.000D+00 0.000D+00 0.000D+00 0.000D+00 0.000D+00 0.000D+00
 Coeff-En:   0.000D+00 0.100D+01
 Coeff:     -0.176D+00 0.410D-01-0.441D+00 0.216D+00 0.153D+00 0.581D+00
 Coeff:      0.408D+00-0.802D+00 0.244D+00-0.290D+01 0.254D+01 0.155D+01
 Coeff:     -0.212D+01 0.173D+01-0.380D-01-0.240D+00-0.111D+01-0.527D+01
 Coeff:      0.375D+01 0.289D+01
 Gap=     0.039 Goal=   None    Shift=    0.300
 Gap=     0.155 Goal=   None    Shift=    0.300
 RMSDP=2.70D-05 MaxDP=1.39D-03 DE=-5.45D-06 OVMax= 4.82D-03

 Cycle  68  Pass 1  IDiag  1:
 RMSU=  2.41D-05    CP:  1.00D+00  3.00D+00  3.00D+00  2.14D+00  3.00D+00
                    CP:  3.00D+00  1.99D+00
 E= -884.761971334471     Delta-E=       -0.000005151617 Rises=F Damp=F
 DIIS: error= 1.04D-04 at cycle  68 NSaved=  20.
 NSaved=20 IEnMin=20 EnMin= -884.761971334471     IErMin=20 ErrMin= 1.04D-04
 ErrMax= 1.04D-04  0.00D+00 EMaxC= 1.00D-01 BMatC= 7.51D-06 BMatP= 9.31D-06
 IDIUse=3 WtCom= 9.99D-01 WtEn= 1.04D-03
 Coeff-Com: -0.126D+00-0.502D+00 0.190D+00 0.195D+00 0.623D+00 0.378D+00
 Coeff-Com: -0.756D+00 0.154D+00-0.250D+01 0.219D+01 0.153D+01-0.244D+01
 Coeff-Com:  0.205D+01 0.290D+00-0.379D+00-0.125D+01-0.494D+01 0.314D+01
 Coeff-Com:  0.259D+01 0.566D+00
 Coeff-En:   0.000D+00 0.000D+00 0.000D+00 0.000D+00 0.000D+00 0.000D+00
 Coeff-En:   0.000D+00 0.000D+00 0.000D+00 0.000D+00 0.000D+00 0.000D+00
 Coeff-En:   0.000D+00 0.000D+00 0.000D+00 0.000D+00 0.000D+00 0.000D+00
 Coeff-En:   0.000D+00 0.100D+01
 Coeff:     -0.126D+00-0.501D+00 0.189D+00 0.194D+00 0.623D+00 0.378D+00
 Coeff:     -0.755D+00 0.154D+00-0.250D+01 0.219D+01 0.153D+01-0.244D+01
 Coeff:      0.205D+01 0.290D+00-0.379D+00-0.125D+01-0.494D+01 0.313D+01
 Coeff:      0.258D+01 0.567D+00
 Gap=     0.039 Goal=   None    Shift=    0.300
 Gap=     0.155 Goal=   None    Shift=    0.300
 RMSDP=2.39D-05 MaxDP=1.24D-03 DE=-5.15D-06 OVMax= 4.28D-03

 Cycle  69  Pass 1  IDiag  1:
 RMSU=  1.03D-06    CP:  1.00D+00  3.00D+00  3.00D+00  2.34D+00  3.00D+00
                    CP:  3.00D+00  2.57D+00  1.99D+00
 E= -884.761975686590     Delta-E=       -0.000004352119 Rises=F Damp=F
 DIIS: error= 9.57D-05 at cycle  69 NSaved=  20.
 NSaved=20 IEnMin=20 EnMin= -884.761975686590     IErMin=20 ErrMin= 9.57D-05
 ErrMax= 9.57D-05  0.00D+00 EMaxC= 1.00D-01 BMatC= 5.86D-06 BMatP= 7.51D-06
 IDIUse=1 WtCom= 1.00D+00 WtEn= 0.00D+00
 Coeff-Com: -0.356D+00 0.300D+00 0.329D-01 0.260D+00-0.603D+00 0.996D-01
 Coeff-Com:  0.590D+00-0.996D+00 0.857D+00 0.352D+00-0.305D+00-0.913D+00
 Coeff-Com:  0.184D+00 0.723D+00-0.195D-01-0.633D+00 0.218D+00 0.142D+01
 Coeff-Com: -0.778D+01 0.756D+01
 Coeff:     -0.356D+00 0.300D+00 0.329D-01 0.260D+00-0.603D+00 0.996D-01
 Coeff:      0.590D+00-0.996D+00 0.857D+00 0.352D+00-0.305D+00-0.913D+00
 Coeff:      0.184D+00 0.723D+00-0.195D-01-0.633D+00 0.218D+00 0.142D+01
 Coeff:     -0.778D+01 0.756D+01
 Gap=     0.039 Goal=   None    Shift=    0.300
 Gap=     0.155 Goal=   None    Shift=    0.300
 RMSDP=2.35D-05 MaxDP=1.20D-03 DE=-4.35D-06 OVMax= 4.17D-03

 Cycle  70  Pass 1  IDiag  1:
 RMSU=  1.42D-06    CP:  1.00D+00  3.00D+00  3.00D+00  2.39D+00  3.00D+00
                    CP:  3.00D+00  3.00D+00  2.96D+00  1.99D+00
 E= -884.761979488227     Delta-E=       -0.000003801637 Rises=F Damp=F
 DIIS: error= 8.82D-05 at cycle  70 NSaved=  20.
 NSaved=20 IEnMin=20 EnMin= -884.761979488227     IErMin=20 ErrMin= 8.82D-05
 ErrMax= 8.82D-05  0.00D+00 EMaxC= 1.00D-01 BMatC= 4.76D-06 BMatP= 5.86D-06
 IDIUse=1 WtCom= 1.00D+00 WtEn= 0.00D+00
 Large coefficients: NSaved= 20 BigCof=   10.11 CofMax=   10.00 Det=-1.19D-09
 Inversion failed.  Reducing to 19 matrices.
 Coeff-Com: -0.111D+00 0.326D+00-0.396D+00-0.912D-01 0.631D+00-0.849D+00
 Coeff-Com:  0.518D+00 0.528D+00-0.544D+00-0.893D+00 0.931D-01 0.800D+00
 Coeff-Com:  0.497D+00 0.223D+00-0.227D+00 0.107D+01-0.996D+01 0.800D+01
 Coeff-Com:  0.139D+01
 Coeff:     -0.111D+00 0.326D+00-0.396D+00-0.912D-01 0.631D+00-0.849D+00
 Coeff:      0.518D+00 0.528D+00-0.544D+00-0.893D+00 0.931D-01 0.800D+00
 Coeff:      0.497D+00 0.223D+00-0.227D+00 0.107D+01-0.996D+01 0.800D+01
 Coeff:      0.139D+01
 Gap=     0.039 Goal=   None    Shift=    0.300
 Gap=     0.155 Goal=   None    Shift=    0.300
 RMSDP=2.23D-05 MaxDP=1.14D-03 DE=-3.80D-06 OVMax= 3.97D-03

 Cycle  71  Pass 1  IDiag  1:
 RMSU=  2.12D-05    CP:  1.00D+00  3.00D+00  3.00D+00  2.44D+00  3.00D+00
                    CP:  3.00D+00  3.00D+00  3.00D+00  3.00D+00  2.14D+00
 E= -884.761982791170     Delta-E=       -0.000003302943 Rises=F Damp=F
 DIIS: error= 8.14D-05 at cycle  71 NSaved=  20.
 NSaved=20 IEnMin=20 EnMin= -884.761982791170     IErMin=20 ErrMin= 8.14D-05
 ErrMax= 8.14D-05  0.00D+00 EMaxC= 1.00D-01 BMatC= 3.81D-06 BMatP= 4.76D-06
 IDIUse=1 WtCom= 1.00D+00 WtEn= 0.00D+00
 Coeff-Com: -0.154D+00 0.351D+00-0.161D+00-0.262D+00 0.644D+00-0.147D+01
 Coeff-Com:  0.102D+01 0.768D+00-0.697D+00-0.473D+00-0.149D+00 0.605D+00
 Coeff-Com:  0.413D+00-0.668D+00 0.630D+00 0.130D+01-0.858D+01 0.638D+01
 Coeff-Com:  0.660D+00 0.843D+00
 Coeff:     -0.154D+00 0.351D+00-0.161D+00-0.262D+00 0.644D+00-0.147D+01
 Coeff:      0.102D+01 0.768D+00-0.697D+00-0.473D+00-0.149D+00 0.605D+00
 Coeff:      0.413D+00-0.668D+00 0.630D+00 0.130D+01-0.858D+01 0.638D+01
 Coeff:      0.660D+00 0.843D+00
 Gap=     0.039 Goal=   None    Shift=    0.300
 Gap=     0.155 Goal=   None    Shift=    0.300
 RMSDP=1.93D-05 MaxDP=9.97D-04 DE=-3.30D-06 OVMax= 3.44D-03

 Cycle  72  Pass 1  IDiag  1:
 RMSU=  1.45D-06    CP:  1.00D+00  3.00D+00  3.00D+00  2.53D+00  3.00D+00
                    CP:  3.00D+00  3.00D+00  3.00D+00  3.00D+00  2.67D+00
                    CP:  1.91D+00
 E= -884.761985554353     Delta-E=       -0.000002763183 Rises=F Damp=F
 DIIS: error= 7.44D-05 at cycle  72 NSaved=  20.
 NSaved=20 IEnMin=20 EnMin= -884.761985554353     IErMin=20 ErrMin= 7.44D-05
 ErrMax= 7.44D-05  0.00D+00 EMaxC= 1.00D-01 BMatC= 2.85D-06 BMatP= 3.81D-06
 IDIUse=1 WtCom= 1.00D+00 WtEn= 0.00D+00
 Coeff-Com:  0.248D+00-0.612D-01-0.476D+00 0.392D+00-0.306D+00 0.996D-01
 Coeff-Com:  0.705D+00-0.698D+00-0.262D+00 0.171D+00 0.358D+00-0.318D+00
 Coeff-Com: -0.180D+01 0.215D+01 0.128D+01-0.327D+01 0.142D+01-0.796D-01
 Coeff-Com: -0.281D+01 0.426D+01
 Coeff:      0.248D+00-0.612D-01-0.476D+00 0.392D+00-0.306D+00 0.996D-01
 Coeff:      0.705D+00-0.698D+00-0.262D+00 0.171D+00 0.358D+00-0.318D+00
 Coeff:     -0.180D+01 0.215D+01 0.128D+01-0.327D+01 0.142D+01-0.796D-01
 Coeff:     -0.281D+01 0.426D+01
 Gap=     0.039 Goal=   None    Shift=    0.300
 Gap=     0.155 Goal=   None    Shift=    0.300
 RMSDP=1.83D-05 MaxDP=9.45D-04 DE=-2.76D-06 OVMax= 3.27D-03

 Cycle  73  Pass 1  IDiag  1:
 RMSU=  9.80D-07    CP:  1.00D+00  3.00D+00  3.00D+00  2.52D+00  3.00D+00
                    CP:  3.00D+00  3.00D+00  3.00D+00  3.00D+00  3.00D+00
                    CP:  2.77D+00  1.96D+00
 E= -884.761987926000     Delta-E=       -0.000002371647 Rises=F Damp=F
 DIIS: error= 6.86D-05 at cycle  73 NSaved=  20.
 NSaved=20 IEnMin=20 EnMin= -884.761987926000     IErMin=20 ErrMin= 6.86D-05
 ErrMax= 6.86D-05  0.00D+00 EMaxC= 1.00D-01 BMatC= 2.22D-06 BMatP= 2.85D-06
 IDIUse=1 WtCom= 1.00D+00 WtEn= 0.00D+00
 Coeff-Com: -0.120D+00-0.324D-01 0.174D+00 0.483D+00-0.531D+00 0.555D+00
 Coeff-Com: -0.902D+00-0.383D+00 0.482D+00 0.431D+00-0.503D+00 0.938D-01
 Coeff-Com:  0.414D+00 0.616D+00-0.216D+01 0.159D+01 0.386D+00-0.459D+01
 Coeff-Com:  0.345D+01 0.154D+01
 Coeff:     -0.120D+00-0.324D-01 0.174D+00 0.483D+00-0.531D+00 0.555D+00
 Coeff:     -0.902D+00-0.383D+00 0.482D+00 0.431D+00-0.503D+00 0.938D-01
 Coeff:      0.414D+00 0.616D+00-0.216D+01 0.159D+01 0.386D+00-0.459D+01
 Coeff:      0.345D+01 0.154D+01
 Gap=     0.039 Goal=   None    Shift=    0.300
 Gap=     0.155 Goal=   None    Shift=    0.300
 RMSDP=1.56D-05 MaxDP=8.12D-04 DE=-2.37D-06 OVMax= 2.79D-03

 Cycle  74  Pass 1  IDiag  1:
 RMSU=  1.06D-05    CP:  1.00D+00  3.00D+00  3.00D+00  2.61D+00  3.00D+00
                    CP:  3.00D+00  3.00D+00  3.00D+00  3.00D+00  3.00D+00
                    CP:  3.00D+00  3.00D+00  1.64D+00
 E= -884.761989860289     Delta-E=       -0.000001934289 Rises=F Damp=F
 DIIS: error= 6.28D-05 at cycle  74 NSaved=  20.
 NSaved=20 IEnMin=20 EnMin= -884.761989860289     IErMin=20 ErrMin= 6.28D-05
 ErrMax= 6.28D-05  0.00D+00 EMaxC= 1.00D-01 BMatC= 1.65D-06 BMatP= 2.22D-06
 IDIUse=1 WtCom= 1.00D+00 WtEn= 0.00D+00
 Coeff-Com: -0.160D+00 0.283D+00 0.230D+00-0.523D+00 0.350D+00-0.149D-01
 Coeff-Com: -0.101D+01 0.897D+00 0.138D+00-0.104D+00 0.104D+01-0.173D+01
 Coeff-Com:  0.395D+00-0.383D+01 0.439D+01 0.162D+01-0.290D+01-0.139D-01
 Coeff-Com: -0.174D+01 0.367D+01
 Coeff:     -0.160D+00 0.283D+00 0.230D+00-0.523D+00 0.350D+00-0.149D-01
 Coeff:     -0.101D+01 0.897D+00 0.138D+00-0.104D+00 0.104D+01-0.173D+01
 Coeff:      0.395D+00-0.383D+01 0.439D+01 0.162D+01-0.290D+01-0.139D-01
 Coeff:     -0.174D+01 0.367D+01
 Gap=     0.039 Goal=   None    Shift=    0.300
 Gap=     0.155 Goal=   None    Shift=    0.300
 RMSDP=1.60D-05 MaxDP=8.24D-04 DE=-1.93D-06 OVMax= 2.85D-03

 Cycle  75  Pass 1  IDiag  1:
 RMSU=  1.88D-06    CP:  1.00D+00  3.00D+00  3.00D+00  2.98D+00  3.00D+00
                    CP:  3.00D+00  3.00D+00  3.00D+00  3.00D+00  3.00D+00
                    CP:  3.00D+00  3.00D+00  2.60D+00  2.49D+00
 E= -884.761991601291     Delta-E=       -0.000001741002 Rises=F Damp=F
 DIIS: error= 5.88D-05 at cycle  75 NSaved=  20.
 NSaved=20 IEnMin=20 EnMin= -884.761991601291     IErMin=20 ErrMin= 5.88D-05
 ErrMax= 5.88D-05  0.00D+00 EMaxC= 1.00D-01 BMatC= 1.51D-06 BMatP= 1.65D-06
 IDIUse=1 WtCom= 1.00D+00 WtEn= 0.00D+00
 Coeff-Com:  0.856D-01 0.167D+00-0.357D+00-0.417D+00 0.116D+01-0.580D+00
 Coeff-Com:  0.293D+00-0.415D+00 0.166D+00 0.174D+00-0.771D+00 0.218D+00
 Coeff-Com: -0.365D+01 0.437D+01 0.105D+01-0.111D+01-0.499D+00-0.362D+01
 Coeff-Com:  0.244D+01 0.230D+01
 Coeff:      0.856D-01 0.167D+00-0.357D+00-0.417D+00 0.116D+01-0.580D+00
 Coeff:      0.293D+00-0.415D+00 0.166D+00 0.174D+00-0.771D+00 0.218D+00
 Coeff:     -0.365D+01 0.437D+01 0.105D+01-0.111D+01-0.499D+00-0.362D+01
 Coeff:      0.244D+01 0.230D+01
 Gap=     0.039 Goal=   None    Shift=    0.300
 Gap=     0.155 Goal=   None    Shift=    0.300
 RMSDP=1.58D-05 MaxDP=8.14D-04 DE=-1.74D-06 OVMax= 2.82D-03

 Cycle  76  Pass 1  IDiag  1:
 RMSU=  1.03D-05    CP:  1.00D+00  3.00D+00  3.00D+00  3.00D+00  3.00D+00
                    CP:  3.00D+00  3.00D+00  3.00D+00  3.00D+00  3.00D+00
                    CP:  3.00D+00  3.00D+00  3.00D+00  3.00D+00  2.04D+00
 E= -884.761993213675     Delta-E=       -0.000001612384 Rises=F Damp=F
 DIIS: error= 5.51D-05 at cycle  76 NSaved=  20.
 NSaved=20 IEnMin=20 EnMin= -884.761993213675     IErMin=20 ErrMin= 5.51D-05
 ErrMax= 5.51D-05  0.00D+00 EMaxC= 1.00D-01 BMatC= 1.34D-06 BMatP= 1.51D-06
 IDIUse=1 WtCom= 1.00D+00 WtEn= 0.00D+00
 Coeff-Com:  0.210D+00-0.237D+00-0.460D+00 0.102D+01-0.205D+00-0.100D+00
 Coeff-Com: -0.345D+00 0.955D-01-0.696D+00 0.866D+00 0.422D+00-0.431D+01
 Coeff-Com:  0.393D+01 0.429D+00-0.223D+00 0.590D+00-0.366D+01 0.931D+00
 Coeff-Com:  0.913D+00 0.182D+01
 Coeff:      0.210D+00-0.237D+00-0.460D+00 0.102D+01-0.205D+00-0.100D+00
 Coeff:     -0.345D+00 0.955D-01-0.696D+00 0.866D+00 0.422D+00-0.431D+01
 Coeff:      0.393D+01 0.429D+00-0.223D+00 0.590D+00-0.366D+01 0.931D+00
 Coeff:      0.913D+00 0.182D+01
 Gap=     0.039 Goal=   None    Shift=    0.300
 Gap=     0.155 Goal=   None    Shift=    0.300
 RMSDP=1.48D-05 MaxDP=7.61D-04 DE=-1.61D-06 OVMax= 2.63D-03

 Cycle  77  Pass 1  IDiag  1:
 RMSU=  4.63D-07    CP:  1.00D+00  3.00D+00  3.00D+00  3.00D+00  3.00D+00
                    CP:  3.00D+00  3.00D+00  3.00D+00  3.00D+00  3.00D+00
                    CP:  3.00D+00  3.00D+00  3.00D+00  3.00D+00  3.00D+00
                    CP:  2.42D+00
 E= -884.761994627315     Delta-E=       -0.000001413640 Rises=F Damp=F
 DIIS: error= 5.15D-05 at cycle  77 NSaved=  20.
 NSaved=20 IEnMin=20 EnMin= -884.761994627315     IErMin=20 ErrMin= 5.15D-05
 ErrMax= 5.15D-05  0.00D+00 EMaxC= 1.00D-01 BMatC= 1.18D-06 BMatP= 1.34D-06
 IDIUse=1 WtCom= 1.00D+00 WtEn= 0.00D+00
 Coeff-Com: -0.647D-01 0.124D+00 0.409D+00-0.365D+00 0.113D+00-0.447D-01
 Coeff-Com: -0.497D+00-0.135D+01 0.179D+01 0.696D+00-0.279D+01 0.195D+01
 Coeff-Com:  0.170D+00-0.597D+00 0.149D+01-0.204D+01 0.647D+00-0.270D+00
 Coeff-Com: -0.201D+01 0.364D+01
 Coeff:     -0.647D-01 0.124D+00 0.409D+00-0.365D+00 0.113D+00-0.447D-01
 Coeff:     -0.497D+00-0.135D+01 0.179D+01 0.696D+00-0.279D+01 0.195D+01
 Coeff:      0.170D+00-0.597D+00 0.149D+01-0.204D+01 0.647D+00-0.270D+00
 Coeff:     -0.201D+01 0.364D+01
 Gap=     0.039 Goal=   None    Shift=    0.300
 Gap=     0.155 Goal=   None    Shift=    0.300
 RMSDP=1.43D-05 MaxDP=7.30D-04 DE=-1.41D-06 OVMax= 2.53D-03

 Cycle  78  Pass 1  IDiag  1:
 RMSU=  8.35D-06    CP:  1.00D+00  3.00D+00  3.00D+00  3.00D+00  3.00D+00
                    CP:  3.00D+00  3.00D+00  3.00D+00  3.00D+00  2.71D+00
                    CP:  3.00D+00  3.00D+00  3.00D+00  3.00D+00  3.00D+00
                    CP:  3.00D+00  2.32D+00
 E= -884.761995906380     Delta-E=       -0.000001279065 Rises=F Damp=F
 DIIS: error= 4.84D-05 at cycle  78 NSaved=  20.
 NSaved=20 IEnMin=20 EnMin= -884.761995906380     IErMin=20 ErrMin= 4.84D-05
 ErrMax= 4.84D-05  0.00D+00 EMaxC= 1.00D-01 BMatC= 1.08D-06 BMatP= 1.18D-06
 IDIUse=1 WtCom= 1.00D+00 WtEn= 0.00D+00
 Coeff-Com: -0.163D+00 0.110D+01-0.959D+00 0.430D+00-0.122D+00-0.855D+00
 Coeff-Com: -0.129D+01 0.175D+01 0.692D+00-0.160D+01 0.110D+01 0.256D+00
 Coeff-Com: -0.209D+01 0.226D+01-0.462D+00 0.389D+00-0.402D-01-0.407D+01
 Coeff-Com:  0.284D+01 0.182D+01
 Coeff:     -0.163D+00 0.110D+01-0.959D+00 0.430D+00-0.122D+00-0.855D+00
 Coeff:     -0.129D+01 0.175D+01 0.692D+00-0.160D+01 0.110D+01 0.256D+00
 Coeff:     -0.209D+01 0.226D+01-0.462D+00 0.389D+00-0.402D-01-0.407D+01
 Coeff:      0.284D+01 0.182D+01
 Gap=     0.039 Goal=   None    Shift=    0.300
 Gap=     0.155 Goal=   None    Shift=    0.300
 RMSDP=1.36D-05 MaxDP=6.95D-04 DE=-1.28D-06 OVMax= 2.41D-03

 Cycle  79  Pass 1  IDiag  1:
 RMSU=  1.49D-06    CP:  1.00D+00  3.00D+00  3.00D+00  3.00D+00  3.00D+00
                    CP:  3.00D+00  3.00D+00  3.00D+00  3.00D+00  2.12D+00
                    CP:  3.00D+00  3.00D+00  3.00D+00  3.00D+00  3.00D+00
                    CP:  3.00D+00  3.00D+00  2.62D+00
 E= -884.761997059928     Delta-E=       -0.000001153548 Rises=F Damp=F
 DIIS: error= 4.56D-05 at cycle  79 NSaved=  20.
 NSaved=20 IEnMin=20 EnMin= -884.761997059928     IErMin=20 ErrMin= 4.56D-05
 ErrMax= 4.56D-05  0.00D+00 EMaxC= 1.00D-01 BMatC= 9.43D-07 BMatP= 1.08D-06
 IDIUse=1 WtCom= 1.00D+00 WtEn= 0.00D+00
 Coeff-Com:  0.849D+00-0.913D+00 0.481D+00-0.828D-01-0.916D+00-0.134D+01
 Coeff-Com:  0.171D+01 0.781D+00-0.999D+00 0.463D+00 0.222D+00-0.260D+01
 Coeff-Com:  0.272D+01 0.131D+00 0.330D+00-0.420D-01-0.449D+01 0.262D+01
 Coeff-Com:  0.132D+01 0.755D+00
 Coeff:      0.849D+00-0.913D+00 0.481D+00-0.828D-01-0.916D+00-0.134D+01
 Coeff:      0.171D+01 0.781D+00-0.999D+00 0.463D+00 0.222D+00-0.260D+01
 Coeff:      0.272D+01 0.131D+00 0.330D+00-0.420D-01-0.449D+01 0.262D+01
 Coeff:      0.132D+01 0.755D+00
 Gap=     0.039 Goal=   None    Shift=    0.300
 Gap=     0.155 Goal=   None    Shift=    0.300
 RMSDP=1.17D-05 MaxDP=6.01D-04 DE=-1.15D-06 OVMax= 2.07D-03

 Cycle  80  Pass 1  IDiag  1:
 RMSU=  8.39D-06    CP:  1.00D+00  3.00D+00  3.00D+00  3.00D+00  3.00D+00
                    CP:  3.00D+00  3.00D+00  3.00D+00  3.00D+00  1.47D+00
                    CP:  3.00D+00  3.00D+00  3.00D+00  3.00D+00  3.00D+00
                    CP:  3.00D+00  3.00D+00  3.00D+00  1.92D+00
 E= -884.761998055021     Delta-E=       -0.000000995093 Rises=F Damp=F
 DIIS: error= 4.21D-05 at cycle  80 NSaved=  20.
 NSaved=20 IEnMin=20 EnMin= -884.761998055021     IErMin=20 ErrMin= 4.21D-05
 ErrMax= 4.21D-05  0.00D+00 EMaxC= 1.00D-01 BMatC= 6.97D-07 BMatP= 9.43D-07
 IDIUse=1 WtCom= 1.00D+00 WtEn= 0.00D+00
 Coeff-Com:  0.144D+00-0.644D+00 0.194D+00 0.960D+00-0.132D+01 0.149D+01
 Coeff-Com:  0.576D+00-0.409D+01 0.229D+01-0.430D+00 0.242D+01 0.504D+00
 Coeff-Com: -0.367D+01-0.327D+00 0.351D+00 0.310D+01 0.398D+00-0.215D+01
 Coeff-Com: -0.431D+01 0.552D+01
 Coeff:      0.144D+00-0.644D+00 0.194D+00 0.960D+00-0.132D+01 0.149D+01
 Coeff:      0.576D+00-0.409D+01 0.229D+01-0.430D+00 0.242D+01 0.504D+00
 Coeff:     -0.367D+01-0.327D+00 0.351D+00 0.310D+01 0.398D+00-0.215D+01
 Coeff:     -0.431D+01 0.552D+01
 Gap=     0.039 Goal=   None    Shift=    0.300
 Gap=     0.155 Goal=   None    Shift=    0.300
 RMSDP=1.02D-05 MaxDP=5.18D-04 DE=-9.95D-07 OVMax= 1.78D-03

 Cycle  81  Pass 1  IDiag  1:
 Restarting incremental Fock formation.
 E= -884.761998869103     Delta-E=       -0.000000814082 Rises=F Damp=F
 DIIS: error= 3.90D-05 at cycle  81 NSaved=  20.
 NSaved=20 IEnMin=20 EnMin= -884.761998869103     IErMin=20 ErrMin= 3.90D-05
 ErrMax= 3.90D-05  0.00D+00 EMaxC= 1.00D-01 BMatC= 5.29D-07 BMatP= 6.97D-07
 IDIUse=1 WtCom= 1.00D+00 WtEn= 0.00D+00
 Coeff-Com: -0.833D+00 0.533D+00 0.999D+00-0.157D+01 0.169D+01 0.419D+00
 Coeff-Com: -0.371D+01 0.192D+01-0.419D+00 0.364D+01-0.828D+00-0.305D+01
 Coeff-Com: -0.560D+00-0.136D+00 0.311D+01 0.173D+01-0.239D+01-0.450D+01
 Coeff-Com:  0.182D+01 0.312D+01
 Coeff:     -0.833D+00 0.533D+00 0.999D+00-0.157D+01 0.169D+01 0.419D+00
 Coeff:     -0.371D+01 0.192D+01-0.419D+00 0.364D+01-0.828D+00-0.305D+01
 Coeff:     -0.560D+00-0.136D+00 0.311D+01 0.173D+01-0.239D+01-0.450D+01
 Coeff:      0.182D+01 0.312D+01
 Gap=     0.039 Goal=   None    Shift=    0.300
 Gap=     0.155 Goal=   None    Shift=    0.300
 RMSDP=1.02D-05 MaxDP=5.15D-04 DE=-8.14D-07 OVMax= 1.78D-03

 Cycle  82  Pass 1  IDiag  1:
 RMSU=  1.02D-05    CP:  1.00D+00
 E= -884.761999541881     Delta-E=       -0.000000672778 Rises=F Damp=F
 DIIS: error= 3.70D-05 at cycle  82 NSaved=  20.
 NSaved=20 IEnMin=20 EnMin= -884.761999541881     IErMin=20 ErrMin= 3.70D-05
 ErrMax= 3.70D-05  0.00D+00 EMaxC= 1.00D-01 BMatC= 5.77D-07 BMatP= 5.29D-07
 IDIUse=1 WtCom= 1.00D+00 WtEn= 0.00D+00
 Coeff-Com:  0.146D+00-0.580D-01-0.190D+01 0.187D+01 0.627D+00-0.144D+01
 Coeff-Com:  0.248D+00-0.306D+00 0.744D+00 0.953D+00-0.285D+00-0.340D+00
 Coeff-Com: -0.535D+00-0.106D+01 0.198D+01-0.372D-01-0.856D+00-0.162D+01
 Coeff-Com:  0.689D+00 0.217D+01
 Coeff:      0.146D+00-0.580D-01-0.190D+01 0.187D+01 0.627D+00-0.144D+01
 Coeff:      0.248D+00-0.306D+00 0.744D+00 0.953D+00-0.285D+00-0.340D+00
 Coeff:     -0.535D+00-0.106D+01 0.198D+01-0.372D-01-0.856D+00-0.162D+01
 Coeff:      0.689D+00 0.217D+01
 Gap=     0.039 Goal=   None    Shift=    0.300
 Gap=     0.155 Goal=   None    Shift=    0.300
 RMSDP=1.08D-05 MaxDP=5.49D-04 DE=-6.73D-07 OVMax= 1.90D-03

 Cycle  83  Pass 1  IDiag  1:
 RMSU=  1.36D-06    CP:  1.00D+00  2.05D+00
 E= -884.762000168524     Delta-E=       -0.000000626643 Rises=F Damp=F
 DIIS: error= 3.56D-05 at cycle  83 NSaved=  20.
 NSaved=20 IEnMin=20 EnMin= -884.762000168524     IErMin=20 ErrMin= 3.56D-05
 ErrMax= 3.56D-05  0.00D+00 EMaxC= 1.00D-01 BMatC= 6.67D-07 BMatP= 5.29D-07
 IDIUse=1 WtCom= 1.00D+00 WtEn= 0.00D+00
 Coeff-Com: -0.374D-01-0.633D+00 0.848D+00 0.327D+00-0.195D+01 0.135D+01
 Coeff-Com:  0.168D+00-0.668D+00 0.828D+00-0.572D+00 0.553D+00-0.654D+00
 Coeff-Com: -0.642D+00 0.145D+01 0.436D-01-0.170D+01 0.125D+01-0.809D+00
 Coeff-Com: -0.763D+00 0.262D+01
 Coeff:     -0.374D-01-0.633D+00 0.848D+00 0.327D+00-0.195D+01 0.135D+01
 Coeff:      0.168D+00-0.668D+00 0.828D+00-0.572D+00 0.553D+00-0.654D+00
 Coeff:     -0.642D+00 0.145D+01 0.436D-01-0.170D+01 0.125D+01-0.809D+00
 Coeff:     -0.763D+00 0.262D+01
 Gap=     0.039 Goal=   None    Shift=    0.300
 Gap=     0.155 Goal=   None    Shift=    0.300
 RMSDP=1.27D-05 MaxDP=6.40D-04 DE=-6.27D-07 OVMax= 2.23D-03

 Cycle  84  Pass 1  IDiag  1:
 RMSU=  2.96D-06    CP:  1.00D+00  3.00D+00  2.22D+00
 E= -884.762000802861     Delta-E=       -0.000000634337 Rises=F Damp=F
 DIIS: error= 4.39D-05 at cycle  84 NSaved=  20.
 NSaved=20 IEnMin=20 EnMin= -884.762000802861     IErMin=19 ErrMin= 3.56D-05
 ErrMax= 4.39D-05  0.00D+00 EMaxC= 1.00D-01 BMatC= 8.39D-07 BMatP= 5.29D-07
 IDIUse=1 WtCom= 1.00D+00 WtEn= 0.00D+00
 Coeff-Com:  0.430D+00-0.320D+00 0.149D+00-0.277D+01 0.271D+01 0.565D+00
 Coeff-Com: -0.130D+01 0.398D+00-0.131D+01 0.149D+01-0.366D+00 0.295D+00
 Coeff-Com:  0.588D+00-0.347D+00-0.248D+01 0.262D+01-0.682D+00-0.201D+01
 Coeff-Com:  0.195D+01 0.138D+01
 Coeff:      0.430D+00-0.320D+00 0.149D+00-0.277D+01 0.271D+01 0.565D+00
 Coeff:     -0.130D+01 0.398D+00-0.131D+01 0.149D+01-0.366D+00 0.295D+00
 Coeff:      0.588D+00-0.347D+00-0.248D+01 0.262D+01-0.682D+00-0.201D+01
 Coeff:      0.195D+01 0.138D+01
 Gap=     0.039 Goal=   None    Shift=    0.300
 Gap=     0.155 Goal=   None    Shift=    0.300
 RMSDP=1.23D-05 MaxDP=6.26D-04 DE=-6.34D-07 OVMax= 2.17D-03

 Cycle  85  Pass 1  IDiag  1:
 RMSU=  6.62D-06    CP:  1.00D+00  3.00D+00  3.00D+00  3.00D+00
 E= -884.762001438719     Delta-E=       -0.000000635858 Rises=F Damp=F
 DIIS: error= 4.39D-05 at cycle  85 NSaved=  20.
 NSaved=20 IEnMin=20 EnMin= -884.762001438719     IErMin=18 ErrMin= 3.56D-05
 ErrMax= 4.39D-05  0.00D+00 EMaxC= 1.00D-01 BMatC= 8.00D-07 BMatP= 5.29D-07
 IDIUse=1 WtCom= 1.00D+00 WtEn= 0.00D+00
 Coeff-Com:  0.215D+00 0.249D+00-0.295D+01 0.268D+01 0.451D+00-0.127D+01
 Coeff-Com:  0.714D+00-0.137D+01 0.129D+01-0.417D+00 0.240D+00 0.890D+00
 Coeff-Com: -0.285D+00-0.223D+01 0.199D+01-0.625D+00-0.178D+01 0.189D+01
 Coeff-Com:  0.540D+00 0.768D+00
 Coeff:      0.215D+00 0.249D+00-0.295D+01 0.268D+01 0.451D+00-0.127D+01
 Coeff:      0.714D+00-0.137D+01 0.129D+01-0.417D+00 0.240D+00 0.890D+00
 Coeff:     -0.285D+00-0.223D+01 0.199D+01-0.625D+00-0.178D+01 0.189D+01
 Coeff:      0.540D+00 0.768D+00
 Gap=     0.039 Goal=   None    Shift=    0.300
 Gap=     0.155 Goal=   None    Shift=    0.300
 RMSDP=1.13D-05 MaxDP=5.80D-04 DE=-6.36D-07 OVMax= 2.00D-03

 Cycle  86  Pass 1  IDiag  1:
 RMSU=  2.40D-06    CP:  1.00D+00  3.00D+00  3.00D+00  3.00D+00  2.66D+00
 E= -884.762001993217     Delta-E=       -0.000000554498 Rises=F Damp=F
 DIIS: error= 4.10D-05 at cycle  86 NSaved=  20.
 NSaved=20 IEnMin=20 EnMin= -884.762001993217     IErMin=17 ErrMin= 3.56D-05
 ErrMax= 4.10D-05  0.00D+00 EMaxC= 1.00D-01 BMatC= 7.30D-07 BMatP= 5.29D-07
 IDIUse=1 WtCom= 1.00D+00 WtEn= 0.00D+00
 Coeff-Com:  0.208D+00-0.180D+01 0.176D+01 0.291D+00-0.799D+00 0.300D+00
 Coeff-Com: -0.125D+01 0.107D+01-0.538D-01 0.681D-01 0.784D+00-0.275D+00
 Coeff-Com: -0.181D+01 0.144D+01-0.850D-01-0.127D+01 0.131D+01 0.473D+00
 Coeff-Com: -0.192D+01 0.256D+01
 Coeff:      0.208D+00-0.180D+01 0.176D+01 0.291D+00-0.799D+00 0.300D+00
 Coeff:     -0.125D+01 0.107D+01-0.538D-01 0.681D-01 0.784D+00-0.275D+00
 Coeff:     -0.181D+01 0.144D+01-0.850D-01-0.127D+01 0.131D+01 0.473D+00
 Coeff:     -0.192D+01 0.256D+01
 Gap=     0.039 Goal=   None    Shift=    0.300
 Gap=     0.155 Goal=   None    Shift=    0.300
 RMSDP=1.13D-05 MaxDP=5.81D-04 DE=-5.54D-07 OVMax= 2.01D-03

 Cycle  87  Pass 1  IDiag  1:
 RMSU=  8.81D-06    CP:  1.00D+00  3.00D+00  3.00D+00  3.00D+00  3.00D+00
                    CP:  2.10D+00
 E= -884.762002474246     Delta-E=       -0.000000481029 Rises=F Damp=F
 DIIS: error= 4.20D-05 at cycle  87 NSaved=  20.
 NSaved=20 IEnMin=20 EnMin= -884.762002474246     IErMin=16 ErrMin= 3.56D-05
 ErrMax= 4.20D-05  0.00D+00 EMaxC= 1.00D-01 BMatC= 7.23D-07 BMatP= 5.29D-07
 IDIUse=1 WtCom= 1.00D+00 WtEn= 0.00D+00
 Coeff-Com: -0.105D+01 0.106D+01 0.217D+00-0.578D+00 0.306D+00-0.926D+00
 Coeff-Com:  0.768D+00 0.387D-01-0.959D-01 0.694D+00-0.217D+00-0.135D+01
 Coeff-Com:  0.862D+00-0.511D-01-0.436D+00 0.116D+01 0.391D+00-0.319D+01
 Coeff-Com:  0.196D+01 0.144D+01
 Coeff:     -0.105D+01 0.106D+01 0.217D+00-0.578D+00 0.306D+00-0.926D+00
 Coeff:      0.768D+00 0.387D-01-0.959D-01 0.694D+00-0.217D+00-0.135D+01
 Coeff:      0.862D+00-0.511D-01-0.436D+00 0.116D+01 0.391D+00-0.319D+01
 Coeff:      0.196D+01 0.144D+01
 Gap=     0.039 Goal=   None    Shift=    0.300
 Gap=     0.155 Goal=   None    Shift=    0.300
 RMSDP=1.06D-05 MaxDP=5.43D-04 DE=-4.81D-07 OVMax= 1.88D-03

 Cycle  88  Pass 1  IDiag  1:
 RMSU=  4.52D-07    CP:  1.00D+00  3.00D+00  3.00D+00  3.00D+00  3.00D+00
                    CP:  3.00D+00  2.17D+00
 E= -884.762002906016     Delta-E=       -0.000000431771 Rises=F Damp=F
 DIIS: error= 4.01D-05 at cycle  88 NSaved=  20.
 NSaved=20 IEnMin=20 EnMin= -884.762002906016     IErMin=15 ErrMin= 3.56D-05
 ErrMax= 4.01D-05  0.00D+00 EMaxC= 1.00D-01 BMatC= 6.59D-07 BMatP= 5.29D-07
 IDIUse=1 WtCom= 1.00D+00 WtEn= 0.00D+00
 Coeff-Com: -0.740D-01 0.290D-02-0.940D+00 0.896D+00-0.554D+00 0.433D+00
 Coeff-Com:  0.249D+00 0.922D-01 0.869D-01-0.363D+00-0.153D+01 0.164D+01
 Coeff-Com: -0.203D+00-0.302D+00 0.115D+01 0.626D+00-0.363D+01 0.158D+01
 Coeff-Com:  0.727D+00 0.110D+01
 Coeff:     -0.740D-01 0.290D-02-0.940D+00 0.896D+00-0.554D+00 0.433D+00
 Coeff:      0.249D+00 0.922D-01 0.869D-01-0.363D+00-0.153D+01 0.164D+01
 Coeff:     -0.203D+00-0.302D+00 0.115D+01 0.626D+00-0.363D+01 0.158D+01
 Coeff:      0.727D+00 0.110D+01
 Gap=     0.039 Goal=   None    Shift=    0.300
 Gap=     0.155 Goal=   None    Shift=    0.300
 RMSDP=9.69D-06 MaxDP=5.00D-04 DE=-4.32D-07 OVMax= 1.73D-03

 Cycle  89  Pass 1  IDiag  1:
 RMSU=  2.70D-06    CP:  1.00D+00  3.00D+00  3.00D+00  3.00D+00  3.00D+00
                    CP:  3.00D+00  3.00D+00  3.00D+00
 E= -884.762003289319     Delta-E=       -0.000000383303 Rises=F Damp=F
 DIIS: error= 3.73D-05 at cycle  89 NSaved=  20.
 NSaved=20 IEnMin=20 EnMin= -884.762003289319     IErMin=14 ErrMin= 3.56D-05
 ErrMax= 3.73D-05  0.00D+00 EMaxC= 1.00D-01 BMatC= 5.51D-07 BMatP= 5.29D-07
 IDIUse=1 WtCom= 1.00D+00 WtEn= 0.00D+00
 Coeff-Com:  0.607D-01-0.115D+01 0.111D+01-0.790D+00 0.460D+00 0.265D+00
 Coeff-Com:  0.353D+00 0.197D-02-0.367D+00-0.171D+01 0.196D+01-0.591D+00
 Coeff-Com: -0.611D+00 0.155D+01 0.739D+00-0.241D+01 0.789D+00-0.794D+00
 Coeff-Com:  0.571D+00 0.155D+01
 Coeff:      0.607D-01-0.115D+01 0.111D+01-0.790D+00 0.460D+00 0.265D+00
 Coeff:      0.353D+00 0.197D-02-0.367D+00-0.171D+01 0.196D+01-0.591D+00
 Coeff:     -0.611D+00 0.155D+01 0.739D+00-0.241D+01 0.789D+00-0.794D+00
 Coeff:      0.571D+00 0.155D+01
 Gap=     0.039 Goal=   None    Shift=    0.300
 Gap=     0.155 Goal=   None    Shift=    0.300
 RMSDP=8.75D-06 MaxDP=4.53D-04 DE=-3.83D-07 OVMax= 1.56D-03

 Cycle  90  Pass 1  IDiag  1:
 RMSU=  4.74D-06    CP:  1.00D+00  3.00D+00  3.00D+00  3.00D+00  3.00D+00
                    CP:  3.00D+00  3.00D+00  3.00D+00  3.00D+00
 E= -884.762003615369     Delta-E=       -0.000000326049 Rises=F Damp=F
 DIIS: error= 3.39D-05 at cycle  90 NSaved=  20.
 NSaved=20 IEnMin=20 EnMin= -884.762003615369     IErMin=20 ErrMin= 3.39D-05
 ErrMax= 3.39D-05  0.00D+00 EMaxC= 1.00D-01 BMatC= 4.48D-07 BMatP= 5.29D-07
 IDIUse=1 WtCom= 1.00D+00 WtEn= 0.00D+00
 Coeff-Com: -0.753D+00 0.111D+01-0.118D+01 0.375D+00 0.288D+00 0.309D+00
 Coeff-Com:  0.174D+00-0.229D+00-0.137D+01 0.161D+01-0.688D+00-0.774D+00
 Coeff-Com:  0.137D+01 0.674D+00-0.157D+01 0.159D+01-0.102D+01-0.312D+00
 Coeff-Com: -0.277D+01 0.417D+01
 Coeff:     -0.753D+00 0.111D+01-0.118D+01 0.375D+00 0.288D+00 0.309D+00
 Coeff:      0.174D+00-0.229D+00-0.137D+01 0.161D+01-0.688D+00-0.774D+00
 Coeff:      0.137D+01 0.674D+00-0.157D+01 0.159D+01-0.102D+01-0.312D+00
 Coeff:     -0.277D+01 0.417D+01
 Gap=     0.039 Goal=   None    Shift=    0.300
 Gap=     0.155 Goal=   None    Shift=    0.300
 RMSDP=7.68D-06 MaxDP=4.00D-04 DE=-3.26D-07 OVMax= 1.37D-03

 Cycle  91  Pass 1  IDiag  1:
 RMSU=  4.06D-06    CP:  1.00D+00  3.00D+00  3.00D+00  3.00D+00  3.00D+00
                    CP:  3.00D+00  3.00D+00  3.00D+00  3.00D+00  2.38D+00
 E= -884.762003893793     Delta-E=       -0.000000278425 Rises=F Damp=F
 DIIS: error= 2.94D-05 at cycle  91 NSaved=  20.
 NSaved=20 IEnMin=20 EnMin= -884.762003893793     IErMin=20 ErrMin= 2.94D-05
 ErrMax= 2.94D-05  0.00D+00 EMaxC= 1.00D-01 BMatC= 3.37D-07 BMatP= 4.48D-07
 IDIUse=1 WtCom= 1.00D+00 WtEn= 0.00D+00
 Coeff-Com:  0.312D+00-0.114D+01 0.255D+00 0.290D+00 0.447D+00 0.257D-01
 Coeff-Com: -0.115D+00-0.886D+00 0.107D+01-0.378D+00-0.627D+00 0.801D+00
 Coeff-Com:  0.444D+00-0.215D+01 0.241D+01 0.888D+00-0.213D+00-0.618D+01
 Coeff-Com:  0.307D+01 0.268D+01
 Coeff:      0.312D+00-0.114D+01 0.255D+00 0.290D+00 0.447D+00 0.257D-01
 Coeff:     -0.115D+00-0.886D+00 0.107D+01-0.378D+00-0.627D+00 0.801D+00
 Coeff:      0.444D+00-0.215D+01 0.241D+01 0.888D+00-0.213D+00-0.618D+01
 Coeff:      0.307D+01 0.268D+01
 Gap=     0.039 Goal=   None    Shift=    0.300
 Gap=     0.155 Goal=   None    Shift=    0.300
 RMSDP=6.87D-06 MaxDP=3.56D-04 DE=-2.78D-07 OVMax= 1.22D-03

 Cycle  92  Pass 1  IDiag  1:
 RMSU=  2.92D-06    CP:  1.00D+00  3.00D+00  3.00D+00  3.00D+00  3.00D+00
                    CP:  3.00D+00  3.00D+00  3.00D+00  3.00D+00  3.00D+00
                    CP:  1.88D+00
 E= -884.762004120552     Delta-E=       -0.000000226759 Rises=F Damp=F
 DIIS: error= 2.59D-05 at cycle  92 NSaved=  20.
 NSaved=20 IEnMin=20 EnMin= -884.762004120552     IErMin=20 ErrMin= 2.59D-05
 ErrMax= 2.59D-05  0.00D+00 EMaxC= 1.00D-01 BMatC= 2.46D-07 BMatP= 3.37D-07
 IDIUse=1 WtCom= 1.00D+00 WtEn= 0.00D+00
 Coeff-Com: -0.702D+00 0.321D+00 0.274D+00 0.343D+00-0.751D-01-0.101D+00
 Coeff-Com: -0.850D+00 0.885D+00-0.280D+00-0.457D+00 0.780D+00 0.501D+00
 Coeff-Com: -0.271D+01 0.230D+01 0.134D+01 0.133D+00-0.486D+01 0.150D+01
 Coeff-Com:  0.175D+01 0.912D+00
 Coeff:     -0.702D+00 0.321D+00 0.274D+00 0.343D+00-0.751D-01-0.101D+00
 Coeff:     -0.850D+00 0.885D+00-0.280D+00-0.457D+00 0.780D+00 0.501D+00
 Coeff:     -0.271D+01 0.230D+01 0.134D+01 0.133D+00-0.486D+01 0.150D+01
 Coeff:      0.175D+01 0.912D+00
 Gap=     0.039 Goal=   None    Shift=    0.300
 Gap=     0.155 Goal=   None    Shift=    0.300
 RMSDP=5.79D-06 MaxDP=3.02D-04 DE=-2.27D-07 OVMax= 1.03D-03

 Cycle  93  Pass 1  IDiag  1:
 RMSU=  6.30D-07    CP:  1.00D+00  3.00D+00  3.00D+00  3.00D+00  3.00D+00
                    CP:  3.00D+00  3.00D+00  3.00D+00  3.00D+00  3.00D+00
                    CP:  2.59D+00  2.71D+00
 E= -884.762004297492     Delta-E=       -0.000000176940 Rises=F Damp=F
 DIIS: error= 2.17D-05 at cycle  93 NSaved=  20.
 NSaved=20 IEnMin=20 EnMin= -884.762004297492     IErMin=20 ErrMin= 2.17D-05
 ErrMax= 2.17D-05  0.00D+00 EMaxC= 1.00D-01 BMatC= 1.81D-07 BMatP= 2.46D-07
 IDIUse=1 WtCom= 1.00D+00 WtEn= 0.00D+00
 Coeff-Com: -0.571D-01 0.812D-01-0.388D+00-0.371D-01 0.352D+00-0.759D-01
 Coeff-Com:  0.806D+00-0.591D+00-0.687D+00 0.647D+00 0.687D+00-0.117D+01
 Coeff-Com:  0.547D+00 0.121D-01 0.247D-01-0.114D+01 0.226D+00 0.354D+00
 Coeff-Com: -0.361D+01 0.502D+01
 Coeff:     -0.571D-01 0.812D-01-0.388D+00-0.371D-01 0.352D+00-0.759D-01
 Coeff:      0.806D+00-0.591D+00-0.687D+00 0.647D+00 0.687D+00-0.117D+01
 Coeff:      0.547D+00 0.121D-01 0.247D-01-0.114D+01 0.226D+00 0.354D+00
 Coeff:     -0.361D+01 0.502D+01
 Gap=     0.039 Goal=   None    Shift=    0.300
 Gap=     0.155 Goal=   None    Shift=    0.300
 RMSDP=5.44D-06 MaxDP=2.82D-04 DE=-1.77D-07 OVMax= 9.69D-04

 Cycle  94  Pass 1  IDiag  1:
 RMSU=  3.97D-06    CP:  1.00D+00  3.00D+00  3.00D+00  3.00D+00  3.00D+00
                    CP:  3.00D+00  3.00D+00  3.00D+00  3.00D+00  3.00D+00
                    CP:  3.00D+00  3.00D+00  1.59D+00
 E= -884.762004442827     Delta-E=       -0.000000145335 Rises=F Damp=F
 DIIS: error= 2.02D-05 at cycle  94 NSaved=  20.
 NSaved=20 IEnMin=20 EnMin= -884.762004442827     IErMin=20 ErrMin= 2.02D-05
 ErrMax= 2.02D-05  0.00D+00 EMaxC= 1.00D-01 BMatC= 1.38D-07 BMatP= 1.81D-07
 IDIUse=1 WtCom= 1.00D+00 WtEn= 0.00D+00
 Coeff-Com: -0.134D+00-0.365D+00 0.399D+00 0.372D+00 0.377D-02 0.120D+00
 Coeff-Com: -0.315D+00-0.536D+00 0.524D+00 0.398D+00-0.456D+00 0.685D-01
 Coeff-Com: -0.902D+00-0.416D+00 0.231D+01 0.984D-02-0.163D+01-0.552D+01
 Coeff-Com:  0.590D+01 0.117D+01
 Coeff:     -0.134D+00-0.365D+00 0.399D+00 0.372D+00 0.377D-02 0.120D+00
 Coeff:     -0.315D+00-0.536D+00 0.524D+00 0.398D+00-0.456D+00 0.685D-01
 Coeff:     -0.902D+00-0.416D+00 0.231D+01 0.984D-02-0.163D+01-0.552D+01
 Coeff:      0.590D+01 0.117D+01
 Gap=     0.039 Goal=   None    Shift=    0.300
 Gap=     0.155 Goal=   None    Shift=    0.300
 RMSDP=4.85D-06 MaxDP=2.52D-04 DE=-1.45D-07 OVMax= 8.66D-04

 Cycle  95  Pass 1  IDiag  1:
 RMSU=  1.19D-06    CP:  1.00D+00  3.00D+00  3.00D+00  3.00D+00  3.00D+00
                    CP:  3.00D+00  3.00D+00  3.00D+00  3.00D+00  3.00D+00
                    CP:  3.00D+00  3.00D+00  2.37D+00  2.18D+00
 E= -884.762004560614     Delta-E=       -0.000000117787 Rises=F Damp=F
 DIIS: error= 1.80D-05 at cycle  95 NSaved=  20.
 NSaved=20 IEnMin=20 EnMin= -884.762004560614     IErMin=20 ErrMin= 1.80D-05
 ErrMax= 1.80D-05  0.00D+00 EMaxC= 1.00D-01 BMatC= 1.06D-07 BMatP= 1.38D-07
 IDIUse=1 WtCom= 1.00D+00 WtEn= 0.00D+00
 Coeff-Com: -0.571D+00 0.515D+00 0.391D+00 0.160D-01-0.100D+00-0.273D+00
 Coeff-Com: -0.324D+00 0.540D+00 0.111D+00-0.296D+00 0.124D+00-0.113D+01
 Coeff-Com: -0.328D+00 0.240D+01 0.274D+00-0.167D+01-0.489D+01 0.492D+01
 Coeff-Com: -0.308D-01 0.133D+01
 Coeff:     -0.571D+00 0.515D+00 0.391D+00 0.160D-01-0.100D+00-0.273D+00
 Coeff:     -0.324D+00 0.540D+00 0.111D+00-0.296D+00 0.124D+00-0.113D+01
 Coeff:     -0.328D+00 0.240D+01 0.274D+00-0.167D+01-0.489D+01 0.492D+01
 Coeff:     -0.308D-01 0.133D+01
 Gap=     0.039 Goal=   None    Shift=    0.300
 Gap=     0.155 Goal=   None    Shift=    0.300
 RMSDP=4.20D-06 MaxDP=2.19D-04 DE=-1.18D-07 OVMax= 7.51D-04

 Cycle  96  Pass 1  IDiag  1:
 RMSU=  7.96D-07    CP:  1.00D+00  3.00D+00  3.00D+00  3.00D+00  3.00D+00
                    CP:  3.00D+00  3.00D+00  3.00D+00  3.00D+00  3.00D+00
                    CP:  3.00D+00  3.00D+00  3.00D+00  3.00D+00  1.82D+00
 E= -884.762004654561     Delta-E=       -0.000000093947 Rises=F Damp=F
 DIIS: error= 1.54D-05 at cycle  96 NSaved=  20.
 NSaved=20 IEnMin=20 EnMin= -884.762004654561     IErMin=20 ErrMin= 1.54D-05
 ErrMax= 1.54D-05  0.00D+00 EMaxC= 1.00D-01 BMatC= 7.83D-08 BMatP= 1.06D-07
 IDIUse=1 WtCom= 1.00D+00 WtEn= 0.00D+00
 Coeff-Com: -0.105D+00 0.257D+00-0.151D-01 0.382D-02-0.396D+00-0.108D+00
 Coeff-Com:  0.469D+00 0.378D+00-0.278D+00 0.524D-01-0.875D+00-0.739D-01
 Coeff-Com: -0.188D+00 0.116D+01 0.172D+00-0.138D+01 0.981D+00-0.572D+00
 Coeff-Com: -0.315D+01 0.467D+01
 Coeff:     -0.105D+00 0.257D+00-0.151D-01 0.382D-02-0.396D+00-0.108D+00
 Coeff:      0.469D+00 0.378D+00-0.278D+00 0.524D-01-0.875D+00-0.739D-01
 Coeff:     -0.188D+00 0.116D+01 0.172D+00-0.138D+01 0.981D+00-0.572D+00
 Coeff:     -0.315D+01 0.467D+01
 Gap=     0.039 Goal=   None    Shift=    0.300
 Gap=     0.155 Goal=   None    Shift=    0.300
 RMSDP=3.64D-06 MaxDP=1.90D-04 DE=-9.39D-08 OVMax= 6.51D-04

 Cycle  97  Pass 1  IDiag  1:
 RMSU=  1.98D-06    CP:  1.00D+00  3.00D+00  3.00D+00  3.00D+00  3.00D+00
                    CP:  3.00D+00  3.00D+00  3.00D+00  3.00D+00  3.00D+00
                    CP:  3.00D+00  3.00D+00  3.00D+00  3.00D+00  2.47D+00
                    CP:  3.00D+00
 E= -884.762004730397     Delta-E=       -0.000000075835 Rises=F Damp=F
 DIIS: error= 1.30D-05 at cycle  97 NSaved=  20.
 NSaved=20 IEnMin=20 EnMin= -884.762004730397     IErMin=20 ErrMin= 1.30D-05
 ErrMax= 1.30D-05  0.00D+00 EMaxC= 1.00D-01 BMatC= 5.74D-08 BMatP= 7.83D-08
 IDIUse=1 WtCom= 1.00D+00 WtEn= 0.00D+00
 Coeff-Com:  0.141D+00 0.312D+00-0.577D+00-0.121D+00 0.945D-01 0.252D+00
 Coeff-Com:  0.305D+00-0.548D+00 0.284D+00-0.362D+00-0.243D+00-0.108D+01
 Coeff-Com:  0.145D+01 0.720D+00 0.679D+00-0.115D+01-0.486D+00-0.470D+01
 Coeff-Com:  0.451D+01 0.152D+01
 Coeff:      0.141D+00 0.312D+00-0.577D+00-0.121D+00 0.945D-01 0.252D+00
 Coeff:      0.305D+00-0.548D+00 0.284D+00-0.362D+00-0.243D+00-0.108D+01
 Coeff:      0.145D+01 0.720D+00 0.679D+00-0.115D+01-0.486D+00-0.470D+01
 Coeff:      0.451D+01 0.152D+01
 Gap=     0.039 Goal=   None    Shift=    0.300
 Gap=     0.155 Goal=   None    Shift=    0.300
 RMSDP=3.17D-06 MaxDP=1.65D-04 DE=-7.58D-08 OVMax= 5.67D-04

 Cycle  98  Pass 1  IDiag  1:
 RMSU=  2.91D-07    CP:  1.00D+00  3.00D+00  3.00D+00  3.00D+00  3.00D+00
                    CP:  3.00D+00  3.00D+00  3.00D+00  3.00D+00  3.00D+00
                    CP:  3.00D+00  3.00D+00  3.00D+00  3.00D+00  3.00D+00
                    CP:  3.00D+00  2.56D+00
 E= -884.762004791561     Delta-E=       -0.000000061165 Rises=F Damp=F
 DIIS: error= 1.11D-05 at cycle  98 NSaved=  20.
 NSaved=20 IEnMin=20 EnMin= -884.762004791561     IErMin=20 ErrMin= 1.11D-05
 ErrMax= 1.11D-05  0.00D+00 EMaxC= 1.00D-01 BMatC= 4.19D-08 BMatP= 5.74D-08
 IDIUse=1 WtCom= 1.00D+00 WtEn= 0.00D+00
 Coeff-Com:  0.414D+00-0.456D+00-0.116D+00 0.110D+00 0.528D-01 0.513D+00
 Coeff-Com: -0.910D+00 0.118D+00 0.259D+00-0.200D+00-0.487D+00 0.374D+00
 Coeff-Com:  0.353D+00 0.422D-01 0.133D+00 0.358D+00-0.322D+01 0.178D+01
 Coeff-Com:  0.328D+00 0.155D+01
 Coeff:      0.414D+00-0.456D+00-0.116D+00 0.110D+00 0.528D-01 0.513D+00
 Coeff:     -0.910D+00 0.118D+00 0.259D+00-0.200D+00-0.487D+00 0.374D+00
 Coeff:      0.353D+00 0.422D-01 0.133D+00 0.358D+00-0.322D+01 0.178D+01
 Coeff:      0.328D+00 0.155D+01
 Gap=     0.039 Goal=   None    Shift=    0.300
 Gap=     0.155 Goal=   None    Shift=    0.300
 RMSDP=2.80D-06 MaxDP=1.46D-04 DE=-6.12D-08 OVMax= 5.02D-04

 Cycle  99  Pass 1  IDiag  1:
 RMSU=  1.94D-06    CP:  1.00D+00  3.00D+00  3.00D+00  3.00D+00  3.00D+00
                    CP:  3.00D+00  3.00D+00  3.00D+00  3.00D+00  3.00D+00
                    CP:  3.00D+00  3.00D+00  3.00D+00  3.00D+00  3.00D+00
                    CP:  3.00D+00  3.00D+00  2.29D+00
 E= -884.762004839853     Delta-E=       -0.000000048292 Rises=F Damp=F
 DIIS: error= 9.77D-06 at cycle  99 NSaved=  20.
 NSaved=20 IEnMin=20 EnMin= -884.762004839853     IErMin=20 ErrMin= 9.77D-06
 ErrMax= 9.77D-06  0.00D+00 EMaxC= 1.00D-01 BMatC= 3.28D-08 BMatP= 4.19D-08
 IDIUse=1 WtCom= 1.00D+00 WtEn= 0.00D+00
 Coeff-Com:  0.151D+00 0.309D-01-0.223D+00-0.105D+00 0.381D+00 0.555D-01
 Coeff-Com: -0.779D+00-0.435D+00-0.394D-01 0.334D+01-0.204D+01-0.131D+01
 Coeff-Com: -0.326D+01 0.423D+01 0.149D+01 0.115D+01-0.251D+01-0.982D+00
 Coeff-Com: -0.343D+01 0.529D+01
 Coeff:      0.151D+00 0.309D-01-0.223D+00-0.105D+00 0.381D+00 0.555D-01
 Coeff:     -0.779D+00-0.435D+00-0.394D-01 0.334D+01-0.204D+01-0.131D+01
 Coeff:     -0.326D+01 0.423D+01 0.149D+01 0.115D+01-0.251D+01-0.982D+00
 Coeff:     -0.343D+01 0.529D+01
 Gap=     0.039 Goal=   None    Shift=    0.300
 Gap=     0.155 Goal=   None    Shift=    0.300
 RMSDP=2.72D-06 MaxDP=1.41D-04 DE=-4.83D-08 OVMax= 4.86D-04

 Cycle 100  Pass 1  IDiag  1:
 RMSU=  3.21D-07    CP:  1.00D+00  3.00D+00  3.00D+00  3.00D+00  3.00D+00
                    CP:  3.00D+00  3.00D+00  3.00D+00  3.00D+00  3.00D+00
                    CP:  3.00D+00  3.00D+00  3.00D+00  3.00D+00  3.00D+00
                    CP:  3.00D+00  3.00D+00  3.00D+00  2.38D+00
 E= -884.762004881230     Delta-E=       -0.000000041377 Rises=F Damp=F
 DIIS: error= 9.60D-06 at cycle 100 NSaved=  20.
 NSaved=20 IEnMin=20 EnMin= -884.762004881230     IErMin=20 ErrMin= 9.60D-06
 ErrMax= 9.60D-06  0.00D+00 EMaxC= 1.00D-01 BMatC= 3.00D-08 BMatP= 3.28D-08
 IDIUse=1 WtCom= 1.00D+00 WtEn= 0.00D+00
 Coeff-Com:  0.117D+00 0.324D-01-0.202D+00-0.537D-02 0.186D+00-0.431D+00
 Coeff-Com: -0.423D+00 0.125D+00 0.234D+01-0.165D+01-0.685D+00-0.228D+01
 Coeff-Com:  0.301D+01 0.688D+00 0.122D+01-0.163D+01-0.462D+00-0.508D+01
 Coeff-Com:  0.480D+01 0.134D+01
 Coeff:      0.117D+00 0.324D-01-0.202D+00-0.537D-02 0.186D+00-0.431D+00
 Coeff:     -0.423D+00 0.125D+00 0.234D+01-0.165D+01-0.685D+00-0.228D+01
 Coeff:      0.301D+01 0.688D+00 0.122D+01-0.163D+01-0.462D+00-0.508D+01
 Coeff:      0.480D+01 0.134D+01
 Gap=     0.039 Goal=   None    Shift=    0.300
 Gap=     0.155 Goal=   None    Shift=    0.300
 RMSDP=2.56D-06 MaxDP=1.33D-04 DE=-4.14D-08 OVMax= 4.57D-04

 Cycle 101  Pass 1  IDiag  1:
 Restarting incremental Fock formation.
 E= -884.762004916853     Delta-E=       -0.000000035623 Rises=F Damp=F
 DIIS: error= 8.97D-06 at cycle 101 NSaved=  20.
 NSaved=20 IEnMin=20 EnMin= -884.762004916853     IErMin=20 ErrMin= 8.97D-06
 ErrMax= 8.97D-06  0.00D+00 EMaxC= 1.00D-01 BMatC= 2.63D-08 BMatP= 3.00D-08
 IDIUse=1 WtCom= 1.00D+00 WtEn= 0.00D+00
 Coeff-Com:  0.128D+00 0.455D-01-0.553D-01 0.259D+00-0.397D+00-0.112D+01
 Coeff-Com:  0.549D+00 0.107D+01-0.387D+00-0.243D-01-0.151D+01 0.166D+01
 Coeff-Com: -0.521D+00 0.448D+00 0.852D+00 0.815D-01-0.393D+01 0.150D+01
 Coeff-Com: -0.166D+00 0.252D+01
 Coeff:      0.128D+00 0.455D-01-0.553D-01 0.259D+00-0.397D+00-0.112D+01
 Coeff:      0.549D+00 0.107D+01-0.387D+00-0.243D-01-0.151D+01 0.166D+01
 Coeff:     -0.521D+00 0.448D+00 0.852D+00 0.815D-01-0.393D+01 0.150D+01
 Coeff:     -0.166D+00 0.252D+01
 Gap=     0.039 Goal=   None    Shift=    0.300
 Gap=     0.155 Goal=   None    Shift=    0.300
 RMSDP=2.48D-06 MaxDP=1.28D-04 DE=-3.56D-08 OVMax= 4.42D-04

 Cycle 102  Pass 1  IDiag  1:
 RMSU=  2.48D-06    CP:  1.00D+00
 E= -884.762004948726     Delta-E=       -0.000000031872 Rises=F Damp=F
 DIIS: error= 8.72D-06 at cycle 102 NSaved=  20.
 NSaved=20 IEnMin=20 EnMin= -884.762004948726     IErMin=20 ErrMin= 8.72D-06
 ErrMax= 8.72D-06  0.00D+00 EMaxC= 1.00D-01 BMatC= 2.40D-08 BMatP= 2.63D-08
 IDIUse=1 WtCom= 1.00D+00 WtEn= 0.00D+00
 Coeff-Com:  0.167D+00 0.737D-01 0.208D+00-0.491D+00-0.105D+01 0.442D+00
 Coeff-Com:  0.153D+01-0.611D+00-0.479D+00-0.206D+01 0.235D+01-0.764D-01
 Coeff-Com:  0.616D+00 0.201D+00-0.507D-01-0.257D+01 0.879D+00-0.484D+00
 Coeff-Com:  0.874D+00 0.152D+01
 Coeff:      0.167D+00 0.737D-01 0.208D+00-0.491D+00-0.105D+01 0.442D+00
 Coeff:      0.153D+01-0.611D+00-0.479D+00-0.206D+01 0.235D+01-0.764D-01
 Coeff:      0.616D+00 0.201D+00-0.507D-01-0.257D+01 0.879D+00-0.484D+00
 Coeff:      0.874D+00 0.152D+01
 Gap=     0.039 Goal=   None    Shift=    0.300
 Gap=     0.155 Goal=   None    Shift=    0.300
 RMSDP=2.16D-06 MaxDP=1.12D-04 DE=-3.19D-08 OVMax= 3.86D-04

 Cycle 103  Pass 1  IDiag  1:
 RMSU=  1.17D-07    CP:  1.00D+00  1.87D+00
 E= -884.762004976071     Delta-E=       -0.000000027345 Rises=F Damp=F
 DIIS: error= 7.62D-06 at cycle 103 NSaved=  20.
 NSaved=20 IEnMin=20 EnMin= -884.762004976071     IErMin=20 ErrMin= 7.62D-06
 ErrMax= 7.62D-06  0.00D+00 EMaxC= 1.00D-01 BMatC= 1.88D-08 BMatP= 2.40D-08
 IDIUse=1 WtCom= 1.00D+00 WtEn= 0.00D+00
 Coeff-Com:  0.350D-01 0.153D+00-0.583D+00-0.139D+00 0.170D+00 0.200D+01
 Coeff-Com: -0.130D+01-0.113D+01-0.949D+00 0.170D+01 0.815D+00-0.282D-01
 Coeff-Com: -0.939D+00-0.129D+00-0.918D+00 0.148D+01-0.285D+00-0.819D+00
 Coeff-Com: -0.251D+01 0.439D+01
 Coeff:      0.350D-01 0.153D+00-0.583D+00-0.139D+00 0.170D+00 0.200D+01
 Coeff:     -0.130D+01-0.113D+01-0.949D+00 0.170D+01 0.815D+00-0.282D-01
 Coeff:     -0.939D+00-0.129D+00-0.918D+00 0.148D+01-0.285D+00-0.819D+00
 Coeff:     -0.251D+01 0.439D+01
 Gap=     0.039 Goal=   None    Shift=    0.300
 Gap=     0.155 Goal=   None    Shift=    0.300
 RMSDP=2.20D-06 MaxDP=1.13D-04 DE=-2.73D-08 OVMax= 3.92D-04

 Cycle 104  Pass 1  IDiag  1:
 RMSU=  8.97D-08    CP:  1.00D+00  2.75D+00  1.27D+00
 E= -884.762004999888     Delta-E=       -0.000000023817 Rises=F Damp=F
 DIIS: error= 7.68D-06 at cycle 104 NSaved=  20.
 NSaved=20 IEnMin=20 EnMin= -884.762004999888     IErMin=19 ErrMin= 7.62D-06
 ErrMax= 7.68D-06  0.00D+00 EMaxC= 1.00D-01 BMatC= 1.84D-08 BMatP= 1.88D-08
 IDIUse=1 WtCom= 1.00D+00 WtEn= 0.00D+00
 Coeff-Com:  0.100D+00-0.588D+00 0.162D+00 0.107D+00 0.162D+01-0.110D+01
 Coeff-Com: -0.106D+01-0.572D+00 0.137D+01 0.987D+00-0.397D+00-0.133D+01
 Coeff-Com:  0.513D-02 0.190D+00 0.128D+01-0.391D+00-0.108D+01-0.429D+01
 Coeff-Com:  0.447D+01 0.152D+01
 Coeff:      0.100D+00-0.588D+00 0.162D+00 0.107D+00 0.162D+01-0.110D+01
 Coeff:     -0.106D+01-0.572D+00 0.137D+01 0.987D+00-0.397D+00-0.133D+01
 Coeff:      0.513D-02 0.190D+00 0.128D+01-0.391D+00-0.108D+01-0.429D+01
 Coeff:      0.447D+01 0.152D+01
 Gap=     0.039 Goal=   None    Shift=    0.300
 Gap=     0.155 Goal=   None    Shift=    0.300
 RMSDP=2.15D-06 MaxDP=1.10D-04 DE=-2.38D-08 OVMax= 3.80D-04

 Cycle 105  Pass 1  IDiag  1:
 RMSU=  1.53D-06    CP:  1.00D+00  3.00D+00  1.31D+00  1.80D+00
 E= -884.762005021429     Delta-E=       -0.000000021541 Rises=F Damp=F
 DIIS: error= 7.65D-06 at cycle 105 NSaved=  20.
 NSaved=20 IEnMin=20 EnMin= -884.762005021429     IErMin=18 ErrMin= 7.62D-06
 ErrMax= 7.65D-06  0.00D+00 EMaxC= 1.00D-01 BMatC= 1.74D-08 BMatP= 1.84D-08
 IDIUse=1 WtCom= 1.00D+00 WtEn= 0.00D+00
 Coeff-Com: -0.526D+00 0.320D+00-0.187D+00 0.187D+01-0.104D+01-0.132D+01
 Coeff-Com: -0.968D+00 0.194D+01 0.130D+01-0.107D-01-0.232D+01-0.165D+00
 Coeff-Com:  0.710D+00 0.154D+01-0.149D+00-0.109D+01-0.473D+01 0.345D+01
 Coeff-Com:  0.828D+00 0.155D+01
 Coeff:     -0.526D+00 0.320D+00-0.187D+00 0.187D+01-0.104D+01-0.132D+01
 Coeff:     -0.968D+00 0.194D+01 0.130D+01-0.107D-01-0.232D+01-0.165D+00
 Coeff:      0.710D+00 0.154D+01-0.149D+00-0.109D+01-0.473D+01 0.345D+01
 Coeff:      0.828D+00 0.155D+01
 Gap=     0.039 Goal=   None    Shift=    0.300
 Gap=     0.155 Goal=   None    Shift=    0.300
 RMSDP=2.08D-06 MaxDP=1.06D-04 DE=-2.15D-08 OVMax= 3.67D-04

 Cycle 106  Pass 1  IDiag  1:
 RMSU=  7.79D-08    CP:  1.00D+00  3.00D+00  1.53D+00  2.96D+00  2.35D+00
 E= -884.762005040096     Delta-E=       -0.000000018667 Rises=F Damp=F
 DIIS: error= 7.65D-06 at cycle 106 NSaved=  20.
 NSaved=20 IEnMin=20 EnMin= -884.762005040096     IErMin=17 ErrMin= 7.62D-06
 ErrMax= 7.65D-06  0.00D+00 EMaxC= 1.00D-01 BMatC= 1.70D-08 BMatP= 1.74D-08
 IDIUse=1 WtCom= 1.00D+00 WtEn= 0.00D+00
 Coeff-Com: -0.430D-01-0.478D+00 0.146D+01-0.485D+00-0.126D+01-0.600D+00
 Coeff-Com:  0.152D+01 0.617D+00-0.701D-01-0.102D+01 0.175D+00-0.919D+00
 Coeff-Com:  0.144D+01-0.278D+00 0.484D+00-0.364D+01 0.257D+01 0.384D+00
 Coeff-Com: -0.176D+01 0.290D+01
 Coeff:     -0.430D-01-0.478D+00 0.146D+01-0.485D+00-0.126D+01-0.600D+00
 Coeff:      0.152D+01 0.617D+00-0.701D-01-0.102D+01 0.175D+00-0.919D+00
 Coeff:      0.144D+01-0.278D+00 0.484D+00-0.364D+01 0.257D+01 0.384D+00
 Coeff:     -0.176D+01 0.290D+01
 Gap=     0.039 Goal=   None    Shift=    0.300
 Gap=     0.155 Goal=   None    Shift=    0.300
 RMSDP=1.85D-06 MaxDP=9.47D-05 DE=-1.87D-08 OVMax= 3.26D-04

 Cycle 107  Pass 1  IDiag  1:
 RMSU=  8.56D-07    CP:  1.00D+00  3.00D+00  2.19D+00  3.00D+00  3.00D+00
                    CP:  1.15D+00
 E= -884.762005056910     Delta-E=       -0.000000016814 Rises=F Damp=F
 DIIS: error= 6.72D-06 at cycle 107 NSaved=  20.
 NSaved=20 IEnMin=20 EnMin= -884.762005056910     IErMin=20 ErrMin= 6.72D-06
 ErrMax= 6.72D-06  0.00D+00 EMaxC= 1.00D-01 BMatC= 1.36D-08 BMatP= 1.70D-08
 IDIUse=1 WtCom= 1.00D+00 WtEn= 0.00D+00
 Coeff-Com: -0.392D+00 0.125D+01-0.452D+00-0.114D+01-0.163D+00 0.966D+00
 Coeff-Com:  0.474D+00-0.414D+00-0.473D+00 0.302D+00-0.889D+00 0.116D+01
 Coeff-Com: -0.315D+00 0.580D+00-0.340D+01 0.287D+01 0.474D+00-0.245D+01
 Coeff-Com:  0.170D+01 0.131D+01
 Coeff:     -0.392D+00 0.125D+01-0.452D+00-0.114D+01-0.163D+00 0.966D+00
 Coeff:      0.474D+00-0.414D+00-0.473D+00 0.302D+00-0.889D+00 0.116D+01
 Coeff:     -0.315D+00 0.580D+00-0.340D+01 0.287D+01 0.474D+00-0.245D+01
 Coeff:      0.170D+01 0.131D+01
 Gap=     0.039 Goal=   None    Shift=    0.300
 Gap=     0.155 Goal=   None    Shift=    0.300
 RMSDP=1.55D-06 MaxDP=8.01D-05 DE=-1.68D-08 OVMax= 2.74D-04

 Cycle 108  Pass 1  IDiag  1:
 RMSU=  1.12D-07    CP:  1.00D+00  3.00D+00  3.00D+00  3.00D+00  3.00D+00
                    CP:  1.06D+00  2.81D+00
 E= -884.762005070628     Delta-E=       -0.000000013717 Rises=F Damp=F
 DIIS: error= 5.53D-06 at cycle 108 NSaved=  20.
 NSaved=20 IEnMin=20 EnMin= -884.762005070628     IErMin=20 ErrMin= 5.53D-06
 ErrMax= 5.53D-06  0.00D+00 EMaxC= 1.00D-01 BMatC= 9.61D-09 BMatP= 1.36D-08
 IDIUse=1 WtCom= 1.00D+00 WtEn= 0.00D+00
 Coeff-Com:  0.224D+00-0.403D-01-0.593D+00 0.321D+00 0.118D+00 0.750D-02
 Coeff-Com: -0.521D+00 0.508D+00 0.379D+00-0.985D+00 0.293D+00-0.437D+00
 Coeff-Com:  0.986D+00-0.184D+01 0.216D+01 0.463D+00-0.250D+01 0.507D+00
 Coeff-Com: -0.984D-01 0.204D+01
 Coeff:      0.224D+00-0.403D-01-0.593D+00 0.321D+00 0.118D+00 0.750D-02
 Coeff:     -0.521D+00 0.508D+00 0.379D+00-0.985D+00 0.293D+00-0.437D+00
 Coeff:      0.986D+00-0.184D+01 0.216D+01 0.463D+00-0.250D+01 0.507D+00
 Coeff:     -0.984D-01 0.204D+01
 Gap=     0.039 Goal=   None    Shift=    0.300
 Gap=     0.155 Goal=   None    Shift=    0.300
 RMSDP=1.32D-06 MaxDP=6.76D-05 DE=-1.37D-08 OVMax= 2.31D-04

 Cycle 109  Pass 1  IDiag  1:
 RMSU=  1.15D-06    CP:  1.00D+00  3.00D+00  3.00D+00  3.00D+00  3.00D+00
                    CP:  5.52D-01  3.00D+00  1.76D+00
 E= -884.762005081400     Delta-E=       -0.000000010772 Rises=F Damp=F
 DIIS: error= 4.48D-06 at cycle 109 NSaved=  20.
 NSaved=20 IEnMin=20 EnMin= -884.762005081400     IErMin=20 ErrMin= 4.48D-06
 ErrMax= 4.48D-06  0.00D+00 EMaxC= 1.00D-01 BMatC= 6.74D-09 BMatP= 9.61D-09
 IDIUse=1 WtCom= 1.00D+00 WtEn= 0.00D+00
 Coeff-Com:  0.179D+00-0.545D+00 0.392D+00 0.246D-01 0.430D-01-0.555D+00
 Coeff-Com:  0.465D+00 0.514D+00-0.115D+01 0.451D+00-0.233D+00 0.101D+01
 Coeff-Com: -0.208D+01 0.155D+01 0.404D+00-0.198D+01 0.231D+01-0.110D+01
 Coeff-Com: -0.148D+01 0.278D+01
 Coeff:      0.179D+00-0.545D+00 0.392D+00 0.246D-01 0.430D-01-0.555D+00
 Coeff:      0.465D+00 0.514D+00-0.115D+01 0.451D+00-0.233D+00 0.101D+01
 Coeff:     -0.208D+01 0.155D+01 0.404D+00-0.198D+01 0.231D+01-0.110D+01
 Coeff:     -0.148D+01 0.278D+01
 Gap=     0.039 Goal=   None    Shift=    0.300
 Gap=     0.155 Goal=   None    Shift=    0.300
 RMSDP=1.18D-06 MaxDP=6.04D-05 DE=-1.08D-08 OVMax= 2.07D-04

 Cycle 110  Pass 1  IDiag  1:
 RMSU=  4.54D-08    CP:  1.00D+00  3.00D+00  3.00D+00  3.00D+00  3.00D+00
                    CP:  3.20D-01  3.00D+00  2.43D+00  2.02D+00
 E= -884.762005089828     Delta-E=       -0.000000008428 Rises=F Damp=F
 DIIS: error= 3.96D-06 at cycle 110 NSaved=  20.
 NSaved=20 IEnMin=20 EnMin= -884.762005089828     IErMin=20 ErrMin= 3.96D-06
 ErrMax= 3.96D-06  0.00D+00 EMaxC= 1.00D-01 BMatC= 5.35D-09 BMatP= 6.74D-09
 IDIUse=1 WtCom= 1.00D+00 WtEn= 0.00D+00
 Coeff-Com: -0.281D+00 0.364D+00-0.219D-01-0.226D-01-0.360D+00 0.320D+00
 Coeff-Com:  0.320D+00-0.541D+00 0.358D-01-0.373D+00 0.110D+01-0.205D+01
 Coeff-Com:  0.150D+01 0.636D+00-0.162D+01 0.263D+01-0.786D+00-0.331D+01
 Coeff-Com:  0.606D+00 0.285D+01
 Coeff:     -0.281D+00 0.364D+00-0.219D-01-0.226D-01-0.360D+00 0.320D+00
 Coeff:      0.320D+00-0.541D+00 0.358D-01-0.373D+00 0.110D+01-0.205D+01
 Coeff:      0.150D+01 0.636D+00-0.162D+01 0.263D+01-0.786D+00-0.331D+01
 Coeff:      0.606D+00 0.285D+01
 Gap=     0.039 Goal=   None    Shift=    0.300
 Gap=     0.155 Goal=   None    Shift=    0.300
 RMSDP=1.01D-06 MaxDP=5.20D-05 DE=-8.43D-09 OVMax= 1.77D-04

 Cycle 111  Pass 1  IDiag  1:
 RMSU=  4.80D-08    CP:  1.00D+00  3.00D+00  3.00D+00  3.00D+00  3.00D+00
                    CP:  1.88D-01  3.00D+00  3.00D+00  2.90D+00  1.44D+00
 E= -884.762005096742     Delta-E=       -0.000000006914 Rises=F Damp=F
 DIIS: error= 3.41D-06 at cycle 111 NSaved=  20.
 NSaved=20 IEnMin=20 EnMin= -884.762005096742     IErMin=20 ErrMin= 3.41D-06
 ErrMax= 3.41D-06  0.00D+00 EMaxC= 1.00D-01 BMatC= 3.81D-09 BMatP= 5.35D-09
 IDIUse=1 WtCom= 1.00D+00 WtEn= 0.00D+00
 Coeff-Com:  0.973D-01-0.647D-01-0.797D-01-0.781D+00 0.690D+00 0.302D+00
 Coeff-Com:  0.332D+00-0.586D+00-0.467D+00 0.110D+01-0.179D+01 0.111D+01
 Coeff-Com:  0.530D+00-0.106D+01 0.140D+01 0.179D+00-0.133D+01-0.205D+01
 Coeff-Com:  0.163D+01 0.184D+01
 Coeff:      0.973D-01-0.647D-01-0.797D-01-0.781D+00 0.690D+00 0.302D+00
 Coeff:      0.332D+00-0.586D+00-0.467D+00 0.110D+01-0.179D+01 0.111D+01
 Coeff:      0.530D+00-0.106D+01 0.140D+01 0.179D+00-0.133D+01-0.205D+01
 Coeff:      0.163D+01 0.184D+01
 Gap=     0.039 Goal=   None    Shift=    0.300
 Gap=     0.155 Goal=   None    Shift=    0.300
 RMSDP=9.26D-07 MaxDP=4.77D-05 DE=-6.91D-09 OVMax= 1.64D-04

 Cycle 112  Pass 1  IDiag  1:
 RMSU=  8.06D-07    CP:  1.00D+00  3.00D+00  3.00D+00  3.00D+00  3.00D+00
                    CP:  1.86D-01  3.00D+00  3.00D+00  3.00D+00  2.33D+00
                    CP:  2.08D+00
 E= -884.762005102308     Delta-E=       -0.000000005565 Rises=F Damp=F
 DIIS: error= 3.11D-06 at cycle 112 NSaved=  20.
 NSaved=20 IEnMin=20 EnMin= -884.762005102308     IErMin=20 ErrMin= 3.11D-06
 ErrMax= 3.11D-06  0.00D+00 EMaxC= 1.00D-01 BMatC= 3.02D-09 BMatP= 3.81D-09
 IDIUse=1 WtCom= 1.00D+00 WtEn= 0.00D+00
 Coeff-Com:  0.284D-01-0.590D-01-0.701D+00 0.740D+00 0.409D+00-0.643D+00
 Coeff-Com: -0.180D+00-0.419D+00 0.127D+01-0.948D+00 0.995D+00 0.246D+00
 Coeff-Com: -0.167D+01 0.898D-01 0.871D+00 0.198D+01-0.287D+01-0.367D+00
 Coeff-Com: -0.252D+00 0.248D+01
 Coeff:      0.284D-01-0.590D-01-0.701D+00 0.740D+00 0.409D+00-0.643D+00
 Coeff:     -0.180D+00-0.419D+00 0.127D+01-0.948D+00 0.995D+00 0.246D+00
 Coeff:     -0.167D+01 0.898D-01 0.871D+00 0.198D+01-0.287D+01-0.367D+00
 Coeff:     -0.252D+00 0.248D+01
 Gap=     0.039 Goal=   None    Shift=    0.300
 Gap=     0.155 Goal=   None    Shift=    0.300
 RMSDP=9.42D-07 MaxDP=4.86D-05 DE=-5.57D-09 OVMax= 1.68D-04

 Cycle 113  Pass 1  IDiag  1:
 RMSU=  8.32D-08    CP:  1.00D+00  3.00D+00  3.00D+00  3.00D+00  3.00D+00
                    CP:  9.24D-01  3.00D+00  3.00D+00  3.00D+00  3.00D+00
                    CP:  2.70D+00  2.16D+00
 E= -884.762005107152     Delta-E=       -0.000000004844 Rises=F Damp=F
 DIIS: error= 2.92D-06 at cycle 113 NSaved=  20.
 NSaved=20 IEnMin=20 EnMin= -884.762005107152     IErMin=20 ErrMin= 2.92D-06
 ErrMax= 2.92D-06  0.00D+00 EMaxC= 1.00D-01 BMatC= 2.88D-09 BMatP= 3.02D-09
 IDIUse=1 WtCom= 1.00D+00 WtEn= 0.00D+00
 Coeff-Com:  0.521D-01-0.739D+00 0.756D+00 0.275D+00-0.836D+00 0.113D+00
 Coeff-Com: -0.266D+00 0.856D+00-0.379D+00 0.862D+00 0.434D-01-0.158D+01
 Coeff-Com: -0.360D+00 0.949D+00 0.202D+01-0.191D+01-0.567D+00-0.121D+01
 Coeff-Com:  0.134D+01 0.159D+01
 Coeff:      0.521D-01-0.739D+00 0.756D+00 0.275D+00-0.836D+00 0.113D+00
 Coeff:     -0.266D+00 0.856D+00-0.379D+00 0.862D+00 0.434D-01-0.158D+01
 Coeff:     -0.360D+00 0.949D+00 0.202D+01-0.191D+01-0.567D+00-0.121D+01
 Coeff:      0.134D+01 0.159D+01
 Gap=     0.039 Goal=   None    Shift=    0.300
 Gap=     0.155 Goal=   None    Shift=    0.300
 RMSDP=9.30D-07 MaxDP=4.79D-05 DE=-4.84D-09 OVMax= 1.65D-04

 Cycle 114  Pass 1  IDiag  1:
 RMSU=  2.48D-07    CP:  1.00D+00  3.00D+00  3.00D+00  3.00D+00  3.00D+00
                    CP:  1.58D+00  3.00D+00  3.00D+00  3.00D+00  3.00D+00
                    CP:  2.84D+00  3.00D+00  2.12D+00
 E= -884.762005111451     Delta-E=       -0.000000004299 Rises=F Damp=F
 DIIS: error= 2.95D-06 at cycle 114 NSaved=  20.
 NSaved=20 IEnMin=20 EnMin= -884.762005111451     IErMin=19 ErrMin= 2.92D-06
 ErrMax= 2.95D-06  0.00D+00 EMaxC= 1.00D-01 BMatC= 2.83D-09 BMatP= 2.88D-09
 IDIUse=1 WtCom= 1.00D+00 WtEn= 0.00D+00
 Coeff-Com: -0.635D+00 0.772D+00 0.259D+00-0.101D+01 0.374D+00-0.170D+00
 Coeff-Com:  0.433D+00-0.597D+00 0.127D+01 0.112D+00-0.123D+01-0.430D+00
 Coeff-Com:  0.549D+00 0.100D+01-0.461D+00-0.118D+00-0.148D+01 0.360D+00
 Coeff-Com:  0.327D+00 0.168D+01
 Coeff:     -0.635D+00 0.772D+00 0.259D+00-0.101D+01 0.374D+00-0.170D+00
 Coeff:      0.433D+00-0.597D+00 0.127D+01 0.112D+00-0.123D+01-0.430D+00
 Coeff:      0.549D+00 0.100D+01-0.461D+00-0.118D+00-0.148D+01 0.360D+00
 Coeff:      0.327D+00 0.168D+01
 Gap=     0.039 Goal=   None    Shift=    0.300
 Gap=     0.155 Goal=   None    Shift=    0.300
 RMSDP=8.57D-07 MaxDP=4.43D-05 DE=-4.30D-09 OVMax= 1.53D-04

 Cycle 115  Pass 1  IDiag  1:
 RMSU=  3.65D-07    CP:  1.00D+00  3.00D+00  3.00D+00  3.00D+00  3.00D+00
                    CP:  2.39D+00  3.00D+00  3.00D+00  3.00D+00  3.00D+00
                    CP:  3.00D+00  3.00D+00  3.00D+00  3.00D+00
 E= -884.762005115210     Delta-E=       -0.000000003759 Rises=F Damp=F
 DIIS: error= 2.76D-06 at cycle 115 NSaved=  20.
 NSaved=20 IEnMin=20 EnMin= -884.762005115210     IErMin=20 ErrMin= 2.76D-06
 ErrMax= 2.76D-06  0.00D+00 EMaxC= 1.00D-01 BMatC= 2.51D-09 BMatP= 2.83D-09
 IDIUse=1 WtCom= 1.00D+00 WtEn= 0.00D+00
 Coeff-Com: -0.709D-01 0.475D-01-0.582D+00 0.903D+00 0.449D-01-0.391D+00
 Coeff-Com: -0.155D+01 0.149D+01 0.294D+00 0.728D+00-0.541D+00-0.265D+00
 Coeff-Com: -0.144D+01 0.142D+01 0.820D+00-0.714D+00-0.106D+01-0.173D+01
 Coeff-Com:  0.581D+00 0.300D+01
 Coeff:     -0.709D-01 0.475D-01-0.582D+00 0.903D+00 0.449D-01-0.391D+00
 Coeff:     -0.155D+01 0.149D+01 0.294D+00 0.728D+00-0.541D+00-0.265D+00
 Coeff:     -0.144D+01 0.142D+01 0.820D+00-0.714D+00-0.106D+01-0.173D+01
 Coeff:      0.581D+00 0.300D+01
 Gap=     0.039 Goal=   None    Shift=    0.300
 Gap=     0.155 Goal=   None    Shift=    0.300
 RMSDP=8.14D-07 MaxDP=4.18D-05 DE=-3.76D-09 OVMax= 1.44D-04

 Cycle 116  Pass 1  IDiag  1:
 RMSU=  1.90D-07    CP:  1.00D+00  3.00D+00  3.00D+00  3.00D+00  3.00D+00
                    CP:  2.82D+00  3.00D+00  3.00D+00  3.00D+00  3.00D+00
                    CP:  3.00D+00  3.00D+00  3.00D+00  3.00D+00  3.00D+00
 E= -884.762005118430     Delta-E=       -0.000000003220 Rises=F Damp=F
 DIIS: error= 2.63D-06 at cycle 116 NSaved=  20.
 NSaved=20 IEnMin=20 EnMin= -884.762005118430     IErMin=20 ErrMin= 2.63D-06
 ErrMax= 2.63D-06  0.00D+00 EMaxC= 1.00D-01 BMatC= 2.26D-09 BMatP= 2.51D-09
 IDIUse=1 WtCom= 1.00D+00 WtEn= 0.00D+00
 Coeff-Com:  0.160D-01-0.753D+00 0.930D+00 0.306D-01-0.723D-01-0.156D+01
 Coeff-Com:  0.137D+01 0.334D+00 0.496D+00-0.555D+00-0.262D+00-0.748D+00
 Coeff-Com:  0.826D+00 0.586D+00-0.499D+00-0.587D+00-0.151D+01-0.609D+00
 Coeff-Com:  0.265D+01 0.927D+00
 Coeff:      0.160D-01-0.753D+00 0.930D+00 0.306D-01-0.723D-01-0.156D+01
 Coeff:      0.137D+01 0.334D+00 0.496D+00-0.555D+00-0.262D+00-0.748D+00
 Coeff:      0.826D+00 0.586D+00-0.499D+00-0.587D+00-0.151D+01-0.609D+00
 Coeff:      0.265D+01 0.927D+00
 Gap=     0.039 Goal=   None    Shift=    0.300
 Gap=     0.155 Goal=   None    Shift=    0.300
 RMSDP=7.21D-07 MaxDP=3.73D-05 DE=-3.22D-09 OVMax= 1.29D-04

 Cycle 117  Pass 1  IDiag  1:
 RMSU=  6.25D-07    CP:  1.00D+00  3.00D+00  3.00D+00  3.00D+00  3.00D+00
                    CP:  3.00D+00  3.00D+00  3.00D+00  3.00D+00  3.00D+00
                    CP:  3.00D+00  3.00D+00  3.00D+00  3.00D+00  3.00D+00
                    CP:  2.88D+00
 E= -884.762005121167     Delta-E=       -0.000000002738 Rises=F Damp=F
 DIIS: error= 2.32D-06 at cycle 117 NSaved=  20.
 NSaved=20 IEnMin=20 EnMin= -884.762005121167     IErMin=20 ErrMin= 2.32D-06
 ErrMax= 2.32D-06  0.00D+00 EMaxC= 1.00D-01 BMatC= 1.81D-09 BMatP= 2.26D-09
 IDIUse=1 WtCom= 1.00D+00 WtEn= 0.00D+00
 Coeff-Com: -0.580D+00 0.677D+00 0.149D-01 0.237D+00-0.133D+01 0.763D+00
 Coeff-Com:  0.377D+00 0.890D-01 0.308D+00-0.301D+00-0.922D+00 0.276D+00
 Coeff-Com:  0.678D+00 0.553D-01-0.422D-01-0.103D+01-0.189D+01 0.210D+01
 Coeff-Com: -0.101D+01 0.252D+01
 Coeff:     -0.580D+00 0.677D+00 0.149D-01 0.237D+00-0.133D+01 0.763D+00
 Coeff:      0.377D+00 0.890D-01 0.308D+00-0.301D+00-0.922D+00 0.276D+00
 Coeff:      0.678D+00 0.553D-01-0.422D-01-0.103D+01-0.189D+01 0.210D+01
 Coeff:     -0.101D+01 0.252D+01
 Gap=     0.039 Goal=   None    Shift=    0.300
 Gap=     0.155 Goal=   None    Shift=    0.300
 RMSDP=6.89D-07 MaxDP=3.55D-05 DE=-2.74D-09 OVMax= 1.23D-04

 Cycle 118  Pass 1  IDiag  1:
 RMSU=  3.30D-07    CP:  1.00D+00  3.00D+00  3.00D+00  3.00D+00  3.00D+00
                    CP:  3.00D+00  3.00D+00  3.00D+00  3.00D+00  3.00D+00
                    CP:  3.00D+00  3.00D+00  3.00D+00  3.00D+00  3.00D+00
                    CP:  3.00D+00  1.95D+00
 E= -884.762005123504     Delta-E=       -0.000000002336 Rises=F Damp=F
 DIIS: error= 2.26D-06 at cycle 118 NSaved=  20.
 NSaved=20 IEnMin=20 EnMin= -884.762005123504     IErMin=20 ErrMin= 2.26D-06
 ErrMax= 2.26D-06  0.00D+00 EMaxC= 1.00D-01 BMatC= 1.64D-09 BMatP= 1.81D-09
 IDIUse=1 WtCom= 1.00D+00 WtEn= 0.00D+00
 Coeff-Com:  0.137D-01-0.163D+00 0.433D+00-0.131D+01 0.759D+00 0.458D+00
 Coeff-Com: -0.732D-03 0.301D+00-0.253D+00-0.757D+00-0.399D+00 0.929D+00
 Coeff-Com:  0.423D+00 0.222D+00-0.877D+00-0.185D+01 0.156D+01-0.148D+01
 Coeff-Com:  0.186D+01 0.113D+01
 Coeff:      0.137D-01-0.163D+00 0.433D+00-0.131D+01 0.759D+00 0.458D+00
 Coeff:     -0.732D-03 0.301D+00-0.253D+00-0.757D+00-0.399D+00 0.929D+00
 Coeff:      0.423D+00 0.222D+00-0.877D+00-0.185D+01 0.156D+01-0.148D+01
 Coeff:      0.186D+01 0.113D+01
 Gap=     0.039 Goal=   None    Shift=    0.300
 Gap=     0.155 Goal=   None    Shift=    0.300
 RMSDP=6.39D-07 MaxDP=3.27D-05 DE=-2.34D-09 OVMax= 1.13D-04

 Cycle 119  Pass 1  IDiag  1:
 RMSU=  4.70D-08    CP:  1.00D+00  3.00D+00  3.00D+00  3.00D+00  3.00D+00
                    CP:  3.00D+00  3.00D+00  3.00D+00  3.00D+00  3.00D+00
                    CP:  3.00D+00  3.00D+00  3.00D+00  3.00D+00  3.00D+00
                    CP:  3.00D+00  2.81D+00  2.02D+00
 E= -884.762005125447     Delta-E=       -0.000000001944 Rises=F Damp=F
 DIIS: error= 2.11D-06 at cycle 119 NSaved=  20.
 NSaved=20 IEnMin=20 EnMin= -884.762005125447     IErMin=20 ErrMin= 2.11D-06
 ErrMax= 2.11D-06  0.00D+00 EMaxC= 1.00D-01 BMatC= 1.45D-09 BMatP= 1.64D-09
 IDIUse=1 WtCom= 1.00D+00 WtEn= 0.00D+00
 Coeff-Com: -0.164D+00 0.436D+00-0.130D+01 0.725D+00 0.457D+00-0.553D-01
 Coeff-Com:  0.320D+00-0.112D+00-0.658D+00-0.738D+00 0.943D+00 0.651D+00
 Coeff-Com:  0.381D+00-0.891D+00-0.195D+01 0.138D+01-0.164D+01 0.166D+01
 Coeff-Com:  0.228D+01-0.731D+00
 Coeff:     -0.164D+00 0.436D+00-0.130D+01 0.725D+00 0.457D+00-0.553D-01
 Coeff:      0.320D+00-0.112D+00-0.658D+00-0.738D+00 0.943D+00 0.651D+00
 Coeff:      0.381D+00-0.891D+00-0.195D+01 0.138D+01-0.164D+01 0.166D+01
 Coeff:      0.228D+01-0.731D+00
 Gap=     0.039 Goal=   None    Shift=    0.300
 Gap=     0.155 Goal=   None    Shift=    0.300
 RMSDP=5.70D-07 MaxDP=2.95D-05 DE=-1.94D-09 OVMax= 1.02D-04

 Cycle 120  Pass 1  IDiag  1:
 RMSU=  3.77D-07    CP:  1.00D+00  3.00D+00  3.00D+00  3.00D+00  3.00D+00
                    CP:  3.00D+00  3.00D+00  3.00D+00  3.00D+00  3.00D+00
                    CP:  3.00D+00  3.00D+00  3.00D+00  3.00D+00  3.00D+00
                    CP:  3.00D+00  3.00D+00  2.89D+00  1.32D+00
 E= -884.762005127106     Delta-E=       -0.000000001658 Rises=F Damp=F
 DIIS: error= 1.87D-06 at cycle 120 NSaved=  20.
 NSaved=20 IEnMin=20 EnMin= -884.762005127106     IErMin=20 ErrMin= 1.87D-06
 ErrMax= 1.87D-06  0.00D+00 EMaxC= 1.00D-01 BMatC= 1.18D-09 BMatP= 1.45D-09
 IDIUse=1 WtCom= 1.00D+00 WtEn= 0.00D+00
 Coeff-Com: -0.483D-01-0.883D+00 0.730D+00 0.325D+00 0.126D+00 0.183D+00
 Coeff-Com: -0.216D+00-0.104D+01 0.197D+00 0.841D+00 0.316D+00-0.347D-01
 Coeff-Com: -0.113D+01-0.794D+00 0.129D+01-0.621D+00 0.515D-01 0.310D+01
 Coeff-Com: -0.459D+01 0.320D+01
 Coeff:     -0.483D-01-0.883D+00 0.730D+00 0.325D+00 0.126D+00 0.183D+00
 Coeff:     -0.216D+00-0.104D+01 0.197D+00 0.841D+00 0.316D+00-0.347D-01
 Coeff:     -0.113D+01-0.794D+00 0.129D+01-0.621D+00 0.515D-01 0.310D+01
 Coeff:     -0.459D+01 0.320D+01
 Gap=     0.039 Goal=   None    Shift=    0.300
 Gap=     0.155 Goal=   None    Shift=    0.300
 RMSDP=5.22D-07 MaxDP=2.70D-05 DE=-1.66D-09 OVMax= 9.30D-05

 Cycle 121  Pass 1  IDiag  1:
 Restarting incremental Fock formation.
 E= -884.762005128556     Delta-E=       -0.000000001450 Rises=F Damp=F
 DIIS: error= 1.69D-06 at cycle 121 NSaved=  20.
 NSaved=20 IEnMin=20 EnMin= -884.762005128556     IErMin=20 ErrMin= 1.69D-06
 ErrMax= 1.69D-06  0.00D+00 EMaxC= 1.00D-01 BMatC= 9.97D-10 BMatP= 1.18D-09
 IDIUse=1 WtCom= 1.00D+00 WtEn= 0.00D+00
 Coeff-Com: -0.946D+00 0.853D+00 0.319D+00 0.483D-01-0.119D+00 0.152D+00
 Coeff-Com: -0.531D+00-0.436D+00 0.636D+00 0.307D+00 0.322D+00-0.114D+01
 Coeff-Com: -0.701D+00 0.102D+01-0.144D+00-0.445D+00 0.251D+01-0.354D+01
 Coeff-Com:  0.100D+01 0.183D+01
 Coeff:     -0.946D+00 0.853D+00 0.319D+00 0.483D-01-0.119D+00 0.152D+00
 Coeff:     -0.531D+00-0.436D+00 0.636D+00 0.307D+00 0.322D+00-0.114D+01
 Coeff:     -0.701D+00 0.102D+01-0.144D+00-0.445D+00 0.251D+01-0.354D+01
 Coeff:      0.100D+01 0.183D+01
 Gap=     0.039 Goal=   None    Shift=    0.300
 Gap=     0.155 Goal=   None    Shift=    0.300
 RMSDP=4.75D-07 MaxDP=2.46D-05 DE=-1.45D-09 OVMax= 8.49D-05

 Cycle 122  Pass 1  IDiag  1:
 RMSU=  4.75D-07    CP:  1.00D+00
 E= -884.762005129788     Delta-E=       -0.000000001232 Rises=F Damp=F
 DIIS: error= 1.55D-06 at cycle 122 NSaved=  20.
 NSaved=20 IEnMin=20 EnMin= -884.762005129788     IErMin=20 ErrMin= 1.55D-06
 ErrMax= 1.55D-06  0.00D+00 EMaxC= 1.00D-01 BMatC= 8.34D-10 BMatP= 9.97D-10
 IDIUse=1 WtCom= 1.00D+00 WtEn= 0.00D+00
 Coeff-Com:  0.214D+00-0.195D-01-0.226D-01-0.257D+00 0.102D+00-0.535D-02
 Coeff-Com:  0.101D+00 0.115D-01-0.222D+00 0.251D-01-0.524D+00-0.225D+00
 Coeff-Com:  0.632D+00 0.481D+00 0.858D+00-0.190D+01-0.240D+00-0.199D+01
 Coeff-Com: -0.184D+01 0.582D+01
 Coeff:      0.214D+00-0.195D-01-0.226D-01-0.257D+00 0.102D+00-0.535D-02
 Coeff:      0.101D+00 0.115D-01-0.222D+00 0.251D-01-0.524D+00-0.225D+00
 Coeff:      0.632D+00 0.481D+00 0.858D+00-0.190D+01-0.240D+00-0.199D+01
 Coeff:     -0.184D+01 0.582D+01
 Gap=     0.039 Goal=   None    Shift=    0.300
 Gap=     0.155 Goal=   None    Shift=    0.300
 RMSDP=5.16D-07 MaxDP=2.62D-05 DE=-1.23D-09 OVMax= 9.13D-05

 Cycle 123  Pass 1  IDiag  1:
 RMSU=  4.68D-08    CP:  1.00D+00  2.08D+00
 E= -884.762005130812     Delta-E=       -0.000000001024 Rises=F Damp=F
 DIIS: error= 1.81D-06 at cycle 123 NSaved=  20.
 NSaved=20 IEnMin=20 EnMin= -884.762005130812     IErMin=19 ErrMin= 1.55D-06
 ErrMax= 1.81D-06  0.00D+00 EMaxC= 1.00D-01 BMatC= 9.80D-10 BMatP= 8.34D-10
 IDIUse=1 WtCom= 1.00D+00 WtEn= 0.00D+00
 Coeff-Com:  0.589D-01 0.138D+00 0.951D-01-0.266D+00-0.431D+00 0.171D+00
 Coeff-Com:  0.291D+00 0.286D+00 0.432D-01-0.706D+00-0.106D+01 0.919D+00
 Coeff-Com: -0.187D-01 0.214D+01-0.130D+01-0.169D+01-0.517D+00-0.262D+01
 Coeff-Com:  0.470D+01 0.760D+00
 Coeff:      0.589D-01 0.138D+00 0.951D-01-0.266D+00-0.431D+00 0.171D+00
 Coeff:      0.291D+00 0.286D+00 0.432D-01-0.706D+00-0.106D+01 0.919D+00
 Coeff:     -0.187D-01 0.214D+01-0.130D+01-0.169D+01-0.517D+00-0.262D+01
 Coeff:      0.470D+01 0.760D+00
 Gap=     0.039 Goal=   None    Shift=    0.300
 Gap=     0.155 Goal=   None    Shift=    0.300
 RMSDP=4.48D-07 MaxDP=2.31D-05 DE=-1.02D-09 OVMax= 7.99D-05

 Cycle 124  Pass 1  IDiag  1:
 RMSU=  1.53D-08    CP:  1.00D+00  3.00D+00  1.17D+00
 E= -884.762005131768     Delta-E=       -0.000000000956 Rises=F Damp=F
 DIIS: error= 1.59D-06 at cycle 124 NSaved=  20.
 NSaved=20 IEnMin=20 EnMin= -884.762005131768     IErMin=18 ErrMin= 1.55D-06
 ErrMax= 1.59D-06  0.00D+00 EMaxC= 1.00D-01 BMatC= 8.05D-10 BMatP= 8.34D-10
 IDIUse=1 WtCom= 1.00D+00 WtEn= 0.00D+00
 Coeff-Com:  0.295D+00-0.495D-01-0.238D+00-0.226D+00 0.913D-01 0.150D+00
 Coeff-Com:  0.191D+00 0.378D-01-0.633D+00-0.103D+01 0.912D+00-0.674D-02
 Coeff-Com:  0.231D+01-0.184D+01-0.168D+00-0.118D+01-0.306D+01 0.439D+01
 Coeff-Com: -0.132D+01 0.236D+01
 Coeff:      0.295D+00-0.495D-01-0.238D+00-0.226D+00 0.913D-01 0.150D+00
 Coeff:      0.191D+00 0.378D-01-0.633D+00-0.103D+01 0.912D+00-0.674D-02
 Coeff:      0.231D+01-0.184D+01-0.168D+00-0.118D+01-0.306D+01 0.439D+01
 Coeff:     -0.132D+01 0.236D+01
 Gap=     0.039 Goal=   None    Shift=    0.300
 Gap=     0.155 Goal=   None    Shift=    0.300
 RMSDP=4.49D-07 MaxDP=2.31D-05 DE=-9.56D-10 OVMax= 7.99D-05

 Cycle 125  Pass 1  IDiag  1:
 RMSU=  4.27D-07    CP:  1.00D+00  3.00D+00  1.54D+00  3.00D+00
 E= -884.762005132620     Delta-E=       -0.000000000852 Rises=F Damp=F
 DIIS: error= 1.61D-06 at cycle 125 NSaved=  20.
 NSaved=20 IEnMin=20 EnMin= -884.762005132620     IErMin=17 ErrMin= 1.55D-06
 ErrMax= 1.61D-06  0.00D+00 EMaxC= 1.00D-01 BMatC= 7.91D-10 BMatP= 8.05D-10
 IDIUse=1 WtCom= 1.00D+00 WtEn= 0.00D+00
 Coeff-Com:  0.236D+00-0.122D+00-0.340D+00-0.247D-02 0.180D+00 0.238D+00
 Coeff-Com:  0.156D+00-0.450D+00-0.889D+00 0.546D+00-0.364D+00 0.185D+01
 Coeff-Com: -0.588D+00-0.943D+00-0.756D+00-0.240D+01 0.389D+01-0.152D+01
 Coeff-Com:  0.154D+01 0.737D+00
 Coeff:      0.236D+00-0.122D+00-0.340D+00-0.247D-02 0.180D+00 0.238D+00
 Coeff:      0.156D+00-0.450D+00-0.889D+00 0.546D+00-0.364D+00 0.185D+01
 Coeff:     -0.588D+00-0.943D+00-0.756D+00-0.240D+01 0.389D+01-0.152D+01
 Coeff:      0.154D+01 0.737D+00
 Gap=     0.039 Goal=   None    Shift=    0.300
 Gap=     0.155 Goal=   None    Shift=    0.300
 RMSDP=4.24D-07 MaxDP=2.18D-05 DE=-8.52D-10 OVMax= 7.55D-05

 Cycle 126  Pass 1  IDiag  1:
 RMSU=  2.36D-08    CP:  1.00D+00  3.00D+00  1.86D+00  3.00D+00  1.99D+00
 E= -884.762005133369     Delta-E=       -0.000000000749 Rises=F Damp=F
 DIIS: error= 1.55D-06 at cycle 126 NSaved=  20.
 NSaved=20 IEnMin=20 EnMin= -884.762005133369     IErMin=16 ErrMin= 1.55D-06
 ErrMax= 1.55D-06  0.00D+00 EMaxC= 1.00D-01 BMatC= 7.39D-10 BMatP= 7.91D-10
 IDIUse=1 WtCom= 1.00D+00 WtEn= 0.00D+00
 Coeff-Com:  0.566D-01 0.989D-01-0.380D+00-0.124D-01 0.342D+00 0.351D+00
 Coeff-Com: -0.398D+00-0.108D+01 0.530D+00-0.360D+00 0.183D+01-0.171D+00
 Coeff-Com: -0.963D+00-0.103D+01-0.214D+01 0.354D+01-0.175D+01 0.158D+01
 Coeff-Com: -0.407D+00 0.136D+01
 Coeff:      0.566D-01 0.989D-01-0.380D+00-0.124D-01 0.342D+00 0.351D+00
 Coeff:     -0.398D+00-0.108D+01 0.530D+00-0.360D+00 0.183D+01-0.171D+00
 Coeff:     -0.963D+00-0.103D+01-0.214D+01 0.354D+01-0.175D+01 0.158D+01
 Coeff:     -0.407D+00 0.136D+01
 Gap=     0.039 Goal=   None    Shift=    0.300
 Gap=     0.155 Goal=   None    Shift=    0.300
 RMSDP=4.10D-07 MaxDP=2.11D-05 DE=-7.49D-10 OVMax= 7.30D-05

 Cycle 127  Pass 1  IDiag  1:
 RMSU=  1.35D-08    CP:  1.00D+00  3.00D+00  2.15D+00  3.00D+00  2.95D+00
                    CP:  1.84D+00
 E= -884.762005134030     Delta-E=       -0.000000000661 Rises=F Damp=F
 DIIS: error= 1.52D-06 at cycle 127 NSaved=  20.
 NSaved=20 IEnMin=20 EnMin= -884.762005134030     IErMin=20 ErrMin= 1.52D-06
 ErrMax= 1.52D-06  0.00D+00 EMaxC= 1.00D-01 BMatC= 7.02D-10 BMatP= 7.39D-10
 IDIUse=1 WtCom= 1.00D+00 WtEn= 0.00D+00
 Coeff-Com:  0.528D-01-0.163D+00-0.121D+00 0.263D+00 0.320D+00-0.723D-01
 Coeff-Com: -0.104D+01 0.412D+00-0.399D+00 0.183D+01-0.221D-01-0.175D+01
 Coeff-Com: -0.638D+00-0.130D+01 0.349D+01-0.188D+00-0.464D+00-0.324D+01
 Coeff-Com:  0.739D+00 0.329D+01
 Coeff:      0.528D-01-0.163D+00-0.121D+00 0.263D+00 0.320D+00-0.723D-01
 Coeff:     -0.104D+01 0.412D+00-0.399D+00 0.183D+01-0.221D-01-0.175D+01
 Coeff:     -0.638D+00-0.130D+01 0.349D+01-0.188D+00-0.464D+00-0.324D+01
 Coeff:      0.739D+00 0.329D+01
 Gap=     0.039 Goal=   None    Shift=    0.300
 Gap=     0.155 Goal=   None    Shift=    0.300
 RMSDP=4.15D-07 MaxDP=2.12D-05 DE=-6.61D-10 OVMax= 7.37D-05

 Cycle 128  Pass 1  IDiag  1:
 RMSU=  3.90D-07    CP:  1.00D+00  3.00D+00  2.51D+00  3.00D+00  3.00D+00
                    CP:  2.73D+00  2.55D+00
 E= -884.762005134610     Delta-E=       -0.000000000580 Rises=F Damp=F
 DIIS: error= 1.59D-06 at cycle 128 NSaved=  20.
 NSaved=20 IEnMin=20 EnMin= -884.762005134610     IErMin=19 ErrMin= 1.52D-06
 ErrMax= 1.59D-06  0.00D+00 EMaxC= 1.00D-01 BMatC= 7.32D-10 BMatP= 7.02D-10
 IDIUse=1 WtCom= 1.00D+00 WtEn= 0.00D+00
 Coeff-Com: -0.140D+00-0.855D-01 0.336D+00 0.280D+00-0.974D-01-0.115D+01
 Coeff-Com:  0.532D+00-0.421D+00 0.211D+01-0.392D+00-0.167D+01-0.946D+00
 Coeff-Com: -0.175D+01 0.427D+01 0.674D+00-0.370D+00-0.403D+01-0.139D-01
 Coeff-Com:  0.256D+01 0.130D+01
 Coeff:     -0.140D+00-0.855D-01 0.336D+00 0.280D+00-0.974D-01-0.115D+01
 Coeff:      0.532D+00-0.421D+00 0.211D+01-0.392D+00-0.167D+01-0.946D+00
 Coeff:     -0.175D+01 0.427D+01 0.674D+00-0.370D+00-0.403D+01-0.139D-01
 Coeff:      0.256D+01 0.130D+01
 Gap=     0.039 Goal=   None    Shift=    0.300
 Gap=     0.155 Goal=   None    Shift=    0.300
 RMSDP=3.91D-07 MaxDP=2.01D-05 DE=-5.80D-10 OVMax= 6.97D-05

 >>>>>>>>>> Convergence criterion not met.
 SCF Done:  E(UPBE1PBE) =  -884.762005135     A.U. after  129 cycles
            NFock=128  Conv=0.39D-06     -V/T= 2.1198
 <Sx>= 0.0000 <Sy>= 0.0000 <Sz>= 0.5000 <S**2>= 0.7519 S= 0.5009
 <L.S>= 0.000000000000E+00
 KE= 7.900785883358D+02 PE=-3.343093415248D+03 EE= 1.022467688551D+03
 Annihilation of the first spin contaminant:
 S**2 before annihilation     0.7519,   after     0.7500
 Leave Link  502 at Fri Sep 11 20:47:38 2026, MaxMem=  6442450944 cpu:             898.0 elap:             898.7
 (Enter C:\G16W\l508.exe)
 Two-electron integral symmetry not used.
 Tight linear equation convergence will be used.
 UPBE1PBE wavefunction.
 Quadratic Convergence SCF Method.
 Line search only if initial step raises energy.
 Fock matrices will be formed incrementally for  20 cycles.
 FoFJK:  IHMeth= 1 ICntrl=       0 DoSepK=F KAlg= 0 I1Cent=           0 FoldK=F
 IRaf= 950000000 NMat=       1 IRICut=       1 DoRegI=T DoRafI=F ISym2E= 0 IDoP0=0 IntGTp=1.
 FoFCou: FMM=F IPFlag=           0 FMFlag=      100000 FMFlg1=           0
         NFxFlg=           0 DoJE=F BraDBF=F KetDBF=F FulRan=T
         wScrn=  0.000000 ICntrl=         0 IOpCl=  1 I1Cent=           0 NGrid=           0
         NMat0=    1 NMatS0=      1 NMatT0=    0 NMatD0=    1 NMtDS0=    0 NMtDT0=    0
 Symmetry not used in FoFCou.
 Defaulting to unpruned grid for atomic number  47.
 Defaulting to unpruned grid for atomic number  47.
 Defaulting to unpruned grid for atomic number  47.
 Defaulting to unpruned grid for atomic number  47.
 Defaulting to unpruned grid for atomic number  47.
 Defaulting to unpruned grid for atomic number  47.
 Defaulting to unpruned grid for atomic number  47.
 Defaulting to unpruned grid for atomic number  47.
 Iteration   1 EE= -884.762005135166                                    Grad=1.847D-05 Max rot=    0.0003 deg.
 QCNR:  CnvC1=1.85D-10 CnvC2=1.85D-09
 LinEq1:  Iter=  0 NonCon=     1 RMS=1.09D-06 Max=1.14D-04 NDo=     1
 AX will form     1 AO Fock derivatives at one time.
 LinEq1:  Iter=  1 NonCon=     1 RMS=1.64D-07 Max=4.32D-06 NDo=     1
 LinEq1:  Iter=  2 NonCon=     1 RMS=1.05D-07 Max=3.94D-06 NDo=     1
 LinEq1:  Iter=  3 NonCon=     1 RMS=8.10D-08 Max=4.02D-06 NDo=     1
 LinEq1:  Iter=  4 NonCon=     1 RMS=8.45D-08 Max=2.58D-06 NDo=     1
 LinEq1:  Iter=  5 NonCon=     1 RMS=7.19D-08 Max=2.10D-06 NDo=     1
 LinEq1:  Iter=  6 NonCon=     1 RMS=5.55D-08 Max=1.70D-06 NDo=     1
 LinEq1:  Iter=  7 NonCon=     1 RMS=3.10D-08 Max=1.38D-06 NDo=     1
 LinEq1:  Iter=  8 NonCon=     1 RMS=2.51D-08 Max=9.04D-07 NDo=     1
 LinEq1:  Iter=  9 NonCon=     1 RMS=1.64D-08 Max=5.35D-07 NDo=     1
 LinEq1:  Iter= 10 NonCon=     1 RMS=1.39D-08 Max=3.84D-07 NDo=     1
 LinEq1:  Iter= 11 NonCon=     1 RMS=7.88D-09 Max=1.88D-07 NDo=     1
 LinEq1:  Iter= 12 NonCon=     1 RMS=4.19D-09 Max=1.33D-07 NDo=     1
 LinEq1:  Iter= 13 NonCon=     1 RMS=2.11D-09 Max=4.40D-08 NDo=     1
 LinEq1:  Iter= 14 NonCon=     1 RMS=1.53D-09 Max=3.75D-08 NDo=     1
 LinEq1:  Iter= 15 NonCon=     1 RMS=7.37D-10 Max=2.17D-08 NDo=     1
 LinEq1:  Iter= 16 NonCon=     1 RMS=4.34D-10 Max=1.49D-08 NDo=     1
 LinEq1:  Iter= 17 NonCon=     1 RMS=3.06D-10 Max=7.80D-09 NDo=     1
 LinEq1:  Iter= 18 NonCon=     1 RMS=2.27D-10 Max=5.41D-09 NDo=     1
 LinEq1:  Iter= 19 NonCon=     1 RMS=1.33D-10 Max=2.54D-09 NDo=     1
 LinEq1:  Iter= 20 NonCon=     0 RMS=5.56D-11 Max=1.66D-09 NDo=     1
 Linear equations converged to 1.847D-10 1.847D-09 after    20 iterations.
 Angle between quadratic step and gradient=  73.00 degrees.
     ILin= 1 X=0.000D+00 Y=-8.847620051352D+02 DE= 0.00D+00 F= -6.99D-09
 RMSU=  3.57D-06    CP:  1.00D+00
     ILin= 2 X=1.000D+00 Y=-8.847620051386D+02 DE=-3.47D-09
 Iteration   2 EE= -884.762005138639     Delta-E=       -0.000000003473 Grad=9.153D-08 Max rot=    0.0000 deg.
 Rotation gradient small -- convergence achieved.
 SCF Done:  E(UPBE1PBE) =  -884.762005139     a.u. after    2 cycles
            Convg  =    0.9153D-07                    22 Fock formations.
              S**2 =  0.7519                  -V/T =  2.1198
 <Sx>= 0.0000 <Sy>= 0.0000 <Sz>= 0.5000 <S**2>= 0.7519 S= 0.5009
 <L.S>= 0.000000000000E+00
 Annihilation of the first spin contaminant:
 S**2 before annihilation     0.7519,   after     0.7500
 Leave Link  508 at Fri Sep 11 20:49:34 2026, MaxMem=  6442450944 cpu:             116.0 elap:             115.7
 (Enter C:\G16W\l601.exe)
 Copying SCF densities to generalized density rwf, IOpCl= 1 IROHF=0.

 **********************************************************************

            Population analysis using the SCF Density.

 **********************************************************************

 Alpha  occ. eigenvalues --  -89.12060 -14.45676 -14.44640 -10.30576 -10.30463
 Alpha  occ. eigenvalues --  -10.27148 -10.26919 -10.26909 -10.26859  -8.11686
 Alpha  occ. eigenvalues --   -6.05925  -6.05365  -6.05141  -3.73536  -2.31579
 Alpha  occ. eigenvalues --   -2.31514  -2.31358  -1.05449  -0.92015  -0.90314
 Alpha  occ. eigenvalues --   -0.80579  -0.78734  -0.69306  -0.64451  -0.63986
 Alpha  occ. eigenvalues --   -0.54174  -0.53659  -0.52067  -0.48711  -0.47771
 Alpha  occ. eigenvalues --   -0.42938  -0.42528  -0.41409  -0.39476  -0.37083
 Alpha  occ. eigenvalues --   -0.36557  -0.34020  -0.31049  -0.31037  -0.30935
 Alpha  occ. eigenvalues --   -0.30848  -0.30173  -0.29281  -0.26934  -0.15283
 Alpha virt. eigenvalues --   -0.11404  -0.01928  -0.01508  -0.00636   0.00157
 Alpha virt. eigenvalues --    0.01235   0.04605   0.06741   0.08188   0.10627
 Alpha virt. eigenvalues --    0.11651   0.14240   0.14956   0.16273   0.22728
 Alpha virt. eigenvalues --    0.24500   0.26203   0.27774   0.29688   0.31934
 Alpha virt. eigenvalues --    0.32821   0.33049   0.34511   0.35249   0.38631
 Alpha virt. eigenvalues --    0.39902   0.41882   0.43729   0.44280   0.45674
 Alpha virt. eigenvalues --    0.46717   0.46775   0.47188   0.47979   0.51384
 Alpha virt. eigenvalues --    0.52499   0.52994   0.54200   0.56175   0.56688
 Alpha virt. eigenvalues --    0.57772   0.58783   0.59879   0.61264   0.62422
 Alpha virt. eigenvalues --    0.63666   0.64998   0.66307   0.68916   0.70374
 Alpha virt. eigenvalues --    0.71339   0.71795   0.72372   0.73234   0.74964
 Alpha virt. eigenvalues --    0.77180   0.79925   0.81297   0.85362   0.88872
 Alpha virt. eigenvalues --    0.91444   0.93452   0.95994   0.97060   1.01186
 Alpha virt. eigenvalues --    1.03705   1.06070   1.12826   1.17274   1.17288
 Alpha virt. eigenvalues --    1.19653   1.21002   1.23645   1.23818   1.25271
 Alpha virt. eigenvalues --    1.26724   1.34786   1.38963   1.40735   1.41480
 Alpha virt. eigenvalues --    1.50389   1.64210   1.68345   1.68964   1.73038
 Alpha virt. eigenvalues --    1.73685   1.74602   1.77184   1.78813   1.82718
 Alpha virt. eigenvalues --    1.83910   1.89697   1.92458   1.94057   1.99664
 Alpha virt. eigenvalues --    2.04974   2.06172   2.08492   2.10241   2.12792
 Alpha virt. eigenvalues --    2.14386   2.17645   2.21952   2.23106   2.24687
 Alpha virt. eigenvalues --    2.26513   2.31683   2.32932   2.38947   2.44074
 Alpha virt. eigenvalues --    2.49336   2.54486   2.56842   2.60621   2.63120
 Alpha virt. eigenvalues --    2.63496   2.63921   2.63949   2.63983   2.64010
 Alpha virt. eigenvalues --    2.64193   2.65153   2.65458   2.67787   2.73694
 Alpha virt. eigenvalues --    2.74441   2.81102   2.89245   2.91074   2.98706
 Alpha virt. eigenvalues --    2.99413   3.17083   3.17837   3.32041   3.65798
 Alpha virt. eigenvalues --   53.83737
  Beta  occ. eigenvalues --  -89.12052 -14.45475 -14.44655 -10.30584 -10.30450
  Beta  occ. eigenvalues --  -10.27154 -10.26916 -10.26883 -10.26862  -8.11677
  Beta  occ. eigenvalues --   -6.05908  -6.05350  -6.05137  -3.73404  -2.31498
  Beta  occ. eigenvalues --   -2.31446  -2.31333  -1.05396  -0.91935  -0.90273
  Beta  occ. eigenvalues --   -0.80555  -0.78700  -0.69281  -0.64414  -0.63915
  Beta  occ. eigenvalues --   -0.54119  -0.53579  -0.52046  -0.48687  -0.47716
  Beta  occ. eigenvalues --   -0.42726  -0.42479  -0.41390  -0.39478  -0.36623
  Beta  occ. eigenvalues --   -0.36459  -0.33885  -0.30514  -0.30496  -0.30314
  Beta  occ. eigenvalues --   -0.30270  -0.30135  -0.28543  -0.26867
  Beta virt. eigenvalues --   -0.11341  -0.06528  -0.01478  -0.01146  -0.00642
  Beta virt. eigenvalues --    0.02434   0.03653   0.06525   0.06910   0.08629
  Beta virt. eigenvalues --    0.11693   0.12954   0.14362   0.14989   0.16769
  Beta virt. eigenvalues --    0.22936   0.24768   0.26573   0.28067   0.29779
  Beta virt. eigenvalues --    0.32435   0.33126   0.33688   0.36963   0.37124
  Beta virt. eigenvalues --    0.39814   0.40360   0.41996   0.44121   0.45065
  Beta virt. eigenvalues --    0.46288   0.46966   0.47727   0.48907   0.49245
  Beta virt. eigenvalues --    0.52018   0.52525   0.53316   0.54320   0.57000
  Beta virt. eigenvalues --    0.57331   0.57960   0.58817   0.60634   0.61317
  Beta virt. eigenvalues --    0.62651   0.63971   0.65367   0.66528   0.69074
  Beta virt. eigenvalues --    0.70378   0.71376   0.71847   0.72602   0.73281
  Beta virt. eigenvalues --    0.75085   0.77281   0.79980   0.81489   0.85538
  Beta virt. eigenvalues --    0.88877   0.91526   0.93520   0.96098   0.97330
  Beta virt. eigenvalues --    1.01311   1.03845   1.06125   1.12944   1.17286
  Beta virt. eigenvalues --    1.17305   1.19695   1.21003   1.23703   1.23828
  Beta virt. eigenvalues --    1.25285   1.26736   1.34810   1.38973   1.40791
  Beta virt. eigenvalues --    1.41799   1.50468   1.64233   1.68352   1.68985
  Beta virt. eigenvalues --    1.73053   1.73692   1.74619   1.77203   1.78832
  Beta virt. eigenvalues --    1.82748   1.83931   1.89717   1.92576   1.94061
  Beta virt. eigenvalues --    1.99701   2.05007   2.06382   2.09210   2.10345
  Beta virt. eigenvalues --    2.12860   2.14562   2.17718   2.22000   2.23114
  Beta virt. eigenvalues --    2.24851   2.26584   2.31713   2.32939   2.38976
  Beta virt. eigenvalues --    2.44095   2.49489   2.54589   2.56976   2.60693
  Beta virt. eigenvalues --    2.63181   2.63502   2.63908   2.63938   2.64014
  Beta virt. eigenvalues --    2.64044   2.64307   2.65228   2.65484   2.67915
  Beta virt. eigenvalues --    2.73760   2.74454   2.81152   2.89357   2.91081
  Beta virt. eigenvalues --    2.98792   2.99439   3.17200   3.17857   3.32086
  Beta virt. eigenvalues --    3.65827  53.83889
          Condensed to atoms (all electrons):
               1          2          3          4          5          6
     1  C    5.147701   0.190324   0.091564  -0.159564  -0.000310  -0.000136
     2  C    0.190324   5.123445   0.280417   0.126465   0.006679  -0.000362
     3  C    0.091564   0.280417   5.200436   0.182717  -0.075477   0.010973
     4  C   -0.159564   0.126465   0.182717   5.345515   0.392722  -0.098948
     5  N   -0.000310   0.006679  -0.075477   0.392722   6.977149   0.241274
     6  S   -0.000136  -0.000362   0.010973  -0.098948   0.241274  15.113020
     7  N    0.007410  -0.000887   0.013066  -0.100709  -0.074851   0.308646
     8  C    0.122613  -0.155115   0.057099   0.138681  -0.072968  -0.119181
     9  C    0.283178   0.096136  -0.104229   0.046001   0.008838   0.010415
    10  H    0.452200  -0.070710   0.014449  -0.001895   0.000005   0.000007
    11  H   -0.069739   0.452542  -0.063925   0.015729  -0.000109   0.000005
    12  H    0.013330  -0.066973   0.452729  -0.062640  -0.010577  -0.000136
    13  H   -0.078547   0.014977  -0.003889   0.020692   0.000042  -0.000581
    14  Ag  -0.000157   0.002217  -0.013648  -0.012082   0.025633  -0.000027
               7          8          9         10         11         12
     1  C    0.007410   0.122613   0.283178   0.452200  -0.069739   0.013330
     2  C   -0.000887  -0.155115   0.096136  -0.070710   0.452542  -0.066973
     3  C    0.013066   0.057099  -0.104229   0.014449  -0.063925   0.452729
     4  C   -0.100709   0.138681   0.046001  -0.001895   0.015729  -0.062640
     5  N   -0.074851  -0.072968   0.008838   0.000005  -0.000109  -0.010577
     6  S    0.308646  -0.119181   0.010415   0.000007   0.000005  -0.000136
     7  N    6.747162   0.495900  -0.068884  -0.000108   0.000007  -0.000087
     8  C    0.495900   5.293695   0.210141   0.015877  -0.001484   0.015307
     9  C   -0.068884   0.210141   5.123912  -0.065628   0.013246  -0.002631
    10  H   -0.000108   0.015877  -0.065628   0.646746  -0.011914  -0.000204
    11  H    0.000007  -0.001484   0.013246  -0.011914   0.641476  -0.011148
    12  H   -0.000087   0.015307  -0.002631  -0.000204  -0.011148   0.616853
    13  H   -0.005839  -0.068484   0.463121  -0.012067  -0.000197   0.000017
    14  Ag   0.002445   0.003568  -0.001017  -0.000016   0.000089   0.015317
              13         14
     1  C   -0.078547  -0.000157
     2  C    0.014977   0.002217
     3  C   -0.003889  -0.013648
     4  C    0.020692  -0.012082
     5  N    0.000042   0.025633
     6  S   -0.000581  -0.000027
     7  N   -0.005839   0.002445
     8  C   -0.068484   0.003568
     9  C    0.463121  -0.001017
    10  H   -0.012067  -0.000016
    11  H   -0.000197   0.000089
    12  H    0.000017   0.015317
    13  H    0.649944   0.000061
    14  Ag   0.000061  19.079363
          Atomic-Atomic Spin Densities.
               1          2          3          4          5          6
     1  C    0.005874  -0.000633  -0.000226  -0.000087  -0.000005  -0.000034
     2  C   -0.000633  -0.003782  -0.002160  -0.000417  -0.000092   0.000061
     3  C   -0.000226  -0.002160   0.018089   0.003816  -0.001157   0.000705
     4  C   -0.000087  -0.000417   0.003816  -0.005124   0.003142   0.003541
     5  N   -0.000005  -0.000092  -0.001157   0.003142   0.119844  -0.021203
     6  S   -0.000034   0.000061   0.000705   0.003541  -0.021203   0.024755
     7  N    0.000049  -0.000051  -0.000246  -0.001635   0.001028  -0.001750
     8  C    0.001582  -0.002216  -0.002908  -0.005520   0.001435  -0.004499
     9  C   -0.001031   0.001142   0.000372   0.001374   0.000000   0.000285
    10  H   -0.000191   0.000073  -0.000007   0.000017   0.000000   0.000001
    11  H   -0.000109   0.000192  -0.000229  -0.000024  -0.000001   0.000000
    12  H   -0.000103   0.000379  -0.000321   0.000158  -0.000459   0.000062
    13  H    0.000039  -0.000008   0.000010  -0.000006   0.000002   0.000004
    14  Ag  -0.000198   0.001467  -0.004141  -0.006730  -0.069996   0.009364
               7          8          9         10         11         12
     1  C    0.000049   0.001582  -0.001031  -0.000191  -0.000109  -0.000103
     2  C   -0.000051  -0.002216   0.001142   0.000073   0.000192   0.000379
     3  C   -0.000246  -0.002908   0.000372  -0.000007  -0.000229  -0.000321
     4  C   -0.001635  -0.005520   0.001374   0.000017  -0.000024   0.000158
     5  N    0.001028   0.001435   0.000000   0.000000  -0.000001  -0.000459
     6  S   -0.001750  -0.004499   0.000285   0.000001   0.000000   0.000062
     7  N   -0.007283   0.003186  -0.000038  -0.000001   0.000000  -0.000011
     8  C    0.003186   0.021859  -0.003701  -0.000131  -0.000034  -0.000370
     9  C   -0.000038  -0.003701  -0.004629   0.000098   0.000027   0.000075
    10  H   -0.000001  -0.000131   0.000098   0.000066   0.000022   0.000004
    11  H    0.000000  -0.000034   0.000027   0.000022   0.000457   0.000035
    12  H   -0.000011  -0.000370   0.000075   0.000004   0.000035  -0.001707
    13  H   -0.000003  -0.000004  -0.000004  -0.000005   0.000000   0.000000
    14  Ag  -0.000637  -0.003356   0.000390   0.000011   0.000065   0.004224
              13         14
     1  C    0.000039  -0.000198
     2  C   -0.000008   0.001467
     3  C    0.000010  -0.004141
     4  C   -0.000006  -0.006730
     5  N    0.000002  -0.069996
     6  S    0.000004   0.009364
     7  N   -0.000003  -0.000637
     8  C   -0.000004  -0.003356
     9  C   -0.000004   0.000390
    10  H   -0.000005   0.000011
    11  H    0.000000   0.000065
    12  H    0.000000   0.004224
    13  H    0.000269  -0.000002
    14  Ag  -0.000002   1.027817
 Mulliken charges and spin densities:
               1          2
     1  C    0.000132   0.004927
     2  C    0.000845  -0.006043
     3  C   -0.042282   0.011598
     4  C    0.167316  -0.007496
     5  N   -0.418048   0.032537
     6  S    0.535031   0.011294
     7  N   -0.323270  -0.007393
     8  C    0.064349   0.005324
     9  C   -0.012601  -0.005642
    10  H    0.033259  -0.000043
    11  H    0.035424   0.000400
    12  H    0.040842   0.001967
    13  H    0.020749   0.000290
    14  Ag  -0.101747   0.958278
 Sum of Mulliken charges =   0.00000   1.00000
 Mulliken charges and spin densities with hydrogens summed into heavy atoms:
               1          2
     1  C    0.033391   0.004884
     2  C    0.036270  -0.005642
     3  C   -0.001439   0.013565
     4  C    0.167316  -0.007496
     5  N   -0.418048   0.032537
     6  S    0.535031   0.011294
     7  N   -0.323270  -0.007393
     8  C    0.064349   0.005324
     9  C    0.008148  -0.005352
    14  Ag  -0.101747   0.958278
 Electronic spatial extent (au):  <R**2>=           2857.1242
 Charge=              0.0000 electrons
 Dipole moment (field-independent basis, Debye):
    X=             -2.2485    Y=              3.2094    Z=              0.0564  Tot=              3.9191
 Quadrupole moment (field-independent basis, Debye-Ang):
   XX=            -73.6358   YY=            -95.6807   ZZ=            -80.6779
   XY=              8.1668   XZ=             -0.8107   YZ=             -0.0912
 Traceless Quadrupole moment (field-independent basis, Debye-Ang):
   XX=              9.6957   YY=            -12.3492   ZZ=              2.6536
   XY=              8.1668   XZ=             -0.8107   YZ=             -0.0912
 Octapole moment (field-independent basis, Debye-Ang**2):
  XXX=           -312.1156  YYY=            312.5234  ZZZ=             15.6920  XYY=           -165.2497
  XXY=             96.9641  XXZ=              4.1357  XZZ=           -105.7769  YZZ=             76.8124
  YYZ=              6.8266  XYZ=              0.5505
 Hexadecapole moment (field-independent basis, Debye-Ang**3):
 XXXX=          -2097.0432 YYYY=          -2651.1171 ZZZZ=           -104.9092 XXXY=            628.1917
 XXXZ=             46.7968 YYYX=            775.2996 YYYZ=             -7.8625 ZZZX=             60.5037
 ZZZY=             -5.0353 XXYY=           -873.2791 XXZZ=           -392.9604 YYZZ=           -402.1851
 XXYZ=             -1.5452 YYXZ=             21.7196 ZZXY=            192.6201
 N-N= 6.457851332272D+02 E-N=-3.343093394986D+03  KE= 7.900785827013D+02
                          Isotropic Fermi Contact Couplings
        Atom                 a.u.       MegaHertz       Gauss      10(-4) cm-1
     1  C(13)              0.00116       1.30629       0.46612       0.43573
     2  C(13)             -0.00045      -0.50566      -0.18043      -0.16867
     3  C(13)              0.01006      11.30773       4.03488       3.77185
     4  C(13)             -0.00172      -1.92852      -0.68814      -0.64329
     5  N(14)              0.18911      61.10229      21.80281      20.38153
     6  S(33)              0.00903       3.10302       1.10724       1.03506
     7  N(14)             -0.00317      -1.02366      -0.36527      -0.34146
     8  C(13)              0.00756       8.50367       3.03432       2.83652
     9  C(13)             -0.00106      -1.19476      -0.42632      -0.39853
    10  H(1)              -0.00001      -0.02531      -0.00903      -0.00844
    11  H(1)               0.00011       0.50583       0.18049       0.16873
    12  H(1)              -0.00005      -0.23622      -0.08429      -0.07879
    13  H(1)               0.00011       0.51390       0.18337       0.17142
    14  Ag(107             0.00030      -0.05373      -0.01917      -0.01792
 --------------------------------------------------------
       Center         ----  Spin Dipole Couplings  ----
                      3XX-RR        3YY-RR        3ZZ-RR
 --------------------------------------------------------
     1   Atom       -0.001968     -0.000942      0.002910
     2   Atom        0.004256      0.003119     -0.007375
     3   Atom       -0.006600      0.007900     -0.001300
     4   Atom        0.005043      0.004654     -0.009697
     5   Atom       -0.021335      0.029300     -0.007964
     6   Atom        0.009940      0.022412     -0.032351
     7   Atom        0.004359      0.021725     -0.026084
     8   Atom       -0.001890      0.000956      0.000934
     9   Atom        0.002638      0.003468     -0.006106
    10   Atom        0.000279      0.000115     -0.000394
    11   Atom        0.001043     -0.000068     -0.000975
    12   Atom        0.002442      0.003429     -0.005870
    13   Atom        0.000104      0.000378     -0.000482
    14   Atom        0.023544     -0.040015      0.016470
 --------------------------------------------------------
                        XY            XZ            YZ
 --------------------------------------------------------
     1   Atom       -0.000958      0.000400      0.000216
     2   Atom       -0.002656     -0.000764     -0.000178
     3   Atom       -0.003509      0.000521     -0.000111
     4   Atom       -0.003684     -0.001014     -0.000201
     5   Atom       -0.051767      0.002589      0.003123
     6   Atom        0.042576     -0.004262     -0.004538
     7   Atom       -0.000369     -0.002287     -0.001347
     8   Atom       -0.003075      0.000320      0.000211
     9   Atom       -0.001040     -0.000628     -0.000240
    10   Atom       -0.000823     -0.000022      0.000044
    11   Atom       -0.001378     -0.000102      0.000071
    12   Atom       -0.006714     -0.000388      0.000186
    13   Atom       -0.000421     -0.000030      0.000001
    14   Atom        0.002557     -0.000609      0.001788
 --------------------------------------------------------


 ---------------------------------------------------------------------------------
              Anisotropic Spin Dipole Couplings in Principal Axis System
 ---------------------------------------------------------------------------------

       Atom             a.u.   MegaHertz   Gauss  10(-4) cm-1        Axes

              Baa    -0.0026    -0.346    -0.124    -0.115  0.8553  0.5114 -0.0825
     1 C(13)  Bbb    -0.0004    -0.049    -0.018    -0.016 -0.5128  0.8585  0.0060
              Bcc     0.0029     0.396     0.141     0.132  0.0739  0.0372  0.9966
 
              Baa    -0.0074    -0.998    -0.356    -0.333  0.0731  0.0352  0.9967
     2 C(13)  Bbb     0.0010     0.136     0.049     0.046  0.6219  0.7797 -0.0732
              Bcc     0.0064     0.862     0.307     0.287  0.7797 -0.6252 -0.0351
 
              Baa    -0.0074    -0.999    -0.356    -0.333  0.9719  0.2218 -0.0784
     3 C(13)  Bbb    -0.0013    -0.170    -0.061    -0.057  0.0714  0.0394  0.9967
              Bcc     0.0087     1.169     0.417     0.390 -0.2241  0.9743 -0.0225
 
              Baa    -0.0098    -1.313    -0.468    -0.438  0.0765  0.0334  0.9965
     4 C(13)  Bbb     0.0012     0.164     0.059     0.055  0.6816  0.7277 -0.0767
              Bcc     0.0086     1.148     0.410     0.383  0.7277 -0.6851 -0.0329
 
              Baa    -0.0540    -2.081    -0.743    -0.694  0.8449  0.5284 -0.0834
     5 N(14)  Bbb    -0.0077    -0.296    -0.105    -0.099  0.0805  0.0286  0.9963
              Bcc     0.0616     2.377     0.848     0.793 -0.5289  0.8485  0.0184
 
              Baa    -0.0328    -1.344    -0.480    -0.448  0.0768  0.0227  0.9968
     6 S(33)  Bbb    -0.0268    -1.101    -0.393    -0.367  0.7539 -0.6556 -0.0432
              Bcc     0.0596     2.445     0.872     0.815  0.6525  0.7548 -0.0675
 
              Baa    -0.0263    -1.014    -0.362    -0.338  0.0747  0.0285  0.9968
     7 N(14)  Bbb     0.0045     0.175     0.062     0.058  0.9970  0.0155 -0.0752
              Bcc     0.0218     0.840     0.300     0.280 -0.0176  0.9995 -0.0273
 
              Baa    -0.0039    -0.521    -0.186    -0.174  0.8399  0.5369 -0.0793
     8 C(13)  Bbb     0.0010     0.129     0.046     0.043  0.0682  0.0406  0.9968
              Bcc     0.0029     0.392     0.140     0.131 -0.5384  0.8427  0.0025
 
              Baa    -0.0062    -0.827    -0.295    -0.276  0.0750  0.0330  0.9966
     9 C(13)  Bbb     0.0020     0.266     0.095     0.089  0.8219  0.5640 -0.0805
              Bcc     0.0042     0.560     0.200     0.187 -0.5647  0.8251  0.0152
 
              Baa    -0.0006    -0.337    -0.120    -0.112  0.6677  0.7405 -0.0763
    10 H(1)   Bbb    -0.0004    -0.210    -0.075    -0.070  0.0749  0.0352  0.9966
              Bcc     0.0010     0.547     0.195     0.183  0.7407 -0.6711 -0.0320
 
              Baa    -0.0010    -0.533    -0.190    -0.178  0.5525  0.8266 -0.1074
    11 H(1)   Bbb    -0.0010    -0.523    -0.187    -0.174  0.0948  0.0657  0.9933
              Bcc     0.0020     1.056     0.377     0.352  0.8281 -0.5590 -0.0421
 
              Baa    -0.0059    -3.144    -1.122    -1.049  0.0724  0.0322  0.9969
    12 H(1)   Bbb    -0.0038    -2.019    -0.721    -0.674  0.7290  0.6804 -0.0750
              Bcc     0.0097     5.163     1.842     1.722 -0.6807  0.7321  0.0258
 
              Baa    -0.0005    -0.258    -0.092    -0.086  0.0763  0.0366  0.9964
    13 H(1)   Bbb    -0.0002    -0.107    -0.038    -0.036  0.8054  0.5869 -0.0832
              Bcc     0.0007     0.365     0.130     0.122 -0.5879  0.8088  0.0154
 
              Baa    -0.0402     0.872     0.311     0.291 -0.0404  0.9987 -0.0320
    14 Ag(107 Bbb     0.0165    -0.358    -0.128    -0.119  0.0734  0.0349  0.9967
              Bcc     0.0237    -0.514    -0.183    -0.171  0.9965  0.0379 -0.0747
 

 ---------------------------------------------------------------------------------

 No NMR shielding tensors so no spin-rotation constants.
 Leave Link  601 at Fri Sep 11 20:49:35 2026, MaxMem=  6442450944 cpu:               1.0 elap:               1.3
 (Enter C:\G16W\l9999.exe)
 Unable to Open any file for archive entry.
 1|1|UNPC-DESKTOP-2JKEGCA|SP|UPBE1PBE|def2SVP|C6H4Ag1N2S1(2)|JHKIM|11-S
 ep-2026|0||#P PBE1PBE/Def2SVP EmpiricalDispersion=GD3BJ SP SCF=(XQC,Ma
 xCycle=128,VShift=300) NoSymm||BTD t=0.000 dz=+0.00 class=site2site||0
 ,2|C,0,-1.400023,0.719011,0.079614|C,0,-1.394141,-0.672233,0.126589|C,
 0,-0.198659,-1.373371,0.061546|C,0,0.983943,-0.661156,-0.05075|N,0,2.2
 44593,-1.191239,-0.126615|S,0,3.330762,0.13763,-0.252539|N,0,2.20699,1
 .304055,-0.208559|C,0,0.986478,0.763236,-0.099412|C,0,-0.232315,1.4480
 65,-0.032072|H,0,-2.344291,1.240556,0.13209|H,0,-2.325813,-1.210325,0.
 214251|H,0,-0.164295,-2.471476,0.096407|H,0,-0.238097,2.524956,-0.0683
 09|Ag,0,2.473846,-3.720464,-0.05615||Version=EM64W-G16RevC.01|HF=-884.
 7620051|S2=0.751897|S2-1=0.|S2A=0.750003|RMSD=8.304e-010|Dipole=-0.884
 6182,1.262681,0.0221861|Quadrupole=7.2084791,-9.1813362,1.9728571,6.07
 18466,-0.6027551,-0.0678198|PG=C01 [X(C6H4Ag1N2S1)]||@
 The archive entry for this job was punched.


 WHEN YOU'VE SEEN ONE NUCLEAR WAR YOU'VE SEEN THEM ALL.
 Job cpu time:       0 days  0 hours 17 minutes  1.0 seconds.
 Elapsed time:       0 days  0 hours 16 minutes 60.0 seconds.
 File lengths (MBytes):  RWF=     36 Int=      0 D2E=      0 Chk=      3 Scr=      1
 Normal termination of Gaussian 16 at Fri Sep 11 20:49:36 2026.
