 Entering Gaussian System, Link 0=C:\G16W\g16.exe
 Input=BTD_t1_z1.gjf
 Output=BTD_t1_z1.out
 Initial command:
 C:\G16W\l1.exe ".\Gau-82860.inp" "BTD_t1_z1.out" /scrdir=".\"
 Entering Link 1 = C:\G16W\l1.exe PID=    153592.
  
 Copyright (c) 1988-2019, Gaussian, Inc.  All Rights Reserved.
  
 This is part of the Gaussian(R) 16 program.  It is based on
 the Gaussian(R) 09 system (copyright 2009, Gaussian, Inc.),
 the Gaussian(R) 03 system (copyright 2003, Gaussian, Inc.),
 the Gaussian(R) 98 system (copyright 1998, Gaussian, Inc.),
 the Gaussian(R) 94 system (copyright 1995, Gaussian, Inc.),
 the Gaussian 92(TM) system (copyright 1992, Gaussian, Inc.),
 the Gaussian 90(TM) system (copyright 1990, Gaussian, Inc.),
 the Gaussian 88(TM) system (copyright 1988, Gaussian, Inc.),
 the Gaussian 86(TM) system (copyright 1986, Carnegie Mellon
 University), and the Gaussian 82(TM) system (copyright 1983,
 Carnegie Mellon University). Gaussian is a federally registered
 trademark of Gaussian, Inc.
  
 This software contains proprietary and confidential information,
 including trade secrets, belonging to Gaussian, Inc.
  
 This software is provided under written license and may be
 used, copied, transmitted, or stored only in accord with that
 written license.
  
 The following legend is applicable only to US Government
 contracts under FAR:
  
                    RESTRICTED RIGHTS LEGEND
  
 Use, reproduction and disclosure by the US Government is
 subject to restrictions as set forth in subparagraphs (a)
 and (c) of the Commercial Computer Software - Restricted
 Rights clause in FAR 52.227-19.
  
 Gaussian, Inc.
 340 Quinnipiac St., Bldg. 40, Wallingford CT 06492
  
  
 ---------------------------------------------------------------
 Warning -- This program may not be used in any manner that
 competes with the business of Gaussian, Inc. or will provide
 assistance to any competitor of Gaussian, Inc.  The licensee
 of this program is prohibited from giving any competitor of
 Gaussian, Inc. access to this program.  By using this program,
 the user acknowledges that Gaussian, Inc. is engaged in the
 business of creating and licensing software in the field of
 computational chemistry and represents and warrants to the
 licensee that it is not a competitor of Gaussian, Inc. and that
 it will not use this program in any manner prohibited above.
 ---------------------------------------------------------------
  

 Cite this work as:
 Gaussian 16, Revision C.01,
 M. J. Frisch, G. W. Trucks, H. B. Schlegel, G. E. Scuseria, 
 M. A. Robb, J. R. Cheeseman, G. Scalmani, V. Barone, 
 G. A. Petersson, H. Nakatsuji, X. Li, M. Caricato, A. V. Marenich, 
 J. Bloino, B. G. Janesko, R. Gomperts, B. Mennucci, H. P. Hratchian, 
 J. V. Ortiz, A. F. Izmaylov, J. L. Sonnenberg, D. Williams-Young, 
 F. Ding, F. Lipparini, F. Egidi, J. Goings, B. Peng, A. Petrone, 
 T. Henderson, D. Ranasinghe, V. G. Zakrzewski, J. Gao, N. Rega, 
 G. Zheng, W. Liang, M. Hada, M. Ehara, K. Toyota, R. Fukuda, 
 J. Hasegawa, M. Ishida, T. Nakajima, Y. Honda, O. Kitao, H. Nakai, 
 T. Vreven, K. Throssell, J. A. Montgomery, Jr., J. E. Peralta, 
 F. Ogliaro, M. J. Bearpark, J. J. Heyd, E. N. Brothers, K. N. Kudin, 
 V. N. Staroverov, T. A. Keith, R. Kobayashi, J. Normand, 
 K. Raghavachari, A. P. Rendell, J. C. Burant, S. S. Iyengar, 
 J. Tomasi, M. Cossi, J. M. Millam, M. Klene, C. Adamo, R. Cammi, 
 J. W. Ochterski, R. L. Martin, K. Morokuma, O. Farkas, 
 J. B. Foresman, and D. J. Fox, Gaussian, Inc., Wallingford CT, 2019.
 
 ******************************************
 Gaussian 16:  EM64W-G16RevC.01 30-May-2019
                11-Sep-2026 
 ******************************************
 %Chk=BTD.chk
 %NProcShared=8
 Will use up to    8 processors via shared memory.
 %Mem=48GB
 ----------------------------------------------------------------------
 #P PBE1PBE/Def2SVP EmpiricalDispersion=GD3BJ SP SCF=(XQC,MaxCycle=128)
  NoSymm Guess=Read
 ----------------------------------------------------------------------
 1/38=1,172=1/1;
 2/12=2,15=1,17=6,18=5,40=1/2;
 3/5=43,7=101,11=2,25=1,30=1,74=-13,116=-2,124=41/1,2,3;
 4/5=1/1;
 5/5=2,7=128,8=3,13=1,38=6/2,8;
 6/7=2,8=2,9=2,10=2,28=1/1;
 99/5=1,9=1/99;
 Leave Link    1 at Fri Sep 11 20:54:36 2026, MaxMem=  6442450944 cpu:               1.0 elap:               0.3
 (Enter C:\G16W\l101.exe)
 ------------------------------------
 BTD t=0.250 dz=+0.40 class=site2site
 ------------------------------------
 Symbolic Z-matrix:
 Charge =  0 Multiplicity = 2
 C                    -1.40002   0.71901   0.07961 
 C                    -1.39414  -0.67223   0.12659 
 C                    -0.19866  -1.37337   0.06155 
 C                     0.98394  -0.66116  -0.05075 
 N                     2.24459  -1.19124  -0.12662 
 S                     3.33076   0.13763  -0.25254 
 N                     2.20699   1.30406  -0.20856 
 C                     0.98648   0.76324  -0.09941 
 C                    -0.23232   1.44807  -0.03207 
 H                    -2.34429   1.24056   0.13209 
 H                    -2.32581  -1.21033   0.21425 
 H                    -0.1643   -2.47148   0.09641 
 H                    -0.2381    2.52496  -0.06831 
 Ag                    3.13202  -3.52848   0.8168 
 
 ITRead=  0  0  0  0  0  0  0  0  0  0  0  0  0  0
 MicOpt= -1 -1 -1 -1 -1 -1 -1 -1 -1 -1 -1 -1 -1 -1
 NAtoms=     14 NQM=       14 NQMF=       0 NMMI=      0 NMMIF=      0
                NMic=       0 NMicF=      0.
                    Isotopes and Nuclear Properties:
 (Nuclear quadrupole moments (NQMom) in fm**2, nuclear magnetic moments (NMagM)
  in nuclear magnetons)

  Atom         1           2           3           4           5           6           7           8           9          10
 IAtWgt=          12          12          12          12          14          32          14          12          12           1
 AtmWgt=  12.0000000  12.0000000  12.0000000  12.0000000  14.0030740  31.9720718  14.0030740  12.0000000  12.0000000   1.0078250
 NucSpn=           0           0           0           0           2           0           2           0           0           1
 AtZEff=   0.0000000   0.0000000   0.0000000   0.0000000   0.0000000   0.0000000   0.0000000   0.0000000   0.0000000   0.0000000
 NQMom=    0.0000000   0.0000000   0.0000000   0.0000000   2.0440000   0.0000000   2.0440000   0.0000000   0.0000000   0.0000000
 NMagM=    0.0000000   0.0000000   0.0000000   0.0000000   0.4037610   0.0000000   0.4037610   0.0000000   0.0000000   2.7928460
 AtZNuc=   6.0000000   6.0000000   6.0000000   6.0000000   7.0000000  16.0000000   7.0000000   6.0000000   6.0000000   1.0000000

  Atom        11          12          13          14
 IAtWgt=           1           1           1         107
 AtmWgt=   1.0078250   1.0078250   1.0078250 106.9050900
 NucSpn=           1           1           1           1
 AtZEff=   0.0000000   0.0000000   0.0000000   0.0000000
 NQMom=    0.0000000   0.0000000   0.0000000   0.0000000
 NMagM=    2.7928460   2.7928460   2.7928460  -0.1135700
 AtZNuc=   1.0000000   1.0000000   1.0000000  47.0000000
 Leave Link  101 at Fri Sep 11 20:54:36 2026, MaxMem=  6442450944 cpu:               0.0 elap:               0.3
 (Enter C:\G16W\l202.exe)
                          Input orientation:                          
 ---------------------------------------------------------------------
 Center     Atomic      Atomic             Coordinates (Angstroms)
 Number     Number       Type             X           Y           Z
 ---------------------------------------------------------------------
      1          6           0       -1.400023    0.719011    0.079614
      2          6           0       -1.394141   -0.672233    0.126589
      3          6           0       -0.198659   -1.373371    0.061546
      4          6           0        0.983943   -0.661156   -0.050750
      5          7           0        2.244593   -1.191239   -0.126615
      6         16           0        3.330762    0.137630   -0.252539
      7          7           0        2.206990    1.304055   -0.208559
      8          6           0        0.986478    0.763236   -0.099412
      9          6           0       -0.232315    1.448065   -0.032072
     10          1           0       -2.344291    1.240556    0.132090
     11          1           0       -2.325813   -1.210325    0.214251
     12          1           0       -0.164295   -2.471476    0.096407
     13          1           0       -0.238097    2.524956   -0.068309
     14         47           0        3.132025   -3.528478    0.816797
 ---------------------------------------------------------------------
                    Distance matrix (angstroms):
                    1          2          3          4          5
     1  C    0.000000
     2  C    1.392049   0.000000
     3  C    2.412813   1.387445   0.000000
     4  C    2.757744   2.384713   1.385066   0.000000
     5  N    4.120050   3.684273   2.457246   1.369665   0.000000
     6  S    4.777934   4.808776   3.852089   2.487235   1.720905
     7  N    3.665496   4.121430   3.609531   2.320087   2.496922
     8  C    2.393615   2.789085   2.448581   1.425225   2.324557
     9  C    1.381136   2.422948   2.823189   2.434840   3.620765
    10  H    1.080002   2.135785   3.382503   3.837588   5.199847
    11  H    2.144190   1.079463   2.138852   3.365456   4.583139
    12  H    3.421478   2.179612   1.099196   2.148805   2.737058
    13  H    2.152531   3.405355   3.900689   3.412477   4.469592
    14  Ag   6.254923   5.396360   4.038359   3.686249   2.672124
                    6          7          8          9         10
     6  S    0.000000
     7  N    1.620292   0.000000
     8  C    2.431152   1.339421   0.000000
     9  C    3.802810   2.449917   1.399636   0.000000
    10  H    5.794015   4.564453   3.372751   2.128486   0.000000
    11  H    5.833671   5.200690   3.868410   3.392705   2.452327
    12  H    4.375457   4.468851   3.438893   3.922236   4.304978
    13  H    4.297676   2.736553   2.145742   1.077516   2.475055
    14  Ag   3.824046   5.025975   4.884836   6.066741   7.294008
                   11         12         13         14
    11  H    0.000000
    12  H    2.505304   0.000000
    13  H    4.288441   4.999691   0.000000
    14  Ag   5.960276   3.535808   6.984640   0.000000
 Symmetry turned off by external request.
 Stoichiometry    C6H4AgN2S(2)
 Framework group  C1[X(C6H4AgN2S)]
 Deg. of freedom    36
 Full point group                 C1      NOp   1
 Rotational constants (GHZ):           1.4394019           0.3972747           0.3138246
 Leave Link  202 at Fri Sep 11 20:54:37 2026, MaxMem=  6442450944 cpu:               1.0 elap:               0.1
 (Enter C:\G16W\l301.exe)
 Standard basis: def2SVP (5D, 7F)
 Ernie: Thresh=  0.10000D-02 Tol=  0.10000D-05 Strict=F.
   181 basis functions,   330 primitive gaussians,   195 cartesian basis functions
    45 alpha electrons       44 beta electrons
       nuclear repulsion energy       639.1529609959 Hartrees.
 IExCor= 1009 DFT=T Ex+Corr=PBE1PBE ExCW=0 ScaHFX=  0.250000
 ScaDFX=  0.750000  0.750000  1.000000  1.000000 ScalE2=  1.000000  1.000000
 IRadAn=      5 IRanWt=     -1 IRanGd=            0 ICorTp=0 IEmpDi=141
 NAtoms=   14 NActive=   14 NUniq=   14 SFac= 1.00D+00 NAtFMM=   60 NAOKFM=F Big=F
 Integral buffers will be    131072 words long.
 Raffenetti 2 integral format.
 Two-electron integral symmetry is turned off.
 R6Disp:  Grimme-D3(BJ) Dispersion energy=       -0.0175922271 Hartrees.
 Nuclear repulsion after empirical dispersion term =      639.1353687688 Hartrees.
 Leave Link  301 at Fri Sep 11 20:54:37 2026, MaxMem=  6442450944 cpu:               0.0 elap:               0.2
 (Enter C:\G16W\l302.exe)
 NPDir=0 NMtPBC=     1 NCelOv=     1 NCel=       1 NClECP=     1 NCelD=      1
         NCelK=      1 NCelE2=     1 NClLst=     1 CellRange=     0.0.
 One-electron integrals computed using PRISM.
   1 Symmetry operations used in ECPInt.
 ECPInt:  NShTT=    3160 NPrTT=   11935 LenC2=    3075 LenP2D=    8965.
 LDataN:  DoStor=T MaxTD1= 7 Len=  274
 NBasis=   181 RedAO= T EigKep=  2.20D-04  NBF=   181
 NBsUse=   181 1.00D-06 EigRej= -1.00D+00 NBFU=   181
 Precomputing XC quadrature grid using
 IXCGrd= 4 IRadAn=           5 IRanWt=          -1 IRanGd=           0 AccXCQ= 0.00D+00.
 Defaulting to unpruned grid for atomic number  47.
 Generated NRdTot=       0 NPtTot=           0 NUsed=           0 NTot=          32
 NSgBfM=   194   194   194   194   194 MxSgAt=    14 MxSgA2=    14.
 Leave Link  302 at Fri Sep 11 20:54:43 2026, MaxMem=  6442450944 cpu:               6.0 elap:               6.1
 (Enter C:\G16W\l303.exe)
 DipDrv:  MaxL=1.
 Leave Link  303 at Fri Sep 11 20:54:43 2026, MaxMem=  6442450944 cpu:               0.0 elap:               0.2
 (Enter C:\G16W\l401.exe)
 Initial guess from the checkpoint file:  "BTD.chk"
 B after Tr=     0.119096   -0.232540    0.057876
         Rot=    0.999969    0.002483    0.003021    0.006865 Ang=   0.91 deg.
 Guess basis will be translated and rotated to current coordinates.
 JPrj=2 DoOrth=T DoCkMO=T.
 Initial guess <Sx>= 0.0000 <Sy>= 0.0000 <Sz>= 0.5000 <S**2>= 0.7595 S= 0.5047
 Leave Link  401 at Fri Sep 11 20:54:47 2026, MaxMem=  6442450944 cpu:               4.0 elap:               3.4
 (Enter C:\G16W\l502.exe)
 Two-electron integral symmetry not used.
 UHF open shell SCF:
 Using DIIS extrapolation, IDIIS=  1040.
 NGot=  6442450944 LenX=  6442371465 LenY=  6442332999
 Requested convergence on RMS density matrix=1.00D-08 within 128 cycles.
 Requested convergence on MAX density matrix=1.00D-06.
 Requested convergence on             energy=1.00D-06.
 No special actions if energy rises.
 Fock matrices will be formed incrementally for  20 cycles.

 Cycle   1  Pass 1  IDiag  1:
 FoFJK:  IHMeth= 1 ICntrl=       0 DoSepK=F KAlg= 0 I1Cent=           0 FoldK=F
 IRaf= 940000000 NMat=       1 IRICut=       1 DoRegI=T DoRafI=F ISym2E= 0 IDoP0=0 IntGTp=1.
 FoFCou: FMM=F IPFlag=           0 FMFlag=      100000 FMFlg1=           0
         NFxFlg=           0 DoJE=F BraDBF=F KetDBF=F FulRan=T
         wScrn=  0.000000 ICntrl=         0 IOpCl=  1 I1Cent=           0 NGrid=           0
         NMat0=    1 NMatS0=      1 NMatT0=    0 NMatD0=    1 NMtDS0=    0 NMtDT0=    0
 Symmetry not used in FoFCou.
 Defaulting to unpruned grid for atomic number  47.
 Defaulting to unpruned grid for atomic number  47.
 Defaulting to unpruned grid for atomic number  47.
 Defaulting to unpruned grid for atomic number  47.
 Defaulting to unpruned grid for atomic number  47.
 Defaulting to unpruned grid for atomic number  47.
 Defaulting to unpruned grid for atomic number  47.
 Defaulting to unpruned grid for atomic number  47.
 E= -884.752069865662    
 DIIS: error= 1.64D-02 at cycle   1 NSaved=   1.
 NSaved= 1 IEnMin= 1 EnMin= -884.752069865662     IErMin= 1 ErrMin= 1.64D-02
 ErrMax= 1.64D-02  0.00D+00 EMaxC= 1.00D-01 BMatC= 1.00D-01 BMatP= 1.00D-01
 IDIUse=3 WtCom= 8.36D-01 WtEn= 1.64D-01
 Coeff-Com:  0.100D+01
 Coeff-En:   0.100D+01
 Coeff:      0.100D+01
 Gap=     0.061 Goal=   None    Shift=    0.000
 Gap=     0.161 Goal=   None    Shift=    0.000
 GapD=    0.061 DampG=0.500 DampE=0.250 DampFc=0.1250 IDamp=-1.
 Damping current iteration by 1.25D-01
 RMSDP=1.50D-03 MaxDP=9.75D-02              OVMax= 1.81D-01

 Cycle   2  Pass 1  IDiag  1:
 RMSU=  1.88D-04    CP:  1.00D+00
 E= -884.753156452148     Delta-E=       -0.001086586487 Rises=F Damp=T
 DIIS: error= 1.43D-02 at cycle   2 NSaved=   2.
 NSaved= 2 IEnMin= 2 EnMin= -884.753156452148     IErMin= 2 ErrMin= 1.43D-02
 ErrMax= 1.43D-02  0.00D+00 EMaxC= 1.00D-01 BMatC= 7.63D-02 BMatP= 1.00D-01
 IDIUse=3 WtCom= 8.57D-01 WtEn= 1.43D-01
 Coeff-Com: -0.604D+01 0.704D+01
 Coeff-En:   0.000D+00 0.100D+01
 Coeff:     -0.518D+01 0.618D+01
 Gap=     0.045 Goal=   None    Shift=    0.000
 Gap=     0.161 Goal=   None    Shift=    0.000
 RMSDP=1.36D-03 MaxDP=5.38D-02 DE=-1.09D-03 OVMax= 4.29D-02

 Cycle   3  Pass 1  IDiag  1:
 RMSU=  1.06D-03    CP:  1.00D+00  3.00D+00
 E= -884.755388051939     Delta-E=       -0.002231599790 Rises=F Damp=F
 DIIS: error= 4.65D-03 at cycle   3 NSaved=   3.
 NSaved= 3 IEnMin= 3 EnMin= -884.755388051939     IErMin= 3 ErrMin= 4.65D-03
 ErrMax= 4.65D-03  0.00D+00 EMaxC= 1.00D-01 BMatC= 2.61D-02 BMatP= 7.63D-02
 IDIUse=3 WtCom= 9.54D-01 WtEn= 4.65D-02
 Coeff-Com: -0.424D+01 0.485D+01 0.391D+00
 Coeff-En:   0.000D+00 0.000D+00 0.100D+01
 Coeff:     -0.404D+01 0.462D+01 0.419D+00
 Gap=     0.048 Goal=   None    Shift=    0.000
 Gap=     0.157 Goal=   None    Shift=    0.000
 RMSDP=5.76D-04 MaxDP=2.57D-02 DE=-2.23D-03 OVMax= 4.66D-02

 Cycle   4  Pass 1  IDiag  1:
 RMSU=  5.75D-04    CP:  1.00D+00  3.00D+00  9.86D-01
 E= -884.761037883347     Delta-E=       -0.005649831408 Rises=F Damp=F
 DIIS: error= 2.20D-03 at cycle   4 NSaved=   4.
 NSaved= 4 IEnMin= 4 EnMin= -884.761037883347     IErMin= 4 ErrMin= 2.20D-03
 ErrMax= 2.20D-03  0.00D+00 EMaxC= 1.00D-01 BMatC= 3.35D-03 BMatP= 2.61D-02
 IDIUse=3 WtCom= 9.78D-01 WtEn= 2.20D-02
 Coeff-Com: -0.223D+01 0.255D+01 0.298D+00 0.387D+00
 Coeff-En:   0.000D+00 0.000D+00 0.132D+00 0.868D+00
 Coeff:     -0.218D+01 0.249D+01 0.294D+00 0.398D+00
 Gap=     0.051 Goal=   None    Shift=    0.000
 Gap=     0.158 Goal=   None    Shift=    0.000
 RMSDP=2.54D-04 MaxDP=1.40D-02 DE=-5.65D-03 OVMax= 3.11D-02

 Cycle   5  Pass 1  IDiag  1:
 RMSU=  1.98D-04    CP:  1.00D+00  3.00D+00  1.11D+00  8.49D-01
 E= -884.761945565364     Delta-E=       -0.000907682017 Rises=F Damp=F
 DIIS: error= 5.86D-04 at cycle   5 NSaved=   5.
 NSaved= 5 IEnMin= 5 EnMin= -884.761945565364     IErMin= 5 ErrMin= 5.86D-04
 ErrMax= 5.86D-04  0.00D+00 EMaxC= 1.00D-01 BMatC= 2.05D-04 BMatP= 3.35D-03
 IDIUse=3 WtCom= 9.94D-01 WtEn= 5.86D-03
 Coeff-Com: -0.986D-01 0.111D+00 0.613D-01 0.234D+00 0.692D+00
 Coeff-En:   0.000D+00 0.000D+00 0.000D+00 0.000D+00 0.100D+01
 Coeff:     -0.981D-01 0.110D+00 0.610D-01 0.233D+00 0.694D+00
 Gap=     0.051 Goal=   None    Shift=    0.000
 Gap=     0.157 Goal=   None    Shift=    0.000
 RMSDP=1.40D-04 MaxDP=5.55D-03 DE=-9.08D-04 OVMax= 2.11D-02

 Cycle   6  Pass 1  IDiag  1:
 RMSU=  7.94D-05    CP:  1.00D+00  3.00D+00  1.20D+00  9.57D-01  1.17D+00
 E= -884.762070625319     Delta-E=       -0.000125059955 Rises=F Damp=F
 DIIS: error= 4.71D-04 at cycle   6 NSaved=   6.
 NSaved= 6 IEnMin= 6 EnMin= -884.762070625319     IErMin= 6 ErrMin= 4.71D-04
 ErrMax= 4.71D-04  0.00D+00 EMaxC= 1.00D-01 BMatC= 6.00D-05 BMatP= 2.05D-04
 IDIUse=3 WtCom= 9.95D-01 WtEn= 4.71D-03
 Coeff-Com:  0.844D+00-0.964D+00-0.629D-01 0.556D-01 0.455D+00 0.673D+00
 Coeff-En:   0.000D+00 0.000D+00 0.000D+00 0.000D+00 0.000D+00 0.100D+01
 Coeff:      0.840D+00-0.960D+00-0.626D-01 0.553D-01 0.453D+00 0.674D+00
 Gap=     0.051 Goal=   None    Shift=    0.000
 Gap=     0.157 Goal=   None    Shift=    0.000
 RMSDP=1.29D-04 MaxDP=5.57D-03 DE=-1.25D-04 OVMax= 2.04D-02

 Cycle   7  Pass 1  IDiag  1:
 RMSU=  4.90D-05    CP:  1.00D+00  3.00D+00  1.28D+00  1.04D+00  1.44D+00
                    CP:  1.56D+00
 E= -884.762137124217     Delta-E=       -0.000066498897 Rises=F Damp=F
 DIIS: error= 1.34D-04 at cycle   7 NSaved=   7.
 NSaved= 7 IEnMin= 7 EnMin= -884.762137124217     IErMin= 7 ErrMin= 1.34D-04
 ErrMax= 1.34D-04  0.00D+00 EMaxC= 1.00D-01 BMatC= 1.10D-05 BMatP= 6.00D-05
 IDIUse=3 WtCom= 9.99D-01 WtEn= 1.34D-03
 Coeff-Com:  0.199D+00-0.228D+00-0.200D-01-0.344D-01-0.170D+00 0.110D+00
 Coeff-Com:  0.114D+01
 Coeff-En:   0.000D+00 0.000D+00 0.000D+00 0.000D+00 0.000D+00 0.000D+00
 Coeff-En:   0.100D+01
 Coeff:      0.199D+00-0.227D+00-0.200D-01-0.343D-01-0.170D+00 0.110D+00
 Coeff:      0.114D+01
 Gap=     0.050 Goal=   None    Shift=    0.000
 Gap=     0.157 Goal=   None    Shift=    0.000
 RMSDP=1.10D-04 MaxDP=4.87D-03 DE=-6.65D-05 OVMax= 1.78D-02

 Cycle   8  Pass 1  IDiag  1:
 RMSU=  1.77D-05    CP:  1.00D+00  3.00D+00  1.34D+00  1.10D+00  1.67D+00
                    CP:  2.27D+00  1.50D+00
 E= -884.762167078640     Delta-E=       -0.000029954423 Rises=F Damp=F
 DIIS: error= 7.97D-05 at cycle   8 NSaved=   8.
 NSaved= 8 IEnMin= 8 EnMin= -884.762167078640     IErMin= 8 ErrMin= 7.97D-05
 ErrMax= 7.97D-05  0.00D+00 EMaxC= 1.00D-01 BMatC= 4.91D-06 BMatP= 1.10D-05
 IDIUse=1 WtCom= 1.00D+00 WtEn= 0.00D+00
 Coeff-Com: -0.114D+00 0.131D+00 0.740D-02-0.285D-01-0.209D+00-0.110D+00
 Coeff-Com:  0.630D+00 0.693D+00
 Coeff:     -0.114D+00 0.131D+00 0.740D-02-0.285D-01-0.209D+00-0.110D+00
 Coeff:      0.630D+00 0.693D+00
 Gap=     0.050 Goal=   None    Shift=    0.000
 Gap=     0.157 Goal=   None    Shift=    0.000
 RMSDP=4.51D-05 MaxDP=1.92D-03 DE=-3.00D-05 OVMax= 7.16D-03

 Cycle   9  Pass 1  IDiag  1:
 RMSU=  1.19D-05    CP:  1.00D+00  3.00D+00  1.36D+00  1.13D+00  1.78D+00
                    CP:  2.53D+00  1.76D+00  1.39D+00
 E= -884.762175582122     Delta-E=       -0.000008503482 Rises=F Damp=F
 DIIS: error= 5.77D-05 at cycle   9 NSaved=   9.
 NSaved= 9 IEnMin= 9 EnMin= -884.762175582122     IErMin= 9 ErrMin= 5.77D-05
 ErrMax= 5.77D-05  0.00D+00 EMaxC= 1.00D-01 BMatC= 1.95D-06 BMatP= 4.91D-06
 IDIUse=1 WtCom= 1.00D+00 WtEn= 0.00D+00
 Coeff-Com: -0.134D+00 0.153D+00 0.108D-01 0.118D-02-0.228D-01-0.879D-01
 Coeff-Com: -0.212D+00 0.306D+00 0.986D+00
 Coeff:     -0.134D+00 0.153D+00 0.108D-01 0.118D-02-0.228D-01-0.879D-01
 Coeff:     -0.212D+00 0.306D+00 0.986D+00
 Gap=     0.050 Goal=   None    Shift=    0.000
 Gap=     0.157 Goal=   None    Shift=    0.000
 RMSDP=3.49D-05 MaxDP=1.35D-03 DE=-8.50D-06 OVMax= 4.99D-03

 Cycle  10  Pass 1  IDiag  1:
 RMSU=  7.02D-06    CP:  1.00D+00  3.00D+00  1.38D+00  1.14D+00  1.86D+00
                    CP:  2.74D+00  1.95D+00  2.15D+00  1.64D+00
 E= -884.762181129606     Delta-E=       -0.000005547484 Rises=F Damp=F
 DIIS: error= 4.80D-05 at cycle  10 NSaved=  10.
 NSaved=10 IEnMin=10 EnMin= -884.762181129606     IErMin=10 ErrMin= 4.80D-05
 ErrMax= 4.80D-05  0.00D+00 EMaxC= 1.00D-01 BMatC= 9.11D-07 BMatP= 1.95D-06
 IDIUse=1 WtCom= 1.00D+00 WtEn= 0.00D+00
 Coeff-Com: -0.111D-01 0.126D-01 0.187D-02 0.166D-01 0.891D-01 0.914D-02
 Coeff-Com: -0.401D+00-0.209D+00 0.360D+00 0.113D+01
 Coeff:     -0.111D-01 0.126D-01 0.187D-02 0.166D-01 0.891D-01 0.914D-02
 Coeff:     -0.401D+00-0.209D+00 0.360D+00 0.113D+01
 Gap=     0.050 Goal=   None    Shift=    0.000
 Gap=     0.156 Goal=   None    Shift=    0.000
 RMSDP=2.75D-05 MaxDP=9.78D-04 DE=-5.55D-06 OVMax= 3.04D-03

 Cycle  11  Pass 1  IDiag  1:
 RMSU=  5.93D-06    CP:  1.00D+00  3.00D+00  1.39D+00  1.15D+00  1.91D+00
                    CP:  2.87D+00  2.10D+00  2.90D+00  2.55D+00  1.81D+00
 E= -884.762184672261     Delta-E=       -0.000003542655 Rises=F Damp=F
 DIIS: error= 3.05D-05 at cycle  11 NSaved=  11.
 NSaved=11 IEnMin=11 EnMin= -884.762184672261     IErMin=11 ErrMin= 3.05D-05
 ErrMax= 3.05D-05  0.00D+00 EMaxC= 1.00D-01 BMatC= 4.05D-07 BMatP= 9.11D-07
 IDIUse=1 WtCom= 1.00D+00 WtEn= 0.00D+00
 Coeff-Com:  0.537D-01-0.614D-01-0.335D-02 0.613D-02 0.370D-01 0.378D-01
 Coeff-Com: -0.171D-01-0.194D+00-0.358D+00 0.365D+00 0.113D+01
 Coeff:      0.537D-01-0.614D-01-0.335D-02 0.613D-02 0.370D-01 0.378D-01
 Coeff:     -0.171D-01-0.194D+00-0.358D+00 0.365D+00 0.113D+01
 Gap=     0.050 Goal=   None    Shift=    0.000
 Gap=     0.156 Goal=   None    Shift=    0.000
 RMSDP=1.65D-05 MaxDP=7.27D-04 DE=-3.54D-06 OVMax= 2.21D-03

 Cycle  12  Pass 1  IDiag  1:
 RMSU=  8.49D-06    CP:  1.00D+00  3.00D+00  1.39D+00  1.15D+00  1.92D+00
                    CP:  2.93D+00  2.17D+00  3.00D+00  3.00D+00  2.85D+00
                    CP:  1.93D+00
 E= -884.762186327994     Delta-E=       -0.000001655734 Rises=F Damp=F
 DIIS: error= 1.93D-05 at cycle  12 NSaved=  12.
 NSaved=12 IEnMin=12 EnMin= -884.762186327994     IErMin=12 ErrMin= 1.93D-05
 ErrMax= 1.93D-05  0.00D+00 EMaxC= 1.00D-01 BMatC= 1.96D-07 BMatP= 4.05D-07
 IDIUse=1 WtCom= 1.00D+00 WtEn= 0.00D+00
 Coeff-Com:  0.245D-01-0.279D-01-0.176D-02-0.542D-02-0.257D-01 0.109D-01
 Coeff-Com:  0.199D+00 0.132D-01-0.340D+00-0.392D+00 0.521D+00 0.102D+01
 Coeff:      0.245D-01-0.279D-01-0.176D-02-0.542D-02-0.257D-01 0.109D-01
 Coeff:      0.199D+00 0.132D-01-0.340D+00-0.392D+00 0.521D+00 0.102D+01
 Gap=     0.050 Goal=   None    Shift=    0.000
 Gap=     0.156 Goal=   None    Shift=    0.000
 RMSDP=1.12D-05 MaxDP=4.90D-04 DE=-1.66D-06 OVMax= 1.50D-03

 Cycle  13  Pass 1  IDiag  1:
 RMSU=  6.33D-06    CP:  1.00D+00  3.00D+00  1.39D+00  1.15D+00  1.91D+00
                    CP:  2.93D+00  2.19D+00  3.00D+00  3.00D+00  3.00D+00
                    CP:  2.89D+00  1.73D+00
 E= -884.762186989759     Delta-E=       -0.000000661765 Rises=F Damp=F
 DIIS: error= 1.37D-05 at cycle  13 NSaved=  13.
 NSaved=13 IEnMin=13 EnMin= -884.762186989759     IErMin=13 ErrMin= 1.37D-05
 ErrMax= 1.37D-05  0.00D+00 EMaxC= 1.00D-01 BMatC= 9.76D-08 BMatP= 1.96D-07
 IDIUse=1 WtCom= 1.00D+00 WtEn= 0.00D+00
 Coeff-Com: -0.132D-01 0.151D-01 0.563D-03-0.769D-02-0.364D-01-0.112D-01
 Coeff-Com:  0.146D+00 0.963D-01-0.677D-01-0.429D+00-0.198D+00 0.691D+00
 Coeff-Com:  0.814D+00
 Coeff:     -0.132D-01 0.151D-01 0.563D-03-0.769D-02-0.364D-01-0.112D-01
 Coeff:      0.146D+00 0.963D-01-0.677D-01-0.429D+00-0.198D+00 0.691D+00
 Coeff:      0.814D+00
 Gap=     0.050 Goal=   None    Shift=    0.000
 Gap=     0.156 Goal=   None    Shift=    0.000
 RMSDP=7.38D-06 MaxDP=3.13D-04 DE=-6.62D-07 OVMax= 1.01D-03

 Cycle  14  Pass 1  IDiag  1:
 RMSU=  3.78D-06    CP:  1.00D+00  3.00D+00  1.39D+00  1.15D+00  1.91D+00
                    CP:  2.93D+00  2.20D+00  3.00D+00  3.00D+00  3.00D+00
                    CP:  3.00D+00  2.25D+00  1.62D+00
 E= -884.762187197346     Delta-E=       -0.000000207587 Rises=F Damp=F
 DIIS: error= 5.30D-06 at cycle  14 NSaved=  14.
 NSaved=14 IEnMin=14 EnMin= -884.762187197346     IErMin=14 ErrMin= 5.30D-06
 ErrMax= 5.30D-06  0.00D+00 EMaxC= 1.00D-01 BMatC= 2.15D-08 BMatP= 9.76D-08
 IDIUse=1 WtCom= 1.00D+00 WtEn= 0.00D+00
 Coeff-Com: -0.144D-01 0.164D-01 0.693D-03-0.321D-02-0.138D-01-0.868D-02
 Coeff-Com:  0.277D-01 0.447D-01 0.417D-01-0.122D+00-0.231D+00 0.120D+00
 Coeff-Com:  0.434D+00 0.708D+00
 Coeff:     -0.144D-01 0.164D-01 0.693D-03-0.321D-02-0.138D-01-0.868D-02
 Coeff:      0.277D-01 0.447D-01 0.417D-01-0.122D+00-0.231D+00 0.120D+00
 Coeff:      0.434D+00 0.708D+00
 Gap=     0.050 Goal=   None    Shift=    0.000
 Gap=     0.156 Goal=   None    Shift=    0.000
 RMSDP=2.59D-06 MaxDP=9.67D-05 DE=-2.08D-07 OVMax= 3.39D-04

 Cycle  15  Pass 1  IDiag  1:
 RMSU=  8.36D-07    CP:  1.00D+00  3.00D+00  1.39D+00  1.15D+00  1.92D+00
                    CP:  2.94D+00  2.21D+00  3.00D+00  3.00D+00  3.00D+00
                    CP:  3.00D+00  2.42D+00  1.84D+00  1.28D+00
 E= -884.762187223887     Delta-E=       -0.000000026541 Rises=F Damp=F
 DIIS: error= 2.27D-06 at cycle  15 NSaved=  15.
 NSaved=15 IEnMin=15 EnMin= -884.762187223887     IErMin=15 ErrMin= 2.27D-06
 ErrMax= 2.27D-06  0.00D+00 EMaxC= 1.00D-01 BMatC= 3.20D-09 BMatP= 2.15D-08
 IDIUse=1 WtCom= 1.00D+00 WtEn= 0.00D+00
 Coeff-Com: -0.301D-02 0.343D-02 0.181D-03 0.872D-03 0.459D-02-0.983D-03
 Coeff-Com: -0.303D-01-0.737D-02 0.412D-01 0.614D-01-0.497D-01-0.129D+00
 Coeff-Com: -0.235D-01 0.281D+00 0.851D+00
 Coeff:     -0.301D-02 0.343D-02 0.181D-03 0.872D-03 0.459D-02-0.983D-03
 Coeff:     -0.303D-01-0.737D-02 0.412D-01 0.614D-01-0.497D-01-0.129D+00
 Coeff:     -0.235D-01 0.281D+00 0.851D+00
 Gap=     0.050 Goal=   None    Shift=    0.000
 Gap=     0.156 Goal=   None    Shift=    0.000
 RMSDP=1.03D-06 MaxDP=3.18D-05 DE=-2.65D-08 OVMax= 1.13D-04

 Cycle  16  Pass 1  IDiag  1:
 RMSU=  3.89D-07    CP:  1.00D+00  3.00D+00  1.39D+00  1.15D+00  1.92D+00
                    CP:  2.94D+00  2.21D+00  3.00D+00  3.00D+00  3.00D+00
                    CP:  3.00D+00  2.47D+00  1.90D+00  1.37D+00  1.10D+00
 E= -884.762187227634     Delta-E=       -0.000000003747 Rises=F Damp=F
 DIIS: error= 1.24D-06 at cycle  16 NSaved=  16.
 NSaved=16 IEnMin=16 EnMin= -884.762187227634     IErMin=16 ErrMin= 1.24D-06
 ErrMax= 1.24D-06  0.00D+00 EMaxC= 1.00D-01 BMatC= 7.71D-10 BMatP= 3.20D-09
 IDIUse=1 WtCom= 1.00D+00 WtEn= 0.00D+00
 Coeff-Com:  0.828D-03-0.949D-03-0.593D-05 0.778D-03 0.301D-02 0.163D-03
 Coeff-Com: -0.143D-01-0.737D-02 0.102D-01 0.341D-01 0.140D-01-0.583D-01
 Coeff-Com: -0.674D-01-0.492D-02 0.347D+00 0.743D+00
 Coeff:      0.828D-03-0.949D-03-0.593D-05 0.778D-03 0.301D-02 0.163D-03
 Coeff:     -0.143D-01-0.737D-02 0.102D-01 0.341D-01 0.140D-01-0.583D-01
 Coeff:     -0.674D-01-0.492D-02 0.347D+00 0.743D+00
 Gap=     0.050 Goal=   None    Shift=    0.000
 Gap=     0.156 Goal=   None    Shift=    0.000
 RMSDP=3.99D-07 MaxDP=1.50D-05 DE=-3.75D-09 OVMax= 5.31D-05

 Cycle  17  Pass 1  IDiag  1:
 RMSU=  1.43D-07    CP:  1.00D+00  3.00D+00  1.39D+00  1.15D+00  1.92D+00
                    CP:  2.94D+00  2.21D+00  3.00D+00  3.00D+00  3.00D+00
                    CP:  3.00D+00  2.48D+00  1.92D+00  1.39D+00  1.20D+00
                    CP:  1.12D+00
 E= -884.762187228148     Delta-E=       -0.000000000514 Rises=F Damp=F
 DIIS: error= 9.68D-07 at cycle  17 NSaved=  17.
 NSaved=17 IEnMin=17 EnMin= -884.762187228148     IErMin=17 ErrMin= 9.68D-07
 ErrMax= 9.68D-07  0.00D+00 EMaxC= 1.00D-01 BMatC= 2.89D-10 BMatP= 7.71D-10
 IDIUse=1 WtCom= 1.00D+00 WtEn= 0.00D+00
 Coeff-Com:  0.142D-02-0.162D-02-0.525D-04 0.282D-03 0.563D-03 0.381D-03
 Coeff-Com: -0.518D-03-0.231D-02-0.508D-02 0.407D-02 0.222D-01-0.764D-03
 Coeff-Com: -0.369D-01-0.783D-01-0.238D-02 0.451D+00 0.648D+00
 Coeff:      0.142D-02-0.162D-02-0.525D-04 0.282D-03 0.563D-03 0.381D-03
 Coeff:     -0.518D-03-0.231D-02-0.508D-02 0.407D-02 0.222D-01-0.764D-03
 Coeff:     -0.369D-01-0.783D-01-0.238D-02 0.451D+00 0.648D+00
 Gap=     0.050 Goal=   None    Shift=    0.000
 Gap=     0.156 Goal=   None    Shift=    0.000
 RMSDP=1.43D-07 MaxDP=6.32D-06 DE=-5.14D-10 OVMax= 1.48D-05

 Cycle  18  Pass 1  IDiag  1:
 RMSU=  8.02D-08    CP:  1.00D+00  3.00D+00  1.39D+00  1.15D+00  1.92D+00
                    CP:  2.94D+00  2.21D+00  3.00D+00  3.00D+00  3.00D+00
                    CP:  3.00D+00  2.49D+00  1.92D+00  1.39D+00  1.23D+00
                    CP:  1.25D+00  1.11D+00
 E= -884.762187228324     Delta-E=       -0.000000000176 Rises=F Damp=F
 DIIS: error= 4.12D-07 at cycle  18 NSaved=  18.
 NSaved=18 IEnMin=18 EnMin= -884.762187228324     IErMin=18 ErrMin= 4.12D-07
 ErrMax= 4.12D-07  0.00D+00 EMaxC= 1.00D-01 BMatC= 4.77D-11 BMatP= 2.89D-10
 IDIUse=1 WtCom= 1.00D+00 WtEn= 0.00D+00
 Coeff-Com:  0.287D-03-0.327D-03-0.252D-04-0.188D-03-0.801D-03 0.249D-03
 Coeff-Com:  0.494D-02 0.200D-02-0.544D-02-0.111D-01 0.174D-02 0.222D-01
 Coeff-Com:  0.111D-01-0.255D-01-0.136D+00-0.119D+00 0.234D+00 0.102D+01
 Coeff:      0.287D-03-0.327D-03-0.252D-04-0.188D-03-0.801D-03 0.249D-03
 Coeff:      0.494D-02 0.200D-02-0.544D-02-0.111D-01 0.174D-02 0.222D-01
 Coeff:      0.111D-01-0.255D-01-0.136D+00-0.119D+00 0.234D+00 0.102D+01
 Gap=     0.050 Goal=   None    Shift=    0.000
 Gap=     0.156 Goal=   None    Shift=    0.000
 RMSDP=8.57D-08 MaxDP=3.33D-06 DE=-1.76D-10 OVMax= 7.59D-06

 Cycle  19  Pass 1  IDiag  1:
 RMSU=  4.32D-08    CP:  1.00D+00  3.00D+00  1.39D+00  1.15D+00  1.92D+00
                    CP:  2.94D+00  2.21D+00  3.00D+00  3.00D+00  3.00D+00
                    CP:  3.00D+00  2.49D+00  1.92D+00  1.40D+00  1.25D+00
                    CP:  1.34D+00  1.43D+00  1.30D+00
 E= -884.762187228408     Delta-E=       -0.000000000084 Rises=F Damp=F
 DIIS: error= 1.22D-07 at cycle  19 NSaved=  19.
 NSaved=19 IEnMin=19 EnMin= -884.762187228408     IErMin=19 ErrMin= 1.22D-07
 ErrMax= 1.22D-07  0.00D+00 EMaxC= 1.00D-01 BMatC= 7.83D-12 BMatP= 4.77D-11
 IDIUse=1 WtCom= 1.00D+00 WtEn= 0.00D+00
 Coeff-Com: -0.131D-03 0.151D-03-0.270D-05-0.956D-04-0.219D-03 0.698D-04
 Coeff-Com:  0.118D-02 0.530D-03-0.651D-03-0.258D-02-0.220D-02 0.417D-02
 Coeff-Com:  0.746D-02 0.643D-02-0.314D-01-0.861D-01-0.480D-01 0.206D+00
 Coeff-Com:  0.946D+00
 Coeff:     -0.131D-03 0.151D-03-0.270D-05-0.956D-04-0.219D-03 0.698D-04
 Coeff:      0.118D-02 0.530D-03-0.651D-03-0.258D-02-0.220D-02 0.417D-02
 Coeff:      0.746D-02 0.643D-02-0.314D-01-0.861D-01-0.480D-01 0.206D+00
 Coeff:      0.946D+00
 Gap=     0.050 Goal=   None    Shift=    0.000
 Gap=     0.156 Goal=   None    Shift=    0.000
 RMSDP=3.74D-08 MaxDP=1.29D-06 DE=-8.39D-11 OVMax= 3.80D-06

 Cycle  20  Pass 1  IDiag  1:
 RMSU=  1.33D-08    CP:  1.00D+00  3.00D+00  1.39D+00  1.15D+00  1.92D+00
                    CP:  2.94D+00  2.21D+00  3.00D+00  3.00D+00  3.00D+00
                    CP:  3.00D+00  2.49D+00  1.92D+00  1.40D+00  1.25D+00
                    CP:  1.36D+00  1.50D+00  1.50D+00  1.29D+00
 E= -884.762187228396     Delta-E=        0.000000000012 Rises=F Damp=F
 DIIS: error= 6.42D-08 at cycle  20 NSaved=  20.
 NSaved=20 IEnMin=19 EnMin= -884.762187228408     IErMin=20 ErrMin= 6.42D-08
 ErrMax= 6.42D-08  0.00D+00 EMaxC= 1.00D-01 BMatC= 1.50D-12 BMatP= 7.83D-12
 IDIUse=1 WtCom= 1.00D+00 WtEn= 0.00D+00
 Coeff-Com: -0.517D-04 0.590D-04 0.337D-05 0.201D-04 0.122D-03-0.241D-04
 Coeff-Com: -0.657D-03-0.380D-03 0.737D-03 0.161D-02-0.169D-03-0.350D-02
 Coeff-Com: -0.881D-03 0.469D-02 0.185D-01 0.122D-01-0.471D-01-0.177D+00
 Coeff-Com:  0.151D+00 0.104D+01
 Coeff:     -0.517D-04 0.590D-04 0.337D-05 0.201D-04 0.122D-03-0.241D-04
 Coeff:     -0.657D-03-0.380D-03 0.737D-03 0.161D-02-0.169D-03-0.350D-02
 Coeff:     -0.881D-03 0.469D-02 0.185D-01 0.122D-01-0.471D-01-0.177D+00
 Coeff:      0.151D+00 0.104D+01
 Gap=     0.050 Goal=   None    Shift=    0.000
 Gap=     0.156 Goal=   None    Shift=    0.000
 RMSDP=1.72D-08 MaxDP=6.25D-07 DE= 1.16D-11 OVMax= 1.37D-06

 Cycle  21  Pass 1  IDiag  1:
 Restarting incremental Fock formation.
 E= -884.762187228426     Delta-E=       -0.000000000030 Rises=F Damp=F
 DIIS: error= 3.49D-08 at cycle  21 NSaved=  20.
 NSaved=20 IEnMin=20 EnMin= -884.762187228426     IErMin=20 ErrMin= 3.49D-08
 ErrMax= 3.49D-08  0.00D+00 EMaxC= 1.00D-01 BMatC= 4.73D-13 BMatP= 1.50D-12
 IDIUse=1 WtCom= 1.00D+00 WtEn= 0.00D+00
 Coeff-Com: -0.103D-06 0.319D-05 0.306D-04 0.855D-04-0.397D-04-0.530D-03
 Coeff-Com: -0.220D-03 0.458D-03 0.121D-02 0.297D-03-0.221D-02-0.202D-02
 Coeff-Com:  0.321D-03 0.143D-01 0.233D-01-0.553D-02-0.110D+00-0.176D+00
 Coeff-Com:  0.388D+00 0.870D+00
 Coeff:     -0.103D-06 0.319D-05 0.306D-04 0.855D-04-0.397D-04-0.530D-03
 Coeff:     -0.220D-03 0.458D-03 0.121D-02 0.297D-03-0.221D-02-0.202D-02
 Coeff:      0.321D-03 0.143D-01 0.233D-01-0.553D-02-0.110D+00-0.176D+00
 Coeff:      0.388D+00 0.870D+00
 Gap=     0.050 Goal=   None    Shift=    0.000
 Gap=     0.156 Goal=   None    Shift=    0.000
 RMSDP=7.04D-09 MaxDP=2.96D-07 DE=-2.98D-11 OVMax= 6.42D-07

 SCF Done:  E(UPBE1PBE) =  -884.762187228     A.U. after   21 cycles
            NFock= 21  Conv=0.70D-08     -V/T= 2.1198
 <Sx>= 0.0000 <Sy>= 0.0000 <Sz>= 0.5000 <S**2>= 0.7520 S= 0.5010
 <L.S>= 0.000000000000E+00
 KE= 7.900923849718D+02 PE=-3.330056439744D+03 EE= 1.016066498775D+03
 Annihilation of the first spin contaminant:
 S**2 before annihilation     0.7520,   after     0.7500
 Leave Link  502 at Fri Sep 11 20:57:08 2026, MaxMem=  6442450944 cpu:             141.0 elap:             140.6
 (Enter C:\G16W\l508.exe)
 QCSCF skips out because SCF is already converged.
 Leave Link  508 at Fri Sep 11 20:57:08 2026, MaxMem=  6442450944 cpu:               0.0 elap:               0.1
 (Enter C:\G16W\l601.exe)
 Copying SCF densities to generalized density rwf, IOpCl= 1 IROHF=0.

 **********************************************************************

            Population analysis using the SCF Density.

 **********************************************************************

 Alpha  occ. eigenvalues --  -89.11458 -14.45010 -14.44016 -10.30082 -10.29992
 Alpha  occ. eigenvalues --  -10.26822 -10.26637 -10.26565 -10.26501  -8.11094
 Alpha  occ. eigenvalues --   -6.05331  -6.04772  -6.04557  -3.73926  -2.31966
 Alpha  occ. eigenvalues --   -2.31923  -2.31770  -1.04907  -0.91455  -0.89902
 Alpha  occ. eigenvalues --   -0.80144  -0.78362  -0.68878  -0.64033  -0.63493
 Alpha  occ. eigenvalues --   -0.53735  -0.53198  -0.51706  -0.48263  -0.47403
 Alpha  occ. eigenvalues --   -0.42410  -0.42046  -0.41075  -0.39133  -0.36412
 Alpha  occ. eigenvalues --   -0.35872  -0.33287  -0.31482  -0.31477  -0.31371
 Alpha  occ. eigenvalues --   -0.31286  -0.29939  -0.29791  -0.26589  -0.15967
 Alpha virt. eigenvalues --   -0.11005  -0.01737  -0.01018  -0.00392   0.00183
 Alpha virt. eigenvalues --    0.00826   0.04287   0.06727   0.08629   0.10455
 Alpha virt. eigenvalues --    0.11794   0.14321   0.15280   0.15787   0.22720
 Alpha virt. eigenvalues --    0.25343   0.26601   0.28618   0.30031   0.31437
 Alpha virt. eigenvalues --    0.32391   0.33746   0.34194   0.34863   0.37059
 Alpha virt. eigenvalues --    0.40257   0.41947   0.43637   0.44890   0.46259
 Alpha virt. eigenvalues --    0.46406   0.46898   0.47159   0.47259   0.50546
 Alpha virt. eigenvalues --    0.52318   0.52947   0.53902   0.55141   0.56905
 Alpha virt. eigenvalues --    0.57265   0.59352   0.59642   0.60416   0.61865
 Alpha virt. eigenvalues --    0.62728   0.65149   0.66427   0.69014   0.70739
 Alpha virt. eigenvalues --    0.71277   0.71561   0.72509   0.73867   0.75041
 Alpha virt. eigenvalues --    0.76890   0.78603   0.80223   0.84150   0.88822
 Alpha virt. eigenvalues --    0.91769   0.93186   0.94258   0.97567   1.02898
 Alpha virt. eigenvalues --    1.05459   1.06789   1.13095   1.17694   1.17905
 Alpha virt. eigenvalues --    1.20282   1.21384   1.22977   1.24158   1.25466
 Alpha virt. eigenvalues --    1.27045   1.32672   1.34924   1.39511   1.42708
 Alpha virt. eigenvalues --    1.49389   1.64334   1.68618   1.69113   1.73218
 Alpha virt. eigenvalues --    1.74014   1.74943   1.77425   1.79088   1.82890
 Alpha virt. eigenvalues --    1.84268   1.90107   1.92939   1.94333   1.99989
 Alpha virt. eigenvalues --    2.04843   2.05538   2.06875   2.11412   2.12688
 Alpha virt. eigenvalues --    2.13673   2.18411   2.22124   2.23354   2.24747
 Alpha virt. eigenvalues --    2.26988   2.32134   2.33421   2.38851   2.44420
 Alpha virt. eigenvalues --    2.49904   2.54752   2.57427   2.61221   2.63383
 Alpha virt. eigenvalues --    2.63480   2.63489   2.63532   2.63567   2.63764
 Alpha virt. eigenvalues --    2.63885   2.64087   2.65219   2.66554   2.74191
 Alpha virt. eigenvalues --    2.74605   2.81204   2.89487   2.91499   2.98934
 Alpha virt. eigenvalues --    2.99786   3.17474   3.18117   3.32352   3.66084
 Alpha virt. eigenvalues --   53.82177
  Beta  occ. eigenvalues --  -89.11445 -14.44871 -14.43971 -10.30066 -10.29996
  Beta  occ. eigenvalues --  -10.26812 -10.26641 -10.26570 -10.26492  -8.11081
  Beta  occ. eigenvalues --   -6.05317  -6.04760  -6.04526  -3.73810  -2.31905
  Beta  occ. eigenvalues --   -2.31873  -2.31764  -1.04836  -0.91365  -0.89870
  Beta  occ. eigenvalues --   -0.80109  -0.78337  -0.68830  -0.63996  -0.63436
  Beta  occ. eigenvalues --   -0.53681  -0.53134  -0.51684  -0.48171  -0.47386
  Beta  occ. eigenvalues --   -0.42242  -0.41988  -0.41060  -0.39069  -0.36229
  Beta  occ. eigenvalues --   -0.35551  -0.33077  -0.30923  -0.30918  -0.30757
  Beta  occ. eigenvalues --   -0.30676  -0.29724  -0.29261  -0.26489
  Beta virt. eigenvalues --   -0.10848  -0.07265  -0.01131  -0.00584  -0.00270
  Beta virt. eigenvalues --    0.02260   0.03269   0.06499   0.06834   0.08906
  Beta virt. eigenvalues --    0.11344   0.13203   0.14474   0.15346   0.16060
  Beta virt. eigenvalues --    0.22908   0.25384   0.26865   0.28758   0.30115
  Beta virt. eigenvalues --    0.31708   0.33217   0.34123   0.36793   0.37167
  Beta virt. eigenvalues --    0.38660   0.40420   0.42126   0.43935   0.45579
  Beta virt. eigenvalues --    0.46668   0.46974   0.48107   0.48682   0.48776
  Beta virt. eigenvalues --    0.51430   0.52668   0.53003   0.54031   0.55861
  Beta virt. eigenvalues --    0.57134   0.57600   0.59527   0.60067   0.60747
  Beta virt. eigenvalues --    0.62023   0.63027   0.65397   0.66509   0.69204
  Beta virt. eigenvalues --    0.70791   0.71336   0.71595   0.72614   0.73987
  Beta virt. eigenvalues --    0.75172   0.76961   0.78756   0.80251   0.84208
  Beta virt. eigenvalues --    0.88989   0.91881   0.93225   0.94401   0.97690
  Beta virt. eigenvalues --    1.02936   1.05562   1.06920   1.13237   1.17721
  Beta virt. eigenvalues --    1.17936   1.20331   1.21395   1.23044   1.24169
  Beta virt. eigenvalues --    1.25479   1.27057   1.32859   1.34949   1.39541
  Beta virt. eigenvalues --    1.42827   1.49412   1.64345   1.68628   1.69123
  Beta virt. eigenvalues --    1.73234   1.74027   1.74951   1.77429   1.79099
  Beta virt. eigenvalues --    1.82925   1.84300   1.90127   1.92997   1.94338
  Beta virt. eigenvalues --    2.00007   2.05277   2.06179   2.06888   2.11577
  Beta virt. eigenvalues --    2.12762   2.13709   2.18517   2.22163   2.23384
  Beta virt. eigenvalues --    2.24846   2.27066   2.32182   2.33474   2.38886
  Beta virt. eigenvalues --    2.44446   2.50015   2.54845   2.57558   2.61275
  Beta virt. eigenvalues --    2.63433   2.63472   2.63486   2.63564   2.63603
  Beta virt. eigenvalues --    2.63831   2.63918   2.64145   2.65307   2.66637
  Beta virt. eigenvalues --    2.74283   2.74609   2.81227   2.89573   2.91528
  Beta virt. eigenvalues --    2.98999   2.99812   3.17564   3.18141   3.32390
  Beta virt. eigenvalues --    3.66104  53.82327
          Condensed to atoms (all electrons):
               1          2          3          4          5          6
     1  C    5.144899   0.192339   0.091572  -0.157662  -0.000398  -0.000166
     2  C    0.192339   5.136226   0.274923   0.126143   0.006843  -0.000368
     3  C    0.091572   0.274923   5.191155   0.184149  -0.074565   0.011501
     4  C   -0.157662   0.126143   0.184149   5.344215   0.406134  -0.100828
     5  N   -0.000398   0.006843  -0.074565   0.406134   6.938795   0.249080
     6  S   -0.000166  -0.000368   0.011501  -0.100828   0.249080  15.127643
     7  N    0.007405  -0.000820   0.012834  -0.101955  -0.077297   0.303738
     8  C    0.121876  -0.154483   0.053156   0.136036  -0.077739  -0.119230
     9  C    0.283356   0.095386  -0.102530   0.048624   0.009629   0.011025
    10  H    0.452329  -0.071185   0.014327  -0.001941   0.000005   0.000006
    11  H   -0.068936   0.451614  -0.064772   0.015553  -0.000115   0.000004
    12  H    0.013485  -0.071575   0.456500  -0.061317  -0.008953  -0.000249
    13  H   -0.078790   0.014988  -0.003867   0.020555   0.000044  -0.000589
    14  Ag   0.000059   0.000867  -0.005472  -0.003373   0.028692  -0.002452
               7          8          9         10         11         12
     1  C    0.007405   0.121876   0.283356   0.452329  -0.068936   0.013485
     2  C   -0.000820  -0.154483   0.095386  -0.071185   0.451614  -0.071575
     3  C    0.012834   0.053156  -0.102530   0.014327  -0.064772   0.456500
     4  C   -0.101955   0.136036   0.048624  -0.001941   0.015553  -0.061317
     5  N   -0.077297  -0.077739   0.009629   0.000005  -0.000115  -0.008953
     6  S    0.303738  -0.119230   0.011025   0.000006   0.000004  -0.000249
     7  N    6.758417   0.497657  -0.070501  -0.000108   0.000007  -0.000086
     8  C    0.497657   5.310560   0.199844   0.016000  -0.001388   0.016073
     9  C   -0.070501   0.199844   5.132418  -0.065547   0.013220  -0.002767
    10  H   -0.000108   0.016000  -0.065547   0.648908  -0.012065  -0.000214
    11  H    0.000007  -0.001388   0.013220  -0.012065   0.644605  -0.010861
    12  H   -0.000086   0.016073  -0.002767  -0.000214  -0.010861   0.627628
    13  H   -0.005726  -0.067854   0.462240  -0.012159  -0.000201   0.000021
    14  Ag   0.002858   0.003463  -0.001019  -0.000010  -0.000030   0.005953
              13         14
     1  C   -0.078790   0.000059
     2  C    0.014988   0.000867
     3  C   -0.003867  -0.005472
     4  C    0.020555  -0.003373
     5  N    0.000044   0.028692
     6  S   -0.000589  -0.002452
     7  N   -0.005726   0.002858
     8  C   -0.067854   0.003463
     9  C    0.462240  -0.001019
    10  H   -0.012159  -0.000010
    11  H   -0.000201  -0.000030
    12  H    0.000021   0.005953
    13  H    0.651941   0.000044
    14  Ag   0.000044  19.042606
          Atomic-Atomic Spin Densities.
               1          2          3          4          5          6
     1  C   -0.006705   0.000497  -0.000040   0.000081  -0.000001  -0.000011
     2  C    0.000497   0.008694  -0.000758  -0.000989  -0.000046   0.000013
     3  C   -0.000040  -0.000758  -0.003264   0.002722  -0.001578   0.000584
     4  C    0.000081  -0.000989   0.002722   0.012247  -0.002812   0.004126
     5  N   -0.000001  -0.000046  -0.001578  -0.002812   0.085796  -0.015016
     6  S   -0.000011   0.000013   0.000584   0.004126  -0.015016   0.032405
     7  N    0.000030  -0.000003  -0.000242  -0.002002   0.001234  -0.006153
     8  C    0.000803  -0.000576  -0.003678  -0.004052   0.002049  -0.002665
     9  C   -0.001064  -0.000095   0.000714   0.000861  -0.000121   0.000207
    10  H   -0.000033  -0.000049   0.000013  -0.000001   0.000000   0.000000
    11  H    0.000029   0.000077   0.000006  -0.000019   0.000000   0.000000
    12  H   -0.000049   0.000009   0.000007   0.000485  -0.000280   0.000024
    13  H    0.000027  -0.000004  -0.000004  -0.000039   0.000001   0.000000
    14  Ag  -0.000024   0.000418   0.001490  -0.002391  -0.054898   0.005626
               7          8          9         10         11         12
     1  C    0.000030   0.000803  -0.001064  -0.000033   0.000029  -0.000049
     2  C   -0.000003  -0.000576  -0.000095  -0.000049   0.000077   0.000009
     3  C   -0.000242  -0.003678   0.000714   0.000013   0.000006   0.000007
     4  C   -0.002002  -0.004052   0.000861  -0.000001  -0.000019   0.000485
     5  N    0.001234   0.002049  -0.000121   0.000000   0.000000  -0.000280
     6  S   -0.006153  -0.002665   0.000207   0.000000   0.000000   0.000024
     7  N    0.024240   0.002017  -0.000699   0.000000   0.000000  -0.000006
     8  C    0.002017   0.004834  -0.002502  -0.000041   0.000011  -0.000186
     9  C   -0.000699  -0.002502   0.010969   0.000040  -0.000010   0.000045
    10  H    0.000000  -0.000041   0.000040   0.000387  -0.000001   0.000001
    11  H    0.000000   0.000011  -0.000010  -0.000001  -0.000448   0.000023
    12  H   -0.000006  -0.000186   0.000045   0.000001   0.000023  -0.000503
    13  H   -0.000005  -0.000032   0.000171  -0.000006   0.000000   0.000000
    14  Ag  -0.000272  -0.002247   0.000235   0.000002  -0.000010   0.000946
              13         14
     1  C    0.000027  -0.000024
     2  C   -0.000004   0.000418
     3  C   -0.000004   0.001490
     4  C   -0.000039  -0.002391
     5  N    0.000001  -0.054898
     6  S    0.000000   0.005626
     7  N   -0.000005  -0.000272
     8  C   -0.000032  -0.002247
     9  C    0.000171   0.000235
    10  H   -0.000006   0.000002
    11  H    0.000000  -0.000010
    12  H    0.000000   0.000946
    13  H   -0.000440  -0.000003
    14  Ag  -0.000003   0.991965
 Mulliken charges and spin densities:
               1          2
     1  C   -0.001367  -0.006459
     2  C   -0.000898   0.007190
     3  C   -0.038912  -0.004027
     4  C    0.145667   0.008217
     5  N   -0.400155   0.014330
     6  S    0.520884   0.019139
     7  N   -0.326423   0.018138
     8  C    0.066031  -0.006266
     9  C   -0.013376   0.008749
    10  H    0.031654   0.000311
    11  H    0.033364  -0.000342
    12  H    0.036362   0.000516
    13  H    0.019354  -0.000334
    14  Ag  -0.072187   0.940837
 Sum of Mulliken charges =   0.00000   1.00000
 Mulliken charges and spin densities with hydrogens summed into heavy atoms:
               1          2
     1  C    0.030287  -0.006147
     2  C    0.032466   0.006848
     3  C   -0.002550  -0.003511
     4  C    0.145667   0.008217
     5  N   -0.400155   0.014330
     6  S    0.520884   0.019139
     7  N   -0.326423   0.018138
     8  C    0.066031  -0.006266
     9  C    0.005979   0.008415
    14  Ag  -0.072187   0.940837
 Electronic spatial extent (au):  <R**2>=           3056.1831
 Charge=              0.0000 electrons
 Dipole moment (field-independent basis, Debye):
    X=             -2.6312    Y=              2.0705    Z=             -0.6105  Tot=              3.4034
 Quadrupole moment (field-independent basis, Debye-Ang):
   XX=            -77.0011   YY=            -88.8903   ZZ=            -81.5315
   XY=              8.0382   XZ=             -3.2385   YZ=              3.1829
 Traceless Quadrupole moment (field-independent basis, Debye-Ang):
   XX=              5.4732   YY=             -6.4160   ZZ=              0.9428
   XY=              8.0382   XZ=             -3.2385   YZ=              3.1829
 Octapole moment (field-independent basis, Debye-Ang**2):
  XXX=           -368.8889  YYY=            258.9979  ZZZ=            -41.5324  XYY=           -174.2181
  XXY=            100.6316  XXZ=            -23.3127  XZZ=           -122.8287  YZZ=             75.3918
  YYZ=            -26.5347  XYZ=             11.9627
 Hexadecapole moment (field-independent basis, Debye-Ang**3):
 XXXX=          -2635.4427 YYYY=          -2238.9592 ZZZZ=           -194.0486 XXXY=            793.4349
 XXXZ=           -158.6849 YYYX=            847.0058 YYYZ=            257.3523 ZZZX=           -118.0228
 ZZZY=            201.5533 XXYY=           -943.0643 XXZZ=           -497.8708 YYZZ=           -396.1634
 XXYZ=            105.3162 YYXZ=            -86.5806 ZZXY=            243.7558
 N-N= 6.391353687688D+02 E-N=-3.330056439533D+03  KE= 7.900923849718D+02
                          Isotropic Fermi Contact Couplings
        Atom                 a.u.       MegaHertz       Gauss      10(-4) cm-1
     1  C(13)             -0.00132      -1.48418      -0.52959      -0.49507
     2  C(13)              0.00151       1.69425       0.60455       0.56514
     3  C(13)             -0.00026      -0.28865      -0.10300      -0.09628
     4  C(13)              0.00341       3.83290       1.36768       1.27852
     5  N(14)              0.15406      49.77714      17.76172      16.60387
     6  S(33)              0.00238       0.81611       0.29121       0.27223
     7  N(14)              0.00557       1.79946       0.64209       0.60024
     8  C(13)              0.00304       3.41220       1.21756       1.13819
     9  C(13)              0.00172       1.93418       0.69016       0.64517
    10  H(1)               0.00010       0.42716       0.15242       0.14249
    11  H(1)              -0.00010      -0.45298      -0.16164      -0.15110
    12  H(1)               0.00026       1.14572       0.40882       0.38217
    13  H(1)              -0.00007      -0.32568      -0.11621      -0.10864
    14  Ag(107             0.00030      -0.05483      -0.01956      -0.01829
 --------------------------------------------------------
       Center         ----  Spin Dipole Couplings  ----
                      3XX-RR        3YY-RR        3ZZ-RR
 --------------------------------------------------------
     1   Atom        0.002902      0.003065     -0.005967
     2   Atom       -0.001780     -0.003432      0.005212
     3   Atom        0.002715      0.003893     -0.006608
     4   Atom       -0.001576     -0.003089      0.004664
     5   Atom       -0.008062      0.048028     -0.039966
     6   Atom       -0.017895     -0.009721      0.027616
     7   Atom       -0.023282     -0.014021      0.037304
     8   Atom        0.003946      0.004411     -0.008357
     9   Atom       -0.003639     -0.003162      0.006800
    10   Atom        0.000180      0.000276     -0.000456
    11   Atom        0.001123     -0.000525     -0.000598
    12   Atom        0.003444     -0.000800     -0.002644
    13   Atom       -0.000427      0.000907     -0.000480
    14   Atom        0.012948     -0.017851      0.004903
 --------------------------------------------------------
                        XY            XZ            YZ
 --------------------------------------------------------
     1   Atom       -0.000513     -0.000298      0.000283
     2   Atom       -0.001171      0.001993     -0.001223
     3   Atom       -0.002243     -0.000045     -0.003923
     4   Atom       -0.004511     -0.007558      0.004082
     5   Atom       -0.040529     -0.020066      0.060819
     6   Atom        0.034594      0.057362      0.067265
     7   Atom        0.004261      0.006634      0.032921
     8   Atom       -0.002270     -0.000541     -0.002776
     9   Atom       -0.001145     -0.000565      0.001711
    10   Atom       -0.000251      0.000078     -0.000090
    11   Atom       -0.000254      0.000227     -0.000105
    12   Atom       -0.002509      0.001387     -0.000471
    13   Atom       -0.000671      0.000041     -0.000240
    14   Atom        0.014557     -0.006981      0.016887
 --------------------------------------------------------


 ---------------------------------------------------------------------------------
              Anisotropic Spin Dipole Couplings in Principal Axis System
 ---------------------------------------------------------------------------------

       Atom             a.u.   MegaHertz   Gauss  10(-4) cm-1        Axes

              Baa    -0.0060    -0.803    -0.287    -0.268  0.0319 -0.0294  0.9991
     1 C(13)  Bbb     0.0025     0.331     0.118     0.110  0.7593  0.6508 -0.0050
              Bcc     0.0035     0.472     0.169     0.158 -0.6500  0.7587  0.0431
 
              Baa    -0.0040    -0.543    -0.194    -0.181  0.4435  0.8960  0.0230
     2 C(13)  Bbb    -0.0019    -0.259    -0.093    -0.087  0.8553 -0.4154 -0.3097
              Bcc     0.0060     0.802     0.286     0.267  0.2679 -0.1570  0.9506
 
              Baa    -0.0080    -1.069    -0.381    -0.357  0.0724  0.3255  0.9428
     3 C(13)  Bbb     0.0015     0.208     0.074     0.069  0.8631  0.4532 -0.2228
              Bcc     0.0064     0.861     0.307     0.287 -0.4998  0.8298 -0.2482
 
              Baa    -0.0075    -1.011    -0.361    -0.337  0.7962  0.5123  0.3219
     4 C(13)  Bbb    -0.0045    -0.605    -0.216    -0.202 -0.2702  0.7770 -0.5685
              Bcc     0.0120     1.616     0.577     0.539 -0.5414  0.3657  0.7571
 
              Baa    -0.0710    -2.740    -0.978    -0.914 -0.0115 -0.4580  0.8889
     5 N(14)  Bbb    -0.0273    -1.052    -0.375    -0.351  0.9202  0.3430  0.1886
              Bcc     0.0983     3.792     1.353     1.265 -0.3912  0.8202  0.4175
 
              Baa    -0.0642    -2.633    -0.940    -0.878 -0.4164 -0.5897  0.6920
     6 S(33)  Bbb    -0.0486    -1.991    -0.710    -0.664  0.7872 -0.6147 -0.0500
              Bcc     0.1128     4.624     1.650     1.542  0.4548  0.5239  0.7202
 
              Baa    -0.0302    -1.166    -0.416    -0.389 -0.1459  0.8949 -0.4219
     7 N(14)  Bbb    -0.0239    -0.923    -0.329    -0.308  0.9842  0.0879 -0.1539
              Bcc     0.0542     2.089     0.746     0.697  0.1006  0.4376  0.8935
 
              Baa    -0.0090    -1.209    -0.432    -0.403  0.0783  0.2146  0.9736
     8 C(13)  Bbb     0.0023     0.315     0.112     0.105  0.7793  0.5959 -0.1940
              Bcc     0.0067     0.895     0.319     0.298 -0.6217  0.7739 -0.1206
 
              Baa    -0.0046    -0.619    -0.221    -0.206  0.7457  0.6634 -0.0626
     9 C(13)  Bbb    -0.0025    -0.339    -0.121    -0.113 -0.6627  0.7285 -0.1737
              Bcc     0.0071     0.958     0.342     0.320 -0.0697  0.1710  0.9828
 
              Baa    -0.0005    -0.251    -0.090    -0.084 -0.0837  0.0911  0.9923
    10 H(1)   Bbb     0.0000    -0.015    -0.005    -0.005  0.7692  0.6390  0.0062
              Bcc     0.0005     0.266     0.095     0.089 -0.6335  0.7638 -0.1236
 
              Baa    -0.0007    -0.360    -0.128    -0.120 -0.0296  0.5422  0.8397
    11 H(1)   Bbb    -0.0005    -0.277    -0.099    -0.092  0.2004  0.8262 -0.5265
              Bcc     0.0012     0.637     0.227     0.212  0.9793 -0.1527  0.1331
 
              Baa    -0.0029    -1.574    -0.562    -0.525 -0.2346 -0.0614  0.9702
    12 H(1)   Bbb    -0.0019    -1.035    -0.369    -0.345  0.3854  0.9104  0.1508
              Bcc     0.0049     2.609     0.931     0.870  0.8925 -0.4092  0.1899
 
              Baa    -0.0007    -0.384    -0.137    -0.128  0.8815  0.4005  0.2502
    13 H(1)   Bbb    -0.0005    -0.266    -0.095    -0.089 -0.2845  0.0275  0.9583
              Bcc     0.0012     0.650     0.232     0.217 -0.3769  0.9159 -0.1382
 
              Baa    -0.0326     0.706     0.252     0.236 -0.3342  0.8343 -0.4384
    14 Ag(107 Bbb     0.0138    -0.300    -0.107    -0.100 -0.1206  0.4235  0.8978
              Bcc     0.0187    -0.407    -0.145    -0.136  0.9348  0.3529 -0.0409
 

 ---------------------------------------------------------------------------------

 No NMR shielding tensors so no spin-rotation constants.
 Leave Link  601 at Fri Sep 11 20:57:09 2026, MaxMem=  6442450944 cpu:               1.0 elap:               1.0
 (Enter C:\G16W\l9999.exe)
 Unable to Open any file for archive entry.
 1|1|UNPC-DESKTOP-2JKEGCA|SP|UPBE1PBE|def2SVP|C6H4Ag1N2S1(2)|JHKIM|11-S
 ep-2026|0||#P PBE1PBE/Def2SVP EmpiricalDispersion=GD3BJ SP SCF=(XQC,Ma
 xCycle=128) NoSymm Guess=Read||BTD t=0.250 dz=+0.40 class=site2site||0
 ,2|C,0,-1.400023,0.719011,0.079614|C,0,-1.394141,-0.672233,0.126589|C,
 0,-0.198659,-1.373371,0.061546|C,0,0.983943,-0.661156,-0.05075|N,0,2.2
 44593,-1.191239,-0.126615|S,0,3.330762,0.13763,-0.252539|N,0,2.20699,1
 .304055,-0.208559|C,0,0.986478,0.763236,-0.099412|C,0,-0.232315,1.4480
 65,-0.032072|H,0,-2.344291,1.240556,0.13209|H,0,-2.325813,-1.210325,0.
 214251|H,0,-0.164295,-2.471476,0.096407|H,0,-0.238097,2.524956,-0.0683
 09|Ag,0,3.13202477,-3.52847821,0.8167973||Version=EM64W-G16RevC.01|HF=
 -884.7621872|S2=0.752012|S2-1=0.|S2A=0.750004|RMSD=7.043e-009|Dipole=-
 1.0351869,0.814593,-0.2402053|Quadrupole=4.0691806,-4.770147,0.7009664
 ,5.9762282,-2.4077339,2.3664447|PG=C01 [X(C6H4Ag1N2S1)]||@
 The archive entry for this job was punched.


 BLACK HOLES SUCK.
 Job cpu time:       0 days  0 hours  2 minutes 35.0 seconds.
 Elapsed time:       0 days  0 hours  2 minutes 32.6 seconds.
 File lengths (MBytes):  RWF=     37 Int=      0 D2E=      0 Chk=      3 Scr=      1
 Normal termination of Gaussian 16 at Fri Sep 11 20:57:10 2026.
