 Entering Gaussian System, Link 0=C:\G16W\g16.exe
 Input=BTD_t0_z0_ref.gjf
 Output=BTD_t0_z0_ref.out
 Initial command:
 C:\G16W\l1.exe ".\Gau-127056.inp" "BTD_t0_z0_ref.out" /scrdir=".\"
 Entering Link 1 = C:\G16W\l1.exe PID=    109768.
  
 Copyright (c) 1988-2019, Gaussian, Inc.  All Rights Reserved.
  
 This is part of the Gaussian(R) 16 program.  It is based on
 the Gaussian(R) 09 system (copyright 2009, Gaussian, Inc.),
 the Gaussian(R) 03 system (copyright 2003, Gaussian, Inc.),
 the Gaussian(R) 98 system (copyright 1998, Gaussian, Inc.),
 the Gaussian(R) 94 system (copyright 1995, Gaussian, Inc.),
 the Gaussian 92(TM) system (copyright 1992, Gaussian, Inc.),
 the Gaussian 90(TM) system (copyright 1990, Gaussian, Inc.),
 the Gaussian 88(TM) system (copyright 1988, Gaussian, Inc.),
 the Gaussian 86(TM) system (copyright 1986, Carnegie Mellon
 University), and the Gaussian 82(TM) system (copyright 1983,
 Carnegie Mellon University). Gaussian is a federally registered
 trademark of Gaussian, Inc.
  
 This software contains proprietary and confidential information,
 including trade secrets, belonging to Gaussian, Inc.
  
 This software is provided under written license and may be
 used, copied, transmitted, or stored only in accord with that
 written license.
  
 The following legend is applicable only to US Government
 contracts under FAR:
  
                    RESTRICTED RIGHTS LEGEND
  
 Use, reproduction and disclosure by the US Government is
 subject to restrictions as set forth in subparagraphs (a)
 and (c) of the Commercial Computer Software - Restricted
 Rights clause in FAR 52.227-19.
  
 Gaussian, Inc.
 340 Quinnipiac St., Bldg. 40, Wallingford CT 06492
  
  
 ---------------------------------------------------------------
 Warning -- This program may not be used in any manner that
 competes with the business of Gaussian, Inc. or will provide
 assistance to any competitor of Gaussian, Inc.  The licensee
 of this program is prohibited from giving any competitor of
 Gaussian, Inc. access to this program.  By using this program,
 the user acknowledges that Gaussian, Inc. is engaged in the
 business of creating and licensing software in the field of
 computational chemistry and represents and warrants to the
 licensee that it is not a competitor of Gaussian, Inc. and that
 it will not use this program in any manner prohibited above.
 ---------------------------------------------------------------
  

 Cite this work as:
 Gaussian 16, Revision C.01,
 M. J. Frisch, G. W. Trucks, H. B. Schlegel, G. E. Scuseria, 
 M. A. Robb, J. R. Cheeseman, G. Scalmani, V. Barone, 
 G. A. Petersson, H. Nakatsuji, X. Li, M. Caricato, A. V. Marenich, 
 J. Bloino, B. G. Janesko, R. Gomperts, B. Mennucci, H. P. Hratchian, 
 J. V. Ortiz, A. F. Izmaylov, J. L. Sonnenberg, D. Williams-Young, 
 F. Ding, F. Lipparini, F. Egidi, J. Goings, B. Peng, A. Petrone, 
 T. Henderson, D. Ranasinghe, V. G. Zakrzewski, J. Gao, N. Rega, 
 G. Zheng, W. Liang, M. Hada, M. Ehara, K. Toyota, R. Fukuda, 
 J. Hasegawa, M. Ishida, T. Nakajima, Y. Honda, O. Kitao, H. Nakai, 
 T. Vreven, K. Throssell, J. A. Montgomery, Jr., J. E. Peralta, 
 F. Ogliaro, M. J. Bearpark, J. J. Heyd, E. N. Brothers, K. N. Kudin, 
 V. N. Staroverov, T. A. Keith, R. Kobayashi, J. Normand, 
 K. Raghavachari, A. P. Rendell, J. C. Burant, S. S. Iyengar, 
 J. Tomasi, M. Cossi, J. M. Millam, M. Klene, C. Adamo, R. Cammi, 
 J. W. Ochterski, R. L. Martin, K. Morokuma, O. Farkas, 
 J. B. Foresman, and D. J. Fox, Gaussian, Inc., Wallingford CT, 2019.
 
 ******************************************
 Gaussian 16:  EM64W-G16RevC.01 30-May-2019
                11-Sep-2026 
 ******************************************
 %Chk=BTD.chk
 %NProcShared=8
 Will use up to    8 processors via shared memory.
 %Mem=48GB
 ----------------------------------------------------------------------
 #P PBE1PBE/Def2SVP EmpiricalDispersion=GD3BJ SP SCF=(XQC,MaxCycle=128)
  NoSymm Guess=Read
 ----------------------------------------------------------------------
 1/38=1,172=1/1;
 2/12=2,15=1,17=6,18=5,40=1/2;
 3/5=43,7=101,11=2,25=1,30=1,74=-13,116=-2,124=41/1,2,3;
 4/5=1/1;
 5/5=2,7=128,8=3,13=1,38=6/2,8;
 6/7=2,8=2,9=2,10=2,28=1/1;
 99/5=1,9=1/99;
 Leave Link    1 at Fri Sep 11 21:12:22 2026, MaxMem=  6442450944 cpu:               0.0 elap:               0.3
 (Enter C:\G16W\l101.exe)
 ------------------------------------
 BTD t=0.000 dz=+0.00 class=site2site
 ------------------------------------
 Symbolic Z-matrix:
 Charge =  0 Multiplicity = 2
 C                    -1.40002   0.71901   0.07961 
 C                    -1.39414  -0.67223   0.12659 
 C                    -0.19866  -1.37337   0.06155 
 C                     0.98394  -0.66116  -0.05075 
 N                     2.24459  -1.19124  -0.12662 
 S                     3.33076   0.13763  -0.25254 
 N                     2.20699   1.30406  -0.20856 
 C                     0.98648   0.76324  -0.09941 
 C                    -0.23232   1.44807  -0.03207 
 H                    -2.34429   1.24056   0.13209 
 H                    -2.32581  -1.21033   0.21425 
 H                    -0.1643   -2.47148   0.09641 
 H                    -0.2381    2.52496  -0.06831 
 Ag                    2.47385  -3.72046  -0.05615 
 
 ITRead=  0  0  0  0  0  0  0  0  0  0  0  0  0  0
 MicOpt= -1 -1 -1 -1 -1 -1 -1 -1 -1 -1 -1 -1 -1 -1
 NAtoms=     14 NQM=       14 NQMF=       0 NMMI=      0 NMMIF=      0
                NMic=       0 NMicF=      0.
                    Isotopes and Nuclear Properties:
 (Nuclear quadrupole moments (NQMom) in fm**2, nuclear magnetic moments (NMagM)
  in nuclear magnetons)

  Atom         1           2           3           4           5           6           7           8           9          10
 IAtWgt=          12          12          12          12          14          32          14          12          12           1
 AtmWgt=  12.0000000  12.0000000  12.0000000  12.0000000  14.0030740  31.9720718  14.0030740  12.0000000  12.0000000   1.0078250
 NucSpn=           0           0           0           0           2           0           2           0           0           1
 AtZEff=   0.0000000   0.0000000   0.0000000   0.0000000   0.0000000   0.0000000   0.0000000   0.0000000   0.0000000   0.0000000
 NQMom=    0.0000000   0.0000000   0.0000000   0.0000000   2.0440000   0.0000000   2.0440000   0.0000000   0.0000000   0.0000000
 NMagM=    0.0000000   0.0000000   0.0000000   0.0000000   0.4037610   0.0000000   0.4037610   0.0000000   0.0000000   2.7928460
 AtZNuc=   6.0000000   6.0000000   6.0000000   6.0000000   7.0000000  16.0000000   7.0000000   6.0000000   6.0000000   1.0000000

  Atom        11          12          13          14
 IAtWgt=           1           1           1         107
 AtmWgt=   1.0078250   1.0078250   1.0078250 106.9050900
 NucSpn=           1           1           1           1
 AtZEff=   0.0000000   0.0000000   0.0000000   0.0000000
 NQMom=    0.0000000   0.0000000   0.0000000   0.0000000
 NMagM=    2.7928460   2.7928460   2.7928460  -0.1135700
 AtZNuc=   1.0000000   1.0000000   1.0000000  47.0000000
 Leave Link  101 at Fri Sep 11 21:12:22 2026, MaxMem=  6442450944 cpu:               0.0 elap:               0.3
 (Enter C:\G16W\l202.exe)
                          Input orientation:                          
 ---------------------------------------------------------------------
 Center     Atomic      Atomic             Coordinates (Angstroms)
 Number     Number       Type             X           Y           Z
 ---------------------------------------------------------------------
      1          6           0       -1.400023    0.719011    0.079614
      2          6           0       -1.394141   -0.672233    0.126589
      3          6           0       -0.198659   -1.373371    0.061546
      4          6           0        0.983943   -0.661156   -0.050750
      5          7           0        2.244593   -1.191239   -0.126615
      6         16           0        3.330762    0.137630   -0.252539
      7          7           0        2.206990    1.304055   -0.208559
      8          6           0        0.986478    0.763236   -0.099412
      9          6           0       -0.232315    1.448065   -0.032072
     10          1           0       -2.344291    1.240556    0.132090
     11          1           0       -2.325813   -1.210325    0.214251
     12          1           0       -0.164295   -2.471476    0.096407
     13          1           0       -0.238097    2.524956   -0.068309
     14         47           0        2.473846   -3.720464   -0.056150
 ---------------------------------------------------------------------
                    Distance matrix (angstroms):
                    1          2          3          4          5
     1  C    0.000000
     2  C    1.392049   0.000000
     3  C    2.412813   1.387445   0.000000
     4  C    2.757744   2.384713   1.385066   0.000000
     5  N    4.120050   3.684273   2.457246   1.369665   0.000000
     6  S    4.777934   4.808776   3.852089   2.487235   1.720905
     7  N    3.665496   4.121430   3.609531   2.320087   2.496922
     8  C    2.393615   2.789085   2.448581   1.425225   2.324557
     9  C    1.381136   2.422948   2.823189   2.434840   3.620765
    10  H    1.080002   2.135785   3.382503   3.837588   5.199847
    11  H    2.144190   1.079463   2.138852   3.365456   4.583139
    12  H    3.421478   2.179612   1.099196   2.148805   2.737058
    13  H    2.152531   3.405355   3.900689   3.412477   4.469592
    14  Ag   5.893575   4.928126   3.558789   3.402823   2.540571
                    6          7          8          9         10
     6  S    0.000000
     7  N    1.620292   0.000000
     8  C    2.431152   1.339421   0.000000
     9  C    3.802810   2.449917   1.399636   0.000000
    10  H    5.794015   4.564453   3.372751   2.128486   0.000000
    11  H    5.833671   5.200690   3.868410   3.392705   2.452327
    12  H    4.375457   4.468851   3.438893   3.922236   4.304978
    13  H    4.297676   2.736553   2.145742   1.077516   2.475055
    14  Ag   3.956989   5.033908   4.724161   5.834173   6.918208
                   11         12         13         14
    11  H    0.000000
    12  H    2.505304   0.000000
    13  H    4.288441   4.999691   0.000000
    14  Ag   5.423158   2.922847   6.808822   0.000000
 Symmetry turned off by external request.
 Stoichiometry    C6H4AgN2S(2)
 Framework group  C1[X(C6H4AgN2S)]
 Deg. of freedom    36
 Full point group                 C1      NOp   1
 Rotational constants (GHZ):           1.3379553           0.4430622           0.3328420
 Leave Link  202 at Fri Sep 11 21:12:23 2026, MaxMem=  6442450944 cpu:               0.0 elap:               0.1
 (Enter C:\G16W\l301.exe)
 Standard basis: def2SVP (5D, 7F)
 Ernie: Thresh=  0.10000D-02 Tol=  0.10000D-05 Strict=F.
   181 basis functions,   330 primitive gaussians,   195 cartesian basis functions
    45 alpha electrons       44 beta electrons
       nuclear repulsion energy       645.8028480095 Hartrees.
 IExCor= 1009 DFT=T Ex+Corr=PBE1PBE ExCW=0 ScaHFX=  0.250000
 ScaDFX=  0.750000  0.750000  1.000000  1.000000 ScalE2=  1.000000  1.000000
 IRadAn=      5 IRanWt=     -1 IRanGd=            0 ICorTp=0 IEmpDi=141
 NAtoms=   14 NActive=   14 NUniq=   14 SFac= 1.00D+00 NAtFMM=   60 NAOKFM=F Big=F
 Integral buffers will be    131072 words long.
 Raffenetti 2 integral format.
 Two-electron integral symmetry is turned off.
 R6Disp:  Grimme-D3(BJ) Dispersion energy=       -0.0177147823 Hartrees.
 Nuclear repulsion after empirical dispersion term =      645.7851332272 Hartrees.
 Leave Link  301 at Fri Sep 11 21:12:23 2026, MaxMem=  6442450944 cpu:               0.0 elap:               0.2
 (Enter C:\G16W\l302.exe)
 NPDir=0 NMtPBC=     1 NCelOv=     1 NCel=       1 NClECP=     1 NCelD=      1
         NCelK=      1 NCelE2=     1 NClLst=     1 CellRange=     0.0.
 One-electron integrals computed using PRISM.
   1 Symmetry operations used in ECPInt.
 ECPInt:  NShTT=    3160 NPrTT=   11935 LenC2=    3087 LenP2D=    9037.
 LDataN:  DoStor=T MaxTD1= 7 Len=  274
 NBasis=   181 RedAO= T EigKep=  2.17D-04  NBF=   181
 NBsUse=   181 1.00D-06 EigRej= -1.00D+00 NBFU=   181
 Precomputing XC quadrature grid using
 IXCGrd= 4 IRadAn=           5 IRanWt=          -1 IRanGd=           0 AccXCQ= 0.00D+00.
 Defaulting to unpruned grid for atomic number  47.
 Generated NRdTot=       0 NPtTot=           0 NUsed=           0 NTot=          32
 NSgBfM=   194   194   194   194   194 MxSgAt=    14 MxSgA2=    14.
 Leave Link  302 at Fri Sep 11 21:12:27 2026, MaxMem=  6442450944 cpu:               4.0 elap:               3.6
 (Enter C:\G16W\l303.exe)
 DipDrv:  MaxL=1.
 Leave Link  303 at Fri Sep 11 21:12:27 2026, MaxMem=  6442450944 cpu:               0.0 elap:               0.2
 (Enter C:\G16W\l401.exe)
 Initial guess from the checkpoint file:  "BTD.chk"
 B after Tr=    -0.312850    0.480817   -0.313473
         Rot=   -0.516811    0.836316   -0.063111   -0.171754 Ang= 242.24 deg.
 Guess basis will be translated and rotated to current coordinates.
 JPrj=2 DoOrth=T DoCkMO=T.
 Initial guess <Sx>= 0.0000 <Sy>= 0.0000 <Sz>= 0.5000 <S**2>= 0.7529 S= 0.5015
 Leave Link  401 at Fri Sep 11 21:12:34 2026, MaxMem=  6442450944 cpu:               7.0 elap:               6.4
 (Enter C:\G16W\l502.exe)
 Two-electron integral symmetry not used.
 UHF open shell SCF:
 Using DIIS extrapolation, IDIIS=  1040.
 NGot=  6442450944 LenX=  6442371465 LenY=  6442332999
 Requested convergence on RMS density matrix=1.00D-08 within 128 cycles.
 Requested convergence on MAX density matrix=1.00D-06.
 Requested convergence on             energy=1.00D-06.
 No special actions if energy rises.
 Fock matrices will be formed incrementally for  20 cycles.

 Cycle   1  Pass 1  IDiag  1:
 FoFJK:  IHMeth= 1 ICntrl=       0 DoSepK=F KAlg= 0 I1Cent=           0 FoldK=F
 IRaf= 950000000 NMat=       1 IRICut=       1 DoRegI=T DoRafI=F ISym2E= 0 IDoP0=0 IntGTp=1.
 FoFCou: FMM=F IPFlag=           0 FMFlag=      100000 FMFlg1=           0
         NFxFlg=           0 DoJE=F BraDBF=F KetDBF=F FulRan=T
         wScrn=  0.000000 ICntrl=         0 IOpCl=  1 I1Cent=           0 NGrid=           0
         NMat0=    1 NMatS0=      1 NMatT0=    0 NMatD0=    1 NMtDS0=    0 NMtDT0=    0
 Symmetry not used in FoFCou.
 Defaulting to unpruned grid for atomic number  47.
 Defaulting to unpruned grid for atomic number  47.
 Defaulting to unpruned grid for atomic number  47.
 Defaulting to unpruned grid for atomic number  47.
 Defaulting to unpruned grid for atomic number  47.
 Defaulting to unpruned grid for atomic number  47.
 Defaulting to unpruned grid for atomic number  47.
 Defaulting to unpruned grid for atomic number  47.
 E= -876.282162753264    
 DIIS: error= 6.94D-02 at cycle   1 NSaved=   1.
 NSaved= 1 IEnMin= 1 EnMin= -876.282162753264     IErMin= 1 ErrMin= 6.94D-02
 ErrMax= 6.94D-02  0.00D+00 EMaxC= 1.00D-01 BMatC= 9.32D+00 BMatP= 9.32D+00
 IDIUse=3 WtCom= 3.06D-01 WtEn= 6.94D-01
 Coeff-Com:  0.100D+01
 Coeff-En:   0.100D+01
 Coeff:      0.100D+01
 Gap=     0.481 Goal=   None    Shift=    0.000
 Gap=     0.625 Goal=   None    Shift=    0.000
 GapD=    0.481 DampG=2.000 DampE=0.250 DampFc=0.5000 IDamp=-1.
 Damping current iteration by 5.00D-01
 RMSDP=2.90D-02 MaxDP=5.83D-01              OVMax= 7.51D-01

 Cycle   2  Pass 1  IDiag  1:
 RMSU=  1.16D-02    CP:  7.92D-01
 E= -880.236967311534     Delta-E=       -3.954804558270 Rises=F Damp=T
 DIIS: error= 3.44D-02 at cycle   2 NSaved=   2.
 NSaved= 2 IEnMin= 2 EnMin= -880.236967311534     IErMin= 2 ErrMin= 3.44D-02
 ErrMax= 3.44D-02  0.00D+00 EMaxC= 1.00D-01 BMatC= 2.59D+00 BMatP= 9.32D+00
 IDIUse=3 WtCom= 6.56D-01 WtEn= 3.44D-01
 Coeff-Com: -0.769D+00 0.177D+01
 Coeff-En:   0.000D+00 0.100D+01
 Coeff:     -0.505D+00 0.150D+01
 Gap=     0.085 Goal=   None    Shift=    0.000
 Gap=     0.287 Goal=   None    Shift=    0.000
 RMSDP=1.61D-02 MaxDP=5.47D-01 DE=-3.95D+00 OVMax= 9.00D-01

 Cycle   3  Pass 1  IDiag  1:
 RMSU=  8.96D-03    CP:  5.59D-01  1.79D+00
 E= -884.186473578937     Delta-E=       -3.949506267403 Rises=F Damp=F
 DIIS: error= 5.79D-02 at cycle   3 NSaved=   3.
 NSaved= 3 IEnMin= 3 EnMin= -884.186473578937     IErMin= 2 ErrMin= 3.44D-02
 ErrMax= 5.79D-02  0.00D+00 EMaxC= 1.00D-01 BMatC= 2.14D+00 BMatP= 2.59D+00
 IDIUse=3 WtCom= 4.21D-01 WtEn= 5.79D-01
 Coeff-Com: -0.579D+00 0.117D+01 0.405D+00
 Coeff-En:   0.000D+00 0.000D+00 0.100D+01
 Coeff:     -0.244D+00 0.495D+00 0.749D+00
 Gap=    -0.126 Goal=   None    Shift=    0.000
 Gap=     0.273 Goal=   None    Shift=    0.000
 RMSDP=1.05D-02 MaxDP=6.48D-01 DE=-3.95D+00 OVMax= 7.87D-01

 Cycle   4  Pass 1  IDiag  1:
 RMSU=  7.12D-03    CP:  5.63D-01  1.91D+00  1.52D-01
 E= -883.268726851070     Delta-E=        0.917746727867 Rises=F Damp=F
 DIIS: error= 8.75D-02 at cycle   4 NSaved=   4.
 NSaved= 4 IEnMin= 3 EnMin= -884.186473578937     IErMin= 2 ErrMin= 3.44D-02
 ErrMax= 8.75D-02  0.00D+00 EMaxC= 1.00D-01 BMatC= 4.66D+00 BMatP= 2.14D+00
 IDIUse=2 WtCom= 0.00D+00 WtEn= 1.00D+00
 Coeff-En:   0.000D+00 0.000D+00 0.666D+00 0.334D+00
 Coeff:      0.000D+00 0.000D+00 0.666D+00 0.334D+00
 Gap=     0.141 Goal=   None    Shift=    0.000
 Gap=     0.043 Goal=   None    Shift=    0.000
 RMSDP=6.19D-03 MaxDP=5.25D-01 DE= 9.18D-01 OVMax= 6.68D-01

 Cycle   5  Pass 1  IDiag  1:
 RMSU=  3.17D-03    CP:  5.62D-01  1.90D+00  3.74D-01  3.08D-01
 E= -884.690948846291     Delta-E=       -1.422221995221 Rises=F Damp=F
 DIIS: error= 1.58D-02 at cycle   5 NSaved=   5.
 NSaved= 5 IEnMin= 5 EnMin= -884.690948846291     IErMin= 5 ErrMin= 1.58D-02
 ErrMax= 1.58D-02  0.00D+00 EMaxC= 1.00D-01 BMatC= 2.68D-01 BMatP= 2.14D+00
 IDIUse=3 WtCom= 8.42D-01 WtEn= 1.58D-01
 Coeff-Com: -0.191D-01 0.430D-01 0.248D+00 0.139D-02 0.726D+00
 Coeff-En:   0.000D+00 0.000D+00 0.131D+00 0.000D+00 0.869D+00
 Coeff:     -0.161D-01 0.362D-01 0.230D+00 0.117D-02 0.749D+00
 Gap=     0.021 Goal=   None    Shift=    0.000
 Gap=     0.188 Goal=   None    Shift=    0.000
 RMSDP=2.11D-03 MaxDP=8.03D-02 DE=-1.42D+00 OVMax= 1.11D-01

 Cycle   6  Pass 1  IDiag  1:
 RMSU=  1.90D-03    CP:  5.61D-01  1.88D+00  4.52D-01  2.40D-01  9.39D-01
 E= -884.730874758978     Delta-E=       -0.039925912687 Rises=F Damp=F
 DIIS: error= 1.42D-02 at cycle   6 NSaved=   6.
 NSaved= 6 IEnMin= 6 EnMin= -884.730874758978     IErMin= 6 ErrMin= 1.42D-02
 ErrMax= 1.42D-02  0.00D+00 EMaxC= 1.00D-01 BMatC= 1.24D-01 BMatP= 2.68D-01
 IDIUse=3 WtCom= 8.58D-01 WtEn= 1.42D-01
 Coeff-Com:  0.871D-02-0.194D-01 0.107D+00-0.538D-01 0.557D+00 0.401D+00
 Coeff-En:   0.000D+00 0.000D+00 0.000D+00 0.000D+00 0.239D+00 0.761D+00
 Coeff:      0.747D-02-0.167D-01 0.916D-01-0.462D-01 0.512D+00 0.452D+00
 Gap=     0.034 Goal=   None    Shift=    0.000
 Gap=     0.158 Goal=   None    Shift=    0.000
 RMSDP=1.27D-03 MaxDP=5.59D-02 DE=-3.99D-02 OVMax= 9.36D-02

 Cycle   7  Pass 1  IDiag  1:
 RMSU=  7.69D-04    CP:  5.62D-01  1.89D+00  4.44D-01  2.07D-01  1.01D+00
                    CP:  5.07D-01
 E= -884.756363604746     Delta-E=       -0.025488845768 Rises=F Damp=F
 DIIS: error= 6.16D-03 at cycle   7 NSaved=   7.
 NSaved= 7 IEnMin= 7 EnMin= -884.756363604746     IErMin= 7 ErrMin= 6.16D-03
 ErrMax= 6.16D-03  0.00D+00 EMaxC= 1.00D-01 BMatC= 2.10D-02 BMatP= 1.24D-01
 IDIUse=3 WtCom= 9.38D-01 WtEn= 6.16D-02
 Coeff-Com: -0.392D-02 0.596D-02 0.250D-01-0.296D-01 0.179D+00 0.307D+00
 Coeff-Com:  0.517D+00
 Coeff-En:   0.000D+00 0.000D+00 0.000D+00 0.000D+00 0.000D+00 0.176D+00
 Coeff-En:   0.824D+00
 Coeff:     -0.368D-02 0.559D-02 0.234D-01-0.277D-01 0.168D+00 0.299D+00
 Coeff:      0.536D+00
 Gap=     0.034 Goal=   None    Shift=    0.000
 Gap=     0.154 Goal=   None    Shift=    0.000
 RMSDP=6.07D-04 MaxDP=2.04D-02 DE=-2.55D-02 OVMax= 5.17D-02

 Cycle   8  Pass 1  IDiag  1:
 RMSU=  4.25D-04    CP:  5.62D-01  1.89D+00  4.43D-01  1.96D-01  9.95D-01
                    CP:  6.95D-01  7.14D-01
 E= -884.760433223757     Delta-E=       -0.004069619011 Rises=F Damp=F
 DIIS: error= 2.62D-03 at cycle   8 NSaved=   8.
 NSaved= 8 IEnMin= 8 EnMin= -884.760433223757     IErMin= 8 ErrMin= 2.62D-03
 ErrMax= 2.62D-03  0.00D+00 EMaxC= 1.00D-01 BMatC= 5.15D-03 BMatP= 2.10D-02
 IDIUse=3 WtCom= 9.74D-01 WtEn= 2.62D-02
 Coeff-Com: -0.303D-02 0.606D-02-0.829D-03-0.216D-02-0.337D-01 0.721D-01
 Coeff-Com:  0.397D+00 0.564D+00
 Coeff-En:   0.000D+00 0.000D+00 0.000D+00 0.000D+00 0.000D+00 0.000D+00
 Coeff-En:   0.240D+00 0.760D+00
 Coeff:     -0.295D-02 0.590D-02-0.807D-03-0.210D-02-0.328D-01 0.703D-01
 Coeff:      0.393D+00 0.569D+00
 Gap=     0.038 Goal=   None    Shift=    0.000
 Gap=     0.156 Goal=   None    Shift=    0.000
 RMSDP=2.73D-04 MaxDP=6.91D-03 DE=-4.07D-03 OVMax= 2.24D-02

 Cycle   9  Pass 1  IDiag  1:
 RMSU=  1.59D-04    CP:  5.62D-01  1.89D+00  4.44D-01  1.94D-01  1.00D+00
                    CP:  6.80D-01  9.04D-01  6.17D-01
 E= -884.761828949110     Delta-E=       -0.001395725353 Rises=F Damp=F
 DIIS: error= 4.80D-04 at cycle   9 NSaved=   9.
 NSaved= 9 IEnMin= 9 EnMin= -884.761828949110     IErMin= 9 ErrMin= 4.80D-04
 ErrMax= 4.80D-04  0.00D+00 EMaxC= 1.00D-01 BMatC= 2.38D-04 BMatP= 5.15D-03
 IDIUse=3 WtCom= 9.95D-01 WtEn= 4.80D-03
 Coeff-Com: -0.861D-03 0.175D-02-0.213D-02 0.156D-02-0.272D-01 0.113D-01
 Coeff-Com:  0.152D+00 0.297D+00 0.567D+00
 Coeff-En:   0.000D+00 0.000D+00 0.000D+00 0.000D+00 0.000D+00 0.000D+00
 Coeff-En:   0.000D+00 0.000D+00 0.100D+01
 Coeff:     -0.857D-03 0.174D-02-0.212D-02 0.155D-02-0.271D-01 0.113D-01
 Coeff:      0.151D+00 0.296D+00 0.569D+00
 Gap=     0.038 Goal=   None    Shift=    0.000
 Gap=     0.156 Goal=   None    Shift=    0.000
 RMSDP=7.76D-05 MaxDP=2.66D-03 DE=-1.40D-03 OVMax= 9.28D-03

 Cycle  10  Pass 1  IDiag  1:
 RMSU=  6.43D-05    CP:  5.62D-01  1.89D+00  4.43D-01  1.94D-01  1.00D+00
                    CP:  6.81D-01  9.20D-01  7.11D-01  1.04D+00
 E= -884.761904514964     Delta-E=       -0.000075565854 Rises=F Damp=F
 DIIS: error= 1.85D-04 at cycle  10 NSaved=  10.
 NSaved=10 IEnMin=10 EnMin= -884.761904514964     IErMin=10 ErrMin= 1.85D-04
 ErrMax= 1.85D-04  0.00D+00 EMaxC= 1.00D-01 BMatC= 3.49D-05 BMatP= 2.38D-04
 IDIUse=3 WtCom= 9.98D-01 WtEn= 1.85D-03
 Coeff-Com: -0.387D-03 0.766D-03-0.151D-02 0.127D-02-0.769D-02-0.103D-02
 Coeff-Com:  0.202D-01 0.661D-01 0.227D+00 0.696D+00
 Coeff-En:   0.000D+00 0.000D+00 0.000D+00 0.000D+00 0.000D+00 0.000D+00
 Coeff-En:   0.000D+00 0.000D+00 0.000D+00 0.100D+01
 Coeff:     -0.387D-03 0.765D-03-0.150D-02 0.127D-02-0.767D-02-0.103D-02
 Coeff:      0.202D-01 0.660D-01 0.226D+00 0.696D+00
 Gap=     0.039 Goal=   None    Shift=    0.000
 Gap=     0.156 Goal=   None    Shift=    0.000
 RMSDP=6.41D-05 MaxDP=2.81D-03 DE=-7.56D-05 OVMax= 1.00D-02

 Cycle  11  Pass 1  IDiag  1:
 RMSU=  3.58D-05    CP:  5.62D-01  1.89D+00  4.41D-01  1.94D-01  1.00D+00
                    CP:  6.82D-01  9.41D-01  7.26D-01  1.24D+00  1.55D+00
 E= -884.761931286381     Delta-E=       -0.000026771417 Rises=F Damp=F
 DIIS: error= 1.60D-04 at cycle  11 NSaved=  11.
 NSaved=11 IEnMin=11 EnMin= -884.761931286381     IErMin=11 ErrMin= 1.60D-04
 ErrMax= 1.60D-04  0.00D+00 EMaxC= 1.00D-01 BMatC= 1.11D-05 BMatP= 3.49D-05
 IDIUse=3 WtCom= 9.98D-01 WtEn= 1.60D-03
 Coeff-Com:  0.242D-03-0.448D-03-0.456D-03 0.418D-03 0.290D-02-0.208D-02
 Coeff-Com: -0.251D-01-0.322D-01-0.309D-01 0.333D+00 0.755D+00
 Coeff-En:   0.000D+00 0.000D+00 0.000D+00 0.000D+00 0.000D+00 0.000D+00
 Coeff-En:   0.000D+00 0.000D+00 0.000D+00 0.000D+00 0.100D+01
 Coeff:      0.242D-03-0.447D-03-0.455D-03 0.417D-03 0.289D-02-0.207D-02
 Coeff:     -0.250D-01-0.321D-01-0.308D-01 0.332D+00 0.755D+00
 Gap=     0.039 Goal=   None    Shift=    0.000
 Gap=     0.156 Goal=   None    Shift=    0.000
 RMSDP=6.75D-05 MaxDP=3.20D-03 DE=-2.68D-05 OVMax= 1.12D-02

 Cycle  12  Pass 1  IDiag  1:
 RMSU=  1.58D-05    CP:  5.62D-01  1.89D+00  4.40D-01  1.94D-01  1.00D+00
                    CP:  6.81D-01  9.56D-01  7.50D-01  1.44D+00  2.32D+00
                    CP:  1.58D+00
 E= -884.761951795414     Delta-E=       -0.000020509033 Rises=F Damp=F
 DIIS: error= 9.65D-05 at cycle  12 NSaved=  12.
 NSaved=12 IEnMin=12 EnMin= -884.761951795414     IErMin=12 ErrMin= 9.65D-05
 ErrMax= 9.65D-05  0.00D+00 EMaxC= 1.00D-01 BMatC= 4.81D-06 BMatP= 1.11D-05
 IDIUse=1 WtCom= 1.00D+00 WtEn= 0.00D+00
 Coeff-Com:  0.987D-04-0.183D-03 0.197D-03-0.139D-03 0.238D-02-0.142D-02
 Coeff-Com: -0.163D-01-0.267D-01-0.604D-01-0.294D-01 0.350D+00 0.782D+00
 Coeff:      0.987D-04-0.183D-03 0.197D-03-0.139D-03 0.238D-02-0.142D-02
 Coeff:     -0.163D-01-0.267D-01-0.604D-01-0.294D-01 0.350D+00 0.782D+00
 Gap=     0.039 Goal=   None    Shift=    0.000
 Gap=     0.156 Goal=   None    Shift=    0.000
 RMSDP=6.28D-05 MaxDP=3.01D-03 DE=-2.05D-05 OVMax= 1.06D-02

 Cycle  13  Pass 1  IDiag  1:
 RMSU=  1.07D-05    CP:  5.62D-01  1.89D+00  4.40D-01  1.95D-01  1.00D+00
                    CP:  6.80D-01  9.71D-01  7.65D-01  1.63D+00  2.97D+00
                    CP:  2.36D+00  1.58D+00
 E= -884.761966905345     Delta-E=       -0.000015109931 Rises=F Damp=F
 DIIS: error= 8.52D-05 at cycle  13 NSaved=  13.
 NSaved=13 IEnMin=13 EnMin= -884.761966905345     IErMin=13 ErrMin= 8.52D-05
 ErrMax= 8.52D-05  0.00D+00 EMaxC= 1.00D-01 BMatC= 3.31D-06 BMatP= 4.81D-06
 IDIUse=1 WtCom= 1.00D+00 WtEn= 0.00D+00
 Coeff-Com: -0.367D-04 0.779D-04 0.259D-03-0.256D-03-0.149D-02-0.129D-02
 Coeff-Com:  0.202D-02 0.290D-02-0.871D-02-0.191D+00-0.223D+00 0.471D+00
 Coeff-Com:  0.949D+00
 Coeff:     -0.367D-04 0.779D-04 0.259D-03-0.256D-03-0.149D-02-0.129D-02
 Coeff:      0.202D-02 0.290D-02-0.871D-02-0.191D+00-0.223D+00 0.471D+00
 Coeff:      0.949D+00
 Gap=     0.039 Goal=   None    Shift=    0.000
 Gap=     0.155 Goal=   None    Shift=    0.000
 RMSDP=8.13D-05 MaxDP=3.93D-03 DE=-1.51D-05 OVMax= 1.37D-02

 Cycle  14  Pass 1  IDiag  1:
 RMSU=  5.55D-05    CP:  5.62D-01  1.89D+00  4.39D-01  1.95D-01  1.00D+00
                    CP:  6.78D-01  9.91D-01  7.92D-01  1.87D+00  3.00D+00
                    CP:  3.00D+00  2.82D+00  1.70D+00
 E= -884.761982792339     Delta-E=       -0.000015886995 Rises=F Damp=F
 DIIS: error= 6.17D-05 at cycle  14 NSaved=  14.
 NSaved=14 IEnMin=14 EnMin= -884.761982792339     IErMin=14 ErrMin= 6.17D-05
 ErrMax= 6.17D-05  0.00D+00 EMaxC= 1.00D-01 BMatC= 1.49D-06 BMatP= 3.31D-06
 IDIUse=1 WtCom= 1.00D+00 WtEn= 0.00D+00
 Coeff-Com:  0.495D-04-0.770D-04-0.272D-03 0.189D-03-0.318D-02 0.856D-03
 Coeff-Com:  0.157D-01 0.271D-01 0.661D-01 0.453D-01-0.313D+00-0.792D+00
 Coeff-Com: -0.155D+00 0.211D+01
 Coeff:      0.495D-04-0.770D-04-0.272D-03 0.189D-03-0.318D-02 0.856D-03
 Coeff:      0.157D-01 0.271D-01 0.661D-01 0.453D-01-0.313D+00-0.792D+00
 Coeff:     -0.155D+00 0.211D+01
 Gap=     0.039 Goal=   None    Shift=    0.000
 Gap=     0.155 Goal=   None    Shift=    0.000
 RMSDP=1.60D-04 MaxDP=7.76D-03 DE=-1.59D-05 OVMax= 2.71D-02

 Cycle  15  Pass 1  IDiag  1:
 RMSU=  5.95D-05    CP:  5.62D-01  1.89D+00  4.38D-01  1.95D-01  1.00D+00
                    CP:  6.74D-01  1.03D+00  8.39D-01  2.34D+00  3.00D+00
                    CP:  3.00D+00  3.00D+00  3.00D+00  3.00D+00
 E= -884.762001187824     Delta-E=       -0.000018395485 Rises=F Damp=F
 DIIS: error= 3.66D-05 at cycle  15 NSaved=  15.
 NSaved=15 IEnMin=15 EnMin= -884.762001187824     IErMin=15 ErrMin= 3.66D-05
 ErrMax= 3.66D-05  0.00D+00 EMaxC= 1.00D-01 BMatC= 6.52D-07 BMatP= 1.49D-06
 IDIUse=1 WtCom= 1.00D+00 WtEn= 0.00D+00
 Coeff-Com:  0.131D-04-0.231D-04-0.181D-03 0.294D-04 0.205D-04 0.217D-02
 Coeff-Com:  0.860D-02 0.941D-02 0.245D-01 0.663D-01-0.754D-01-0.504D+00
 Coeff-Com: -0.268D+00 0.913D+00 0.823D+00
 Coeff:      0.131D-04-0.231D-04-0.181D-03 0.294D-04 0.205D-04 0.217D-02
 Coeff:      0.860D-02 0.941D-02 0.245D-01 0.663D-01-0.754D-01-0.504D+00
 Coeff:     -0.268D+00 0.913D+00 0.823D+00
 Gap=     0.039 Goal=   None    Shift=    0.000
 Gap=     0.155 Goal=   None    Shift=    0.000
 RMSDP=5.72D-05 MaxDP=2.80D-03 DE=-1.84D-05 OVMax= 9.74D-03

 Cycle  16  Pass 1  IDiag  1:
 RMSU=  3.99D-05    CP:  5.62D-01  1.89D+00  4.38D-01  1.96D-01  1.00D+00
                    CP:  6.71D-01  1.04D+00  8.50D-01  2.50D+00  3.00D+00
                    CP:  3.00D+00  3.00D+00  3.00D+00  3.00D+00  1.50D+00
 E= -884.762004071547     Delta-E=       -0.000002883723 Rises=F Damp=F
 DIIS: error= 2.11D-05 at cycle  16 NSaved=  16.
 NSaved=16 IEnMin=16 EnMin= -884.762004071547     IErMin=16 ErrMin= 2.11D-05
 ErrMax= 2.11D-05  0.00D+00 EMaxC= 1.00D-01 BMatC= 2.51D-07 BMatP= 6.52D-07
 IDIUse=1 WtCom= 1.00D+00 WtEn= 0.00D+00
 Coeff-Com: -0.884D-05 0.146D-04-0.921D-04-0.242D-04 0.871D-03 0.152D-02
 Coeff-Com:  0.282D-02 0.250D-03-0.930D-03 0.315D-01 0.270D-01-0.111D+00
 Coeff-Com: -0.838D-01-0.199D-01 0.375D+00 0.777D+00
 Coeff:     -0.884D-05 0.146D-04-0.921D-04-0.242D-04 0.871D-03 0.152D-02
 Coeff:      0.282D-02 0.250D-03-0.930D-03 0.315D-01 0.270D-01-0.111D+00
 Coeff:     -0.838D-01-0.199D-01 0.375D+00 0.777D+00
 Gap=     0.039 Goal=   None    Shift=    0.000
 Gap=     0.155 Goal=   None    Shift=    0.000
 RMSDP=2.46D-05 MaxDP=1.21D-03 DE=-2.88D-06 OVMax= 4.21D-03

 Cycle  17  Pass 1  IDiag  1:
 RMSU=  2.70D-06    CP:  5.62D-01  1.89D+00  4.38D-01  1.96D-01  1.00D+00
                    CP:  6.69D-01  1.04D+00  8.53D-01  2.56D+00  3.00D+00
                    CP:  3.00D+00  3.00D+00  3.00D+00  3.00D+00  1.72D+00
                    CP:  1.43D+00
 E= -884.762004746459     Delta-E=       -0.000000674912 Rises=F Damp=F
 DIIS: error= 1.33D-05 at cycle  17 NSaved=  17.
 NSaved=17 IEnMin=17 EnMin= -884.762004746459     IErMin=17 ErrMin= 1.33D-05
 ErrMax= 1.33D-05  0.00D+00 EMaxC= 1.00D-01 BMatC= 7.95D-08 BMatP= 2.51D-07
 IDIUse=1 WtCom= 1.00D+00 WtEn= 0.00D+00
 Coeff-Com: -0.157D-05 0.256D-05-0.494D-04-0.639D-05 0.318D-03 0.359D-03
 Coeff-Com:  0.242D-03-0.439D-03-0.317D-02 0.260D-02 0.214D-01 0.533D-01
 Coeff-Com:  0.267D-01-0.219D+00-0.848D-01 0.436D+00 0.766D+00
 Coeff:     -0.157D-05 0.256D-05-0.494D-04-0.639D-05 0.318D-03 0.359D-03
 Coeff:      0.242D-03-0.439D-03-0.317D-02 0.260D-02 0.214D-01 0.533D-01
 Coeff:      0.267D-01-0.219D+00-0.848D-01 0.436D+00 0.766D+00
 Gap=     0.039 Goal=   None    Shift=    0.000
 Gap=     0.155 Goal=   None    Shift=    0.000
 RMSDP=1.48D-05 MaxDP=7.32D-04 DE=-6.75D-07 OVMax= 2.55D-03

 Cycle  18  Pass 1  IDiag  1:
 RMSU=  1.51D-06    CP:  5.62D-01  1.89D+00  4.38D-01  1.96D-01  1.00D+00
                    CP:  6.68D-01  1.04D+00  8.56D-01  2.60D+00  3.00D+00
                    CP:  3.00D+00  3.00D+00  3.00D+00  3.00D+00  1.86D+00
                    CP:  1.69D+00  1.24D+00
 E= -884.762004977264     Delta-E=       -0.000000230805 Rises=F Damp=F
 DIIS: error= 3.90D-06 at cycle  18 NSaved=  18.
 NSaved=18 IEnMin=18 EnMin= -884.762004977264     IErMin=18 ErrMin= 3.90D-06
 ErrMax= 3.90D-06  0.00D+00 EMaxC= 1.00D-01 BMatC= 1.45D-08 BMatP= 7.95D-08
 IDIUse=1 WtCom= 1.00D+00 WtEn= 0.00D+00
 Coeff-Com:  0.547D-05-0.801D-05-0.422D-05 0.120D-04-0.993D-04-0.235D-03
 Coeff-Com: -0.697D-03-0.205D-04-0.232D-03-0.566D-02 0.273D-02 0.448D-01
 Coeff-Com:  0.230D-01-0.724D-01-0.115D+00-0.361D-01 0.264D+00 0.896D+00
 Coeff:      0.547D-05-0.801D-05-0.422D-05 0.120D-04-0.993D-04-0.235D-03
 Coeff:     -0.697D-03-0.205D-04-0.232D-03-0.566D-02 0.273D-02 0.448D-01
 Coeff:      0.230D-01-0.724D-01-0.115D+00-0.361D-01 0.264D+00 0.896D+00
 Gap=     0.039 Goal=   None    Shift=    0.000
 Gap=     0.155 Goal=   None    Shift=    0.000
 RMSDP=7.32D-06 MaxDP=3.68D-04 DE=-2.31D-07 OVMax= 1.28D-03

 Cycle  19  Pass 1  IDiag  1:
 RMSU=  8.70D-07    CP:  5.62D-01  1.89D+00  4.38D-01  1.96D-01  1.00D+00
                    CP:  6.68D-01  1.04D+00  8.57D-01  2.62D+00  3.00D+00
                    CP:  3.00D+00  3.00D+00  3.00D+00  3.00D+00  1.92D+00
                    CP:  1.81D+00  1.58D+00  1.57D+00
 E= -884.762005049283     Delta-E=       -0.000000072019 Rises=F Damp=F
 DIIS: error= 2.90D-06 at cycle  19 NSaved=  19.
 NSaved=19 IEnMin=19 EnMin= -884.762005049283     IErMin=19 ErrMin= 2.90D-06
 ErrMax= 2.90D-06  0.00D+00 EMaxC= 1.00D-01 BMatC= 4.89D-09 BMatP= 1.45D-08
 IDIUse=1 WtCom= 1.00D+00 WtEn= 0.00D+00
 Coeff-Com:  0.175D-05-0.296D-05 0.190D-04 0.151D-05-0.332D-04-0.199D-03
 Coeff-Com: -0.711D-03-0.594D-03-0.801D-03-0.319D-02 0.437D-02 0.194D-01
 Coeff-Com:  0.505D-02-0.169D-01-0.711D-02-0.889D-01-0.123D+00 0.238D+00
 Coeff-Com:  0.974D+00
 Coeff:      0.175D-05-0.296D-05 0.190D-04 0.151D-05-0.332D-04-0.199D-03
 Coeff:     -0.711D-03-0.594D-03-0.801D-03-0.319D-02 0.437D-02 0.194D-01
 Coeff:      0.505D-02-0.169D-01-0.711D-02-0.889D-01-0.123D+00 0.238D+00
 Coeff:      0.974D+00
 Gap=     0.039 Goal=   None    Shift=    0.000
 Gap=     0.155 Goal=   None    Shift=    0.000
 RMSDP=4.49D-06 MaxDP=2.27D-04 DE=-7.20D-08 OVMax= 7.92D-04

 Cycle  20  Pass 1  IDiag  1:
 RMSU=  4.12D-07    CP:  5.62D-01  1.89D+00  4.38D-01  1.96D-01  1.00D+00
                    CP:  6.67D-01  1.04D+00  8.58D-01  2.63D+00  3.00D+00
                    CP:  3.00D+00  3.00D+00  3.00D+00  3.00D+00  1.96D+00
                    CP:  1.89D+00  1.81D+00  2.21D+00  1.77D+00
 E= -884.762005083092     Delta-E=       -0.000000033809 Rises=F Damp=F
 DIIS: error= 2.34D-06 at cycle  20 NSaved=  20.
 NSaved=20 IEnMin=20 EnMin= -884.762005083092     IErMin=20 ErrMin= 2.34D-06
 ErrMax= 2.34D-06  0.00D+00 EMaxC= 1.00D-01 BMatC= 2.69D-09 BMatP= 4.89D-09
 IDIUse=1 WtCom= 1.00D+00 WtEn= 0.00D+00
 Coeff-Com: -0.149D-05 0.243D-05 0.438D-05-0.296D-07-0.470D-05 0.126D-04
 Coeff-Com:  0.712D-04-0.777D-05 0.308D-03 0.326D-02 0.175D-02-0.166D-01
 Coeff-Com: -0.165D-01 0.296D-01 0.560D-01-0.104D-01-0.150D+00-0.265D+00
 Coeff-Com:  0.286D+00 0.108D+01
 Coeff:     -0.149D-05 0.243D-05 0.438D-05-0.296D-07-0.470D-05 0.126D-04
 Coeff:      0.712D-04-0.777D-05 0.308D-03 0.326D-02 0.175D-02-0.166D-01
 Coeff:     -0.165D-01 0.296D-01 0.560D-01-0.104D-01-0.150D+00-0.265D+00
 Coeff:      0.286D+00 0.108D+01
 Gap=     0.039 Goal=   None    Shift=    0.000
 Gap=     0.155 Goal=   None    Shift=    0.000
 RMSDP=4.18D-06 MaxDP=2.12D-04 DE=-3.38D-08 OVMax= 7.38D-04

 Cycle  21  Pass 1  IDiag  1:
 Restarting incremental Fock formation.
 E= -884.762005107238     Delta-E=       -0.000000024147 Rises=F Damp=F
 DIIS: error= 1.76D-06 at cycle  21 NSaved=  20.
 NSaved=20 IEnMin=20 EnMin= -884.762005107238     IErMin=20 ErrMin= 1.76D-06
 ErrMax= 1.76D-06  0.00D+00 EMaxC= 1.00D-01 BMatC= 1.18D-09 BMatP= 2.69D-09
 IDIUse=1 WtCom= 1.00D+00 WtEn= 0.00D+00
 Coeff-Com:  0.362D-06 0.586D-06-0.505D-05 0.721D-04 0.968D-04 0.204D-03
 Coeff-Com: -0.708D-06-0.342D-03 0.122D-02 0.155D-02 0.246D-02 0.224D-02
 Coeff-Com: -0.162D-01-0.772D-02 0.490D-01 0.745D-01-0.149D+00-0.511D+00
 Coeff-Com:  0.129D+00 0.142D+01
 Coeff:      0.362D-06 0.586D-06-0.505D-05 0.721D-04 0.968D-04 0.204D-03
 Coeff:     -0.708D-06-0.342D-03 0.122D-02 0.155D-02 0.246D-02 0.224D-02
 Coeff:     -0.162D-01-0.772D-02 0.490D-01 0.745D-01-0.149D+00-0.511D+00
 Coeff:      0.129D+00 0.142D+01
 Gap=     0.039 Goal=   None    Shift=    0.000
 Gap=     0.155 Goal=   None    Shift=    0.000
 RMSDP=4.59D-06 MaxDP=2.33D-04 DE=-2.41D-08 OVMax= 8.10D-04

 Cycle  22  Pass 1  IDiag  1:
 RMSU=  4.59D-06    CP:  1.00D+00
 E= -884.762005126008     Delta-E=       -0.000000018769 Rises=F Damp=F
 DIIS: error= 1.12D-06 at cycle  22 NSaved=  20.
 NSaved=20 IEnMin=20 EnMin= -884.762005126008     IErMin=20 ErrMin= 1.12D-06
 ErrMax= 1.12D-06  0.00D+00 EMaxC= 1.00D-01 BMatC= 5.34D-10 BMatP= 1.18D-09
 IDIUse=1 WtCom= 1.00D+00 WtEn= 0.00D+00
 Coeff-Com: -0.608D-05 0.346D-06 0.111D-04 0.405D-04 0.120D-03 0.125D-03
 Coeff-Com:  0.212D-03-0.376D-03-0.841D-03 0.829D-03 0.246D-02-0.462D-02
 Coeff-Com: -0.178D-01 0.158D-01 0.732D-01 0.591D-01-0.252D+00-0.552D+00
 Coeff-Com:  0.405D+00 0.127D+01
 Coeff:     -0.608D-05 0.346D-06 0.111D-04 0.405D-04 0.120D-03 0.125D-03
 Coeff:      0.212D-03-0.376D-03-0.841D-03 0.829D-03 0.246D-02-0.462D-02
 Coeff:     -0.178D-01 0.158D-01 0.732D-01 0.591D-01-0.252D+00-0.552D+00
 Coeff:      0.405D+00 0.127D+01
 Gap=     0.039 Goal=   None    Shift=    0.000
 Gap=     0.155 Goal=   None    Shift=    0.000
 RMSDP=4.52D-06 MaxDP=2.31D-04 DE=-1.88D-08 OVMax= 8.00D-04

 Cycle  23  Pass 1  IDiag  1:
 RMSU=  3.05D-07    CP:  1.00D+00  1.98D+00
 E= -884.762005136071     Delta-E=       -0.000000010063 Rises=F Damp=F
 DIIS: error= 6.99D-07 at cycle  23 NSaved=  20.
 NSaved=20 IEnMin=20 EnMin= -884.762005136071     IErMin=20 ErrMin= 6.99D-07
 ErrMax= 6.99D-07  0.00D+00 EMaxC= 1.00D-01 BMatC= 2.06D-10 BMatP= 5.34D-10
 IDIUse=1 WtCom= 1.00D+00 WtEn= 0.00D+00
 Coeff-Com: -0.165D-05-0.172D-05-0.110D-04-0.559D-04-0.514D-05-0.502D-04
 Coeff-Com: -0.102D-02-0.864D-04 0.424D-02 0.317D-02-0.643D-02-0.115D-01
 Coeff-Com: -0.501D-02 0.180D-01 0.834D-01 0.369D-01-0.299D+00-0.279D+00
 Coeff-Com:  0.549D+00 0.907D+00
 Coeff:     -0.165D-05-0.172D-05-0.110D-04-0.559D-04-0.514D-05-0.502D-04
 Coeff:     -0.102D-02-0.864D-04 0.424D-02 0.317D-02-0.643D-02-0.115D-01
 Coeff:     -0.501D-02 0.180D-01 0.834D-01 0.369D-01-0.299D+00-0.279D+00
 Coeff:      0.549D+00 0.907D+00
 Gap=     0.039 Goal=   None    Shift=    0.000
 Gap=     0.155 Goal=   None    Shift=    0.000
 RMSDP=2.04D-06 MaxDP=1.04D-04 DE=-1.01D-08 OVMax= 3.60D-04

 Cycle  24  Pass 1  IDiag  1:
 RMSU=  9.61D-08    CP:  1.00D+00  2.42D+00  1.21D+00
 E= -884.762005138114     Delta-E=       -0.000000002044 Rises=F Damp=F
 DIIS: error= 4.64D-07 at cycle  24 NSaved=  20.
 NSaved=20 IEnMin=20 EnMin= -884.762005138114     IErMin=20 ErrMin= 4.64D-07
 ErrMax= 4.64D-07  0.00D+00 EMaxC= 1.00D-01 BMatC= 5.79D-11 BMatP= 2.06D-10
 IDIUse=1 WtCom= 1.00D+00 WtEn= 0.00D+00
 Coeff-Com: -0.980D-05-0.171D-04-0.440D-04-0.426D-05 0.965D-05 0.167D-03
 Coeff-Com:  0.156D-03-0.349D-03-0.109D-02 0.194D-02 0.545D-02-0.773D-02
 Coeff-Com: -0.249D-01 0.592D-03 0.101D+00 0.136D+00-0.247D+00-0.325D+00
 Coeff-Com:  0.248D+00 0.111D+01
 Coeff:     -0.980D-05-0.171D-04-0.440D-04-0.426D-05 0.965D-05 0.167D-03
 Coeff:      0.156D-03-0.349D-03-0.109D-02 0.194D-02 0.545D-02-0.773D-02
 Coeff:     -0.249D-01 0.592D-03 0.101D+00 0.136D+00-0.247D+00-0.325D+00
 Coeff:      0.248D+00 0.111D+01
 Gap=     0.039 Goal=   None    Shift=    0.000
 Gap=     0.155 Goal=   None    Shift=    0.000
 RMSDP=1.10D-06 MaxDP=5.57D-05 DE=-2.04D-09 OVMax= 1.93D-04

 Cycle  25  Pass 1  IDiag  1:
 RMSU=  5.04D-08    CP:  1.00D+00  2.66D+00  1.42D+00  1.66D+00
 E= -884.762005138561     Delta-E=       -0.000000000447 Rises=F Damp=F
 DIIS: error= 2.16D-07 at cycle  25 NSaved=  20.
 NSaved=20 IEnMin=20 EnMin= -884.762005138561     IErMin=20 ErrMin= 2.16D-07
 ErrMax= 2.16D-07  0.00D+00 EMaxC= 1.00D-01 BMatC= 1.34D-11 BMatP= 5.79D-11
 IDIUse=1 WtCom= 1.00D+00 WtEn= 0.00D+00
 Coeff-Com:  0.357D-05 0.141D-04-0.867D-05 0.153D-04 0.445D-03 0.217D-03
 Coeff-Com: -0.129D-02-0.110D-02 0.123D-02 0.508D-02 0.177D-02-0.734D-02
 Coeff-Com: -0.299D-01-0.607D-02 0.121D+00 0.736D-01-0.236D+00-0.268D+00
 Coeff-Com:  0.192D+00 0.115D+01
 Coeff:      0.357D-05 0.141D-04-0.867D-05 0.153D-04 0.445D-03 0.217D-03
 Coeff:     -0.129D-02-0.110D-02 0.123D-02 0.508D-02 0.177D-02-0.734D-02
 Coeff:     -0.299D-01-0.607D-02 0.121D+00 0.736D-01-0.236D+00-0.268D+00
 Coeff:      0.192D+00 0.115D+01
 Gap=     0.039 Goal=   None    Shift=    0.000
 Gap=     0.155 Goal=   None    Shift=    0.000
 RMSDP=3.39D-07 MaxDP=1.70D-05 DE=-4.47D-10 OVMax= 5.89D-05

 Cycle  26  Pass 1  IDiag  1:
 RMSU=  2.36D-08    CP:  1.00D+00  2.73D+00  1.48D+00  2.09D+00  1.61D+00
 E= -884.762005138636     Delta-E=       -0.000000000075 Rises=F Damp=F
 DIIS: error= 7.69D-08 at cycle  26 NSaved=  20.
 NSaved=20 IEnMin=20 EnMin= -884.762005138636     IErMin=20 ErrMin= 7.69D-08
 ErrMax= 7.69D-08  0.00D+00 EMaxC= 1.00D-01 BMatC= 2.12D-12 BMatP= 1.34D-11
 IDIUse=1 WtCom= 1.00D+00 WtEn= 0.00D+00
 Coeff-Com: -0.931D-07-0.105D-04-0.722D-05-0.276D-04 0.336D-06 0.199D-04
 Coeff-Com:  0.164D-03 0.192D-04-0.221D-03-0.134D-04 0.440D-03-0.303D-02
 Coeff-Com: -0.331D-02-0.170D-02 0.355D-01 0.906D-02-0.733D-01-0.163D+00
 Coeff-Com:  0.214D+00 0.985D+00
 Coeff:     -0.931D-07-0.105D-04-0.722D-05-0.276D-04 0.336D-06 0.199D-04
 Coeff:      0.164D-03 0.192D-04-0.221D-03-0.134D-04 0.440D-03-0.303D-02
 Coeff:     -0.331D-02-0.170D-02 0.355D-01 0.906D-02-0.733D-01-0.163D+00
 Coeff:      0.214D+00 0.985D+00
 Gap=     0.039 Goal=   None    Shift=    0.000
 Gap=     0.155 Goal=   None    Shift=    0.000
 RMSDP=5.17D-08 MaxDP=2.41D-06 DE=-7.55D-11 OVMax= 8.41D-06

 Cycle  27  Pass 1  IDiag  1:
 RMSU=  9.67D-09    CP:  1.00D+00  2.74D+00  1.49D+00  2.21D+00  1.83D+00
                    CP:  1.25D+00
 E= -884.762005138657     Delta-E=       -0.000000000020 Rises=F Damp=F
 DIIS: error= 3.16D-08 at cycle  27 NSaved=  20.
 NSaved=20 IEnMin=20 EnMin= -884.762005138657     IErMin=20 ErrMin= 3.16D-08
 ErrMax= 3.16D-08  0.00D+00 EMaxC= 1.00D-01 BMatC= 5.09D-13 BMatP= 2.12D-12
 IDIUse=1 WtCom= 1.00D+00 WtEn= 0.00D+00
 Coeff-Com:  0.245D-06-0.475D-05-0.561D-04-0.254D-04 0.127D-03 0.144D-03
 Coeff-Com: -0.654D-04-0.901D-03-0.826D-04 0.159D-02 0.370D-02-0.693D-03
 Coeff-Com: -0.211D-01-0.654D-03 0.435D-01 0.216D-01-0.863D-01-0.123D+00
 Coeff-Com:  0.331D+00 0.831D+00
 Coeff:      0.245D-06-0.475D-05-0.561D-04-0.254D-04 0.127D-03 0.144D-03
 Coeff:     -0.654D-04-0.901D-03-0.826D-04 0.159D-02 0.370D-02-0.693D-03
 Coeff:     -0.211D-01-0.654D-03 0.435D-01 0.216D-01-0.863D-01-0.123D+00
 Coeff:      0.331D+00 0.831D+00
 Gap=     0.039 Goal=   None    Shift=    0.000
 Gap=     0.155 Goal=   None    Shift=    0.000
 RMSDP=1.30D-08 MaxDP=5.65D-07 DE=-2.05D-11 OVMax= 2.00D-06

 Cycle  28  Pass 1  IDiag  1:
 RMSU=  4.22D-09    CP:  1.00D+00  2.75D+00  1.50D+00  2.23D+00  1.90D+00
                    CP:  1.36D+00  1.17D+00
 E= -884.762005138648     Delta-E=        0.000000000009 Rises=F Damp=F
 DIIS: error= 1.31D-08 at cycle  28 NSaved=  20.
 NSaved=20 IEnMin=19 EnMin= -884.762005138657     IErMin=20 ErrMin= 1.31D-08
 ErrMax= 1.31D-08  0.00D+00 EMaxC= 1.00D-01 BMatC= 1.29D-13 BMatP= 5.09D-13
 IDIUse=1 WtCom= 1.00D+00 WtEn= 0.00D+00
 Coeff-Com: -0.425D-05-0.209D-04-0.158D-04 0.551D-04 0.519D-04-0.563D-04
 Coeff-Com: -0.336D-03 0.173D-03 0.714D-03 0.955D-03-0.138D-02-0.673D-02
 Coeff-Com: -0.101D-02 0.145D-01 0.138D-01-0.163D-01-0.776D-01 0.101D-01
 Coeff-Com:  0.357D+00 0.706D+00
 Coeff:     -0.425D-05-0.209D-04-0.158D-04 0.551D-04 0.519D-04-0.563D-04
 Coeff:     -0.336D-03 0.173D-03 0.714D-03 0.955D-03-0.138D-02-0.673D-02
 Coeff:     -0.101D-02 0.145D-01 0.138D-01-0.163D-01-0.776D-01 0.101D-01
 Coeff:      0.357D+00 0.706D+00
 Gap=     0.039 Goal=   None    Shift=    0.000
 Gap=     0.155 Goal=   None    Shift=    0.000
 RMSDP=7.07D-09 MaxDP=3.32D-07 DE= 8.64D-12 OVMax= 1.17D-06

 SCF Done:  E(UPBE1PBE) =  -884.762005139     A.U. after   28 cycles
            NFock= 28  Conv=0.71D-08     -V/T= 2.1198
 <Sx>= 0.0000 <Sy>= 0.0000 <Sz>= 0.5000 <S**2>= 0.7519 S= 0.5009
 <L.S>= 0.000000000000E+00
 KE= 7.900785824740D+02 PE=-3.343093393005D+03 EE= 1.022467672165D+03
 Annihilation of the first spin contaminant:
 S**2 before annihilation     0.7519,   after     0.7500
 Leave Link  502 at Fri Sep 11 21:15:48 2026, MaxMem=  6442450944 cpu:             194.0 elap:             194.5
 (Enter C:\G16W\l508.exe)
 QCSCF skips out because SCF is already converged.
 Leave Link  508 at Fri Sep 11 21:15:49 2026, MaxMem=  6442450944 cpu:               0.0 elap:               0.1
 (Enter C:\G16W\l601.exe)
 Copying SCF densities to generalized density rwf, IOpCl= 1 IROHF=0.

 **********************************************************************

            Population analysis using the SCF Density.

 **********************************************************************

 Alpha  occ. eigenvalues --  -89.12060 -14.45676 -14.44640 -10.30576 -10.30463
 Alpha  occ. eigenvalues --  -10.27148 -10.26919 -10.26909 -10.26859  -8.11686
 Alpha  occ. eigenvalues --   -6.05925  -6.05365  -6.05141  -3.73536  -2.31579
 Alpha  occ. eigenvalues --   -2.31514  -2.31358  -1.05449  -0.92015  -0.90314
 Alpha  occ. eigenvalues --   -0.80579  -0.78734  -0.69306  -0.64451  -0.63986
 Alpha  occ. eigenvalues --   -0.54174  -0.53659  -0.52067  -0.48711  -0.47771
 Alpha  occ. eigenvalues --   -0.42938  -0.42528  -0.41409  -0.39476  -0.37083
 Alpha  occ. eigenvalues --   -0.36557  -0.34020  -0.31049  -0.31037  -0.30935
 Alpha  occ. eigenvalues --   -0.30848  -0.30173  -0.29281  -0.26934  -0.15283
 Alpha virt. eigenvalues --   -0.11404  -0.01928  -0.01508  -0.00636   0.00157
 Alpha virt. eigenvalues --    0.01235   0.04605   0.06741   0.08188   0.10627
 Alpha virt. eigenvalues --    0.11651   0.14240   0.14956   0.16273   0.22728
 Alpha virt. eigenvalues --    0.24500   0.26203   0.27774   0.29688   0.31934
 Alpha virt. eigenvalues --    0.32821   0.33049   0.34511   0.35249   0.38631
 Alpha virt. eigenvalues --    0.39902   0.41882   0.43729   0.44280   0.45674
 Alpha virt. eigenvalues --    0.46717   0.46775   0.47188   0.47979   0.51384
 Alpha virt. eigenvalues --    0.52499   0.52994   0.54200   0.56175   0.56688
 Alpha virt. eigenvalues --    0.57772   0.58783   0.59879   0.61264   0.62422
 Alpha virt. eigenvalues --    0.63666   0.64998   0.66307   0.68916   0.70374
 Alpha virt. eigenvalues --    0.71339   0.71795   0.72372   0.73234   0.74964
 Alpha virt. eigenvalues --    0.77180   0.79925   0.81297   0.85362   0.88872
 Alpha virt. eigenvalues --    0.91444   0.93452   0.95994   0.97060   1.01186
 Alpha virt. eigenvalues --    1.03705   1.06070   1.12826   1.17274   1.17288
 Alpha virt. eigenvalues --    1.19653   1.21002   1.23645   1.23818   1.25271
 Alpha virt. eigenvalues --    1.26724   1.34786   1.38963   1.40735   1.41480
 Alpha virt. eigenvalues --    1.50389   1.64210   1.68345   1.68964   1.73038
 Alpha virt. eigenvalues --    1.73685   1.74602   1.77184   1.78813   1.82718
 Alpha virt. eigenvalues --    1.83910   1.89697   1.92458   1.94057   1.99664
 Alpha virt. eigenvalues --    2.04974   2.06172   2.08492   2.10241   2.12792
 Alpha virt. eigenvalues --    2.14386   2.17645   2.21952   2.23106   2.24687
 Alpha virt. eigenvalues --    2.26513   2.31683   2.32932   2.38947   2.44074
 Alpha virt. eigenvalues --    2.49336   2.54486   2.56842   2.60621   2.63120
 Alpha virt. eigenvalues --    2.63496   2.63921   2.63949   2.63983   2.64010
 Alpha virt. eigenvalues --    2.64193   2.65153   2.65458   2.67787   2.73694
 Alpha virt. eigenvalues --    2.74441   2.81102   2.89245   2.91074   2.98706
 Alpha virt. eigenvalues --    2.99413   3.17083   3.17837   3.32041   3.65798
 Alpha virt. eigenvalues --   53.83737
  Beta  occ. eigenvalues --  -89.12052 -14.45475 -14.44655 -10.30584 -10.30450
  Beta  occ. eigenvalues --  -10.27154 -10.26916 -10.26883 -10.26862  -8.11677
  Beta  occ. eigenvalues --   -6.05908  -6.05350  -6.05137  -3.73404  -2.31498
  Beta  occ. eigenvalues --   -2.31446  -2.31333  -1.05396  -0.91935  -0.90273
  Beta  occ. eigenvalues --   -0.80555  -0.78700  -0.69281  -0.64414  -0.63915
  Beta  occ. eigenvalues --   -0.54119  -0.53579  -0.52046  -0.48687  -0.47716
  Beta  occ. eigenvalues --   -0.42726  -0.42479  -0.41390  -0.39478  -0.36623
  Beta  occ. eigenvalues --   -0.36459  -0.33885  -0.30514  -0.30496  -0.30314
  Beta  occ. eigenvalues --   -0.30270  -0.30135  -0.28543  -0.26867
  Beta virt. eigenvalues --   -0.11341  -0.06528  -0.01478  -0.01146  -0.00642
  Beta virt. eigenvalues --    0.02434   0.03653   0.06525   0.06910   0.08629
  Beta virt. eigenvalues --    0.11693   0.12954   0.14362   0.14989   0.16769
  Beta virt. eigenvalues --    0.22936   0.24768   0.26573   0.28067   0.29779
  Beta virt. eigenvalues --    0.32435   0.33126   0.33688   0.36963   0.37124
  Beta virt. eigenvalues --    0.39814   0.40360   0.41996   0.44121   0.45065
  Beta virt. eigenvalues --    0.46288   0.46966   0.47727   0.48907   0.49245
  Beta virt. eigenvalues --    0.52018   0.52525   0.53316   0.54320   0.57000
  Beta virt. eigenvalues --    0.57331   0.57960   0.58817   0.60634   0.61317
  Beta virt. eigenvalues --    0.62651   0.63971   0.65367   0.66528   0.69074
  Beta virt. eigenvalues --    0.70378   0.71376   0.71847   0.72602   0.73281
  Beta virt. eigenvalues --    0.75085   0.77281   0.79980   0.81489   0.85538
  Beta virt. eigenvalues --    0.88877   0.91526   0.93520   0.96098   0.97330
  Beta virt. eigenvalues --    1.01311   1.03845   1.06125   1.12944   1.17286
  Beta virt. eigenvalues --    1.17305   1.19695   1.21003   1.23703   1.23828
  Beta virt. eigenvalues --    1.25285   1.26736   1.34810   1.38973   1.40791
  Beta virt. eigenvalues --    1.41799   1.50468   1.64233   1.68352   1.68985
  Beta virt. eigenvalues --    1.73053   1.73692   1.74619   1.77203   1.78832
  Beta virt. eigenvalues --    1.82748   1.83931   1.89717   1.92576   1.94061
  Beta virt. eigenvalues --    1.99701   2.05007   2.06382   2.09210   2.10345
  Beta virt. eigenvalues --    2.12860   2.14562   2.17718   2.22000   2.23114
  Beta virt. eigenvalues --    2.24850   2.26584   2.31713   2.32939   2.38976
  Beta virt. eigenvalues --    2.44095   2.49489   2.54589   2.56976   2.60693
  Beta virt. eigenvalues --    2.63181   2.63502   2.63908   2.63938   2.64014
  Beta virt. eigenvalues --    2.64044   2.64307   2.65228   2.65484   2.67915
  Beta virt. eigenvalues --    2.73760   2.74454   2.81152   2.89357   2.91081
  Beta virt. eigenvalues --    2.98792   2.99439   3.17200   3.17857   3.32086
  Beta virt. eigenvalues --    3.65827  53.83889
          Condensed to atoms (all electrons):
               1          2          3          4          5          6
     1  C    5.147701   0.190324   0.091564  -0.159564  -0.000310  -0.000136
     2  C    0.190324   5.123445   0.280417   0.126465   0.006679  -0.000362
     3  C    0.091564   0.280417   5.200435   0.182717  -0.075477   0.010973
     4  C   -0.159564   0.126465   0.182717   5.345515   0.392722  -0.098948
     5  N   -0.000310   0.006679  -0.075477   0.392722   6.977148   0.241274
     6  S   -0.000136  -0.000362   0.010973  -0.098948   0.241274  15.113020
     7  N    0.007410  -0.000887   0.013066  -0.100709  -0.074851   0.308646
     8  C    0.122613  -0.155115   0.057099   0.138681  -0.072968  -0.119181
     9  C    0.283178   0.096136  -0.104229   0.046001   0.008838   0.010415
    10  H    0.452200  -0.070710   0.014449  -0.001895   0.000005   0.000007
    11  H   -0.069739   0.452542  -0.063925   0.015729  -0.000109   0.000005
    12  H    0.013330  -0.066973   0.452729  -0.062640  -0.010577  -0.000136
    13  H   -0.078547   0.014977  -0.003889   0.020692   0.000042  -0.000581
    14  Ag  -0.000157   0.002217  -0.013648  -0.012082   0.025633  -0.000027
               7          8          9         10         11         12
     1  C    0.007410   0.122613   0.283178   0.452200  -0.069739   0.013330
     2  C   -0.000887  -0.155115   0.096136  -0.070710   0.452542  -0.066973
     3  C    0.013066   0.057099  -0.104229   0.014449  -0.063925   0.452729
     4  C   -0.100709   0.138681   0.046001  -0.001895   0.015729  -0.062640
     5  N   -0.074851  -0.072968   0.008838   0.000005  -0.000109  -0.010577
     6  S    0.308646  -0.119181   0.010415   0.000007   0.000005  -0.000136
     7  N    6.747162   0.495900  -0.068884  -0.000108   0.000007  -0.000087
     8  C    0.495900   5.293695   0.210141   0.015877  -0.001484   0.015307
     9  C   -0.068884   0.210141   5.123912  -0.065628   0.013246  -0.002631
    10  H   -0.000108   0.015877  -0.065628   0.646746  -0.011914  -0.000204
    11  H    0.000007  -0.001484   0.013246  -0.011914   0.641476  -0.011148
    12  H   -0.000087   0.015307  -0.002631  -0.000204  -0.011148   0.616853
    13  H   -0.005839  -0.068484   0.463121  -0.012067  -0.000197   0.000017
    14  Ag   0.002445   0.003568  -0.001017  -0.000016   0.000089   0.015317
              13         14
     1  C   -0.078547  -0.000157
     2  C    0.014977   0.002217
     3  C   -0.003889  -0.013648
     4  C    0.020692  -0.012082
     5  N    0.000042   0.025633
     6  S   -0.000581  -0.000027
     7  N   -0.005839   0.002445
     8  C   -0.068484   0.003568
     9  C    0.463121  -0.001017
    10  H   -0.012067  -0.000016
    11  H   -0.000197   0.000089
    12  H    0.000017   0.015317
    13  H    0.649944   0.000061
    14  Ag   0.000061  19.079363
          Atomic-Atomic Spin Densities.
               1          2          3          4          5          6
     1  C    0.005874  -0.000633  -0.000226  -0.000087  -0.000005  -0.000034
     2  C   -0.000633  -0.003782  -0.002160  -0.000417  -0.000092   0.000061
     3  C   -0.000226  -0.002160   0.018089   0.003816  -0.001157   0.000705
     4  C   -0.000087  -0.000417   0.003816  -0.005124   0.003142   0.003541
     5  N   -0.000005  -0.000092  -0.001157   0.003142   0.119843  -0.021203
     6  S   -0.000034   0.000061   0.000705   0.003541  -0.021203   0.024755
     7  N    0.000049  -0.000051  -0.000246  -0.001635   0.001028  -0.001750
     8  C    0.001582  -0.002216  -0.002908  -0.005520   0.001435  -0.004499
     9  C   -0.001031   0.001142   0.000372   0.001374   0.000000   0.000285
    10  H   -0.000191   0.000073  -0.000007   0.000017   0.000000   0.000001
    11  H   -0.000109   0.000192  -0.000229  -0.000024  -0.000001   0.000000
    12  H   -0.000103   0.000379  -0.000321   0.000158  -0.000459   0.000062
    13  H    0.000039  -0.000008   0.000010  -0.000006   0.000002   0.000004
    14  Ag  -0.000198   0.001467  -0.004141  -0.006730  -0.069996   0.009364
               7          8          9         10         11         12
     1  C    0.000049   0.001582  -0.001031  -0.000191  -0.000109  -0.000103
     2  C   -0.000051  -0.002216   0.001142   0.000073   0.000192   0.000379
     3  C   -0.000246  -0.002908   0.000372  -0.000007  -0.000229  -0.000321
     4  C   -0.001635  -0.005520   0.001374   0.000017  -0.000024   0.000158
     5  N    0.001028   0.001435   0.000000   0.000000  -0.000001  -0.000459
     6  S   -0.001750  -0.004499   0.000285   0.000001   0.000000   0.000062
     7  N   -0.007283   0.003186  -0.000038  -0.000001   0.000000  -0.000011
     8  C    0.003186   0.021859  -0.003701  -0.000131  -0.000034  -0.000370
     9  C   -0.000038  -0.003701  -0.004630   0.000098   0.000027   0.000075
    10  H   -0.000001  -0.000131   0.000098   0.000066   0.000022   0.000004
    11  H    0.000000  -0.000034   0.000027   0.000022   0.000457   0.000035
    12  H   -0.000011  -0.000370   0.000075   0.000004   0.000035  -0.001707
    13  H   -0.000003  -0.000004  -0.000004  -0.000005   0.000000   0.000000
    14  Ag  -0.000637  -0.003356   0.000390   0.000011   0.000065   0.004224
              13         14
     1  C    0.000039  -0.000198
     2  C   -0.000008   0.001467
     3  C    0.000010  -0.004141
     4  C   -0.000006  -0.006730
     5  N    0.000002  -0.069996
     6  S    0.000004   0.009364
     7  N   -0.000003  -0.000637
     8  C   -0.000004  -0.003356
     9  C   -0.000004   0.000390
    10  H   -0.000005   0.000011
    11  H    0.000000   0.000065
    12  H    0.000000   0.004224
    13  H    0.000269  -0.000002
    14  Ag  -0.000002   1.027817
 Mulliken charges and spin densities:
               1          2
     1  C    0.000132   0.004927
     2  C    0.000845  -0.006043
     3  C   -0.042282   0.011598
     4  C    0.167316  -0.007496
     5  N   -0.418048   0.032537
     6  S    0.535031   0.011294
     7  N   -0.323270  -0.007393
     8  C    0.064349   0.005324
     9  C   -0.012601  -0.005642
    10  H    0.033259  -0.000043
    11  H    0.035424   0.000400
    12  H    0.040842   0.001967
    13  H    0.020749   0.000290
    14  Ag  -0.101747   0.958279
 Sum of Mulliken charges =   0.00000   1.00000
 Mulliken charges and spin densities with hydrogens summed into heavy atoms:
               1          2
     1  C    0.033391   0.004884
     2  C    0.036270  -0.005642
     3  C   -0.001439   0.013565
     4  C    0.167316  -0.007496
     5  N   -0.418048   0.032537
     6  S    0.535031   0.011294
     7  N   -0.323270  -0.007393
     8  C    0.064349   0.005324
     9  C    0.008148  -0.005352
    14  Ag  -0.101747   0.958279
 Electronic spatial extent (au):  <R**2>=           2857.1242
 Charge=              0.0000 electrons
 Dipole moment (field-independent basis, Debye):
    X=             -2.2485    Y=              3.2094    Z=              0.0564  Tot=              3.9191
 Quadrupole moment (field-independent basis, Debye-Ang):
   XX=            -73.6358   YY=            -95.6807   ZZ=            -80.6779
   XY=              8.1668   XZ=             -0.8107   YZ=             -0.0912
 Traceless Quadrupole moment (field-independent basis, Debye-Ang):
   XX=              9.6957   YY=            -12.3492   ZZ=              2.6536
   XY=              8.1668   XZ=             -0.8107   YZ=             -0.0912
 Octapole moment (field-independent basis, Debye-Ang**2):
  XXX=           -312.1156  YYY=            312.5234  ZZZ=             15.6920  XYY=           -165.2497
  XXY=             96.9641  XXZ=              4.1357  XZZ=           -105.7769  YZZ=             76.8124
  YYZ=              6.8266  XYZ=              0.5505
 Hexadecapole moment (field-independent basis, Debye-Ang**3):
 XXXX=          -2097.0433 YYYY=          -2651.1172 ZZZZ=           -104.9092 XXXY=            628.1918
 XXXZ=             46.7968 YYYX=            775.2997 YYYZ=             -7.8625 ZZZX=             60.5037
 ZZZY=             -5.0353 XXYY=           -873.2791 XXZZ=           -392.9604 YYZZ=           -402.1851
 XXYZ=             -1.5452 YYXZ=             21.7196 ZZXY=            192.6201
 N-N= 6.457851332272D+02 E-N=-3.343093394005D+03  KE= 7.900785824740D+02
                          Isotropic Fermi Contact Couplings
        Atom                 a.u.       MegaHertz       Gauss      10(-4) cm-1
     1  C(13)              0.00116       1.30642       0.46616       0.43577
     2  C(13)             -0.00045      -0.50565      -0.18043      -0.16867
     3  C(13)              0.01006      11.30773       4.03488       3.77185
     4  C(13)             -0.00172      -1.92851      -0.68814      -0.64328
     5  N(14)              0.18911      61.10221      21.80279      20.38150
     6  S(33)              0.00903       3.10303       1.10724       1.03506
     7  N(14)             -0.00317      -1.02363      -0.36526      -0.34145
     8  C(13)              0.00756       8.50366       3.03432       2.83652
     9  C(13)             -0.00106      -1.19491      -0.42637      -0.39858
    10  H(1)              -0.00001      -0.02535      -0.00905      -0.00846
    11  H(1)               0.00011       0.50581       0.18049       0.16872
    12  H(1)              -0.00005      -0.23621      -0.08429      -0.07879
    13  H(1)               0.00011       0.51396       0.18339       0.17144
    14  Ag(107             0.00030      -0.05373      -0.01917      -0.01792
 --------------------------------------------------------
       Center         ----  Spin Dipole Couplings  ----
                      3XX-RR        3YY-RR        3ZZ-RR
 --------------------------------------------------------
     1   Atom       -0.001968     -0.000942      0.002910
     2   Atom        0.004256      0.003119     -0.007375
     3   Atom       -0.006600      0.007900     -0.001300
     4   Atom        0.005043      0.004654     -0.009697
     5   Atom       -0.021335      0.029300     -0.007965
     6   Atom        0.009939      0.022412     -0.032351
     7   Atom        0.004359      0.021725     -0.026084
     8   Atom       -0.001890      0.000956      0.000934
     9   Atom        0.002638      0.003468     -0.006106
    10   Atom        0.000279      0.000115     -0.000394
    11   Atom        0.001043     -0.000068     -0.000975
    12   Atom        0.002442      0.003429     -0.005870
    13   Atom        0.000104      0.000378     -0.000482
    14   Atom        0.023544     -0.040015      0.016471
 --------------------------------------------------------
                        XY            XZ            YZ
 --------------------------------------------------------
     1   Atom       -0.000958      0.000400      0.000216
     2   Atom       -0.002656     -0.000764     -0.000178
     3   Atom       -0.003509      0.000521     -0.000111
     4   Atom       -0.003684     -0.001014     -0.000201
     5   Atom       -0.051767      0.002589      0.003123
     6   Atom        0.042576     -0.004262     -0.004538
     7   Atom       -0.000370     -0.002288     -0.001348
     8   Atom       -0.003075      0.000320      0.000211
     9   Atom       -0.001040     -0.000628     -0.000240
    10   Atom       -0.000823     -0.000022      0.000044
    11   Atom       -0.001378     -0.000102      0.000071
    12   Atom       -0.006714     -0.000388      0.000186
    13   Atom       -0.000421     -0.000030      0.000001
    14   Atom        0.002557     -0.000609      0.001788
 --------------------------------------------------------


 ---------------------------------------------------------------------------------
              Anisotropic Spin Dipole Couplings in Principal Axis System
 ---------------------------------------------------------------------------------

       Atom             a.u.   MegaHertz   Gauss  10(-4) cm-1        Axes

              Baa    -0.0026    -0.346    -0.124    -0.115  0.8553  0.5114 -0.0825
     1 C(13)  Bbb    -0.0004    -0.049    -0.018    -0.016 -0.5128  0.8585  0.0060
              Bcc     0.0029     0.396     0.141     0.132  0.0739  0.0372  0.9966
 
              Baa    -0.0074    -0.998    -0.356    -0.333  0.0731  0.0352  0.9967
     2 C(13)  Bbb     0.0010     0.136     0.049     0.046  0.6219  0.7797 -0.0732
              Bcc     0.0064     0.862     0.307     0.287  0.7797 -0.6252 -0.0351
 
              Baa    -0.0074    -0.999    -0.356    -0.333  0.9719  0.2218 -0.0784
     3 C(13)  Bbb    -0.0013    -0.170    -0.061    -0.057  0.0714  0.0394  0.9967
              Bcc     0.0087     1.169     0.417     0.390 -0.2241  0.9743 -0.0225
 
              Baa    -0.0098    -1.313    -0.468    -0.438  0.0765  0.0334  0.9965
     4 C(13)  Bbb     0.0012     0.164     0.059     0.055  0.6816  0.7277 -0.0767
              Bcc     0.0086     1.148     0.410     0.383  0.7277 -0.6851 -0.0329
 
              Baa    -0.0540    -2.081    -0.743    -0.694  0.8449  0.5284 -0.0834
     5 N(14)  Bbb    -0.0077    -0.296    -0.105    -0.099  0.0805  0.0286  0.9963
              Bcc     0.0616     2.377     0.848     0.793 -0.5289  0.8485  0.0184
 
              Baa    -0.0328    -1.344    -0.480    -0.448  0.0768  0.0227  0.9968
     6 S(33)  Bbb    -0.0268    -1.101    -0.393    -0.367  0.7539 -0.6556 -0.0431
              Bcc     0.0596     2.445     0.872     0.815  0.6525  0.7548 -0.0675
 
              Baa    -0.0263    -1.014    -0.362    -0.338  0.0747  0.0285  0.9968
     7 N(14)  Bbb     0.0045     0.175     0.062     0.058  0.9970  0.0155 -0.0752
              Bcc     0.0218     0.840     0.300     0.280 -0.0176  0.9995 -0.0273
 
              Baa    -0.0039    -0.521    -0.186    -0.174  0.8399  0.5369 -0.0793
     8 C(13)  Bbb     0.0010     0.129     0.046     0.043  0.0681  0.0406  0.9968
              Bcc     0.0029     0.392     0.140     0.131 -0.5384  0.8427  0.0025
 
              Baa    -0.0062    -0.827    -0.295    -0.276  0.0750  0.0330  0.9966
     9 C(13)  Bbb     0.0020     0.266     0.095     0.089  0.8218  0.5640 -0.0805
              Bcc     0.0042     0.560     0.200     0.187 -0.5647  0.8251  0.0152
 
              Baa    -0.0006    -0.337    -0.120    -0.112  0.6677  0.7405 -0.0763
    10 H(1)   Bbb    -0.0004    -0.210    -0.075    -0.070  0.0749  0.0352  0.9966
              Bcc     0.0010     0.548     0.195     0.183  0.7407 -0.6711 -0.0320
 
              Baa    -0.0010    -0.533    -0.190    -0.178  0.5525  0.8265 -0.1074
    11 H(1)   Bbb    -0.0010    -0.523    -0.187    -0.174  0.0948  0.0657  0.9933
              Bcc     0.0020     1.056     0.377     0.352  0.8281 -0.5590 -0.0421
 
              Baa    -0.0059    -3.144    -1.122    -1.049  0.0724  0.0322  0.9969
    12 H(1)   Bbb    -0.0038    -2.019    -0.721    -0.674  0.7290  0.6804 -0.0750
              Bcc     0.0097     5.163     1.842     1.722 -0.6807  0.7321  0.0258
 
              Baa    -0.0005    -0.258    -0.092    -0.086  0.0763  0.0366  0.9964
    13 H(1)   Bbb    -0.0002    -0.107    -0.038    -0.036  0.8053  0.5869 -0.0832
              Bcc     0.0007     0.365     0.130     0.122 -0.5879  0.8088  0.0154
 
              Baa    -0.0402     0.872     0.311     0.291 -0.0404  0.9987 -0.0320
    14 Ag(107 Bbb     0.0165    -0.358    -0.128    -0.119  0.0734  0.0349  0.9967
              Bcc     0.0237    -0.514    -0.183    -0.171  0.9965  0.0379 -0.0747
 

 ---------------------------------------------------------------------------------

 No NMR shielding tensors so no spin-rotation constants.
 Leave Link  601 at Fri Sep 11 21:15:54 2026, MaxMem=  6442450944 cpu:               5.0 elap:               4.8
 (Enter C:\G16W\l9999.exe)
 Unable to Open any file for archive entry.
 1|1|UNPC-DESKTOP-2JKEGCA|SP|UPBE1PBE|def2SVP|C6H4Ag1N2S1(2)|JHKIM|11-S
 ep-2026|0||#P PBE1PBE/Def2SVP EmpiricalDispersion=GD3BJ SP SCF=(XQC,Ma
 xCycle=128) NoSymm Guess=Read||BTD t=0.000 dz=+0.00 class=site2site||0
 ,2|C,0,-1.400023,0.719011,0.079614|C,0,-1.394141,-0.672233,0.126589|C,
 0,-0.198659,-1.373371,0.061546|C,0,0.983943,-0.661156,-0.05075|N,0,2.2
 44593,-1.191239,-0.126615|S,0,3.330762,0.13763,-0.252539|N,0,2.20699,1
 .304055,-0.208559|C,0,0.986478,0.763236,-0.099412|C,0,-0.232315,1.4480
 65,-0.032072|H,0,-2.344291,1.240556,0.13209|H,0,-2.325813,-1.210325,0.
 214251|H,0,-0.164295,-2.471476,0.096407|H,0,-0.238097,2.524956,-0.0683
 09|Ag,0,2.473846,-3.720464,-0.05615||Version=EM64W-G16RevC.01|HF=-884.
 7620051|S2=0.751897|S2-1=0.|S2A=0.750003|RMSD=7.071e-009|Dipole=-0.884
 6185,1.262681,0.0221861|Quadrupole=7.2084796,-9.1813388,1.9728592,6.07
 18479,-0.602755,-0.0678198|PG=C01 [X(C6H4Ag1N2S1)]||@
 The archive entry for this job was punched.


 COLLEGE PROFESSOR: SOMEONE WHO TALKS IN OTHER PEOPLE'S SLEEP.
 Job cpu time:       0 days  0 hours  3 minutes 32.0 seconds.
 Elapsed time:       0 days  0 hours  3 minutes 30.8 seconds.
 File lengths (MBytes):  RWF=     37 Int=      0 D2E=      0 Chk=      3 Scr=      1
 Normal termination of Gaussian 16 at Fri Sep 11 21:15:54 2026.
