 Entering Gaussian System, Link 0=C:\G16W\g16.exe
 Input=Cs2CO3_t1_z1.gjf
 Output=Cs2CO3_t1_z1.out
 Initial command:
 C:\G16W\l1.exe ".\Gau-28528.inp" "Cs2CO3_t1_z1.out" /scrdir=".\"
 Entering Link 1 = C:\G16W\l1.exe PID=     19212.
  
 Copyright (c) 1988-2019, Gaussian, Inc.  All Rights Reserved.
  
 This is part of the Gaussian(R) 16 program.  It is based on
 the Gaussian(R) 09 system (copyright 2009, Gaussian, Inc.),
 the Gaussian(R) 03 system (copyright 2003, Gaussian, Inc.),
 the Gaussian(R) 98 system (copyright 1998, Gaussian, Inc.),
 the Gaussian(R) 94 system (copyright 1995, Gaussian, Inc.),
 the Gaussian 92(TM) system (copyright 1992, Gaussian, Inc.),
 the Gaussian 90(TM) system (copyright 1990, Gaussian, Inc.),
 the Gaussian 88(TM) system (copyright 1988, Gaussian, Inc.),
 the Gaussian 86(TM) system (copyright 1986, Carnegie Mellon
 University), and the Gaussian 82(TM) system (copyright 1983,
 Carnegie Mellon University). Gaussian is a federally registered
 trademark of Gaussian, Inc.
  
 This software contains proprietary and confidential information,
 including trade secrets, belonging to Gaussian, Inc.
  
 This software is provided under written license and may be
 used, copied, transmitted, or stored only in accord with that
 written license.
  
 The following legend is applicable only to US Government
 contracts under FAR:
  
                    RESTRICTED RIGHTS LEGEND
  
 Use, reproduction and disclosure by the US Government is
 subject to restrictions as set forth in subparagraphs (a)
 and (c) of the Commercial Computer Software - Restricted
 Rights clause in FAR 52.227-19.
  
 Gaussian, Inc.
 340 Quinnipiac St., Bldg. 40, Wallingford CT 06492
  
  
 ---------------------------------------------------------------
 Warning -- This program may not be used in any manner that
 competes with the business of Gaussian, Inc. or will provide
 assistance to any competitor of Gaussian, Inc.  The licensee
 of this program is prohibited from giving any competitor of
 Gaussian, Inc. access to this program.  By using this program,
 the user acknowledges that Gaussian, Inc. is engaged in the
 business of creating and licensing software in the field of
 computational chemistry and represents and warrants to the
 licensee that it is not a competitor of Gaussian, Inc. and that
 it will not use this program in any manner prohibited above.
 ---------------------------------------------------------------
  

 Cite this work as:
 Gaussian 16, Revision C.01,
 M. J. Frisch, G. W. Trucks, H. B. Schlegel, G. E. Scuseria, 
 M. A. Robb, J. R. Cheeseman, G. Scalmani, V. Barone, 
 G. A. Petersson, H. Nakatsuji, X. Li, M. Caricato, A. V. Marenich, 
 J. Bloino, B. G. Janesko, R. Gomperts, B. Mennucci, H. P. Hratchian, 
 J. V. Ortiz, A. F. Izmaylov, J. L. Sonnenberg, D. Williams-Young, 
 F. Ding, F. Lipparini, F. Egidi, J. Goings, B. Peng, A. Petrone, 
 T. Henderson, D. Ranasinghe, V. G. Zakrzewski, J. Gao, N. Rega, 
 G. Zheng, W. Liang, M. Hada, M. Ehara, K. Toyota, R. Fukuda, 
 J. Hasegawa, M. Ishida, T. Nakajima, Y. Honda, O. Kitao, H. Nakai, 
 T. Vreven, K. Throssell, J. A. Montgomery, Jr., J. E. Peralta, 
 F. Ogliaro, M. J. Bearpark, J. J. Heyd, E. N. Brothers, K. N. Kudin, 
 V. N. Staroverov, T. A. Keith, R. Kobayashi, J. Normand, 
 K. Raghavachari, A. P. Rendell, J. C. Burant, S. S. Iyengar, 
 J. Tomasi, M. Cossi, J. M. Millam, M. Klene, C. Adamo, R. Cammi, 
 J. W. Ochterski, R. L. Martin, K. Morokuma, O. Farkas, 
 J. B. Foresman, and D. J. Fox, Gaussian, Inc., Wallingford CT, 2019.
 
 ******************************************
 Gaussian 16:  EM64W-G16RevC.01 30-May-2019
                11-Sep-2026 
 ******************************************
 %Chk=Cs2CO3.chk
 %NProcShared=8
 Will use up to    8 processors via shared memory.
 %Mem=48GB
 ----------------------------------------------------------------------
 #P PBE1PBE/Def2SVP EmpiricalDispersion=GD3BJ SP SCF=(XQC,MaxCycle=128)
  NoSymm Guess=Read
 ----------------------------------------------------------------------
 1/38=1,172=1/1;
 2/12=2,15=1,17=6,18=5,40=1/2;
 3/5=43,7=101,11=2,25=1,30=1,74=-13,116=-2,124=41/1,2,3;
 4/5=1/1;
 5/5=2,7=128,8=3,13=1,38=6/2,8;
 6/7=2,8=2,9=2,10=2,28=1/1;
 99/5=1,9=1/99;
 Leave Link    1 at Fri Sep 11 20:36:22 2026, MaxMem=  6442450944 cpu:               0.0 elap:               0.2
 (Enter C:\G16W\l101.exe)
 ---------------------------------------
 Cs2CO3 t=0.250 dz=+0.40 class=site2site
 ---------------------------------------
 Symbolic Z-matrix:
 Charge =  0 Multiplicity = 2
 C                     0.0885    0.00478   0.17819 
 O                     1.32176  -0.18274  -0.02899 
 O                    -0.31758   1.17362   0.58958 
 O                    -0.75948  -0.91498  -0.00578 
 Cs                    2.61844   1.72452   0.42118 
 Cs                   -2.95164  -0.2052    0.44581 
 Ag                   -0.93803   3.11496   2.26474 
 
 ITRead=  0  0  0  0  0  0  0
 MicOpt= -1 -1 -1 -1 -1 -1 -1
 NAtoms=      7 NQM=        7 NQMF=       0 NMMI=      0 NMMIF=      0
                NMic=       0 NMicF=      0.
                    Isotopes and Nuclear Properties:
 (Nuclear quadrupole moments (NQMom) in fm**2, nuclear magnetic moments (NMagM)
  in nuclear magnetons)

  Atom         1           2           3           4           5           6           7
 IAtWgt=          12          16          16          16         133         133         107
 AtmWgt=  12.0000000  15.9949146  15.9949146  15.9949146 132.9054290 132.9054290 106.9050900
 NucSpn=           0           0           0           0           0           0           1
 AtZEff=   0.0000000   0.0000000   0.0000000   0.0000000   0.0000000   0.0000000   0.0000000
 NQMom=    0.0000000   0.0000000   0.0000000   0.0000000   0.0000000   0.0000000   0.0000000
 NMagM=    0.0000000   0.0000000   0.0000000   0.0000000   0.0000000   0.0000000  -0.1135700
 AtZNuc=   6.0000000   8.0000000   8.0000000   8.0000000  55.0000000  55.0000000  47.0000000
 Leave Link  101 at Fri Sep 11 20:36:22 2026, MaxMem=  6442450944 cpu:               0.0 elap:               0.3
 (Enter C:\G16W\l202.exe)
                          Input orientation:                          
 ---------------------------------------------------------------------
 Center     Atomic      Atomic             Coordinates (Angstroms)
 Number     Number       Type             X           Y           Z
 ---------------------------------------------------------------------
      1          6           0        0.088502    0.004778    0.178193
      2          8           0        1.321763   -0.182741   -0.028987
      3          8           0       -0.317584    1.173621    0.589583
      4          8           0       -0.759484   -0.914975   -0.005780
      5         55           0        2.618443    1.724516    0.421184
      6         55           0       -2.951640   -0.205200    0.445806
      7         47           0       -0.938025    3.114957    2.264744
 ---------------------------------------------------------------------
                    Distance matrix (angstroms):
                    1          2          3          4          5
     1  C    0.000000
     2  O    1.264523   0.000000
     3  O    1.303971   2.215808   0.000000
     4  O    1.264465   2.206421   2.216296   0.000000
     5  Cs   3.068737   2.349822   2.992006   4.308086   0.000000
     6  Cs   3.059113   4.299757   2.976587   2.348033   5.894933
     7  Ag   3.883384   4.608976   2.638162   4.628986   4.240343
                    6          7
     6  Cs   0.000000
     7  Ag   4.287963   0.000000
 Symmetry turned off by external request.
 Stoichiometry    CAgCs2O3(2)
 Framework group  C1[X(CAgCs2O3)]
 Deg. of freedom    15
 Full point group                 C1      NOp   1
 Rotational constants (GHZ):           0.5559497           0.2146544           0.1554374
 Leave Link  202 at Fri Sep 11 20:36:23 2026, MaxMem=  6442450944 cpu:               1.0 elap:               0.1
 (Enter C:\G16W\l301.exe)
 Standard basis: def2SVP (5D, 7F)
 Ernie: Thresh=  0.10000D-02 Tol=  0.10000D-05 Strict=F.
   135 basis functions,   239 primitive gaussians,   148 cartesian basis functions
    34 alpha electrons       33 beta electrons
       nuclear repulsion energy       330.4686996736 Hartrees.
 IExCor= 1009 DFT=T Ex+Corr=PBE1PBE ExCW=0 ScaHFX=  0.250000
 ScaDFX=  0.750000  0.750000  1.000000  1.000000 ScalE2=  1.000000  1.000000
 IRadAn=      5 IRanWt=     -1 IRanGd=            0 ICorTp=0 IEmpDi=141
 NAtoms=    7 NActive=    7 NUniq=    7 SFac= 1.00D+00 NAtFMM=   60 NAOKFM=F Big=F
 Integral buffers will be    131072 words long.
 Raffenetti 2 integral format.
 Two-electron integral symmetry is turned off.
 R6Disp:  Grimme-D3(BJ) Dispersion energy=       -0.0071987539 Hartrees.
 Nuclear repulsion after empirical dispersion term =      330.4615009197 Hartrees.
 Leave Link  301 at Fri Sep 11 20:36:23 2026, MaxMem=  6442450944 cpu:               0.0 elap:               0.2
 (Enter C:\G16W\l302.exe)
 NPDir=0 NMtPBC=     1 NCelOv=     1 NCel=       1 NClECP=     1 NCelD=      1
         NCelK=      1 NCelE2=     1 NClLst=     1 CellRange=     0.0.
 One-electron integrals computed using PRISM.
   1 Symmetry operations used in ECPInt.
 ECPInt:  NShTT=    1540 NPrTT=    4838 LenC2=    1523 LenP2D=    4035.
 LDataN:  DoStor=T MaxTD1= 7 Len=  274
 NBasis=   135 RedAO= T EigKep=  7.30D-03  NBF=   135
 NBsUse=   135 1.00D-06 EigRej= -1.00D+00 NBFU=   135
 Precomputing XC quadrature grid using
 IXCGrd= 4 IRadAn=           5 IRanWt=          -1 IRanGd=           0 AccXCQ= 0.00D+00.
 Defaulting to unpruned grid for atomic number  55.
 Defaulting to unpruned grid for atomic number  47.
 Defaulting to unpruned grid for atomic number  55.
 Generated NRdTot=       0 NPtTot=           0 NUsed=           0 NTot=          32
 NSgBfM=   148   148   148   148   148 MxSgAt=     7 MxSgA2=     7.
 Leave Link  302 at Fri Sep 11 20:36:25 2026, MaxMem=  6442450944 cpu:               2.0 elap:               2.1
 (Enter C:\G16W\l303.exe)
 DipDrv:  MaxL=1.
 Leave Link  303 at Fri Sep 11 20:36:26 2026, MaxMem=  6442450944 cpu:               1.0 elap:               1.3
 (Enter C:\G16W\l401.exe)
 Initial guess from the checkpoint file:  "Cs2CO3.chk"
 B after Tr=    -0.056291    0.144434    0.107816
         Rot=    0.999999   -0.001121    0.000536   -0.001197 Ang=  -0.20 deg.
 Guess basis will be translated and rotated to current coordinates.
 JPrj=2 DoOrth=T DoCkMO=T.
 Initial guess <Sx>= 0.0000 <Sy>= 0.0000 <Sz>= 0.5000 <S**2>= 0.7521 S= 0.5011
 Leave Link  401 at Fri Sep 11 20:36:30 2026, MaxMem=  6442450944 cpu:               4.0 elap:               3.4
 (Enter C:\G16W\l502.exe)
 Keep R1 and R2 ints in memory in canonical form, NReq=92092980.
 FoFCou: FMM=F IPFlag=           0 FMFlag=           0 FMFlg1=           0
         NFxFlg=           0 DoJE=F BraDBF=F KetDBF=F FulRan=T
         wScrn=  0.000000 ICntrl=       600 IOpCl=  0 I1Cent=           0 NGrid=           0
         NMat0=    1 NMatS0=   9180 NMatT0=    0 NMatD0=    1 NMtDS0=    0 NMtDT0=    0
 Symmetry not used in FoFCou.
 Two-electron integral symmetry not used.
 UHF open shell SCF:
 Using DIIS extrapolation, IDIIS=  1040.
 NGot=  6442450944 LenX=  6358123074 LenY=  6358100729
 Requested convergence on RMS density matrix=1.00D-08 within 128 cycles.
 Requested convergence on MAX density matrix=1.00D-06.
 Requested convergence on             energy=1.00D-06.
 No special actions if energy rises.

 Cycle   1  Pass 1  IDiag  1:
 Defaulting to unpruned grid for atomic number  55.
 Defaulting to unpruned grid for atomic number  55.
 Defaulting to unpruned grid for atomic number  55.
 Defaulting to unpruned grid for atomic number  55.
 Defaulting to unpruned grid for atomic number  55.
 Defaulting to unpruned grid for atomic number  55.
 Defaulting to unpruned grid for atomic number  55.
 Defaulting to unpruned grid for atomic number  55.
 E= -450.668918538869    
 DIIS: error= 5.64D-03 at cycle   1 NSaved=   1.
 NSaved= 1 IEnMin= 1 EnMin= -450.668918538869     IErMin= 1 ErrMin= 5.64D-03
 ErrMax= 5.64D-03  0.00D+00 EMaxC= 1.00D-01 BMatC= 3.63D-02 BMatP= 3.63D-02
 IDIUse=3 WtCom= 9.44D-01 WtEn= 5.64D-02
 Coeff-Com:  0.100D+01
 Coeff-En:   0.100D+01
 Coeff:      0.100D+01
 Gap=     0.130 Goal=   None    Shift=    0.000
 Gap=     0.133 Goal=   None    Shift=    0.000
 GapD=    0.130 DampG=1.000 DampE=1.000 DampFc=1.0000 IDamp=-1.
 RMSDP=1.20D-03 MaxDP=6.63D-02              OVMax= 5.48D-02

 Cycle   2  Pass 1  IDiag  1:
 E= -450.673305316136     Delta-E=       -0.004386777267 Rises=F Damp=F
 DIIS: error= 2.31D-03 at cycle   2 NSaved=   2.
 NSaved= 2 IEnMin= 2 EnMin= -450.673305316136     IErMin= 2 ErrMin= 2.31D-03
 ErrMax= 2.31D-03  0.00D+00 EMaxC= 1.00D-01 BMatC= 6.18D-03 BMatP= 3.63D-02
 IDIUse=3 WtCom= 9.77D-01 WtEn= 2.31D-02
 Coeff-Com:  0.188D+00 0.812D+00
 Coeff-En:   0.000D+00 0.100D+01
 Coeff:      0.183D+00 0.817D+00
 Gap=     0.129 Goal=   None    Shift=    0.000
 Gap=     0.107 Goal=   None    Shift=    0.000
 RMSDP=5.12D-04 MaxDP=1.68D-02 DE=-4.39D-03 OVMax= 2.53D-02

 Cycle   3  Pass 1  IDiag  1:
 E= -450.672772281762     Delta-E=        0.000533034374 Rises=F Damp=F
 DIIS: error= 2.79D-03 at cycle   3 NSaved=   3.
 NSaved= 3 IEnMin= 2 EnMin= -450.673305316136     IErMin= 2 ErrMin= 2.31D-03
 ErrMax= 2.79D-03  0.00D+00 EMaxC= 1.00D-01 BMatC= 9.60D-03 BMatP= 6.18D-03
 IDIUse=3 WtCom= 1.59D-01 WtEn= 8.41D-01
 Coeff-Com:  0.236D-03 0.556D+00 0.443D+00
 Coeff-En:   0.000D+00 0.571D+00 0.429D+00
 Coeff:      0.376D-04 0.568D+00 0.432D+00
 Gap=     0.130 Goal=   None    Shift=    0.000
 Gap=     0.106 Goal=   None    Shift=    0.000
 RMSDP=2.89D-04 MaxDP=1.02D-02 DE= 5.33D-04 OVMax= 1.58D-02

 Cycle   4  Pass 1  IDiag  1:
 E= -450.674645783199     Delta-E=       -0.001873501437 Rises=F Damp=F
 DIIS: error= 5.23D-04 at cycle   4 NSaved=   4.
 NSaved= 4 IEnMin= 4 EnMin= -450.674645783199     IErMin= 4 ErrMin= 5.23D-04
 ErrMax= 5.23D-04  0.00D+00 EMaxC= 1.00D-01 BMatC= 1.97D-04 BMatP= 6.18D-03
 IDIUse=3 WtCom= 9.95D-01 WtEn= 5.23D-03
 Coeff-Com: -0.496D-02 0.265D+00 0.221D+00 0.520D+00
 Coeff-En:   0.000D+00 0.000D+00 0.000D+00 0.100D+01
 Coeff:     -0.493D-02 0.263D+00 0.220D+00 0.522D+00
 Gap=     0.130 Goal=   None    Shift=    0.000
 Gap=     0.104 Goal=   None    Shift=    0.000
 RMSDP=7.26D-05 MaxDP=5.50D-03 DE=-1.87D-03 OVMax= 4.07D-03

 Cycle   5  Pass 1  IDiag  1:
 E= -450.674693849658     Delta-E=       -0.000048066459 Rises=F Damp=F
 DIIS: error= 1.79D-04 at cycle   5 NSaved=   5.
 NSaved= 5 IEnMin= 5 EnMin= -450.674693849658     IErMin= 5 ErrMin= 1.79D-04
 ErrMax= 1.79D-04  0.00D+00 EMaxC= 1.00D-01 BMatC= 1.61D-05 BMatP= 1.97D-04
 IDIUse=3 WtCom= 9.98D-01 WtEn= 1.79D-03
 Coeff-Com: -0.134D-02-0.229D-01-0.138D-01 0.174D+00 0.864D+00
 Coeff-En:   0.000D+00 0.000D+00 0.000D+00 0.000D+00 0.100D+01
 Coeff:     -0.134D-02-0.229D-01-0.138D-01 0.174D+00 0.864D+00
 Gap=     0.130 Goal=   None    Shift=    0.000
 Gap=     0.105 Goal=   None    Shift=    0.000
 RMSDP=4.16D-05 MaxDP=2.89D-03 DE=-4.81D-05 OVMax= 3.56D-03

 Cycle   6  Pass 1  IDiag  1:
 E= -450.674702942199     Delta-E=       -0.000009092541 Rises=F Damp=F
 DIIS: error= 7.61D-05 at cycle   6 NSaved=   6.
 NSaved= 6 IEnMin= 6 EnMin= -450.674702942199     IErMin= 6 ErrMin= 7.61D-05
 ErrMax= 7.61D-05  0.00D+00 EMaxC= 1.00D-01 BMatC= 3.10D-06 BMatP= 1.61D-05
 IDIUse=1 WtCom= 1.00D+00 WtEn= 0.00D+00
 Coeff-Com:  0.273D-03-0.642D-01-0.505D-01-0.109D-01 0.392D+00 0.733D+00
 Coeff:      0.273D-03-0.642D-01-0.505D-01-0.109D-01 0.392D+00 0.733D+00
 Gap=     0.130 Goal=   None    Shift=    0.000
 Gap=     0.104 Goal=   None    Shift=    0.000
 RMSDP=2.01D-05 MaxDP=1.47D-03 DE=-9.09D-06 OVMax= 1.87D-03

 Cycle   7  Pass 1  IDiag  1:
 E= -450.674704556719     Delta-E=       -0.000001614520 Rises=F Damp=F
 DIIS: error= 1.90D-05 at cycle   7 NSaved=   7.
 NSaved= 7 IEnMin= 7 EnMin= -450.674704556719     IErMin= 7 ErrMin= 1.90D-05
 ErrMax= 1.90D-05  0.00D+00 EMaxC= 1.00D-01 BMatC= 4.46D-07 BMatP= 3.10D-06
 IDIUse=1 WtCom= 1.00D+00 WtEn= 0.00D+00
 Coeff-Com:  0.384D-03-0.244D-01-0.197D-01-0.243D-01 0.621D-01 0.319D+00
 Coeff-Com:  0.687D+00
 Coeff:      0.384D-03-0.244D-01-0.197D-01-0.243D-01 0.621D-01 0.319D+00
 Coeff:      0.687D+00
 Gap=     0.130 Goal=   None    Shift=    0.000
 Gap=     0.104 Goal=   None    Shift=    0.000
 RMSDP=6.08D-06 MaxDP=4.42D-04 DE=-1.61D-06 OVMax= 5.64D-04

 Cycle   8  Pass 1  IDiag  1:
 E= -450.674704741147     Delta-E=       -0.000000184428 Rises=F Damp=F
 DIIS: error= 7.99D-06 at cycle   8 NSaved=   8.
 NSaved= 8 IEnMin= 8 EnMin= -450.674704741147     IErMin= 8 ErrMin= 7.99D-06
 ErrMax= 7.99D-06  0.00D+00 EMaxC= 1.00D-01 BMatC= 6.26D-08 BMatP= 4.46D-07
 IDIUse=1 WtCom= 1.00D+00 WtEn= 0.00D+00
 Coeff-Com:  0.873D-04 0.134D-02 0.734D-03-0.754D-02-0.432D-01-0.144D-01
 Coeff-Com:  0.272D+00 0.791D+00
 Coeff:      0.873D-04 0.134D-02 0.734D-03-0.754D-02-0.432D-01-0.144D-01
 Coeff:      0.272D+00 0.791D+00
 Gap=     0.130 Goal=   None    Shift=    0.000
 Gap=     0.104 Goal=   None    Shift=    0.000
 RMSDP=2.65D-06 MaxDP=1.92D-04 DE=-1.84D-07 OVMax= 2.26D-04

 Cycle   9  Pass 1  IDiag  1:
 E= -450.674704767261     Delta-E=       -0.000000026114 Rises=F Damp=F
 DIIS: error= 1.51D-06 at cycle   9 NSaved=   9.
 NSaved= 9 IEnMin= 9 EnMin= -450.674704767261     IErMin= 9 ErrMin= 1.51D-06
 ErrMax= 1.51D-06  0.00D+00 EMaxC= 1.00D-01 BMatC= 2.44D-09 BMatP= 6.26D-08
 IDIUse=1 WtCom= 1.00D+00 WtEn= 0.00D+00
 Coeff-Com: -0.128D-04 0.239D-02 0.182D-02 0.257D-03-0.153D-01-0.299D-01
 Coeff-Com:  0.725D-02 0.175D+00 0.859D+00
 Coeff:     -0.128D-04 0.239D-02 0.182D-02 0.257D-03-0.153D-01-0.299D-01
 Coeff:      0.725D-02 0.175D+00 0.859D+00
 Gap=     0.130 Goal=   None    Shift=    0.000
 Gap=     0.104 Goal=   None    Shift=    0.000
 RMSDP=5.96D-07 MaxDP=3.65D-05 DE=-2.61D-08 OVMax= 4.50D-05

 Cycle  10  Pass 1  IDiag  1:
 E= -450.674704768413     Delta-E=       -0.000000001152 Rises=F Damp=F
 DIIS: error= 7.82D-07 at cycle  10 NSaved=  10.
 NSaved=10 IEnMin=10 EnMin= -450.674704768413     IErMin=10 ErrMin= 7.82D-07
 ErrMax= 7.82D-07  0.00D+00 EMaxC= 1.00D-01 BMatC= 4.88D-10 BMatP= 2.44D-09
 IDIUse=1 WtCom= 1.00D+00 WtEn= 0.00D+00
 Coeff-Com: -0.108D-04 0.857D-03 0.682D-03 0.601D-03-0.315D-02-0.991D-02
 Coeff-Com: -0.162D-01 0.975D-02 0.352D+00 0.665D+00
 Coeff:     -0.108D-04 0.857D-03 0.682D-03 0.601D-03-0.315D-02-0.991D-02
 Coeff:     -0.162D-01 0.975D-02 0.352D+00 0.665D+00
 Gap=     0.130 Goal=   None    Shift=    0.000
 Gap=     0.104 Goal=   None    Shift=    0.000
 RMSDP=1.44D-07 MaxDP=8.33D-06 DE=-1.15D-09 OVMax= 5.92D-06

 Cycle  11  Pass 1  IDiag  1:
 E= -450.674704768561     Delta-E=       -0.000000000148 Rises=F Damp=F
 DIIS: error= 2.70D-07 at cycle  11 NSaved=  11.
 NSaved=11 IEnMin=11 EnMin= -450.674704768561     IErMin=11 ErrMin= 2.70D-07
 ErrMax= 2.70D-07  0.00D+00 EMaxC= 1.00D-01 BMatC= 5.59D-11 BMatP= 4.88D-10
 IDIUse=1 WtCom= 1.00D+00 WtEn= 0.00D+00
 Coeff-Com: -0.892D-06-0.184D-03-0.127D-03 0.162D-03 0.193D-02 0.294D-02
 Coeff-Com: -0.687D-02-0.331D-01-0.322D-01 0.212D+00 0.856D+00
 Coeff:     -0.892D-06-0.184D-03-0.127D-03 0.162D-03 0.193D-02 0.294D-02
 Coeff:     -0.687D-02-0.331D-01-0.322D-01 0.212D+00 0.856D+00
 Gap=     0.130 Goal=   None    Shift=    0.000
 Gap=     0.104 Goal=   None    Shift=    0.000
 RMSDP=5.49D-08 MaxDP=3.02D-06 DE=-1.48D-10 OVMax= 2.81D-06

 Cycle  12  Pass 1  IDiag  1:
 E= -450.674704768581     Delta-E=       -0.000000000019 Rises=F Damp=F
 DIIS: error= 1.70D-07 at cycle  12 NSaved=  12.
 NSaved=12 IEnMin=12 EnMin= -450.674704768581     IErMin=12 ErrMin= 1.70D-07
 ErrMax= 1.70D-07  0.00D+00 EMaxC= 1.00D-01 BMatC= 1.88D-11 BMatP= 5.59D-11
 IDIUse=1 WtCom= 1.00D+00 WtEn= 0.00D+00
 Coeff-Com:  0.583D-06-0.189D-03-0.141D-03 0.298D-04 0.135D-02 0.263D-02
 Coeff-Com: -0.202D-02-0.192D-01-0.542D-01 0.477D-01 0.478D+00 0.546D+00
 Coeff:      0.583D-06-0.189D-03-0.141D-03 0.298D-04 0.135D-02 0.263D-02
 Coeff:     -0.202D-02-0.192D-01-0.542D-01 0.477D-01 0.478D+00 0.546D+00
 Gap=     0.130 Goal=   None    Shift=    0.000
 Gap=     0.104 Goal=   None    Shift=    0.000
 RMSDP=1.91D-08 MaxDP=5.20D-07 DE=-1.92D-11 OVMax= 9.12D-07

 Cycle  13  Pass 1  IDiag  1:
 E= -450.674704768582     Delta-E=       -0.000000000001 Rises=F Damp=F
 DIIS: error= 6.91D-08 at cycle  13 NSaved=  13.
 NSaved=13 IEnMin=13 EnMin= -450.674704768582     IErMin=13 ErrMin= 6.91D-08
 ErrMax= 6.91D-08  0.00D+00 EMaxC= 1.00D-01 BMatC= 3.71D-12 BMatP= 1.88D-11
 IDIUse=1 WtCom= 1.00D+00 WtEn= 0.00D+00
 Coeff-Com:  0.609D-06-0.370D-04-0.326D-04-0.460D-04 0.153D-04 0.372D-03
 Coeff-Com:  0.151D-02 0.164D-02-0.196D-01-0.513D-01-0.366D-01 0.317D+00
 Coeff-Com:  0.788D+00
 Coeff:      0.609D-06-0.370D-04-0.326D-04-0.460D-04 0.153D-04 0.372D-03
 Coeff:      0.151D-02 0.164D-02-0.196D-01-0.513D-01-0.366D-01 0.317D+00
 Coeff:      0.788D+00
 Gap=     0.130 Goal=   None    Shift=    0.000
 Gap=     0.104 Goal=   None    Shift=    0.000
 RMSDP=1.06D-08 MaxDP=3.94D-07 DE=-1.36D-12 OVMax= 6.35D-07

 Cycle  14  Pass 1  IDiag  1:
 E= -450.674704768587     Delta-E=       -0.000000000005 Rises=F Damp=F
 DIIS: error= 1.17D-08 at cycle  14 NSaved=  14.
 NSaved=14 IEnMin=14 EnMin= -450.674704768587     IErMin=14 ErrMin= 1.17D-08
 ErrMax= 1.17D-08  0.00D+00 EMaxC= 1.00D-01 BMatC= 1.35D-13 BMatP= 3.71D-12
 IDIUse=1 WtCom= 1.00D+00 WtEn= 0.00D+00
 Coeff-Com:  0.126D-07 0.159D-04 0.114D-04-0.154D-04-0.134D-03-0.228D-03
 Coeff-Com:  0.419D-03 0.225D-02 0.307D-02-0.118D-01-0.619D-01-0.147D-01
 Coeff-Com:  0.122D+00 0.961D+00
 Coeff:      0.126D-07 0.159D-04 0.114D-04-0.154D-04-0.134D-03-0.228D-03
 Coeff:      0.419D-03 0.225D-02 0.307D-02-0.118D-01-0.619D-01-0.147D-01
 Coeff:      0.122D+00 0.961D+00
 Gap=     0.130 Goal=   None    Shift=    0.000
 Gap=     0.104 Goal=   None    Shift=    0.000
 RMSDP=3.67D-09 MaxDP=2.46D-07 DE=-5.00D-12 OVMax= 2.10D-07

 SCF Done:  E(UPBE1PBE) =  -450.674704769     A.U. after   14 cycles
            NFock= 14  Conv=0.37D-08     -V/T= 2.3680
 <Sx>= 0.0000 <Sy>= 0.0000 <Sz>= 0.5000 <S**2>= 0.7518 S= 0.5009
 <L.S>= 0.000000000000E+00
 KE= 3.294506486852D+02 PE=-1.682984849202D+03 EE= 5.723979948286D+02
 Annihilation of the first spin contaminant:
 S**2 before annihilation     0.7518,   after     0.7500
 Leave Link  502 at Fri Sep 11 20:37:23 2026, MaxMem=  6442450944 cpu:              53.0 elap:              53.4
 (Enter C:\G16W\l508.exe)
 QCSCF skips out because SCF is already converged.
 Leave Link  508 at Fri Sep 11 20:37:24 2026, MaxMem=  6442450944 cpu:               0.0 elap:               0.1
 (Enter C:\G16W\l601.exe)
 Copying SCF densities to generalized density rwf, IOpCl= 1 IROHF=0.

 **********************************************************************

            Population analysis using the SCF Density.

 **********************************************************************

 Alpha  occ. eigenvalues --  -19.10727 -19.08902 -19.08882 -10.28861  -3.72818
 Alpha  occ. eigenvalues --   -2.30924  -2.30841  -2.30574  -1.04643  -1.03609
 Alpha  occ. eigenvalues --   -1.01093  -0.90093  -0.88680  -0.53683  -0.51176
 Alpha  occ. eigenvalues --   -0.51032  -0.50939  -0.50427  -0.50388  -0.43763
 Alpha  occ. eigenvalues --   -0.38682  -0.38429  -0.37509  -0.30477  -0.30467
 Alpha  occ. eigenvalues --   -0.30329  -0.30209  -0.29737  -0.22872  -0.22764
 Alpha  occ. eigenvalues --   -0.22230  -0.22074  -0.17429  -0.15451
 Alpha virt. eigenvalues --   -0.02410  -0.01903  -0.00181   0.00332   0.01673
 Alpha virt. eigenvalues --    0.01748   0.02243   0.02671   0.02940   0.03550
 Alpha virt. eigenvalues --    0.04176   0.04520   0.05862   0.05887   0.06300
 Alpha virt. eigenvalues --    0.06905   0.07641   0.08758   0.08827   0.09375
 Alpha virt. eigenvalues --    0.10600   0.10688   0.12275   0.15492   0.18759
 Alpha virt. eigenvalues --    0.18816   0.18932   0.19020   0.19224   0.20353
 Alpha virt. eigenvalues --    0.20567   0.20739   0.21578   0.22452   0.23133
 Alpha virt. eigenvalues --    0.31025   0.31364   0.32765   0.33241   0.36437
 Alpha virt. eigenvalues --    0.37290   0.37792   0.39179   0.44591   0.46580
 Alpha virt. eigenvalues --    0.49596   0.49696   0.51092   0.53447   0.55944
 Alpha virt. eigenvalues --    0.56215   0.60950   0.62037   0.64342   0.64662
 Alpha virt. eigenvalues --    0.67947   0.73770   0.82791   1.11334   1.14289
 Alpha virt. eigenvalues --    1.15526   1.15778   1.26237   1.29511   1.34024
 Alpha virt. eigenvalues --    1.36842   1.45514   1.46598   1.66827   1.67084
 Alpha virt. eigenvalues --    1.68884   1.69236   2.11305   2.13510   2.14097
 Alpha virt. eigenvalues --    2.16186   2.64503   2.64508   2.64646   2.64659
 Alpha virt. eigenvalues --    2.64760   2.64782   2.65708   2.72974   2.73566
 Alpha virt. eigenvalues --    2.73750   2.73850   2.76464   2.77047   2.85090
 Alpha virt. eigenvalues --    2.93214   3.24384   3.29306   3.35123   3.39618
 Alpha virt. eigenvalues --    3.62322   3.80284   3.80705  19.95873  20.00070
 Alpha virt. eigenvalues --   53.88096
  Beta  occ. eigenvalues --  -19.10604 -19.08893 -19.08875 -10.28845  -3.72701
  Beta  occ. eigenvalues --   -2.30850  -2.30796  -2.30568  -1.04619  -1.03601
  Beta  occ. eigenvalues --   -1.01053  -0.90072  -0.88533  -0.53670  -0.51160
  Beta  occ. eigenvalues --   -0.51026  -0.50934  -0.50413  -0.50379  -0.43382
  Beta  occ. eigenvalues --   -0.38621  -0.38402  -0.37380  -0.29931  -0.29926
  Beta  occ. eigenvalues --   -0.29724  -0.29591  -0.29060  -0.22791  -0.22517
  Beta  occ. eigenvalues --   -0.22213  -0.21895  -0.17373
  Beta virt. eigenvalues --   -0.06947  -0.01854  -0.01627   0.00916   0.01455
  Beta virt. eigenvalues --    0.01865   0.02225   0.02813   0.03328   0.03678
  Beta virt. eigenvalues --    0.04273   0.04501   0.05015   0.06122   0.06396
  Beta virt. eigenvalues --    0.07001   0.08152   0.08594   0.09210   0.09264
  Beta virt. eigenvalues --    0.09735   0.10697   0.10971   0.12458   0.15596
  Beta virt. eigenvalues --    0.18996   0.19037   0.19227   0.19234   0.19790
  Beta virt. eigenvalues --    0.20471   0.20615   0.21687   0.21793   0.22563
  Beta virt. eigenvalues --    0.23218   0.31094   0.31442   0.33283   0.33359
  Beta virt. eigenvalues --    0.37092   0.39701   0.40238   0.41057   0.45041
  Beta virt. eigenvalues --    0.46885   0.50740   0.51722   0.52719   0.53751
  Beta virt. eigenvalues --    0.56452   0.57198   0.61985   0.62700   0.64920
  Beta virt. eigenvalues --    0.65260   0.68310   0.74077   0.82924   1.11446
  Beta virt. eigenvalues --    1.14316   1.15537   1.15811   1.26362   1.29583
  Beta virt. eigenvalues --    1.34083   1.37252   1.45530   1.46715   1.66870
  Beta virt. eigenvalues --    1.67093   1.68906   1.69343   2.11541   2.13966
  Beta virt. eigenvalues --    2.14156   2.16775   2.64483   2.64489   2.64670
  Beta virt. eigenvalues --    2.64683   2.64848   2.64880   2.65834   2.73087
  Beta virt. eigenvalues --    2.73603   2.73794   2.73922   2.76568   2.77070
  Beta virt. eigenvalues --    2.85147   2.93311   3.24507   3.29326   3.35226
  Beta virt. eigenvalues --    3.39691   3.62418   3.80364   3.80748  19.95875
  Beta virt. eigenvalues --   20.00073  53.88242
          Condensed to atoms (all electrons):
               1          2          3          4          5          6
     1  C    4.377293   0.436155   0.381215   0.435055  -0.014468  -0.015169
     2  O    0.436155   8.168927  -0.094178  -0.078871   0.084655  -0.009660
     3  O    0.381215  -0.094178   8.197397  -0.094004   0.052147   0.053327
     4  O    0.435055  -0.078871  -0.094004   8.170199  -0.009775   0.084388
     5  Cs  -0.014468   0.084655   0.052147  -0.009775   8.283753  -0.036737
     6  Cs  -0.015169  -0.009660   0.053327   0.084388  -0.036737   8.285714
     7  Ag  -0.008123  -0.001242   0.059240  -0.001248   0.031134   0.030627
               7
     1  C   -0.008123
     2  O   -0.001242
     3  O    0.059240
     4  O   -0.001248
     5  Cs   0.031134
     6  Cs   0.030627
     7  Ag  18.947778
          Atomic-Atomic Spin Densities.
               1          2          3          4          5          6
     1  C    0.005744  -0.001018  -0.000445  -0.001123   0.000182   0.000279
     2  O   -0.001018   0.002718   0.000180   0.000195   0.000493  -0.000184
     3  O   -0.000445   0.000180   0.051665   0.000145  -0.002638  -0.002839
     4  O   -0.001123   0.000195   0.000145   0.003272  -0.000178   0.000455
     5  Cs   0.000182   0.000493  -0.002638  -0.000178   0.004708   0.002630
     6  Cs   0.000279  -0.000184  -0.002839   0.000455   0.002630   0.004667
     7  Ag   0.000855  -0.000146  -0.026822  -0.000151   0.028429   0.029105
               7
     1  C    0.000855
     2  O   -0.000146
     3  O   -0.026822
     4  O   -0.000151
     5  Cs   0.028429
     6  Cs   0.029105
     7  Ag   0.872414
 Mulliken charges and spin densities:
               1          2
     1  C    0.408042   0.004474
     2  O   -0.505787   0.002238
     3  O   -0.555144   0.019246
     4  O   -0.505745   0.002616
     5  Cs   0.609291   0.033627
     6  Cs   0.607508   0.034114
     7  Ag  -0.058166   0.903685
 Sum of Mulliken charges =   0.00000   1.00000
 Mulliken charges and spin densities with hydrogens summed into heavy atoms:
               1          2
     1  C    0.408042   0.004474
     2  O   -0.505787   0.002238
     3  O   -0.555144   0.019246
     4  O   -0.505745   0.002616
     5  Cs   0.609291   0.033627
     6  Cs   0.607508   0.034114
     7  Ag  -0.058166   0.903685
 Electronic spatial extent (au):  <R**2>=           1987.0241
 Charge=              0.0000 electrons
 Dipole moment (field-independent basis, Debye):
    X=             -0.6106    Y=              1.7096    Z=             -0.4416  Tot=              1.8683
 Quadrupole moment (field-independent basis, Debye-Ang):
   XX=            -45.4290   YY=            -93.0018   ZZ=            -86.5722
   XY=             18.5729   XZ=              3.1274   YZ=            -10.1392
 Traceless Quadrupole moment (field-independent basis, Debye-Ang):
   XX=             29.5720   YY=            -18.0008   ZZ=            -11.5712
   XY=             18.5729   XZ=              3.1274   YZ=            -10.1392
 Octapole moment (field-independent basis, Debye-Ang**2):
  XXX=             59.7251  YYY=           -328.3543  ZZZ=           -226.9756  XYY=             56.2314
  XXY=            -78.3447  XXZ=            -57.7383  XZZ=             32.5501  YZZ=           -122.7517
  YYZ=           -104.8187  XYZ=             16.1118
 Hexadecapole moment (field-independent basis, Debye-Ang**3):
 XXXX=          -1856.8489 YYYY=          -2016.1552 ZZZZ=           -907.7510 XXXY=             -5.9346
 XXXZ=            163.9037 YYYX=            -26.2872 YYYZ=           -656.1156 ZZZX=            180.3308
 ZZZY=           -594.9291 XXYY=           -637.0139 XXZZ=           -486.9243 YYZZ=           -547.7385
 XXYZ=           -184.4265 YYXZ=             93.9434 ZZXY=              2.4448
 N-N= 3.304615009197D+02 E-N=-1.682984848920D+03  KE= 3.294506486852D+02
                          Isotropic Fermi Contact Couplings
        Atom                 a.u.       MegaHertz       Gauss      10(-4) cm-1
     1  C(13)              0.00828       9.30949       3.32186       3.10531
     2  O(17)              0.00163      -0.98833      -0.35266      -0.32967
     3  O(17)              0.12343     -74.82207     -26.69837     -24.95796
     4  O(17)              0.00177      -1.07134      -0.38228      -0.35736
     7  Ag(107             0.00029      -0.05298      -0.01891      -0.01767
 --------------------------------------------------------
       Center         ----  Spin Dipole Couplings  ----
                      3XX-RR        3YY-RR        3ZZ-RR
 --------------------------------------------------------
     1   Atom       -0.004771      0.010974     -0.006203
     2   Atom       -0.003172      0.011602     -0.008430
     3   Atom       -0.051504      0.003765      0.047739
     4   Atom       -0.005210      0.014668     -0.009458
     5   Atom        0.001425     -0.000777     -0.000648
     6   Atom       -0.000570      0.001251     -0.000680
     7   Atom        0.022428     -0.015148     -0.007280
 --------------------------------------------------------
                        XY            XZ            YZ
 --------------------------------------------------------
     1   Atom       -0.006156     -0.000993      0.002923
     2   Atom       -0.007423      0.000942     -0.003896
     3   Atom       -0.017082     -0.020371      0.074036
     4   Atom       -0.006415      0.001735     -0.003638
     5   Atom       -0.001294     -0.001683      0.000970
     6   Atom        0.001381      0.000710      0.001685
     7   Atom        0.013649      0.007219     -0.023061
 --------------------------------------------------------


 ---------------------------------------------------------------------------------
              Anisotropic Spin Dipole Couplings in Principal Axis System
 ---------------------------------------------------------------------------------

       Atom             a.u.   MegaHertz   Gauss  10(-4) cm-1        Axes

              Baa    -0.0069    -0.925    -0.330    -0.309  0.9402  0.3344 -0.0639
     1 C(13)  Bbb    -0.0067    -0.897    -0.320    -0.299  0.1113 -0.1244  0.9860
              Bcc     0.0136     1.822     0.650     0.608 -0.3218  0.9342  0.1542
 
              Baa    -0.0092     0.667     0.238     0.222  0.1271  0.2260  0.9658
     2 O(17)  Bbb    -0.0061     0.444     0.158     0.148  0.9186  0.3405 -0.2005
              Bcc     0.0153    -1.111    -0.396    -0.370 -0.3742  0.9127 -0.1644
 
              Baa    -0.0564     4.080     1.456     1.361  0.9440  0.3264 -0.0474
     3 O(17)  Bbb    -0.0510     3.692     1.318     1.232 -0.2858  0.7376 -0.6118
              Bcc     0.1074    -7.773    -2.773    -2.593 -0.1647  0.5911  0.7896
 
              Baa    -0.0102     0.737     0.263     0.246 -0.2326  0.0818  0.9691
     4 O(17)  Bbb    -0.0070     0.505     0.180     0.168  0.9304  0.3090  0.1973
              Bcc     0.0172    -1.241    -0.443    -0.414 -0.2833  0.9475 -0.1480
 
              Baa    -0.0384     0.832     0.297     0.278 -0.2416  0.7516  0.6137
     7 Ag(107 Bbb     0.0115    -0.250    -0.089    -0.083  0.2023 -0.5795  0.7894
              Bcc     0.0269    -0.583    -0.208    -0.194  0.9490  0.3149 -0.0121
 

 ---------------------------------------------------------------------------------

 No NMR shielding tensors so no spin-rotation constants.
 Leave Link  601 at Fri Sep 11 20:37:25 2026, MaxMem=  6442450944 cpu:               1.0 elap:               1.5
 (Enter C:\G16W\l9999.exe)
 Unable to Open any file for archive entry.
 1|1|UNPC-DESKTOP-2JKEGCA|SP|UPBE1PBE|def2SVP|C1Ag1Cs2O3(2)|JHKIM|11-Se
 p-2026|0||#P PBE1PBE/Def2SVP EmpiricalDispersion=GD3BJ SP SCF=(XQC,Max
 Cycle=128) NoSymm Guess=Read||Cs2CO3 t=0.250 dz=+0.40 class=site2site|
 |0,2|C,0,0.088502,0.004778,0.178193|O,0,1.321763,-0.182741,-0.028987|O
 ,0,-0.317584,1.173621,0.589583|O,0,-0.759484,-0.914975,-0.00578|Cs,0,2
 .618443,1.724516,0.421184|Cs,0,-2.95164,-0.2052,0.445806|Ag,0,-0.93802
 52,3.11495744,2.26474401||Version=EM64W-G16RevC.01|HF=-450.6747048|S2=
 0.751776|S2-1=0.|S2A=0.750003|RMSD=3.674e-009|Dipole=-0.2402182,0.6726
 248,-0.1737559|Quadrupole=21.9860379,-13.3831487,-8.6028893,13.8085052
 ,2.3251327,-7.5382545|PG=C01 [X(C1Ag1Cs2O3)]||@
 The archive entry for this job was punched.


 NEVER LISTEN TO CRITICISM
 OR YOU'LL BE DOIN' EVERYBODY ELSE'S THING BUT BUT YOUR OWN.

                                               -- ANDY CAPP
 Job cpu time:       0 days  0 hours  1 minutes  4.0 seconds.
 Elapsed time:       0 days  0 hours  1 minutes  2.8 seconds.
 File lengths (MBytes):  RWF=     15 Int=      0 D2E=      0 Chk=      2 Scr=      1
 Normal termination of Gaussian 16 at Fri Sep 11 20:37:26 2026.
