 Entering Gaussian System, Link 0=C:\G16W\g16.exe
 Input=Cs2CO3_t1_z0.gjf
 Output=Cs2CO3_t1_z0.out
 Initial command:
 C:\G16W\l1.exe ".\Gau-29760.inp" "Cs2CO3_t1_z0.out" /scrdir=".\"
 Entering Link 1 = C:\G16W\l1.exe PID=     22580.
  
 Copyright (c) 1988-2019, Gaussian, Inc.  All Rights Reserved.
  
 This is part of the Gaussian(R) 16 program.  It is based on
 the Gaussian(R) 09 system (copyright 2009, Gaussian, Inc.),
 the Gaussian(R) 03 system (copyright 2003, Gaussian, Inc.),
 the Gaussian(R) 98 system (copyright 1998, Gaussian, Inc.),
 the Gaussian(R) 94 system (copyright 1995, Gaussian, Inc.),
 the Gaussian 92(TM) system (copyright 1992, Gaussian, Inc.),
 the Gaussian 90(TM) system (copyright 1990, Gaussian, Inc.),
 the Gaussian 88(TM) system (copyright 1988, Gaussian, Inc.),
 the Gaussian 86(TM) system (copyright 1986, Carnegie Mellon
 University), and the Gaussian 82(TM) system (copyright 1983,
 Carnegie Mellon University). Gaussian is a federally registered
 trademark of Gaussian, Inc.
  
 This software contains proprietary and confidential information,
 including trade secrets, belonging to Gaussian, Inc.
  
 This software is provided under written license and may be
 used, copied, transmitted, or stored only in accord with that
 written license.
  
 The following legend is applicable only to US Government
 contracts under FAR:
  
                    RESTRICTED RIGHTS LEGEND
  
 Use, reproduction and disclosure by the US Government is
 subject to restrictions as set forth in subparagraphs (a)
 and (c) of the Commercial Computer Software - Restricted
 Rights clause in FAR 52.227-19.
  
 Gaussian, Inc.
 340 Quinnipiac St., Bldg. 40, Wallingford CT 06492
  
  
 ---------------------------------------------------------------
 Warning -- This program may not be used in any manner that
 competes with the business of Gaussian, Inc. or will provide
 assistance to any competitor of Gaussian, Inc.  The licensee
 of this program is prohibited from giving any competitor of
 Gaussian, Inc. access to this program.  By using this program,
 the user acknowledges that Gaussian, Inc. is engaged in the
 business of creating and licensing software in the field of
 computational chemistry and represents and warrants to the
 licensee that it is not a competitor of Gaussian, Inc. and that
 it will not use this program in any manner prohibited above.
 ---------------------------------------------------------------
  

 Cite this work as:
 Gaussian 16, Revision C.01,
 M. J. Frisch, G. W. Trucks, H. B. Schlegel, G. E. Scuseria, 
 M. A. Robb, J. R. Cheeseman, G. Scalmani, V. Barone, 
 G. A. Petersson, H. Nakatsuji, X. Li, M. Caricato, A. V. Marenich, 
 J. Bloino, B. G. Janesko, R. Gomperts, B. Mennucci, H. P. Hratchian, 
 J. V. Ortiz, A. F. Izmaylov, J. L. Sonnenberg, D. Williams-Young, 
 F. Ding, F. Lipparini, F. Egidi, J. Goings, B. Peng, A. Petrone, 
 T. Henderson, D. Ranasinghe, V. G. Zakrzewski, J. Gao, N. Rega, 
 G. Zheng, W. Liang, M. Hada, M. Ehara, K. Toyota, R. Fukuda, 
 J. Hasegawa, M. Ishida, T. Nakajima, Y. Honda, O. Kitao, H. Nakai, 
 T. Vreven, K. Throssell, J. A. Montgomery, Jr., J. E. Peralta, 
 F. Ogliaro, M. J. Bearpark, J. J. Heyd, E. N. Brothers, K. N. Kudin, 
 V. N. Staroverov, T. A. Keith, R. Kobayashi, J. Normand, 
 K. Raghavachari, A. P. Rendell, J. C. Burant, S. S. Iyengar, 
 J. Tomasi, M. Cossi, J. M. Millam, M. Klene, C. Adamo, R. Cammi, 
 J. W. Ochterski, R. L. Martin, K. Morokuma, O. Farkas, 
 J. B. Foresman, and D. J. Fox, Gaussian, Inc., Wallingford CT, 2019.
 
 ******************************************
 Gaussian 16:  EM64W-G16RevC.01 30-May-2019
                11-Sep-2026 
 ******************************************
 %Chk=Cs2CO3.chk
 %NProcShared=8
 Will use up to    8 processors via shared memory.
 %Mem=48GB
 ----------------------------------------------------------------------
 #P PBE1PBE/Def2SVP EmpiricalDispersion=GD3BJ SP SCF=(XQC,MaxCycle=128)
  NoSymm Guess=Read
 ----------------------------------------------------------------------
 1/38=1,172=1/1;
 2/12=2,15=1,17=6,18=5,40=1/2;
 3/5=43,7=101,11=2,25=1,30=1,74=-13,116=-2,124=41/1,2,3;
 4/5=1/1;
 5/5=2,7=128,8=3,13=1,38=6/2,8;
 6/7=2,8=2,9=2,10=2,28=1/1;
 99/5=1,9=1/99;
 Leave Link    1 at Fri Sep 11 20:35:25 2026, MaxMem=  6442450944 cpu:               1.0 elap:               0.2
 (Enter C:\G16W\l101.exe)
 ---------------------------------------
 Cs2CO3 t=0.250 dz=+0.00 class=site2site
 ---------------------------------------
 Symbolic Z-matrix:
 Charge =  0 Multiplicity = 2
 C                     0.0885    0.00478   0.17819 
 O                     1.32176  -0.18274  -0.02899 
 O                    -0.31758   1.17362   0.58958 
 O                    -0.75948  -0.91498  -0.00578 
 Cs                    2.61844   1.72452   0.42118 
 Cs                   -2.95164  -0.2052    0.44581 
 Ag                   -0.80509   2.82071   2.02864 
 
 ITRead=  0  0  0  0  0  0  0
 MicOpt= -1 -1 -1 -1 -1 -1 -1
 NAtoms=      7 NQM=        7 NQMF=       0 NMMI=      0 NMMIF=      0
                NMic=       0 NMicF=      0.
                    Isotopes and Nuclear Properties:
 (Nuclear quadrupole moments (NQMom) in fm**2, nuclear magnetic moments (NMagM)
  in nuclear magnetons)

  Atom         1           2           3           4           5           6           7
 IAtWgt=          12          16          16          16         133         133         107
 AtmWgt=  12.0000000  15.9949146  15.9949146  15.9949146 132.9054290 132.9054290 106.9050900
 NucSpn=           0           0           0           0           0           0           1
 AtZEff=   0.0000000   0.0000000   0.0000000   0.0000000   0.0000000   0.0000000   0.0000000
 NQMom=    0.0000000   0.0000000   0.0000000   0.0000000   0.0000000   0.0000000   0.0000000
 NMagM=    0.0000000   0.0000000   0.0000000   0.0000000   0.0000000   0.0000000  -0.1135700
 AtZNuc=   6.0000000   8.0000000   8.0000000   8.0000000  55.0000000  55.0000000  47.0000000
 Leave Link  101 at Fri Sep 11 20:35:25 2026, MaxMem=  6442450944 cpu:               0.0 elap:               0.2
 (Enter C:\G16W\l202.exe)
                          Input orientation:                          
 ---------------------------------------------------------------------
 Center     Atomic      Atomic             Coordinates (Angstroms)
 Number     Number       Type             X           Y           Z
 ---------------------------------------------------------------------
      1          6           0        0.088502    0.004778    0.178193
      2          8           0        1.321763   -0.182741   -0.028987
      3          8           0       -0.317584    1.173621    0.589583
      4          8           0       -0.759484   -0.914975   -0.005780
      5         55           0        2.618443    1.724516    0.421184
      6         55           0       -2.951640   -0.205200    0.445806
      7         47           0       -0.805086    2.820709    2.028640
 ---------------------------------------------------------------------
                    Distance matrix (angstroms):
                    1          2          3          4          5
     1  C    0.000000
     2  O    1.264523   0.000000
     3  O    1.303971   2.215808   0.000000
     4  O    1.264465   2.206421   2.216296   0.000000
     5  Cs   3.068737   2.349822   2.992006   4.308086   0.000000
     6  Cs   3.059113   4.299757   2.976587   2.348033   5.894933
     7  Ag   3.485989   4.216400   2.240858   4.253972   3.937779
                    6          7
     6  Cs   0.000000
     7  Ag   4.033507   0.000000
 Symmetry turned off by external request.
 Stoichiometry    CAgCs2O3(2)
 Framework group  C1[X(CAgCs2O3)]
 Deg. of freedom    15
 Full point group                 C1      NOp   1
 Rotational constants (GHZ):           0.7070854           0.2146425           0.1652889
 Leave Link  202 at Fri Sep 11 20:35:25 2026, MaxMem=  6442450944 cpu:               0.0 elap:               0.1
 (Enter C:\G16W\l301.exe)
 Standard basis: def2SVP (5D, 7F)
 Ernie: Thresh=  0.10000D-02 Tol=  0.10000D-05 Strict=F.
   135 basis functions,   239 primitive gaussians,   148 cartesian basis functions
    34 alpha electrons       33 beta electrons
       nuclear repulsion energy       343.7729984482 Hartrees.
 IExCor= 1009 DFT=T Ex+Corr=PBE1PBE ExCW=0 ScaHFX=  0.250000
 ScaDFX=  0.750000  0.750000  1.000000  1.000000 ScalE2=  1.000000  1.000000
 IRadAn=      5 IRanWt=     -1 IRanGd=            0 ICorTp=0 IEmpDi=141
 NAtoms=    7 NActive=    7 NUniq=    7 SFac= 1.00D+00 NAtFMM=   60 NAOKFM=F Big=F
 Integral buffers will be    131072 words long.
 Raffenetti 2 integral format.
 Two-electron integral symmetry is turned off.
 R6Disp:  Grimme-D3(BJ) Dispersion energy=       -0.0075319435 Hartrees.
 Nuclear repulsion after empirical dispersion term =      343.7654665047 Hartrees.
 Leave Link  301 at Fri Sep 11 20:35:26 2026, MaxMem=  6442450944 cpu:               1.0 elap:               0.2
 (Enter C:\G16W\l302.exe)
 NPDir=0 NMtPBC=     1 NCelOv=     1 NCel=       1 NClECP=     1 NCelD=      1
         NCelK=      1 NCelE2=     1 NClLst=     1 CellRange=     0.0.
 One-electron integrals computed using PRISM.
   1 Symmetry operations used in ECPInt.
 ECPInt:  NShTT=    1540 NPrTT=    4838 LenC2=    1527 LenP2D=    4096.
 LDataN:  DoStor=T MaxTD1= 7 Len=  274
 NBasis=   135 RedAO= T EigKep=  7.20D-03  NBF=   135
 NBsUse=   135 1.00D-06 EigRej= -1.00D+00 NBFU=   135
 Precomputing XC quadrature grid using
 IXCGrd= 4 IRadAn=           5 IRanWt=          -1 IRanGd=           0 AccXCQ= 0.00D+00.
 Defaulting to unpruned grid for atomic number  55.
 Defaulting to unpruned grid for atomic number  55.
 Defaulting to unpruned grid for atomic number  47.
 Generated NRdTot=       0 NPtTot=           0 NUsed=           0 NTot=          32
 NSgBfM=   148   148   148   148   148 MxSgAt=     7 MxSgA2=     7.
 Leave Link  302 at Fri Sep 11 20:35:28 2026, MaxMem=  6442450944 cpu:               2.0 elap:               1.8
 (Enter C:\G16W\l303.exe)
 DipDrv:  MaxL=1.
 Leave Link  303 at Fri Sep 11 20:35:28 2026, MaxMem=  6442450944 cpu:               0.0 elap:               0.1
 (Enter C:\G16W\l401.exe)
 Initial guess from the checkpoint file:  "Cs2CO3.chk"
 B after Tr=     0.022380   -0.017588   -0.402359
         Rot=    0.991096   -0.125253   -0.045021    0.003622 Ang= -15.30 deg.
 Guess basis will be translated and rotated to current coordinates.
 JPrj=2 DoOrth=T DoCkMO=T.
 Initial guess <Sx>= 0.0000 <Sy>= 0.0000 <Sz>= 0.5000 <S**2>= 0.7516 S= 0.5008
 Leave Link  401 at Fri Sep 11 20:35:31 2026, MaxMem=  6442450944 cpu:               3.0 elap:               3.0
 (Enter C:\G16W\l502.exe)
 Keep R1 and R2 ints in memory in canonical form, NReq=92092980.
 FoFCou: FMM=F IPFlag=           0 FMFlag=           0 FMFlg1=           0
         NFxFlg=           0 DoJE=F BraDBF=F KetDBF=F FulRan=T
         wScrn=  0.000000 ICntrl=       600 IOpCl=  0 I1Cent=           0 NGrid=           0
         NMat0=    1 NMatS0=   9180 NMatT0=    0 NMatD0=    1 NMtDS0=    0 NMtDT0=    0
 Symmetry not used in FoFCou.
 Two-electron integral symmetry not used.
 UHF open shell SCF:
 Using DIIS extrapolation, IDIIS=  1040.
 NGot=  6442450944 LenX=  6358123074 LenY=  6358100729
 Requested convergence on RMS density matrix=1.00D-08 within 128 cycles.
 Requested convergence on MAX density matrix=1.00D-06.
 Requested convergence on             energy=1.00D-06.
 No special actions if energy rises.

 Cycle   1  Pass 1  IDiag  1:
 Defaulting to unpruned grid for atomic number  55.
 Defaulting to unpruned grid for atomic number  55.
 Defaulting to unpruned grid for atomic number  55.
 Defaulting to unpruned grid for atomic number  55.
 Defaulting to unpruned grid for atomic number  55.
 Defaulting to unpruned grid for atomic number  55.
 Defaulting to unpruned grid for atomic number  55.
 Defaulting to unpruned grid for atomic number  55.
 E= -450.598681770431    
 DIIS: error= 2.20D-02 at cycle   1 NSaved=   1.
 NSaved= 1 IEnMin= 1 EnMin= -450.598681770431     IErMin= 1 ErrMin= 2.20D-02
 ErrMax= 2.20D-02  0.00D+00 EMaxC= 1.00D-01 BMatC= 2.15D-01 BMatP= 2.15D-01
 IDIUse=3 WtCom= 7.80D-01 WtEn= 2.20D-01
 Coeff-Com:  0.100D+01
 Coeff-En:   0.100D+01
 Coeff:      0.100D+01
 Gap=     0.116 Goal=   None    Shift=    0.000
 Gap=     0.155 Goal=   None    Shift=    0.000
 GapD=    0.116 DampG=1.000 DampE=0.250 DampFc=0.2500 IDamp=-1.
 Damping current iteration by 2.50D-01
 RMSDP=2.99D-03 MaxDP=1.04D-01              OVMax= 1.04D-01

 Cycle   2  Pass 1  IDiag  1:
 E= -450.617209982645     Delta-E=       -0.018528212214 Rises=F Damp=T
 DIIS: error= 1.77D-02 at cycle   2 NSaved=   2.
 NSaved= 2 IEnMin= 2 EnMin= -450.617209982645     IErMin= 2 ErrMin= 1.77D-02
 ErrMax= 1.77D-02  0.00D+00 EMaxC= 1.00D-01 BMatC= 1.27D-01 BMatP= 2.15D-01
 IDIUse=3 WtCom= 8.23D-01 WtEn= 1.77D-01
 Coeff-Com: -0.311D+01 0.411D+01
 Coeff-En:   0.000D+00 0.100D+01
 Coeff:     -0.256D+01 0.356D+01
 Gap=     0.116 Goal=   None    Shift=    0.000
 Gap=     0.133 Goal=   None    Shift=    0.000
 RMSDP=2.47D-03 MaxDP=6.13D-02 DE=-1.85D-02 OVMax= 1.84D-02

 Cycle   3  Pass 1  IDiag  1:
 E= -450.678775079551     Delta-E=       -0.061565096907 Rises=F Damp=F
 DIIS: error= 2.50D-03 at cycle   3 NSaved=   3.
 NSaved= 3 IEnMin= 3 EnMin= -450.678775079551     IErMin= 3 ErrMin= 2.50D-03
 ErrMax= 2.50D-03  0.00D+00 EMaxC= 1.00D-01 BMatC= 5.18D-03 BMatP= 1.27D-01
 IDIUse=3 WtCom= 9.75D-01 WtEn= 2.50D-02
 Coeff-Com: -0.143D+01 0.185D+01 0.579D+00
 Coeff-En:   0.000D+00 0.000D+00 0.100D+01
 Coeff:     -0.140D+01 0.181D+01 0.589D+00
 Gap=     0.112 Goal=   None    Shift=    0.000
 Gap=     0.130 Goal=   None    Shift=    0.000
 RMSDP=3.52D-04 MaxDP=2.51D-02 DE=-6.16D-02 OVMax= 1.53D-02

 Cycle   4  Pass 1  IDiag  1:
 E= -450.679948204458     Delta-E=       -0.001173124907 Rises=F Damp=F
 DIIS: error= 5.67D-04 at cycle   4 NSaved=   4.
 NSaved= 4 IEnMin= 4 EnMin= -450.679948204458     IErMin= 4 ErrMin= 5.67D-04
 ErrMax= 5.67D-04  0.00D+00 EMaxC= 1.00D-01 BMatC= 2.83D-04 BMatP= 5.18D-03
 IDIUse=3 WtCom= 9.94D-01 WtEn= 5.67D-03
 Coeff-Com: -0.144D+00 0.182D+00 0.206D+00 0.755D+00
 Coeff-En:   0.000D+00 0.000D+00 0.000D+00 0.100D+01
 Coeff:     -0.143D+00 0.181D+00 0.205D+00 0.757D+00
 Gap=     0.113 Goal=   None    Shift=    0.000
 Gap=     0.131 Goal=   None    Shift=    0.000
 RMSDP=7.71D-05 MaxDP=3.31D-03 DE=-1.17D-03 OVMax= 3.46D-03

 Cycle   5  Pass 1  IDiag  1:
 E= -450.680014016510     Delta-E=       -0.000065812052 Rises=F Damp=F
 DIIS: error= 1.93D-04 at cycle   5 NSaved=   5.
 NSaved= 5 IEnMin= 5 EnMin= -450.680014016510     IErMin= 5 ErrMin= 1.93D-04
 ErrMax= 1.93D-04  0.00D+00 EMaxC= 1.00D-01 BMatC= 3.88D-05 BMatP= 2.83D-04
 IDIUse=3 WtCom= 9.98D-01 WtEn= 1.93D-03
 Coeff-Com:  0.563D-01-0.754D-01 0.575D-01 0.362D+00 0.600D+00
 Coeff-En:   0.000D+00 0.000D+00 0.000D+00 0.000D+00 0.100D+01
 Coeff:      0.562D-01-0.753D-01 0.574D-01 0.361D+00 0.600D+00
 Gap=     0.113 Goal=   None    Shift=    0.000
 Gap=     0.131 Goal=   None    Shift=    0.000
 RMSDP=3.25D-05 MaxDP=1.64D-03 DE=-6.58D-05 OVMax= 1.77D-03

 Cycle   6  Pass 1  IDiag  1:
 E= -450.680024150166     Delta-E=       -0.000010133656 Rises=F Damp=F
 DIIS: error= 5.70D-05 at cycle   6 NSaved=   6.
 NSaved= 6 IEnMin= 6 EnMin= -450.680024150166     IErMin= 6 ErrMin= 5.70D-05
 ErrMax= 5.70D-05  0.00D+00 EMaxC= 1.00D-01 BMatC= 4.74D-06 BMatP= 3.88D-05
 IDIUse=1 WtCom= 1.00D+00 WtEn= 0.00D+00
 Coeff-Com:  0.586D-01-0.767D-01-0.782D-02 0.304D-01 0.251D+00 0.744D+00
 Coeff:      0.586D-01-0.767D-01-0.782D-02 0.304D-01 0.251D+00 0.744D+00
 Gap=     0.113 Goal=   None    Shift=    0.000
 Gap=     0.131 Goal=   None    Shift=    0.000
 RMSDP=1.89D-05 MaxDP=1.21D-03 DE=-1.01D-05 OVMax= 1.51D-03

 Cycle   7  Pass 1  IDiag  1:
 E= -450.680026325606     Delta-E=       -0.000002175440 Rises=F Damp=F
 DIIS: error= 2.59D-05 at cycle   7 NSaved=   7.
 NSaved= 7 IEnMin= 7 EnMin= -450.680026325606     IErMin= 7 ErrMin= 2.59D-05
 ErrMax= 2.59D-05  0.00D+00 EMaxC= 1.00D-01 BMatC= 1.05D-06 BMatP= 4.74D-06
 IDIUse=1 WtCom= 1.00D+00 WtEn= 0.00D+00
 Coeff-Com:  0.194D-01-0.251D-01-0.102D-01-0.398D-01 0.154D-01 0.347D+00
 Coeff-Com:  0.694D+00
 Coeff:      0.194D-01-0.251D-01-0.102D-01-0.398D-01 0.154D-01 0.347D+00
 Coeff:      0.694D+00
 Gap=     0.113 Goal=   None    Shift=    0.000
 Gap=     0.131 Goal=   None    Shift=    0.000
 RMSDP=9.18D-06 MaxDP=5.73D-04 DE=-2.18D-06 OVMax= 6.67D-04

 Cycle   8  Pass 1  IDiag  1:
 E= -450.680026732305     Delta-E=       -0.000000406699 Rises=F Damp=F
 DIIS: error= 1.89D-05 at cycle   8 NSaved=   8.
 NSaved= 8 IEnMin= 8 EnMin= -450.680026732305     IErMin= 8 ErrMin= 1.89D-05
 ErrMax= 1.89D-05  0.00D+00 EMaxC= 1.00D-01 BMatC= 4.35D-07 BMatP= 1.05D-06
 IDIUse=1 WtCom= 1.00D+00 WtEn= 0.00D+00
 Coeff-Com: -0.363D-02 0.493D-02-0.385D-02-0.353D-01-0.641D-01 0.220D-01
 Coeff-Com:  0.462D+00 0.617D+00
 Coeff:     -0.363D-02 0.493D-02-0.385D-02-0.353D-01-0.641D-01 0.220D-01
 Coeff:      0.462D+00 0.617D+00
 Gap=     0.113 Goal=   None    Shift=    0.000
 Gap=     0.131 Goal=   None    Shift=    0.000
 RMSDP=4.78D-06 MaxDP=2.95D-04 DE=-4.07D-07 OVMax= 3.21D-04

 Cycle   9  Pass 1  IDiag  1:
 E= -450.680026867483     Delta-E=       -0.000000135178 Rises=F Damp=F
 DIIS: error= 5.25D-06 at cycle   9 NSaved=   9.
 NSaved= 9 IEnMin= 9 EnMin= -450.680026867483     IErMin= 9 ErrMin= 5.25D-06
 ErrMax= 5.25D-06  0.00D+00 EMaxC= 1.00D-01 BMatC= 3.42D-08 BMatP= 4.35D-07
 IDIUse=1 WtCom= 1.00D+00 WtEn= 0.00D+00
 Coeff-Com: -0.580D-02 0.764D-02 0.302D-03-0.106D-01-0.343D-01-0.444D-01
 Coeff-Com:  0.109D+00 0.290D+00 0.689D+00
 Coeff:     -0.580D-02 0.764D-02 0.302D-03-0.106D-01-0.343D-01-0.444D-01
 Coeff:      0.109D+00 0.290D+00 0.689D+00
 Gap=     0.113 Goal=   None    Shift=    0.000
 Gap=     0.131 Goal=   None    Shift=    0.000
 RMSDP=1.42D-06 MaxDP=8.75D-05 DE=-1.35D-07 OVMax= 1.14D-04

 Cycle  10  Pass 1  IDiag  1:
 E= -450.680026878524     Delta-E=       -0.000000011041 Rises=F Damp=F
 DIIS: error= 1.36D-06 at cycle  10 NSaved=  10.
 NSaved=10 IEnMin=10 EnMin= -450.680026878524     IErMin=10 ErrMin= 1.36D-06
 ErrMax= 1.36D-06  0.00D+00 EMaxC= 1.00D-01 BMatC= 2.26D-09 BMatP= 3.42D-08
 IDIUse=1 WtCom= 1.00D+00 WtEn= 0.00D+00
 Coeff-Com: -0.141D-02 0.185D-02 0.448D-03-0.102D-03-0.491D-02-0.148D-01
 Coeff-Com: -0.983D-02 0.293D-01 0.223D+00 0.777D+00
 Coeff:     -0.141D-02 0.185D-02 0.448D-03-0.102D-03-0.491D-02-0.148D-01
 Coeff:     -0.983D-02 0.293D-01 0.223D+00 0.777D+00
 Gap=     0.113 Goal=   None    Shift=    0.000
 Gap=     0.131 Goal=   None    Shift=    0.000
 RMSDP=3.96D-07 MaxDP=1.75D-05 DE=-1.10D-08 OVMax= 1.97D-05

 Cycle  11  Pass 1  IDiag  1:
 E= -450.680026879353     Delta-E=       -0.000000000828 Rises=F Damp=F
 DIIS: error= 6.26D-07 at cycle  11 NSaved=  11.
 NSaved=11 IEnMin=11 EnMin= -450.680026879353     IErMin=11 ErrMin= 6.26D-07
 ErrMax= 6.26D-07  0.00D+00 EMaxC= 1.00D-01 BMatC= 4.03D-10 BMatP= 2.26D-09
 IDIUse=1 WtCom= 1.00D+00 WtEn= 0.00D+00
 Coeff-Com:  0.438D-03-0.584D-03 0.114D-03 0.162D-02 0.374D-02 0.168D-02
 Coeff-Com: -0.209D-01-0.362D-01-0.218D-01 0.315D+00 0.757D+00
 Coeff:      0.438D-03-0.584D-03 0.114D-03 0.162D-02 0.374D-02 0.168D-02
 Coeff:     -0.209D-01-0.362D-01-0.218D-01 0.315D+00 0.757D+00
 Gap=     0.113 Goal=   None    Shift=    0.000
 Gap=     0.131 Goal=   None    Shift=    0.000
 RMSDP=1.23D-07 MaxDP=3.76D-06 DE=-8.28D-10 OVMax= 5.03D-06

 Cycle  12  Pass 1  IDiag  1:
 E= -450.680026879458     Delta-E=       -0.000000000106 Rises=F Damp=F
 DIIS: error= 2.15D-07 at cycle  12 NSaved=  12.
 NSaved=12 IEnMin=12 EnMin= -450.680026879458     IErMin=12 ErrMin= 2.15D-07
 ErrMax= 2.15D-07  0.00D+00 EMaxC= 1.00D-01 BMatC= 4.48D-11 BMatP= 4.03D-10
 IDIUse=1 WtCom= 1.00D+00 WtEn= 0.00D+00
 Coeff-Com:  0.281D-03-0.372D-03 0.212D-04 0.732D-03 0.197D-02 0.154D-02
 Coeff-Com: -0.853D-02-0.175D-01-0.231D-01 0.897D-01 0.322D+00 0.633D+00
 Coeff:      0.281D-03-0.372D-03 0.212D-04 0.732D-03 0.197D-02 0.154D-02
 Coeff:     -0.853D-02-0.175D-01-0.231D-01 0.897D-01 0.322D+00 0.633D+00
 Gap=     0.113 Goal=   None    Shift=    0.000
 Gap=     0.131 Goal=   None    Shift=    0.000
 RMSDP=3.43D-08 MaxDP=9.07D-07 DE=-1.06D-10 OVMax= 1.65D-06

 Cycle  13  Pass 1  IDiag  1:
 E= -450.680026879472     Delta-E=       -0.000000000014 Rises=F Damp=F
 DIIS: error= 1.63D-07 at cycle  13 NSaved=  13.
 NSaved=13 IEnMin=13 EnMin= -450.680026879472     IErMin=13 ErrMin= 1.63D-07
 ErrMax= 1.63D-07  0.00D+00 EMaxC= 1.00D-01 BMatC= 2.10D-11 BMatP= 4.48D-11
 IDIUse=1 WtCom= 1.00D+00 WtEn= 0.00D+00
 Coeff-Com:  0.460D-04-0.602D-04-0.208D-04-0.128D-04 0.144D-03 0.434D-03
 Coeff-Com:  0.818D-03-0.985D-04-0.813D-02-0.375D-01-0.262D-01 0.423D+00
 Coeff-Com:  0.648D+00
 Coeff:      0.460D-04-0.602D-04-0.208D-04-0.128D-04 0.144D-03 0.434D-03
 Coeff:      0.818D-03-0.985D-04-0.813D-02-0.375D-01-0.262D-01 0.423D+00
 Coeff:      0.648D+00
 Gap=     0.113 Goal=   None    Shift=    0.000
 Gap=     0.131 Goal=   None    Shift=    0.000
 RMSDP=2.00D-08 MaxDP=6.27D-07 DE=-1.43D-11 OVMax= 9.46D-07

 Cycle  14  Pass 1  IDiag  1:
 E= -450.680026879487     Delta-E=       -0.000000000015 Rises=F Damp=F
 DIIS: error= 2.87D-08 at cycle  14 NSaved=  14.
 NSaved=14 IEnMin=14 EnMin= -450.680026879487     IErMin=14 ErrMin= 2.87D-08
 ErrMax= 2.87D-08  0.00D+00 EMaxC= 1.00D-01 BMatC= 1.48D-12 BMatP= 2.10D-11
 IDIUse=1 WtCom= 1.00D+00 WtEn= 0.00D+00
 Coeff-Com: -0.492D-04 0.655D-04-0.120D-04-0.167D-03-0.387D-03-0.202D-03
 Coeff-Com:  0.212D-02 0.398D-02 0.239D-02-0.329D-01-0.812D-01 0.107D-01
 Coeff-Com:  0.230D+00 0.865D+00
 Coeff:     -0.492D-04 0.655D-04-0.120D-04-0.167D-03-0.387D-03-0.202D-03
 Coeff:      0.212D-02 0.398D-02 0.239D-02-0.329D-01-0.812D-01 0.107D-01
 Coeff:      0.230D+00 0.865D+00
 Gap=     0.113 Goal=   None    Shift=    0.000
 Gap=     0.131 Goal=   None    Shift=    0.000
 RMSDP=8.28D-09 MaxDP=2.97D-07 DE=-1.49D-11 OVMax= 4.57D-07

 SCF Done:  E(UPBE1PBE) =  -450.680026879     A.U. after   14 cycles
            NFock= 14  Conv=0.83D-08     -V/T= 2.3680
 <Sx>= 0.0000 <Sy>= 0.0000 <Sz>= 0.5000 <S**2>= 0.7521 S= 0.5010
 <L.S>= 0.000000000000E+00
 KE= 3.294512943429D+02 PE=-1.709244439318D+03 EE= 5.853476515913D+02
 Annihilation of the first spin contaminant:
 S**2 before annihilation     0.7521,   after     0.7500
 Leave Link  502 at Fri Sep 11 20:36:19 2026, MaxMem=  6442450944 cpu:              48.0 elap:              48.5
 (Enter C:\G16W\l508.exe)
 QCSCF skips out because SCF is already converged.
 Leave Link  508 at Fri Sep 11 20:36:20 2026, MaxMem=  6442450944 cpu:               0.0 elap:               0.1
 (Enter C:\G16W\l601.exe)
 Copying SCF densities to generalized density rwf, IOpCl= 1 IROHF=0.

 **********************************************************************

            Population analysis using the SCF Density.

 **********************************************************************

 Alpha  occ. eigenvalues --  -19.12853 -19.09920 -19.09882 -10.30298  -3.71964
 Alpha  occ. eigenvalues --   -2.30067  -2.29939  -2.29719  -1.05502  -1.04083
 Alpha  occ. eigenvalues --   -1.02068  -0.91110  -0.90588  -0.54347  -0.51678
 Alpha  occ. eigenvalues --   -0.51470  -0.51366  -0.50984  -0.50936  -0.47098
 Alpha  occ. eigenvalues --   -0.40077  -0.39572  -0.38833  -0.29960  -0.29732
 Alpha  occ. eigenvalues --   -0.29490  -0.29474  -0.28395  -0.24132  -0.23686
 Alpha  occ. eigenvalues --   -0.23431  -0.23141  -0.18499  -0.13740
 Alpha virt. eigenvalues --   -0.02423  -0.01950  -0.00005   0.00625   0.01561
 Alpha virt. eigenvalues --    0.01687   0.02250   0.02800   0.02820   0.03821
 Alpha virt. eigenvalues --    0.04092   0.04491   0.05657   0.05909   0.06572
 Alpha virt. eigenvalues --    0.07374   0.07969   0.08677   0.08784   0.09154
 Alpha virt. eigenvalues --    0.10031   0.10126   0.12168   0.14397   0.18303
 Alpha virt. eigenvalues --    0.18436   0.18488   0.18682   0.19187   0.19793
 Alpha virt. eigenvalues --    0.20227   0.21047   0.21435   0.22172   0.22632
 Alpha virt. eigenvalues --    0.30564   0.30940   0.32237   0.34368   0.36426
 Alpha virt. eigenvalues --    0.38594   0.40400   0.40853   0.44533   0.46703
 Alpha virt. eigenvalues --    0.50445   0.51119   0.52698   0.53760   0.55758
 Alpha virt. eigenvalues --    0.59031   0.60940   0.61711   0.65671   0.67808
 Alpha virt. eigenvalues --    0.69163   0.74847   0.83866   1.11750   1.13493
 Alpha virt. eigenvalues --    1.14727   1.15155   1.26843   1.29776   1.33588
 Alpha virt. eigenvalues --    1.42592   1.44741   1.50068   1.65821   1.65887
 Alpha virt. eigenvalues --    1.68512   1.72975   2.10467   2.12829   2.13904
 Alpha virt. eigenvalues --    2.15535   2.65499   2.65508   2.65628   2.65679
 Alpha virt. eigenvalues --    2.66079   2.66105   2.70616   2.71152   2.72359
 Alpha virt. eigenvalues --    2.72712   2.72842   2.75883   2.76117   2.83864
 Alpha virt. eigenvalues --    2.92137   3.22788   3.28195   3.33608   3.38078
 Alpha virt. eigenvalues --    3.60772   3.78801   3.79400  19.95370  19.99547
 Alpha virt. eigenvalues --   53.90155
  Beta  occ. eigenvalues --  -19.12680 -19.09911 -19.09874 -10.30272  -3.71801
  Beta  occ. eigenvalues --   -2.29929  -2.29849  -2.29625  -1.05458  -1.04071
  Beta  occ. eigenvalues --   -1.02017  -0.91087  -0.90395  -0.54324  -0.51653
  Beta  occ. eigenvalues --   -0.51461  -0.51357  -0.50974  -0.50904  -0.46490
  Beta  occ. eigenvalues --   -0.39996  -0.39536  -0.38740  -0.29455  -0.29182
  Beta  occ. eigenvalues --   -0.29037  -0.29028  -0.27663  -0.23967  -0.23402
  Beta  occ. eigenvalues --   -0.23159  -0.23125  -0.18432
  Beta virt. eigenvalues --   -0.05348  -0.01932  -0.01527   0.00912   0.01630
  Beta virt. eigenvalues --    0.01837   0.02149   0.02872   0.03203   0.03739
  Beta virt. eigenvalues --    0.04301   0.04489   0.05028   0.05977   0.06116
  Beta virt. eigenvalues --    0.07078   0.08341   0.08980   0.09117   0.09734
  Beta virt. eigenvalues --    0.10239   0.10327   0.10419   0.12403   0.14555
  Beta virt. eigenvalues --    0.18577   0.18729   0.18768   0.18939   0.19498
  Beta virt. eigenvalues --    0.19949   0.20302   0.21435   0.22315   0.22601
  Beta virt. eigenvalues --    0.22792   0.30679   0.31025   0.32366   0.35026
  Beta virt. eigenvalues --    0.37103   0.40598   0.41641   0.43178   0.45176
  Beta virt. eigenvalues --    0.47033   0.51028   0.52878   0.54080   0.54185
  Beta virt. eigenvalues --    0.56343   0.60298   0.61294   0.62115   0.66036
  Beta virt. eigenvalues --    0.68959   0.70135   0.75461   0.84139   1.11898
  Beta virt. eigenvalues --    1.13529   1.14738   1.15194   1.26930   1.29888
  Beta virt. eigenvalues --    1.33705   1.42727   1.44761   1.50513   1.65876
  Beta virt. eigenvalues --    1.65911   1.68537   1.73179   2.10582   2.12912
  Beta virt. eigenvalues --    2.14041   2.16520   2.65470   2.65480   2.65645
  Beta virt. eigenvalues --    2.65697   2.66280   2.66294   2.70853   2.71322
  Beta virt. eigenvalues --    2.72473   2.72731   2.72915   2.76074   2.76139
  Beta virt. eigenvalues --    2.83929   2.92272   3.22949   3.28222   3.33751
  Beta virt. eigenvalues --    3.38176   3.60899   3.78901   3.79456  19.95375
  Beta virt. eigenvalues --   19.99552  53.90297
          Condensed to atoms (all electrons):
               1          2          3          4          5          6
     1  C    4.364725   0.446232   0.364178   0.444620  -0.014233  -0.014783
     2  O    0.446232   8.158485  -0.093002  -0.079241   0.079395  -0.010710
     3  O    0.364178  -0.093002   8.217749  -0.092703   0.042139   0.043034
     4  O    0.444620  -0.079241  -0.092703   8.159955  -0.010907   0.079634
     5  Cs  -0.014233   0.079395   0.042139  -0.010907   8.268820  -0.025844
     6  Cs  -0.014783  -0.010710   0.043034   0.079634  -0.025844   8.270384
     7  Ag  -0.009077  -0.000966   0.070805  -0.001093   0.044563   0.044120
               7
     1  C   -0.009077
     2  O   -0.000966
     3  O    0.070805
     4  O   -0.001093
     5  Cs   0.044563
     6  Cs   0.044120
     7  Ag  18.947560
          Atomic-Atomic Spin Densities.
               1          2          3          4          5          6
     1  C    0.010859  -0.001481  -0.003418  -0.001792   0.000609   0.000887
     2  O   -0.001481   0.002455   0.000476   0.000288   0.000641  -0.000298
     3  O   -0.003418   0.000476   0.084526   0.000415  -0.004373  -0.005068
     4  O   -0.001792   0.000288   0.000415   0.003598  -0.000295   0.000543
     5  Cs   0.000609   0.000641  -0.004373  -0.000295   0.009228   0.003793
     6  Cs   0.000887  -0.000298  -0.005068   0.000543   0.003793   0.009076
     7  Ag   0.002157  -0.000146  -0.048992  -0.000132   0.035757   0.037842
               7
     1  C    0.002157
     2  O   -0.000146
     3  O   -0.048992
     4  O   -0.000132
     5  Cs   0.035757
     6  Cs   0.037842
     7  Ag   0.845433
 Mulliken charges and spin densities:
               1          2
     1  C    0.418338   0.007820
     2  O   -0.500194   0.001934
     3  O   -0.552200   0.023566
     4  O   -0.500265   0.002625
     5  Cs   0.616067   0.045361
     6  Cs   0.614165   0.046776
     7  Ag  -0.095911   0.871918
 Sum of Mulliken charges =   0.00000   1.00000
 Mulliken charges and spin densities with hydrogens summed into heavy atoms:
               1          2
     1  C    0.418338   0.007820
     2  O   -0.500194   0.001934
     3  O   -0.552200   0.023566
     4  O   -0.500265   0.002625
     5  Cs   0.616067   0.045361
     6  Cs   0.614165   0.046776
     7  Ag  -0.095911   0.871918
 Electronic spatial extent (au):  <R**2>=           1788.2646
 Charge=              0.0000 electrons
 Dipole moment (field-independent basis, Debye):
    X=             -0.3917    Y=              0.7201    Z=             -1.2185  Tot=              1.4686
 Quadrupole moment (field-independent basis, Debye-Ang):
   XX=            -44.7966   YY=            -96.7928   ZZ=            -89.1254
   XY=             19.7152   XZ=              3.6813   YZ=            -12.7954
 Traceless Quadrupole moment (field-independent basis, Debye-Ang):
   XX=             32.1084   YY=            -19.8879   ZZ=            -12.2205
   XY=             19.7152   XZ=              3.6813   YZ=            -12.7954
 Octapole moment (field-independent basis, Debye-Ang**2):
  XXX=             52.7621  YYY=           -327.4135  ZZZ=           -222.1654  XYY=             56.5978
  XXY=            -74.2752  XXZ=            -54.3127  XZZ=             31.3927  YZZ=           -124.5189
  YYZ=           -108.9358  XYZ=             17.6170
 Hexadecapole moment (field-independent basis, Debye-Ang**3):
 XXXX=          -1806.0816 YYYY=          -1871.0074 ZZZZ=           -818.5143 XXXY=            -33.1257
 XXXZ=            137.1888 YYYX=            -55.3475 YYYZ=           -605.6516 ZZZX=            154.8680
 ZZZY=           -537.7027 XXYY=           -601.0545 XXZZ=           -465.6334 YYZZ=           -514.2484
 XXYZ=           -162.1828 YYXZ=             86.8854 ZZXY=             -7.7482
 N-N= 3.437654665047D+02 E-N=-1.709244441415D+03  KE= 3.294512943429D+02
                          Isotropic Fermi Contact Couplings
        Atom                 a.u.       MegaHertz       Gauss      10(-4) cm-1
     1  C(13)              0.01377      15.48106       5.52403       5.16393
     2  O(17)              0.00227      -1.37683      -0.49129      -0.45926
     3  O(17)              0.19780    -119.90323     -42.78445     -39.99541
     4  O(17)              0.00257      -1.55757      -0.55578      -0.51955
     7  Ag(107             0.00024      -0.04367      -0.01558      -0.01457
 --------------------------------------------------------
       Center         ----  Spin Dipole Couplings  ----
                      3XX-RR        3YY-RR        3ZZ-RR
 --------------------------------------------------------
     1   Atom       -0.006705      0.015288     -0.008583
     2   Atom       -0.002403      0.012024     -0.009622
     3   Atom       -0.066658      0.013653      0.053005
     4   Atom       -0.006152      0.017713     -0.011561
     5   Atom        0.001629     -0.000888     -0.000741
     6   Atom       -0.000462      0.001245     -0.000783
     7   Atom        0.030627     -0.020264     -0.010362
 --------------------------------------------------------
                        XY            XZ            YZ
 --------------------------------------------------------
     1   Atom       -0.008574     -0.000808      0.002475
     2   Atom       -0.008245      0.001227     -0.004412
     3   Atom       -0.021400     -0.022520      0.095495
     4   Atom       -0.006427      0.001829     -0.004250
     5   Atom       -0.001382     -0.001856      0.001069
     6   Atom        0.001543      0.000769      0.001738
     7   Atom        0.017367      0.009130     -0.031329
 --------------------------------------------------------


 ---------------------------------------------------------------------------------
              Anisotropic Spin Dipole Couplings in Principal Axis System
 ---------------------------------------------------------------------------------

       Atom             a.u.   MegaHertz   Gauss  10(-4) cm-1        Axes

              Baa    -0.0097    -1.296    -0.462    -0.432  0.9431  0.3290 -0.0489
     1 C(13)  Bbb    -0.0088    -1.185    -0.423    -0.395  0.0775 -0.0745  0.9942
              Bcc     0.0185     2.481     0.885     0.827 -0.3235  0.9414  0.0957
 
              Baa    -0.0105     0.761     0.271     0.254  0.0738  0.2175  0.9733
     2 O(17)  Bbb    -0.0060     0.437     0.156     0.146  0.9125  0.3790 -0.1539
              Bcc     0.0165    -1.197    -0.427    -0.399 -0.4023  0.8995 -0.1705
 
              Baa    -0.0721     5.216     1.861     1.740  0.9482  0.3107 -0.0665
     3 O(17)  Bbb    -0.0635     4.594     1.639     1.532 -0.2793  0.7154 -0.6405
              Bcc     0.1356    -9.810    -3.501    -3.272 -0.1514  0.6258  0.7651
 
              Baa    -0.0123     0.893     0.319     0.298 -0.1870  0.0982  0.9774
     4 O(17)  Bbb    -0.0077     0.554     0.198     0.185  0.9512  0.2669  0.1551
              Bcc     0.0200    -1.447    -0.516    -0.483 -0.2457  0.9587 -0.1434
 
              Baa    -0.0515     1.117     0.399     0.373 -0.2276  0.7497  0.6214
     7 Ag(107 Bbb     0.0155    -0.336    -0.120    -0.112  0.2022 -0.5878  0.7833
              Bcc     0.0360    -0.781    -0.279    -0.261  0.9525  0.3039 -0.0178
 

 ---------------------------------------------------------------------------------

 No NMR shielding tensors so no spin-rotation constants.
 Leave Link  601 at Fri Sep 11 20:36:21 2026, MaxMem=  6442450944 cpu:               1.0 elap:               1.2
 (Enter C:\G16W\l9999.exe)
 Unable to Open any file for archive entry.
 1|1|UNPC-DESKTOP-2JKEGCA|SP|UPBE1PBE|def2SVP|C1Ag1Cs2O3(2)|JHKIM|11-Se
 p-2026|0||#P PBE1PBE/Def2SVP EmpiricalDispersion=GD3BJ SP SCF=(XQC,Max
 Cycle=128) NoSymm Guess=Read||Cs2CO3 t=0.250 dz=+0.00 class=site2site|
 |0,2|C,0,0.088502,0.004778,0.178193|O,0,1.321763,-0.182741,-0.028987|O
 ,0,-0.317584,1.173621,0.589583|O,0,-0.759484,-0.914975,-0.00578|Cs,0,2
 .618443,1.724516,0.421184|Cs,0,-2.95164,-0.2052,0.445806|Ag,0,-0.80508
 612,2.82070881,2.02864034||Version=EM64W-G16RevC.01|HF=-450.6800269|S2
 =0.75208|S2-1=0.|S2A=0.750004|RMSD=8.276e-009|Dipole=-0.154098,0.28329
 74,-0.4794085|Quadrupole=23.8717848,-14.7861717,-9.0856131,14.6577988,
 2.7369664,-9.5130517|PG=C01 [X(C1Ag1Cs2O3)]||@
 The archive entry for this job was punched.


 NATURE GIVES TO EVERY TIME AND SEASON SOME BEAUTY OF ITS OWN.

                                                    --DICKENS
 Job cpu time:       0 days  0 hours  0 minutes 57.0 seconds.
 Elapsed time:       0 days  0 hours  0 minutes 55.7 seconds.
 File lengths (MBytes):  RWF=     15 Int=      0 D2E=      0 Chk=      2 Scr=      1
 Normal termination of Gaussian 16 at Fri Sep 11 20:36:21 2026.
