 Entering Gaussian System, Link 0=C:\G16W\g16.exe
 Input=Cs2CO3_t0_z0_ref.gjf
 Output=Cs2CO3_t0_z0_ref.out
 Initial command:
 C:\G16W\l1.exe ".\Gau-81584.inp" "Cs2CO3_t0_z0_ref.out" /scrdir=".\"
 Entering Link 1 = C:\G16W\l1.exe PID=    147828.
  
 Copyright (c) 1988-2019, Gaussian, Inc.  All Rights Reserved.
  
 This is part of the Gaussian(R) 16 program.  It is based on
 the Gaussian(R) 09 system (copyright 2009, Gaussian, Inc.),
 the Gaussian(R) 03 system (copyright 2003, Gaussian, Inc.),
 the Gaussian(R) 98 system (copyright 1998, Gaussian, Inc.),
 the Gaussian(R) 94 system (copyright 1995, Gaussian, Inc.),
 the Gaussian 92(TM) system (copyright 1992, Gaussian, Inc.),
 the Gaussian 90(TM) system (copyright 1990, Gaussian, Inc.),
 the Gaussian 88(TM) system (copyright 1988, Gaussian, Inc.),
 the Gaussian 86(TM) system (copyright 1986, Carnegie Mellon
 University), and the Gaussian 82(TM) system (copyright 1983,
 Carnegie Mellon University). Gaussian is a federally registered
 trademark of Gaussian, Inc.
  
 This software contains proprietary and confidential information,
 including trade secrets, belonging to Gaussian, Inc.
  
 This software is provided under written license and may be
 used, copied, transmitted, or stored only in accord with that
 written license.
  
 The following legend is applicable only to US Government
 contracts under FAR:
  
                    RESTRICTED RIGHTS LEGEND
  
 Use, reproduction and disclosure by the US Government is
 subject to restrictions as set forth in subparagraphs (a)
 and (c) of the Commercial Computer Software - Restricted
 Rights clause in FAR 52.227-19.
  
 Gaussian, Inc.
 340 Quinnipiac St., Bldg. 40, Wallingford CT 06492
  
  
 ---------------------------------------------------------------
 Warning -- This program may not be used in any manner that
 competes with the business of Gaussian, Inc. or will provide
 assistance to any competitor of Gaussian, Inc.  The licensee
 of this program is prohibited from giving any competitor of
 Gaussian, Inc. access to this program.  By using this program,
 the user acknowledges that Gaussian, Inc. is engaged in the
 business of creating and licensing software in the field of
 computational chemistry and represents and warrants to the
 licensee that it is not a competitor of Gaussian, Inc. and that
 it will not use this program in any manner prohibited above.
 ---------------------------------------------------------------
  

 Cite this work as:
 Gaussian 16, Revision C.01,
 M. J. Frisch, G. W. Trucks, H. B. Schlegel, G. E. Scuseria, 
 M. A. Robb, J. R. Cheeseman, G. Scalmani, V. Barone, 
 G. A. Petersson, H. Nakatsuji, X. Li, M. Caricato, A. V. Marenich, 
 J. Bloino, B. G. Janesko, R. Gomperts, B. Mennucci, H. P. Hratchian, 
 J. V. Ortiz, A. F. Izmaylov, J. L. Sonnenberg, D. Williams-Young, 
 F. Ding, F. Lipparini, F. Egidi, J. Goings, B. Peng, A. Petrone, 
 T. Henderson, D. Ranasinghe, V. G. Zakrzewski, J. Gao, N. Rega, 
 G. Zheng, W. Liang, M. Hada, M. Ehara, K. Toyota, R. Fukuda, 
 J. Hasegawa, M. Ishida, T. Nakajima, Y. Honda, O. Kitao, H. Nakai, 
 T. Vreven, K. Throssell, J. A. Montgomery, Jr., J. E. Peralta, 
 F. Ogliaro, M. J. Bearpark, J. J. Heyd, E. N. Brothers, K. N. Kudin, 
 V. N. Staroverov, T. A. Keith, R. Kobayashi, J. Normand, 
 K. Raghavachari, A. P. Rendell, J. C. Burant, S. S. Iyengar, 
 J. Tomasi, M. Cossi, J. M. Millam, M. Klene, C. Adamo, R. Cammi, 
 J. W. Ochterski, R. L. Martin, K. Morokuma, O. Farkas, 
 J. B. Foresman, and D. J. Fox, Gaussian, Inc., Wallingford CT, 2019.
 
 ******************************************
 Gaussian 16:  EM64W-G16RevC.01 30-May-2019
                11-Sep-2026 
 ******************************************
 %Chk=Cs2CO3.chk
 %NProcShared=8
 Will use up to    8 processors via shared memory.
 %Mem=48GB
 ----------------------------------------------------------------------
 #P PBE1PBE/Def2SVP EmpiricalDispersion=GD3BJ SP SCF=(XQC,MaxCycle=128)
  NoSymm Guess=Read
 ----------------------------------------------------------------------
 1/38=1,172=1/1;
 2/12=2,15=1,17=6,18=5,40=1/2;
 3/5=43,7=101,11=2,25=1,30=1,74=-13,116=-2,124=41/1,2,3;
 4/5=1/1;
 5/5=2,7=128,8=3,13=1,38=6/2,8;
 6/7=2,8=2,9=2,10=2,28=1/1;
 99/5=1,9=1/99;
 Leave Link    1 at Fri Sep 11 20:43:21 2026, MaxMem=  6442450944 cpu:               1.0 elap:               0.3
 (Enter C:\G16W\l101.exe)
 ---------------------------------------
 Cs2CO3 t=0.000 dz=+0.00 class=site2site
 ---------------------------------------
 Symbolic Z-matrix:
 Charge =  0 Multiplicity = 2
 C                     0.0885    0.00478   0.17819 
 O                     1.32176  -0.18274  -0.02899 
 O                    -0.31758   1.17362   0.58958 
 O                    -0.75948  -0.91498  -0.00578 
 Cs                    2.61844   1.72452   0.42118 
 Cs                   -2.95164  -0.2052    0.44581 
 Ag                   -1.065     3.32491   1.34676 
 
 ITRead=  0  0  0  0  0  0  0
 MicOpt= -1 -1 -1 -1 -1 -1 -1
 NAtoms=      7 NQM=        7 NQMF=       0 NMMI=      0 NMMIF=      0
                NMic=       0 NMicF=      0.
                    Isotopes and Nuclear Properties:
 (Nuclear quadrupole moments (NQMom) in fm**2, nuclear magnetic moments (NMagM)
  in nuclear magnetons)

  Atom         1           2           3           4           5           6           7
 IAtWgt=          12          16          16          16         133         133         107
 AtmWgt=  12.0000000  15.9949146  15.9949146  15.9949146 132.9054290 132.9054290 106.9050900
 NucSpn=           0           0           0           0           0           0           1
 AtZEff=   0.0000000   0.0000000   0.0000000   0.0000000   0.0000000   0.0000000   0.0000000
 NQMom=    0.0000000   0.0000000   0.0000000   0.0000000   0.0000000   0.0000000   0.0000000
 NMagM=    0.0000000   0.0000000   0.0000000   0.0000000   0.0000000   0.0000000  -0.1135700
 AtZNuc=   6.0000000   8.0000000   8.0000000   8.0000000  55.0000000  55.0000000  47.0000000
 Leave Link  101 at Fri Sep 11 20:43:21 2026, MaxMem=  6442450944 cpu:               0.0 elap:               0.3
 (Enter C:\G16W\l202.exe)
                          Input orientation:                          
 ---------------------------------------------------------------------
 Center     Atomic      Atomic             Coordinates (Angstroms)
 Number     Number       Type             X           Y           Z
 ---------------------------------------------------------------------
      1          6           0        0.088502    0.004778    0.178193
      2          8           0        1.321763   -0.182741   -0.028987
      3          8           0       -0.317584    1.173621    0.589583
      4          8           0       -0.759484   -0.914975   -0.005780
      5         55           0        2.618443    1.724516    0.421184
      6         55           0       -2.951640   -0.205200    0.445806
      7         47           0       -1.064999    3.324913    1.346758
 ---------------------------------------------------------------------
                    Distance matrix (angstroms):
                    1          2          3          4          5
     1  C    0.000000
     2  O    1.264523   0.000000
     3  O    1.303971   2.215808   0.000000
     4  O    1.264465   2.206421   2.216296   0.000000
     5  Cs   3.068737   2.349822   2.992006   4.308086   0.000000
     6  Cs   3.059113   4.299757   2.976587   2.348033   5.894933
     7  Ag   3.703972   4.460151   2.400000   4.460869   4.121371
                    6          7
     6  Cs   0.000000
     7  Ag   4.102783   0.000000
 Symmetry turned off by external request.
 Stoichiometry    CAgCs2O3(2)
 Framework group  C1[X(CAgCs2O3)]
 Deg. of freedom    15
 Full point group                 C1      NOp   1
 Rotational constants (GHZ):           0.6275317           0.2152193           0.1602580
 Leave Link  202 at Fri Sep 11 20:43:21 2026, MaxMem=  6442450944 cpu:               0.0 elap:               0.1
 (Enter C:\G16W\l301.exe)
 Standard basis: def2SVP (5D, 7F)
 Ernie: Thresh=  0.10000D-02 Tol=  0.10000D-05 Strict=F.
   135 basis functions,   239 primitive gaussians,   148 cartesian basis functions
    34 alpha electrons       33 beta electrons
       nuclear repulsion energy       337.0524136693 Hartrees.
 IExCor= 1009 DFT=T Ex+Corr=PBE1PBE ExCW=0 ScaHFX=  0.250000
 ScaDFX=  0.750000  0.750000  1.000000  1.000000 ScalE2=  1.000000  1.000000
 IRadAn=      5 IRanWt=     -1 IRanGd=            0 ICorTp=0 IEmpDi=141
 NAtoms=    7 NActive=    7 NUniq=    7 SFac= 1.00D+00 NAtFMM=   60 NAOKFM=F Big=F
 Integral buffers will be    131072 words long.
 Raffenetti 2 integral format.
 Two-electron integral symmetry is turned off.
 R6Disp:  Grimme-D3(BJ) Dispersion energy=       -0.0073575224 Hartrees.
 Nuclear repulsion after empirical dispersion term =      337.0450561469 Hartrees.
 Leave Link  301 at Fri Sep 11 20:43:22 2026, MaxMem=  6442450944 cpu:               1.0 elap:               0.2
 (Enter C:\G16W\l302.exe)
 NPDir=0 NMtPBC=     1 NCelOv=     1 NCel=       1 NClECP=     1 NCelD=      1
         NCelK=      1 NCelE2=     1 NClLst=     1 CellRange=     0.0.
 One-electron integrals computed using PRISM.
   1 Symmetry operations used in ECPInt.
 ECPInt:  NShTT=    1540 NPrTT=    4838 LenC2=    1525 LenP2D=    4061.
 LDataN:  DoStor=T MaxTD1= 7 Len=  274
 NBasis=   135 RedAO= T EigKep=  7.22D-03  NBF=   135
 NBsUse=   135 1.00D-06 EigRej= -1.00D+00 NBFU=   135
 Precomputing XC quadrature grid using
 IXCGrd= 4 IRadAn=           5 IRanWt=          -1 IRanGd=           0 AccXCQ= 0.00D+00.
 Defaulting to unpruned grid for atomic number  47.
 Defaulting to unpruned grid for atomic number  55.
 Defaulting to unpruned grid for atomic number  55.
 Generated NRdTot=       0 NPtTot=           0 NUsed=           0 NTot=          32
 NSgBfM=   148   148   148   148   148 MxSgAt=     7 MxSgA2=     7.
 Leave Link  302 at Fri Sep 11 20:43:24 2026, MaxMem=  6442450944 cpu:               2.0 elap:               2.5
 (Enter C:\G16W\l303.exe)
 DipDrv:  MaxL=1.
 Leave Link  303 at Fri Sep 11 20:43:25 2026, MaxMem=  6442450944 cpu:               0.0 elap:               0.1
 (Enter C:\G16W\l401.exe)
 Initial guess from the checkpoint file:  "Cs2CO3.chk"
 B after Tr=    -0.643887    1.154162    1.804075
         Rot=    0.336297    0.881711    0.330864   -0.004468 Ang= 140.70 deg.
 Guess basis will be translated and rotated to current coordinates.
 JPrj=2 DoOrth=T DoCkMO=T.
 Initial guess <Sx>= 0.0000 <Sy>= 0.0000 <Sz>= 0.5000 <S**2>= 0.7518 S= 0.5009
 Leave Link  401 at Fri Sep 11 20:43:29 2026, MaxMem=  6442450944 cpu:               4.0 elap:               3.7
 (Enter C:\G16W\l502.exe)
 Keep R1 and R2 ints in memory in canonical form, NReq=92092980.
 FoFCou: FMM=F IPFlag=           0 FMFlag=           0 FMFlg1=           0
         NFxFlg=           0 DoJE=F BraDBF=F KetDBF=F FulRan=T
         wScrn=  0.000000 ICntrl=       600 IOpCl=  0 I1Cent=           0 NGrid=           0
         NMat0=    1 NMatS0=   9180 NMatT0=    0 NMatD0=    1 NMtDS0=    0 NMtDT0=    0
 Symmetry not used in FoFCou.
 Two-electron integral symmetry not used.
 UHF open shell SCF:
 Using DIIS extrapolation, IDIIS=  1040.
 NGot=  6442450944 LenX=  6358123074 LenY=  6358100729
 Requested convergence on RMS density matrix=1.00D-08 within 128 cycles.
 Requested convergence on MAX density matrix=1.00D-06.
 Requested convergence on             energy=1.00D-06.
 No special actions if energy rises.

 Cycle   1  Pass 1  IDiag  1:
 Defaulting to unpruned grid for atomic number  55.
 Defaulting to unpruned grid for atomic number  55.
 Defaulting to unpruned grid for atomic number  55.
 Defaulting to unpruned grid for atomic number  55.
 Defaulting to unpruned grid for atomic number  55.
 Defaulting to unpruned grid for atomic number  55.
 Defaulting to unpruned grid for atomic number  55.
 Defaulting to unpruned grid for atomic number  55.
 E= -448.602657950085    
 DIIS: error= 1.03D-01 at cycle   1 NSaved=   1.
 NSaved= 1 IEnMin= 1 EnMin= -448.602657950085     IErMin= 1 ErrMin= 1.03D-01
 ErrMax= 1.03D-01  0.00D+00 EMaxC= 1.00D-01 BMatC= 5.20D+00 BMatP= 5.20D+00
 IDIUse=3 WtCom= 0.00D+00 WtEn= 1.00D+00
 Coeff-Com:  0.100D+01
 Coeff-En:   0.100D+01
 Coeff:      0.100D+01
 Gap=     0.155 Goal=   None    Shift=    0.000
 Gap=     0.135 Goal=   None    Shift=    0.000
 GapD=    0.135 DampG=1.000 DampE=0.125 DampFc=0.1250 IDamp=-1.
 Damping current iteration by 1.25D-01
 RMSDP=1.64D-02 MaxDP=3.15D-01              OVMax= 9.08D-01

 Cycle   2  Pass 1  IDiag  1:
 E= -448.855518254796     Delta-E=       -0.252860304711 Rises=F Damp=T
 DIIS: error= 8.54D-02 at cycle   2 NSaved=   2.
 NSaved= 2 IEnMin= 2 EnMin= -448.855518254796     IErMin= 2 ErrMin= 8.54D-02
 ErrMax= 8.54D-02  0.00D+00 EMaxC= 1.00D-01 BMatC= 3.79D+00 BMatP= 5.20D+00
 IDIUse=3 WtCom= 1.46D-01 WtEn= 8.54D-01
 Coeff-Com: -0.367D+01 0.467D+01
 Coeff-En:   0.000D+00 0.100D+01
 Coeff:     -0.535D+00 0.153D+01
 Gap=     0.124 Goal=   None    Shift=    0.000
 Gap=    -0.053 Goal=   None    Shift=    0.000
 RMSDP=1.28D-02 MaxDP=2.85D-01 DE=-2.53D-01 OVMax= 9.47D-01

 Cycle   3  Pass 1  IDiag  1:
 E= -450.625218154700     Delta-E=       -1.769699899904 Rises=F Damp=F
 DIIS: error= 2.07D-02 at cycle   3 NSaved=   3.
 NSaved= 3 IEnMin= 3 EnMin= -450.625218154700     IErMin= 3 ErrMin= 2.07D-02
 ErrMax= 2.07D-02  0.00D+00 EMaxC= 1.00D-01 BMatC= 2.50D-01 BMatP= 3.79D+00
 IDIUse=3 WtCom= 7.93D-01 WtEn= 2.07D-01
 Coeff-Com:  0.974D+00-0.104D+01 0.106D+01
 Coeff-En:   0.000D+00 0.000D+00 0.100D+01
 Coeff:      0.772D+00-0.821D+00 0.105D+01
 Gap=     0.139 Goal=   None    Shift=    0.000
 Gap=     0.096 Goal=   None    Shift=    0.000
 RMSDP=2.97D-03 MaxDP=1.15D-01 DE=-1.77D+00 OVMax= 1.01D-01

 Cycle   4  Pass 1  IDiag  1:
 E= -450.642164736259     Delta-E=       -0.016946581559 Rises=F Damp=F
 DIIS: error= 1.72D-02 at cycle   4 NSaved=   4.
 NSaved= 4 IEnMin= 4 EnMin= -450.642164736259     IErMin= 4 ErrMin= 1.72D-02
 ErrMax= 1.72D-02  0.00D+00 EMaxC= 1.00D-01 BMatC= 1.74D-01 BMatP= 2.50D-01
 IDIUse=3 WtCom= 8.28D-01 WtEn= 1.72D-01
 Coeff-Com:  0.519D+00-0.616D+00 0.560D+00 0.536D+00
 Coeff-En:   0.000D+00 0.000D+00 0.387D+00 0.613D+00
 Coeff:      0.430D+00-0.510D+00 0.531D+00 0.549D+00
 Gap=     0.160 Goal=   None    Shift=    0.000
 Gap=     0.130 Goal=   None    Shift=    0.000
 RMSDP=1.55D-03 MaxDP=5.59D-02 DE=-1.69D-02 OVMax= 5.74D-02

 Cycle   5  Pass 1  IDiag  1:
 E= -450.675064727884     Delta-E=       -0.032899991626 Rises=F Damp=F
 DIIS: error= 4.14D-03 at cycle   5 NSaved=   5.
 NSaved= 5 IEnMin= 5 EnMin= -450.675064727884     IErMin= 5 ErrMin= 4.14D-03
 ErrMax= 4.14D-03  0.00D+00 EMaxC= 1.00D-01 BMatC= 1.33D-02 BMatP= 1.74D-01
 IDIUse=3 WtCom= 9.59D-01 WtEn= 4.14D-02
 Coeff-Com:  0.177D+00-0.213D+00 0.185D+00 0.283D+00 0.568D+00
 Coeff-En:   0.000D+00 0.000D+00 0.000D+00 0.000D+00 0.100D+01
 Coeff:      0.169D+00-0.204D+00 0.178D+00 0.272D+00 0.585D+00
 Gap=     0.123 Goal=   None    Shift=    0.000
 Gap=     0.124 Goal=   None    Shift=    0.000
 RMSDP=4.58D-04 MaxDP=1.20D-02 DE=-3.29D-02 OVMax= 2.12D-02

 Cycle   6  Pass 1  IDiag  1:
 E= -450.677116458017     Delta-E=       -0.002051730133 Rises=F Damp=F
 DIIS: error= 2.21D-03 at cycle   6 NSaved=   6.
 NSaved= 6 IEnMin= 6 EnMin= -450.677116458017     IErMin= 6 ErrMin= 2.21D-03
 ErrMax= 2.21D-03  0.00D+00 EMaxC= 1.00D-01 BMatC= 3.08D-03 BMatP= 1.33D-02
 IDIUse=3 WtCom= 9.78D-01 WtEn= 2.21D-02
 Coeff-Com:  0.350D-01-0.412D-01 0.199D-01 0.845D-01 0.372D+00 0.530D+00
 Coeff-En:   0.000D+00 0.000D+00 0.000D+00 0.000D+00 0.165D+00 0.835D+00
 Coeff:      0.342D-01-0.403D-01 0.194D-01 0.827D-01 0.367D+00 0.537D+00
 Gap=     0.121 Goal=   None    Shift=    0.000
 Gap=     0.121 Goal=   None    Shift=    0.000
 RMSDP=1.84D-04 MaxDP=5.49D-03 DE=-2.05D-03 OVMax= 9.63D-03

 Cycle   7  Pass 1  IDiag  1:
 E= -450.677700579456     Delta-E=       -0.000584121439 Rises=F Damp=F
 DIIS: error= 3.45D-04 at cycle   7 NSaved=   7.
 NSaved= 7 IEnMin= 7 EnMin= -450.677700579456     IErMin= 7 ErrMin= 3.45D-04
 ErrMax= 3.45D-04  0.00D+00 EMaxC= 1.00D-01 BMatC= 1.17D-04 BMatP= 3.08D-03
 IDIUse=3 WtCom= 9.97D-01 WtEn= 3.45D-03
 Coeff-Com: -0.740D-03 0.274D-03 0.462D-03 0.193D-01 0.967D-01 0.213D+00
 Coeff-Com:  0.671D+00
 Coeff-En:   0.000D+00 0.000D+00 0.000D+00 0.000D+00 0.000D+00 0.000D+00
 Coeff-En:   0.100D+01
 Coeff:     -0.738D-03 0.273D-03 0.461D-03 0.193D-01 0.964D-01 0.212D+00
 Coeff:      0.673D+00
 Gap=     0.121 Goal=   None    Shift=    0.000
 Gap=     0.119 Goal=   None    Shift=    0.000
 RMSDP=4.01D-05 MaxDP=2.01D-03 DE=-5.84D-04 OVMax= 1.28D-03

 Cycle   8  Pass 1  IDiag  1:
 E= -450.677722355877     Delta-E=       -0.000021776421 Rises=F Damp=F
 DIIS: error= 1.06D-04 at cycle   8 NSaved=   8.
 NSaved= 8 IEnMin= 8 EnMin= -450.677722355877     IErMin= 8 ErrMin= 1.06D-04
 ErrMax= 1.06D-04  0.00D+00 EMaxC= 1.00D-01 BMatC= 8.95D-06 BMatP= 1.17D-04
 IDIUse=3 WtCom= 9.99D-01 WtEn= 1.06D-03
 Coeff-Com: -0.260D-02 0.261D-02 0.122D-02 0.545D-02 0.169D-01 0.452D-01
 Coeff-Com:  0.242D+00 0.689D+00
 Coeff-En:   0.000D+00 0.000D+00 0.000D+00 0.000D+00 0.000D+00 0.000D+00
 Coeff-En:   0.000D+00 0.100D+01
 Coeff:     -0.259D-02 0.261D-02 0.122D-02 0.544D-02 0.169D-01 0.451D-01
 Coeff:      0.242D+00 0.690D+00
 Gap=     0.121 Goal=   None    Shift=    0.000
 Gap=     0.118 Goal=   None    Shift=    0.000
 RMSDP=1.45D-05 MaxDP=5.92D-04 DE=-2.18D-05 OVMax= 6.84D-04

 Cycle   9  Pass 1  IDiag  1:
 E= -450.677724057680     Delta-E=       -0.000001701804 Rises=F Damp=F
 DIIS: error= 6.73D-05 at cycle   9 NSaved=   9.
 NSaved= 9 IEnMin= 9 EnMin= -450.677724057680     IErMin= 9 ErrMin= 6.73D-05
 ErrMax= 6.73D-05  0.00D+00 EMaxC= 1.00D-01 BMatC= 2.64D-06 BMatP= 8.95D-06
 IDIUse=1 WtCom= 1.00D+00 WtEn= 0.00D+00
 Coeff-Com: -0.130D-02 0.140D-02 0.158D-03 0.517D-03-0.698D-03 0.374D-02
 Coeff-Com:  0.578D-01 0.372D+00 0.566D+00
 Coeff:     -0.130D-02 0.140D-02 0.158D-03 0.517D-03-0.698D-03 0.374D-02
 Coeff:      0.578D-01 0.372D+00 0.566D+00
 Gap=     0.122 Goal=   None    Shift=    0.000
 Gap=     0.118 Goal=   None    Shift=    0.000
 RMSDP=7.55D-06 MaxDP=2.41D-04 DE=-1.70D-06 OVMax= 3.42D-04

 Cycle  10  Pass 1  IDiag  1:
 E= -450.677724585142     Delta-E=       -0.000000527462 Rises=F Damp=F
 DIIS: error= 3.05D-05 at cycle  10 NSaved=  10.
 NSaved=10 IEnMin=10 EnMin= -450.677724585142     IErMin=10 ErrMin= 3.05D-05
 ErrMax= 3.05D-05  0.00D+00 EMaxC= 1.00D-01 BMatC= 5.39D-07 BMatP= 2.64D-06
 IDIUse=1 WtCom= 1.00D+00 WtEn= 0.00D+00
 Coeff-Com:  0.523D-04-0.439D-04-0.157D-03-0.602D-03-0.249D-02-0.437D-02
 Coeff-Com: -0.125D-01 0.656D-01 0.332D+00 0.623D+00
 Coeff:      0.523D-04-0.439D-04-0.157D-03-0.602D-03-0.249D-02-0.437D-02
 Coeff:     -0.125D-01 0.656D-01 0.332D+00 0.623D+00
 Gap=     0.122 Goal=   None    Shift=    0.000
 Gap=     0.118 Goal=   None    Shift=    0.000
 RMSDP=3.62D-06 MaxDP=1.78D-04 DE=-5.27D-07 OVMax= 1.94D-04

 Cycle  11  Pass 1  IDiag  1:
 E= -450.677724724239     Delta-E=       -0.000000139096 Rises=F Damp=F
 DIIS: error= 1.02D-05 at cycle  11 NSaved=  11.
 NSaved=11 IEnMin=11 EnMin= -450.677724724239     IErMin=11 ErrMin= 1.02D-05
 ErrMax= 1.02D-05  0.00D+00 EMaxC= 1.00D-01 BMatC= 4.90D-08 BMatP= 5.39D-07
 IDIUse=1 WtCom= 1.00D+00 WtEn= 0.00D+00
 Coeff-Com:  0.157D-03-0.163D-03-0.167D-03-0.472D-03-0.141D-02-0.266D-02
 Coeff-Com: -0.112D-01-0.672D-02 0.851D-01 0.275D+00 0.662D+00
 Coeff:      0.157D-03-0.163D-03-0.167D-03-0.472D-03-0.141D-02-0.266D-02
 Coeff:     -0.112D-01-0.672D-02 0.851D-01 0.275D+00 0.662D+00
 Gap=     0.122 Goal=   None    Shift=    0.000
 Gap=     0.118 Goal=   None    Shift=    0.000
 RMSDP=1.62D-06 MaxDP=8.89D-05 DE=-1.39D-07 OVMax= 8.25D-05

 Cycle  12  Pass 1  IDiag  1:
 E= -450.677724743577     Delta-E=       -0.000000019338 Rises=F Damp=F
 DIIS: error= 3.31D-06 at cycle  12 NSaved=  12.
 NSaved=12 IEnMin=12 EnMin= -450.677724743577     IErMin=12 ErrMin= 3.31D-06
 ErrMax= 3.31D-06  0.00D+00 EMaxC= 1.00D-01 BMatC= 4.77D-09 BMatP= 4.90D-08
 IDIUse=1 WtCom= 1.00D+00 WtEn= 0.00D+00
 Coeff-Com: -0.188D-04 0.265D-04-0.351D-04-0.301D-04 0.416D-04 0.147D-03
 Coeff-Com:  0.655D-03-0.123D-01-0.540D-01-0.736D-01 0.155D+00 0.984D+00
 Coeff:     -0.188D-04 0.265D-04-0.351D-04-0.301D-04 0.416D-04 0.147D-03
 Coeff:      0.655D-03-0.123D-01-0.540D-01-0.736D-01 0.155D+00 0.984D+00
 Gap=     0.122 Goal=   None    Shift=    0.000
 Gap=     0.118 Goal=   None    Shift=    0.000
 RMSDP=1.09D-06 MaxDP=7.46D-05 DE=-1.93D-08 OVMax= 6.95D-05

 Cycle  13  Pass 1  IDiag  1:
 E= -450.677724748015     Delta-E=       -0.000000004439 Rises=F Damp=F
 DIIS: error= 9.44D-07 at cycle  13 NSaved=  13.
 NSaved=13 IEnMin=13 EnMin= -450.677724748015     IErMin=13 ErrMin= 9.44D-07
 ErrMax= 9.44D-07  0.00D+00 EMaxC= 1.00D-01 BMatC= 4.10D-10 BMatP= 4.77D-09
 IDIUse=1 WtCom= 1.00D+00 WtEn= 0.00D+00
 Coeff-Com: -0.820D-05 0.733D-05 0.328D-04 0.557D-04 0.852D-04 0.592D-04
 Coeff-Com:  0.125D-03-0.274D-02-0.102D-01-0.226D-01-0.593D-01 0.114D+00
 Coeff-Com:  0.981D+00
 Coeff:     -0.820D-05 0.733D-05 0.328D-04 0.557D-04 0.852D-04 0.592D-04
 Coeff:      0.125D-03-0.274D-02-0.102D-01-0.226D-01-0.593D-01 0.114D+00
 Coeff:      0.981D+00
 Gap=     0.122 Goal=   None    Shift=    0.000
 Gap=     0.118 Goal=   None    Shift=    0.000
 RMSDP=2.95D-07 MaxDP=2.05D-05 DE=-4.44D-09 OVMax= 1.72D-05

 Cycle  14  Pass 1  IDiag  1:
 E= -450.677724748302     Delta-E=       -0.000000000287 Rises=F Damp=F
 DIIS: error= 1.23D-07 at cycle  14 NSaved=  14.
 NSaved=14 IEnMin=14 EnMin= -450.677724748302     IErMin=14 ErrMin= 1.23D-07
 ErrMax= 1.23D-07  0.00D+00 EMaxC= 1.00D-01 BMatC= 9.86D-12 BMatP= 4.10D-10
 IDIUse=1 WtCom= 1.00D+00 WtEn= 0.00D+00
 Coeff-Com: -0.140D-05 0.131D-05 0.154D-05 0.499D-05 0.955D-05 0.120D-04
 Coeff-Com:  0.803D-05 0.222D-03 0.237D-02 0.264D-02-0.875D-02-0.409D-01
 Coeff-Com:  0.348D-01 0.101D+01
 Coeff:     -0.140D-05 0.131D-05 0.154D-05 0.499D-05 0.955D-05 0.120D-04
 Coeff:      0.803D-05 0.222D-03 0.237D-02 0.264D-02-0.875D-02-0.409D-01
 Coeff:      0.348D-01 0.101D+01
 Gap=     0.122 Goal=   None    Shift=    0.000
 Gap=     0.118 Goal=   None    Shift=    0.000
 RMSDP=4.55D-08 MaxDP=2.97D-06 DE=-2.87D-10 OVMax= 2.86D-06

 Cycle  15  Pass 1  IDiag  1:
 E= -450.677724748326     Delta-E=       -0.000000000023 Rises=F Damp=F
 DIIS: error= 4.31D-08 at cycle  15 NSaved=  15.
 NSaved=15 IEnMin=15 EnMin= -450.677724748326     IErMin=15 ErrMin= 4.31D-08
 ErrMax= 4.31D-08  0.00D+00 EMaxC= 1.00D-01 BMatC= 1.18D-12 BMatP= 9.86D-12
 IDIUse=1 WtCom= 1.00D+00 WtEn= 0.00D+00
 Coeff-Com: -0.106D-06 0.201D-06-0.228D-05-0.291D-05-0.144D-05 0.816D-05
 Coeff-Com:  0.304D-04 0.200D-03 0.906D-03 0.164D-02 0.150D-02-0.157D-01
 Coeff-Com: -0.503D-01 0.196D+00 0.865D+00
 Coeff:     -0.106D-06 0.201D-06-0.228D-05-0.291D-05-0.144D-05 0.816D-05
 Coeff:      0.304D-04 0.200D-03 0.906D-03 0.164D-02 0.150D-02-0.157D-01
 Coeff:     -0.503D-01 0.196D+00 0.865D+00
 Gap=     0.122 Goal=   None    Shift=    0.000
 Gap=     0.118 Goal=   None    Shift=    0.000
 RMSDP=1.02D-08 MaxDP=6.16D-07 DE=-2.34D-11 OVMax= 6.49D-07

 Cycle  16  Pass 1  IDiag  1:
 E= -450.677724748329     Delta-E=       -0.000000000003 Rises=F Damp=F
 DIIS: error= 1.59D-08 at cycle  16 NSaved=  16.
 NSaved=16 IEnMin=16 EnMin= -450.677724748329     IErMin=16 ErrMin= 1.59D-08
 ErrMax= 1.59D-08  0.00D+00 EMaxC= 1.00D-01 BMatC= 1.48D-13 BMatP= 1.18D-12
 IDIUse=1 WtCom= 1.00D+00 WtEn= 0.00D+00
 Coeff-Com:  0.564D-07-0.174D-07-0.701D-06-0.126D-05-0.127D-05 0.117D-05
 Coeff-Com:  0.579D-05 0.252D-04 0.444D-04 0.208D-03 0.124D-02-0.416D-03
 Coeff-Com: -0.141D-01-0.397D-01 0.206D+00 0.847D+00
 Coeff:      0.564D-07-0.174D-07-0.701D-06-0.126D-05-0.127D-05 0.117D-05
 Coeff:      0.579D-05 0.252D-04 0.444D-04 0.208D-03 0.124D-02-0.416D-03
 Coeff:     -0.141D-01-0.397D-01 0.206D+00 0.847D+00
 Gap=     0.122 Goal=   None    Shift=    0.000
 Gap=     0.118 Goal=   None    Shift=    0.000
 RMSDP=2.51D-09 MaxDP=7.22D-08 DE=-3.18D-12 OVMax= 1.26D-07

 SCF Done:  E(UPBE1PBE) =  -450.677724748     A.U. after   16 cycles
            NFock= 16  Conv=0.25D-08     -V/T= 2.3680
 <Sx>= 0.0000 <Sy>= 0.0000 <Sz>= 0.5000 <S**2>= 0.7520 S= 0.5010
 <L.S>= 0.000000000000E+00
 KE= 3.294475350677D+02 PE=-1.696000707116D+03 EE= 5.788303911535D+02
 Annihilation of the first spin contaminant:
 S**2 before annihilation     0.7520,   after     0.7500
 Leave Link  502 at Fri Sep 11 20:44:25 2026, MaxMem=  6442450944 cpu:              56.0 elap:              56.1
 (Enter C:\G16W\l508.exe)
 QCSCF skips out because SCF is already converged.
 Leave Link  508 at Fri Sep 11 20:44:25 2026, MaxMem=  6442450944 cpu:               0.0 elap:               0.1
 (Enter C:\G16W\l601.exe)
 Copying SCF densities to generalized density rwf, IOpCl= 1 IROHF=0.

 **********************************************************************

            Population analysis using the SCF Density.

 **********************************************************************

 Alpha  occ. eigenvalues --  -19.11729 -19.09391 -19.09381 -10.29629  -3.72251
 Alpha  occ. eigenvalues --   -2.30370  -2.30264  -2.29983  -1.05053  -1.03861
 Alpha  occ. eigenvalues --   -1.01581  -0.90596  -0.89576  -0.54018  -0.51440
 Alpha  occ. eigenvalues --   -0.51273  -0.51160  -0.50720  -0.50674  -0.45497
 Alpha  occ. eigenvalues --   -0.39296  -0.38984  -0.38270  -0.29926  -0.29874
 Alpha  occ. eigenvalues --   -0.29861  -0.29743  -0.28816  -0.23557  -0.23244
 Alpha  occ. eigenvalues --   -0.22729  -0.22671  -0.17974  -0.14561
 Alpha virt. eigenvalues --   -0.02407  -0.01925  -0.00090   0.00500   0.01586
 Alpha virt. eigenvalues --    0.01832   0.02335   0.02576   0.02933   0.03762
 Alpha virt. eigenvalues --    0.04127   0.04479   0.05685   0.06209   0.06480
 Alpha virt. eigenvalues --    0.07003   0.07724   0.08581   0.08954   0.09118
 Alpha virt. eigenvalues --    0.10311   0.10353   0.12224   0.15149   0.18547
 Alpha virt. eigenvalues --    0.18632   0.18719   0.18806   0.19238   0.19986
 Alpha virt. eigenvalues --    0.20395   0.20794   0.21435   0.22314   0.22874
 Alpha virt. eigenvalues --    0.30651   0.31098   0.32869   0.33536   0.36433
 Alpha virt. eigenvalues --    0.38230   0.38465   0.39916   0.44538   0.46946
 Alpha virt. eigenvalues --    0.50379   0.50805   0.52292   0.53603   0.55824
 Alpha virt. eigenvalues --    0.57585   0.61580   0.62680   0.63490   0.66183
 Alpha virt. eigenvalues --    0.68080   0.74784   0.83613   1.11356   1.13885
 Alpha virt. eigenvalues --    1.15065   1.15323   1.28036   1.29273   1.33879
 Alpha virt. eigenvalues --    1.42006   1.45189   1.49297   1.66487   1.67721
 Alpha virt. eigenvalues --    1.68237   1.69357   2.10920   2.13445   2.14045
 Alpha virt. eigenvalues --    2.16540   2.65112   2.65120   2.65262   2.65289
 Alpha virt. eigenvalues --    2.65512   2.65534   2.68823   2.71943   2.73014
 Alpha virt. eigenvalues --    2.73120   2.73230   2.75618   2.76584   2.84637
 Alpha virt. eigenvalues --    2.92348   3.23452   3.28763   3.34364   3.38870
 Alpha virt. eigenvalues --    3.61547   3.79601   3.80072  19.95572  19.99790
 Alpha virt. eigenvalues --   53.89531
  Beta  occ. eigenvalues --  -19.11592 -19.09385 -19.09375 -10.29604  -3.72118
  Beta  occ. eigenvalues --   -2.30268  -2.30202  -2.29949  -1.05025  -1.03851
  Beta  occ. eigenvalues --   -1.01542  -0.90577  -0.89431  -0.54000  -0.51417
  Beta  occ. eigenvalues --   -0.51268  -0.51156  -0.50707  -0.50653  -0.44967
  Beta  occ. eigenvalues --   -0.39263  -0.38955  -0.38149  -0.29372  -0.29365
  Beta  occ. eigenvalues --   -0.29357  -0.29158  -0.28090  -0.23455  -0.23003
  Beta  occ. eigenvalues --   -0.22679  -0.22612  -0.17912
  Beta virt. eigenvalues --   -0.06081  -0.01890  -0.01585   0.00879   0.01588
  Beta virt. eigenvalues --    0.01792   0.02270   0.02803   0.03310   0.03709
  Beta virt. eigenvalues --    0.04285   0.04494   0.05018   0.05972   0.06338
  Beta virt. eigenvalues --    0.07079   0.08424   0.08774   0.09207   0.09613
  Beta virt. eigenvalues --    0.09690   0.10447   0.10615   0.12433   0.15259
  Beta virt. eigenvalues --    0.18859   0.18887   0.18938   0.19029   0.19782
  Beta virt. eigenvalues --    0.20061   0.20448   0.21463   0.22069   0.22444
  Beta virt. eigenvalues --    0.22988   0.30730   0.31155   0.32970   0.34161
  Beta virt. eigenvalues --    0.37123   0.40553   0.40784   0.41497   0.45023
  Beta virt. eigenvalues --    0.47181   0.51324   0.52413   0.53905   0.54324
  Beta virt. eigenvalues --    0.56149   0.58944   0.61935   0.63520   0.63785
  Beta virt. eigenvalues --    0.67337   0.68531   0.75302   0.83842   1.11467
  Beta virt. eigenvalues --    1.13916   1.15066   1.15358   1.28115   1.29361
  Beta virt. eigenvalues --    1.33965   1.42196   1.45208   1.49686   1.66499
  Beta virt. eigenvalues --    1.67831   1.68303   1.69388   2.11081   2.13520
  Beta virt. eigenvalues --    2.14339   2.17368   2.65083   2.65091   2.65281
  Beta virt. eigenvalues --    2.65309   2.65652   2.65663   2.69026   2.72034
  Beta virt. eigenvalues --    2.73046   2.73222   2.73243   2.75699   2.76599
  Beta virt. eigenvalues --    2.84681   2.92440   3.23571   3.28779   3.34487
  Beta virt. eigenvalues --    3.38961   3.61660   3.79699   3.80125  19.95576
  Beta virt. eigenvalues --   19.99794  53.89674
          Condensed to atoms (all electrons):
               1          2          3          4          5          6
     1  C    4.365225   0.441993   0.374190   0.441304  -0.012452  -0.013191
     2  O    0.441993   8.163771  -0.093552  -0.078912   0.081956  -0.010564
     3  O    0.374190  -0.093552   8.208547  -0.093438   0.045897   0.047038
     4  O    0.441304  -0.078912  -0.093438   8.164971  -0.010669   0.081217
     5  Cs  -0.012452   0.081956   0.045897  -0.010669   8.273170  -0.034010
     6  Cs  -0.013191  -0.010564   0.047038   0.081217  -0.034010   8.275358
     7  Ag  -0.010696  -0.000877   0.066812  -0.000676   0.043053   0.042576
               7
     1  C   -0.010696
     2  O   -0.000877
     3  O    0.066812
     4  O   -0.000676
     5  Cs   0.043053
     6  Cs   0.042576
     7  Ag  18.934960
          Atomic-Atomic Spin Densities.
               1          2          3          4          5          6
     1  C    0.010153  -0.001285  -0.002787  -0.001335   0.000393   0.000331
     2  O   -0.001285   0.001931   0.000432   0.000211   0.000620  -0.000220
     3  O   -0.002787   0.000432   0.062711   0.000429  -0.003314  -0.003222
     4  O   -0.001335   0.000211   0.000429   0.002015  -0.000229   0.000640
     5  Cs   0.000393   0.000620  -0.003314  -0.000229   0.006281   0.002721
     6  Cs   0.000331  -0.000220  -0.003222   0.000640   0.002721   0.006288
     7  Ag   0.002137  -0.000216  -0.038336  -0.000216   0.031575   0.031230
               7
     1  C    0.002137
     2  O   -0.000216
     3  O   -0.038336
     4  O   -0.000216
     5  Cs   0.031575
     6  Cs   0.031230
     7  Ag   0.871497
 Mulliken charges and spin densities:
               1          2
     1  C    0.413627   0.007607
     2  O   -0.503814   0.001474
     3  O   -0.555495   0.015913
     4  O   -0.503799   0.001516
     5  Cs   0.613055   0.038048
     6  Cs   0.611576   0.037770
     7  Ag  -0.075151   0.897672
 Sum of Mulliken charges =   0.00000   1.00000
 Mulliken charges and spin densities with hydrogens summed into heavy atoms:
               1          2
     1  C    0.413627   0.007607
     2  O   -0.503814   0.001474
     3  O   -0.555495   0.015913
     4  O   -0.503799   0.001516
     5  Cs   0.613055   0.038048
     6  Cs   0.611576   0.037770
     7  Ag  -0.075151   0.897672
 Electronic spatial extent (au):  <R**2>=           1873.4050
 Charge=              0.0000 electrons
 Dipole moment (field-independent basis, Debye):
    X=             -0.1692    Y=              0.6926    Z=              0.1868  Tot=              0.7371
 Quadrupole moment (field-independent basis, Debye-Ang):
   XX=            -45.8930   YY=            -99.3495   ZZ=            -82.8937
   XY=             21.1913   XZ=              2.7888   YZ=             -8.3123
 Traceless Quadrupole moment (field-independent basis, Debye-Ang):
   XX=             30.1524   YY=            -23.3041   ZZ=             -6.8483
   XY=             21.1913   XZ=              2.7888   YZ=             -8.3123
 Octapole moment (field-independent basis, Debye-Ang**2):
  XXX=             71.3311  YYY=           -378.7440  ZZZ=           -153.8483  XYY=             71.4341
  XXY=            -88.6240  XXZ=            -37.9045  XZZ=             32.0759  YZZ=           -114.9989
  YYZ=            -81.0065  XYZ=             15.8755
 Hexadecapole moment (field-independent basis, Debye-Ang**3):
 XXXX=          -1885.8942 YYYY=          -2391.6936 ZZZZ=           -424.5261 XXXY=             55.9172
 XXXZ=            120.5769 YYYX=             75.6535 YYYZ=           -486.1778 ZZZX=            121.5064
 ZZZY=           -377.2395 XXYY=           -699.0372 XXZZ=           -415.2368 YYZZ=           -464.0428
 XXYZ=           -130.5369 YYXZ=             81.9741 ZZXY=              6.3906
 N-N= 3.370450561469D+02 E-N=-1.696000707340D+03  KE= 3.294475350677D+02
                          Isotropic Fermi Contact Couplings
        Atom                 a.u.       MegaHertz       Gauss      10(-4) cm-1
     1  C(13)              0.01401      15.74818       5.61934       5.25303
     2  O(17)              0.00186      -1.12767      -0.40238      -0.37615
     3  O(17)              0.17176    -104.12278     -37.15360     -34.73162
     4  O(17)              0.00191      -1.15790      -0.41317      -0.38623
     7  Ag(107             0.00027      -0.04890      -0.01745      -0.01631
 --------------------------------------------------------
       Center         ----  Spin Dipole Couplings  ----
                      3XX-RR        3YY-RR        3ZZ-RR
 --------------------------------------------------------
     1   Atom       -0.006413      0.012151     -0.005738
     2   Atom       -0.002214      0.009806     -0.007593
     3   Atom       -0.038567      0.072207     -0.033640
     4   Atom       -0.004288      0.012014     -0.007726
     5   Atom        0.001809     -0.000350     -0.001459
     6   Atom       -0.000770      0.002261     -0.001491
     7   Atom        0.024907     -0.033116      0.008208
 --------------------------------------------------------
                        XY            XZ            YZ
 --------------------------------------------------------
     1   Atom       -0.007370     -0.002517      0.007243
     2   Atom       -0.006873     -0.003097      0.007055
     3   Atom       -0.043264     -0.014546      0.042708
     4   Atom       -0.004492     -0.002108      0.007455
     5   Atom       -0.001783     -0.000970      0.000651
     6   Atom        0.001473      0.000350      0.001110
     7   Atom        0.023046      0.006016     -0.017421
 --------------------------------------------------------


 ---------------------------------------------------------------------------------
              Anisotropic Spin Dipole Couplings in Principal Axis System
 ---------------------------------------------------------------------------------

       Atom             a.u.   MegaHertz   Gauss  10(-4) cm-1        Axes

              Baa    -0.0090    -1.205    -0.430    -0.402  0.9431  0.3324 -0.0103
     1 C(13)  Bbb    -0.0083    -1.113    -0.397    -0.371  0.1143 -0.2949  0.9487
              Bcc     0.0173     2.318     0.827     0.773 -0.3123  0.8959  0.3161
 
              Baa    -0.0102     0.736     0.262     0.245  0.1136 -0.2960  0.9484
     2 O(17)  Bbb    -0.0053     0.386     0.138     0.129  0.9135  0.4066  0.0175
              Bcc     0.0155    -1.121    -0.400    -0.374 -0.3908  0.8644  0.3165
 
              Baa    -0.0535     3.869     1.380     1.290  0.9422  0.3338 -0.0278
     3 O(17)  Bbb    -0.0486     3.519     1.256     1.174  0.1302 -0.2886  0.9485
              Bcc     0.1021    -7.388    -2.636    -2.464 -0.3086  0.8974  0.3154
 
              Baa    -0.0103     0.745     0.266     0.248  0.1130 -0.2944  0.9490
     4 O(17)  Bbb    -0.0054     0.394     0.140     0.131  0.9644  0.2625 -0.0334
              Bcc     0.0157    -1.138    -0.406    -0.380 -0.2393  0.9189  0.3136
 
              Baa    -0.0473     1.026     0.366     0.342 -0.3124  0.8961  0.3152
     7 Ag(107 Bbb     0.0143    -0.311    -0.111    -0.104  0.1066 -0.2967  0.9490
              Bcc     0.0329    -0.715    -0.255    -0.238  0.9440  0.3301 -0.0028
 

 ---------------------------------------------------------------------------------

 No NMR shielding tensors so no spin-rotation constants.
 Leave Link  601 at Fri Sep 11 20:44:26 2026, MaxMem=  6442450944 cpu:               1.0 elap:               0.9
 (Enter C:\G16W\l9999.exe)
 Unable to Open any file for archive entry.
 1|1|UNPC-DESKTOP-2JKEGCA|SP|UPBE1PBE|def2SVP|C1Ag1Cs2O3(2)|JHKIM|11-Se
 p-2026|0||#P PBE1PBE/Def2SVP EmpiricalDispersion=GD3BJ SP SCF=(XQC,Max
 Cycle=128) NoSymm Guess=Read||Cs2CO3 t=0.000 dz=+0.00 class=site2site|
 |0,2|C,0,0.088502,0.004778,0.178193|O,0,1.321763,-0.182741,-0.028987|O
 ,0,-0.317584,1.173621,0.589583|O,0,-0.759484,-0.914975,-0.00578|Cs,0,2
 .618443,1.724516,0.421184|Cs,0,-2.95164,-0.2052,0.445806|Ag,0,-1.06499
 9,3.324913,1.346758||Version=EM64W-G16RevC.01|HF=-450.6777247|S2=0.751
 969|S2-1=0.|S2A=0.750003|RMSD=2.514e-009|Dipole=-0.0665563,0.2725033,0
 .0734897|Quadrupole=22.4175604,-17.3259994,-5.091561,15.7552383,2.0734
 334,-6.1799997|PG=C01 [X(C1Ag1Cs2O3)]||@
 The archive entry for this job was punched.


 SOME THINGS ARE EASY, THEY ARE ONLY HARD TO DO.
            -- A. EINSTEIN TO J. O. HIRSCHFELDER
 THE ONLY TROUBLE WITH A SURE THING IS THE UNCERTAINTY.
     -- FROM A TEABAG (BELONGING TO W.H.?)
 Job cpu time:       0 days  0 hours  1 minutes  7.0 seconds.
 Elapsed time:       0 days  0 hours  1 minutes  4.8 seconds.
 File lengths (MBytes):  RWF=     15 Int=      0 D2E=      0 Chk=      2 Scr=      1
 Normal termination of Gaussian 16 at Fri Sep 11 20:44:27 2026.
