 Entering Gaussian System, Link 0=C:\G16W\g16.exe
 Input=Cu4I4_t2_z0.gjf
 Output=Cu4I4_t2_z0.out
 Initial command:
 C:\G16W\l1.exe ".\Gau-126724.inp" "Cu4I4_t2_z0.out" /scrdir=".\"
 Entering Link 1 = C:\G16W\l1.exe PID=     12844.
  
 Copyright (c) 1988-2019, Gaussian, Inc.  All Rights Reserved.
  
 This is part of the Gaussian(R) 16 program.  It is based on
 the Gaussian(R) 09 system (copyright 2009, Gaussian, Inc.),
 the Gaussian(R) 03 system (copyright 2003, Gaussian, Inc.),
 the Gaussian(R) 98 system (copyright 1998, Gaussian, Inc.),
 the Gaussian(R) 94 system (copyright 1995, Gaussian, Inc.),
 the Gaussian 92(TM) system (copyright 1992, Gaussian, Inc.),
 the Gaussian 90(TM) system (copyright 1990, Gaussian, Inc.),
 the Gaussian 88(TM) system (copyright 1988, Gaussian, Inc.),
 the Gaussian 86(TM) system (copyright 1986, Carnegie Mellon
 University), and the Gaussian 82(TM) system (copyright 1983,
 Carnegie Mellon University). Gaussian is a federally registered
 trademark of Gaussian, Inc.
  
 This software contains proprietary and confidential information,
 including trade secrets, belonging to Gaussian, Inc.
  
 This software is provided under written license and may be
 used, copied, transmitted, or stored only in accord with that
 written license.
  
 The following legend is applicable only to US Government
 contracts under FAR:
  
                    RESTRICTED RIGHTS LEGEND
  
 Use, reproduction and disclosure by the US Government is
 subject to restrictions as set forth in subparagraphs (a)
 and (c) of the Commercial Computer Software - Restricted
 Rights clause in FAR 52.227-19.
  
 Gaussian, Inc.
 340 Quinnipiac St., Bldg. 40, Wallingford CT 06492
  
  
 ---------------------------------------------------------------
 Warning -- This program may not be used in any manner that
 competes with the business of Gaussian, Inc. or will provide
 assistance to any competitor of Gaussian, Inc.  The licensee
 of this program is prohibited from giving any competitor of
 Gaussian, Inc. access to this program.  By using this program,
 the user acknowledges that Gaussian, Inc. is engaged in the
 business of creating and licensing software in the field of
 computational chemistry and represents and warrants to the
 licensee that it is not a competitor of Gaussian, Inc. and that
 it will not use this program in any manner prohibited above.
 ---------------------------------------------------------------
  

 Cite this work as:
 Gaussian 16, Revision C.01,
 M. J. Frisch, G. W. Trucks, H. B. Schlegel, G. E. Scuseria, 
 M. A. Robb, J. R. Cheeseman, G. Scalmani, V. Barone, 
 G. A. Petersson, H. Nakatsuji, X. Li, M. Caricato, A. V. Marenich, 
 J. Bloino, B. G. Janesko, R. Gomperts, B. Mennucci, H. P. Hratchian, 
 J. V. Ortiz, A. F. Izmaylov, J. L. Sonnenberg, D. Williams-Young, 
 F. Ding, F. Lipparini, F. Egidi, J. Goings, B. Peng, A. Petrone, 
 T. Henderson, D. Ranasinghe, V. G. Zakrzewski, J. Gao, N. Rega, 
 G. Zheng, W. Liang, M. Hada, M. Ehara, K. Toyota, R. Fukuda, 
 J. Hasegawa, M. Ishida, T. Nakajima, Y. Honda, O. Kitao, H. Nakai, 
 T. Vreven, K. Throssell, J. A. Montgomery, Jr., J. E. Peralta, 
 F. Ogliaro, M. J. Bearpark, J. J. Heyd, E. N. Brothers, K. N. Kudin, 
 V. N. Staroverov, T. A. Keith, R. Kobayashi, J. Normand, 
 K. Raghavachari, A. P. Rendell, J. C. Burant, S. S. Iyengar, 
 J. Tomasi, M. Cossi, J. M. Millam, M. Klene, C. Adamo, R. Cammi, 
 J. W. Ochterski, R. L. Martin, K. Morokuma, O. Farkas, 
 J. B. Foresman, and D. J. Fox, Gaussian, Inc., Wallingford CT, 2019.
 
 ******************************************
 Gaussian 16:  EM64W-G16RevC.01 30-May-2019
                11-Sep-2026 
 ******************************************
 %Chk=Cu4I4.chk
 %NProcShared=8
 Will use up to    8 processors via shared memory.
 %Mem=48GB
 ----------------------------------------------------------------------
 #P PBE1PBE/Def2SVP EmpiricalDispersion=GD3BJ SP SCF=(XQC,MaxCycle=128)
  NoSymm Guess=Read
 ----------------------------------------------------------------------
 1/38=1,172=1/1;
 2/12=2,15=1,17=6,18=5,40=1/2;
 3/5=43,7=101,11=2,25=1,30=1,74=-13,116=-2,124=41/1,2,3;
 4/5=1/1;
 5/5=2,7=128,8=3,13=1,38=6/2,8;
 6/7=2,8=2,9=2,10=2,28=1/1;
 99/5=1,9=1/99;
 Leave Link    1 at Fri Sep 11 21:01:11 2026, MaxMem=  6442450944 cpu:               0.0 elap:               0.3
 (Enter C:\G16W\l101.exe)
 --------------------------------------
 Cu4I4 t=0.500 dz=+0.00 class=site2site
 --------------------------------------
 Symbolic Z-matrix:
 Charge =  0 Multiplicity = 2
 Cu                    0.23556   0.23556   0.23556 
 Cu                    2.38444   2.38444   0.23556 
 Cu                    2.38444   0.23556   2.38444 
 Cu                    0.23556   2.38444   2.38444 
 I                     2.79766  -0.17766  -0.17766 
 I                    -0.17766   2.79766  -0.17766 
 I                    -0.17766  -0.17766   2.79766 
 I                     2.79766   2.79766   2.79766 
 Ag                    5.22722   1.26418   3.23487 
 
 ITRead=  0  0  0  0  0  0  0  0  0
 MicOpt= -1 -1 -1 -1 -1 -1 -1 -1 -1
 NAtoms=      9 NQM=        9 NQMF=       0 NMMI=      0 NMMIF=      0
                NMic=       0 NMicF=      0.
                    Isotopes and Nuclear Properties:
 (Nuclear quadrupole moments (NQMom) in fm**2, nuclear magnetic moments (NMagM)
  in nuclear magnetons)

  Atom         1           2           3           4           5           6           7           8           9
 IAtWgt=          63          63          63          63         127         127         127         127         107
 AtmWgt=  62.9295992  62.9295992  62.9295992  62.9295992 126.9004000 126.9004000 126.9004000 126.9004000 106.9050900
 NucSpn=           3           3           3           3           5           5           5           5           1
 AtZEff=   0.0000000   0.0000000   0.0000000   0.0000000   0.0000000   0.0000000   0.0000000   0.0000000   0.0000000
 NQMom=  -22.0000000 -22.0000000 -22.0000000 -22.0000000 -71.0000000 -71.0000000 -71.0000000 -71.0000000   0.0000000
 NMagM=    2.2233000   2.2233000   2.2233000   2.2233000   2.8132800   2.8132800   2.8132800   2.8132800  -0.1135700
 AtZNuc=  29.0000000  29.0000000  29.0000000  29.0000000  53.0000000  53.0000000  53.0000000  53.0000000  47.0000000
 Leave Link  101 at Fri Sep 11 21:01:11 2026, MaxMem=  6442450944 cpu:               0.0 elap:               0.3
 (Enter C:\G16W\l202.exe)
                          Input orientation:                          
 ---------------------------------------------------------------------
 Center     Atomic      Atomic             Coordinates (Angstroms)
 Number     Number       Type             X           Y           Z
 ---------------------------------------------------------------------
      1         29           0        0.235561    0.235561    0.235561
      2         29           0        2.384439    2.384439    0.235561
      3         29           0        2.384439    0.235561    2.384439
      4         29           0        0.235561    2.384439    2.384439
      5         53           0        2.797655   -0.177655   -0.177655
      6         53           0       -0.177655    2.797655   -0.177655
      7         53           0       -0.177655   -0.177655    2.797655
      8         53           0        2.797655    2.797655    2.797655
      9         47           0        5.227217    1.264176    3.234871
 ---------------------------------------------------------------------
                    Distance matrix (angstroms):
                    1          2          3          4          5
     1  Cu   0.000000
     2  Cu   3.038972   0.000000
     3  Cu   3.038972   3.038972   0.000000
     4  Cu   3.038972   3.038972   3.038972   0.000000
     5  I    2.627893   2.627893   2.627893   4.437677   0.000000
     6  I    2.627893   2.627893   4.437677   2.627893   4.207724
     7  I    2.627893   4.437677   2.627893   2.627893   4.207724
     8  I    4.437677   2.627893   2.627893   2.627893   4.207724
     9  Ag   5.913590   4.281617   3.140489   5.186025   4.430235
                    6          7          8          9
     6  I    0.000000
     7  I    4.207724   0.000000
     8  I    4.207724   4.207724   0.000000
     9  Ag   6.573396   5.610943   2.906112   0.000000
 Symmetry turned off by external request.
 This structure is nearly, but not quite of a higher symmetry.
 Consider Symm=Loose if the higher symmetry is desired.
 Stoichiometry    AgCu4I4(2)
 Framework group  C1[X(AgCu4I4)]
 Deg. of freedom    21
 Full point group                 C1      NOp   1
 Rotational constants (GHZ):           0.1787092           0.1095479           0.1095479
 Leave Link  202 at Fri Sep 11 21:01:12 2026, MaxMem=  6442450944 cpu:               0.0 elap:               0.1
 (Enter C:\G16W\l301.exe)
 Standard basis: def2SVP (5D, 7F)
 Ernie: Thresh=  0.10000D-02 Tol=  0.10000D-05 Strict=F.
   259 basis functions,   657 primitive gaussians,   292 cartesian basis functions
   118 alpha electrons      117 beta electrons
       nuclear repulsion energy      3940.7435428181 Hartrees.
 IExCor= 1009 DFT=T Ex+Corr=PBE1PBE ExCW=0 ScaHFX=  0.250000
 ScaDFX=  0.750000  0.750000  1.000000  1.000000 ScalE2=  1.000000  1.000000
 IRadAn=      5 IRanWt=     -1 IRanGd=            0 ICorTp=0 IEmpDi=141
 NAtoms=    9 NActive=    9 NUniq=    9 SFac= 1.00D+00 NAtFMM=   60 NAOKFM=F Big=F
 Integral buffers will be    131072 words long.
 Raffenetti 2 integral format.
 Two-electron integral symmetry is turned off.
 R6Disp:  Grimme-D3(BJ) Dispersion energy=       -0.0373094316 Hartrees.
 Nuclear repulsion after empirical dispersion term =     3940.7062333865 Hartrees.
 Leave Link  301 at Fri Sep 11 21:01:12 2026, MaxMem=  6442450944 cpu:               0.0 elap:               0.1
 (Enter C:\G16W\l302.exe)
 NPDir=0 NMtPBC=     1 NCelOv=     1 NCel=       1 NClECP=     1 NCelD=      1
         NCelK=      1 NCelE2=     1 NClLst=     1 CellRange=     0.0.
 One-electron integrals computed using PRISM.
   1 Symmetry operations used in ECPInt.
 ECPInt:  NShTT=    4560 NPrTT=   26181 LenC2=    4317 LenP2D=   16550.
 LDataN:  DoStor=T MaxTD1= 7 Len=  274
 NBasis=   259 RedAO= T EigKep=  1.26D-02  NBF=   259
 NBsUse=   259 1.00D-06 EigRej= -1.00D+00 NBFU=   259
 Precomputing XC quadrature grid using
 IXCGrd= 4 IRadAn=           5 IRanWt=          -1 IRanGd=           0 AccXCQ= 0.00D+00.
 Defaulting to unpruned grid for atomic number  53.
 Defaulting to unpruned grid for atomic number  53.
 Defaulting to unpruned grid for atomic number  47.
 Generated NRdTot=       0 NPtTot=           0 NUsed=           0 NTot=          32
 NSgBfM=   284   284   284   284   284 MxSgAt=     9 MxSgA2=     9.
 Leave Link  302 at Fri Sep 11 21:01:17 2026, MaxMem=  6442450944 cpu:               5.0 elap:               5.1
 (Enter C:\G16W\l303.exe)
 DipDrv:  MaxL=1.
 Leave Link  303 at Fri Sep 11 21:01:18 2026, MaxMem=  6442450944 cpu:               1.0 elap:               0.2
 (Enter C:\G16W\l401.exe)
 Initial guess from the checkpoint file:  "Cu4I4.chk"
 B after Tr=    -0.733204    0.344832   -0.180534
         Rot=    0.995404   -0.038486   -0.041342    0.077336 Ang= -10.99 deg.
 Guess basis will be translated and rotated to current coordinates.
 JPrj=2 DoOrth=T DoCkMO=T.
 Initial guess <Sx>= 0.0000 <Sy>= 0.0000 <Sz>= 0.5000 <S**2>= 0.7515 S= 0.5008
 Leave Link  401 at Fri Sep 11 21:01:25 2026, MaxMem=  6442450944 cpu:               7.0 elap:               6.9
 (Enter C:\G16W\l502.exe)
 Keep R1 and R2 ints in memory in canonical form, NReq=1146280170.
 FoFCou: FMM=F IPFlag=           0 FMFlag=           0 FMFlg1=           0
         NFxFlg=           0 DoJE=F BraDBF=F KetDBF=F FulRan=T
         wScrn=  0.000000 ICntrl=       600 IOpCl=  0 I1Cent=           0 NGrid=           0
         NMat0=    1 NMatS0=  33670 NMatT0=    0 NMatD0=    1 NMtDS0=    0 NMtDT0=    0
 Symmetry not used in FoFCou.
 Two-electron integral symmetry not used.
 UHF open shell SCF:
 Using DIIS extrapolation, IDIIS=  1040.
 NGot=  6442450944 LenX=  5308573398 LenY=  5308487693
 Requested convergence on RMS density matrix=1.00D-08 within 128 cycles.
 Requested convergence on MAX density matrix=1.00D-06.
 Requested convergence on             energy=1.00D-06.
 No special actions if energy rises.

 Cycle   1  Pass 1  IDiag  1:
 Defaulting to unpruned grid for atomic number  53.
 Defaulting to unpruned grid for atomic number  53.
 Defaulting to unpruned grid for atomic number  53.
 Defaulting to unpruned grid for atomic number  53.
 Defaulting to unpruned grid for atomic number  53.
 Defaulting to unpruned grid for atomic number  53.
 Defaulting to unpruned grid for atomic number  53.
 Defaulting to unpruned grid for atomic number  53.
 E= -7898.32928430119    
 DIIS: error= 1.85D-02 at cycle   1 NSaved=   1.
 NSaved= 1 IEnMin= 1 EnMin= -7898.32928430119     IErMin= 1 ErrMin= 1.85D-02
 ErrMax= 1.85D-02  0.00D+00 EMaxC= 1.00D-01 BMatC= 2.95D-01 BMatP= 2.95D-01
 IDIUse=3 WtCom= 8.15D-01 WtEn= 1.85D-01
 Coeff-Com:  0.100D+01
 Coeff-En:   0.100D+01
 Coeff:      0.100D+01
 Gap=     0.136 Goal=   None    Shift=    0.000
 Gap=     0.171 Goal=   None    Shift=    0.000
 GapD=    0.136 DampG=1.000 DampE=0.250 DampFc=0.2500 IDamp=-1.
 Damping current iteration by 2.50D-01
 RMSDP=1.99D-03 MaxDP=9.06D-02              OVMax= 1.46D-01

 Cycle   2  Pass 1  IDiag  1:
 E= -7898.34061391376     Delta-E=       -0.011329612575 Rises=F Damp=T
 DIIS: error= 1.38D-02 at cycle   2 NSaved=   2.
 NSaved= 2 IEnMin= 2 EnMin= -7898.34061391376     IErMin= 2 ErrMin= 1.38D-02
 ErrMax= 1.38D-02  0.00D+00 EMaxC= 1.00D-01 BMatC= 1.66D-01 BMatP= 2.95D-01
 IDIUse=3 WtCom= 8.62D-01 WtEn= 1.38D-01
 Coeff-Com: -0.282D+01 0.382D+01
 Coeff-En:   0.000D+00 0.100D+01
 Coeff:     -0.243D+01 0.343D+01
 Gap=     0.107 Goal=   None    Shift=    0.000
 Gap=     0.146 Goal=   None    Shift=    0.000
 RMSDP=1.65D-03 MaxDP=6.80D-02 DE=-1.13D-02 OVMax= 2.42D-02

 Cycle   3  Pass 1  IDiag  1:
 E= -7898.37603574988     Delta-E=       -0.035421836117 Rises=F Damp=F
 DIIS: error= 2.96D-03 at cycle   3 NSaved=   3.
 NSaved= 3 IEnMin= 3 EnMin= -7898.37603574988     IErMin= 3 ErrMin= 2.96D-03
 ErrMax= 2.96D-03  0.00D+00 EMaxC= 1.00D-01 BMatC= 1.66D-02 BMatP= 1.66D-01
 IDIUse=3 WtCom= 9.70D-01 WtEn= 2.96D-02
 Coeff-Com: -0.159D+01 0.212D+01 0.476D+00
 Coeff-En:   0.000D+00 0.000D+00 0.100D+01
 Coeff:     -0.155D+01 0.205D+01 0.492D+00
 Gap=     0.107 Goal=   None    Shift=    0.000
 Gap=     0.139 Goal=   None    Shift=    0.000
 RMSDP=2.54D-04 MaxDP=1.27D-02 DE=-3.54D-02 OVMax= 1.76D-02

 Cycle   4  Pass 1  IDiag  1:
 E= -7898.37833826177     Delta-E=       -0.002302511892 Rises=F Damp=F
 DIIS: error= 1.18D-03 at cycle   4 NSaved=   4.
 NSaved= 4 IEnMin= 4 EnMin= -7898.37833826177     IErMin= 4 ErrMin= 1.18D-03
 ErrMax= 1.18D-03  0.00D+00 EMaxC= 1.00D-01 BMatC= 2.32D-03 BMatP= 1.66D-02
 IDIUse=3 WtCom= 9.88D-01 WtEn= 1.18D-02
 Coeff-Com: -0.717D+00 0.948D+00 0.322D+00 0.447D+00
 Coeff-En:   0.000D+00 0.000D+00 0.687D-01 0.931D+00
 Coeff:     -0.708D+00 0.937D+00 0.319D+00 0.453D+00
 Gap=     0.106 Goal=   None    Shift=    0.000
 Gap=     0.141 Goal=   None    Shift=    0.000
 RMSDP=9.83D-05 MaxDP=5.93D-03 DE=-2.30D-03 OVMax= 1.02D-02

 Cycle   5  Pass 1  IDiag  1:
 E= -7898.37869666307     Delta-E=       -0.000358401297 Rises=F Damp=F
 DIIS: error= 1.53D-04 at cycle   5 NSaved=   5.
 NSaved= 5 IEnMin= 5 EnMin= -7898.37869666307     IErMin= 5 ErrMin= 1.53D-04
 ErrMax= 1.53D-04  0.00D+00 EMaxC= 1.00D-01 BMatC= 8.83D-05 BMatP= 2.32D-03
 IDIUse=3 WtCom= 9.98D-01 WtEn= 1.53D-03
 Coeff-Com:  0.528D-01-0.713D-01 0.416D-01 0.187D+00 0.790D+00
 Coeff-En:   0.000D+00 0.000D+00 0.000D+00 0.000D+00 0.100D+01
 Coeff:      0.527D-01-0.712D-01 0.415D-01 0.186D+00 0.791D+00
 Gap=     0.107 Goal=   None    Shift=    0.000
 Gap=     0.140 Goal=   None    Shift=    0.000
 RMSDP=4.74D-05 MaxDP=1.92D-03 DE=-3.58D-04 OVMax= 5.21D-03

 Cycle   6  Pass 1  IDiag  1:
 E= -7898.37872995786     Delta-E=       -0.000033294789 Rises=F Damp=F
 DIIS: error= 6.54D-05 at cycle   6 NSaved=   6.
 NSaved= 6 IEnMin= 6 EnMin= -7898.37872995786     IErMin= 6 ErrMin= 6.54D-05
 ErrMax= 6.54D-05  0.00D+00 EMaxC= 1.00D-01 BMatC= 2.51D-05 BMatP= 8.83D-05
 IDIUse=1 WtCom= 1.00D+00 WtEn= 0.00D+00
 Coeff-Com:  0.129D+00-0.172D+00-0.108D-01 0.647D-01 0.476D+00 0.513D+00
 Coeff:      0.129D+00-0.172D+00-0.108D-01 0.647D-01 0.476D+00 0.513D+00
 Gap=     0.107 Goal=   None    Shift=    0.000
 Gap=     0.140 Goal=   None    Shift=    0.000
 RMSDP=1.80D-05 MaxDP=1.73D-03 DE=-3.33D-05 OVMax= 2.76D-03

 Cycle   7  Pass 1  IDiag  1:
 E= -7898.37873653932     Delta-E=       -0.000006581467 Rises=F Damp=F
 DIIS: error= 3.79D-05 at cycle   7 NSaved=   7.
 NSaved= 7 IEnMin= 7 EnMin= -7898.37873653932     IErMin= 7 ErrMin= 3.79D-05
 ErrMax= 3.79D-05  0.00D+00 EMaxC= 1.00D-01 BMatC= 5.11D-06 BMatP= 2.51D-05
 IDIUse=1 WtCom= 1.00D+00 WtEn= 0.00D+00
 Coeff-Com:  0.782D-01-0.104D+00-0.136D-01 0.129D-01 0.167D+00 0.327D+00
 Coeff-Com:  0.532D+00
 Coeff:      0.782D-01-0.104D+00-0.136D-01 0.129D-01 0.167D+00 0.327D+00
 Coeff:      0.532D+00
 Gap=     0.106 Goal=   None    Shift=    0.000
 Gap=     0.140 Goal=   None    Shift=    0.000
 RMSDP=8.30D-06 MaxDP=7.79D-04 DE=-6.58D-06 OVMax= 1.30D-03

 Cycle   8  Pass 1  IDiag  1:
 E= -7898.37873793470     Delta-E=       -0.000001395380 Rises=F Damp=F
 DIIS: error= 1.31D-05 at cycle   8 NSaved=   8.
 NSaved= 8 IEnMin= 8 EnMin= -7898.37873793470     IErMin= 8 ErrMin= 1.31D-05
 ErrMax= 1.31D-05  0.00D+00 EMaxC= 1.00D-01 BMatC= 7.32D-07 BMatP= 5.11D-06
 IDIUse=1 WtCom= 1.00D+00 WtEn= 0.00D+00
 Coeff-Com: -0.810D-02 0.109D-01-0.123D-02-0.116D-01-0.109D+00-0.420D-01
 Coeff-Com:  0.243D+00 0.917D+00
 Coeff:     -0.810D-02 0.109D-01-0.123D-02-0.116D-01-0.109D+00-0.420D-01
 Coeff:      0.243D+00 0.917D+00
 Gap=     0.107 Goal=   None    Shift=    0.000
 Gap=     0.140 Goal=   None    Shift=    0.000
 RMSDP=7.62D-06 MaxDP=4.61D-04 DE=-1.40D-06 OVMax= 1.23D-03

 Cycle   9  Pass 1  IDiag  1:
 E= -7898.37873840213     Delta-E=       -0.000000467426 Rises=F Damp=F
 DIIS: error= 4.52D-06 at cycle   9 NSaved=   9.
 NSaved= 9 IEnMin= 9 EnMin= -7898.37873840213     IErMin= 9 ErrMin= 4.52D-06
 ErrMax= 4.52D-06  0.00D+00 EMaxC= 1.00D-01 BMatC= 9.55D-08 BMatP= 7.32D-07
 IDIUse=1 WtCom= 1.00D+00 WtEn= 0.00D+00
 Coeff-Com: -0.114D-01 0.152D-01 0.114D-02-0.546D-02-0.662D-01-0.477D-01
 Coeff-Com:  0.495D-01 0.440D+00 0.625D+00
 Coeff:     -0.114D-01 0.152D-01 0.114D-02-0.546D-02-0.662D-01-0.477D-01
 Coeff:      0.495D-01 0.440D+00 0.625D+00
 Gap=     0.107 Goal=   None    Shift=    0.000
 Gap=     0.140 Goal=   None    Shift=    0.000
 RMSDP=1.56D-06 MaxDP=1.38D-04 DE=-4.67D-07 OVMax= 1.96D-04

 Cycle  10  Pass 1  IDiag  1:
 E= -7898.37873844143     Delta-E=       -0.000000039297 Rises=F Damp=F
 DIIS: error= 1.57D-06 at cycle  10 NSaved=  10.
 NSaved=10 IEnMin=10 EnMin= -7898.37873844143     IErMin=10 ErrMin= 1.57D-06
 ErrMax= 1.57D-06  0.00D+00 EMaxC= 1.00D-01 BMatC= 9.12D-09 BMatP= 9.55D-08
 IDIUse=1 WtCom= 1.00D+00 WtEn= 0.00D+00
 Coeff-Com: -0.358D-02 0.476D-02 0.679D-03-0.348D-03-0.131D-01-0.124D-01
 Coeff-Com: -0.741D-02 0.594D-01 0.250D+00 0.722D+00
 Coeff:     -0.358D-02 0.476D-02 0.679D-03-0.348D-03-0.131D-01-0.124D-01
 Coeff:     -0.741D-02 0.594D-01 0.250D+00 0.722D+00
 Gap=     0.107 Goal=   None    Shift=    0.000
 Gap=     0.140 Goal=   None    Shift=    0.000
 RMSDP=5.03D-07 MaxDP=2.61D-05 DE=-3.93D-08 OVMax= 5.67D-05

 Cycle  11  Pass 1  IDiag  1:
 E= -7898.37873844507     Delta-E=       -0.000000003645 Rises=F Damp=F
 DIIS: error= 1.61D-06 at cycle  11 NSaved=  11.
 NSaved=11 IEnMin=11 EnMin= -7898.37873844507     IErMin=10 ErrMin= 1.57D-06
 ErrMax= 1.61D-06  0.00D+00 EMaxC= 1.00D-01 BMatC= 5.37D-09 BMatP= 9.12D-09
 IDIUse=1 WtCom= 1.00D+00 WtEn= 0.00D+00
 Coeff-Com: -0.353D-03 0.465D-03 0.261D-03 0.848D-03 0.348D-02 0.645D-03
 Coeff-Com: -0.162D-01-0.452D-01 0.547D-01 0.492D+00 0.510D+00
 Coeff:     -0.353D-03 0.465D-03 0.261D-03 0.848D-03 0.348D-02 0.645D-03
 Coeff:     -0.162D-01-0.452D-01 0.547D-01 0.492D+00 0.510D+00
 Gap=     0.107 Goal=   None    Shift=    0.000
 Gap=     0.140 Goal=   None    Shift=    0.000
 RMSDP=2.14D-07 MaxDP=1.14D-05 DE=-3.65D-09 OVMax= 1.77D-05

 Cycle  12  Pass 1  IDiag  1:
 E= -7898.37873844598     Delta-E=       -0.000000000908 Rises=F Damp=F
 DIIS: error= 5.41D-07 at cycle  12 NSaved=  12.
 NSaved=12 IEnMin=12 EnMin= -7898.37873844598     IErMin=12 ErrMin= 5.41D-07
 ErrMax= 5.41D-07  0.00D+00 EMaxC= 1.00D-01 BMatC= 6.51D-10 BMatP= 5.37D-09
 IDIUse=1 WtCom= 1.00D+00 WtEn= 0.00D+00
 Coeff-Com:  0.614D-03-0.819D-03-0.118D-05 0.569D-03 0.479D-02 0.323D-02
 Coeff-Com: -0.840D-02-0.381D-01-0.277D-01 0.113D+00 0.290D+00 0.663D+00
 Coeff:      0.614D-03-0.819D-03-0.118D-05 0.569D-03 0.479D-02 0.323D-02
 Coeff:     -0.840D-02-0.381D-01-0.277D-01 0.113D+00 0.290D+00 0.663D+00
 Gap=     0.107 Goal=   None    Shift=    0.000
 Gap=     0.140 Goal=   None    Shift=    0.000
 RMSDP=1.08D-07 MaxDP=6.11D-06 DE=-9.08D-10 OVMax= 7.35D-06

 Cycle  13  Pass 1  IDiag  1:
 E= -7898.37873844637     Delta-E=       -0.000000000391 Rises=F Damp=F
 DIIS: error= 1.01D-07 at cycle  13 NSaved=  13.
 NSaved=13 IEnMin=13 EnMin= -7898.37873844637     IErMin=13 ErrMin= 1.01D-07
 ErrMax= 1.01D-07  0.00D+00 EMaxC= 1.00D-01 BMatC= 5.08D-11 BMatP= 6.51D-10
 IDIUse=1 WtCom= 1.00D+00 WtEn= 0.00D+00
 Coeff-Com:  0.316D-03-0.421D-03-0.389D-04 0.104D-03 0.137D-02 0.121D-02
 Coeff-Com: -0.573D-03-0.694D-02-0.182D-01-0.288D-01 0.348D-01 0.253D+00
 Coeff-Com:  0.764D+00
 Coeff:      0.316D-03-0.421D-03-0.389D-04 0.104D-03 0.137D-02 0.121D-02
 Coeff:     -0.573D-03-0.694D-02-0.182D-01-0.288D-01 0.348D-01 0.253D+00
 Coeff:      0.764D+00
 Gap=     0.107 Goal=   None    Shift=    0.000
 Gap=     0.140 Goal=   None    Shift=    0.000
 RMSDP=4.00D-08 MaxDP=2.88D-06 DE=-3.91D-10 OVMax= 1.99D-06

 Cycle  14  Pass 1  IDiag  1:
 E= -7898.37873844636     Delta-E=        0.000000000015 Rises=F Damp=F
 DIIS: error= 3.78D-08 at cycle  14 NSaved=  14.
 NSaved=14 IEnMin=13 EnMin= -7898.37873844637     IErMin=14 ErrMin= 3.78D-08
 ErrMax= 3.78D-08  0.00D+00 EMaxC= 1.00D-01 BMatC= 5.23D-12 BMatP= 5.08D-11
 IDIUse=1 WtCom= 1.00D+00 WtEn= 0.00D+00
 Coeff-Com:  0.951D-06-0.106D-05-0.102D-04-0.482D-04-0.260D-03-0.145D-03
 Coeff-Com:  0.943D-03 0.298D-02-0.133D-02-0.234D-01-0.300D-01-0.189D-01
 Coeff-Com:  0.232D+00 0.838D+00
 Coeff:      0.951D-06-0.106D-05-0.102D-04-0.482D-04-0.260D-03-0.145D-03
 Coeff:      0.943D-03 0.298D-02-0.133D-02-0.234D-01-0.300D-01-0.189D-01
 Coeff:      0.232D+00 0.838D+00
 Gap=     0.107 Goal=   None    Shift=    0.000
 Gap=     0.140 Goal=   None    Shift=    0.000
 RMSDP=1.58D-08 MaxDP=7.12D-07 DE= 1.46D-11 OVMax= 9.13D-07

 Cycle  15  Pass 1  IDiag  1:
 E= -7898.37873844651     Delta-E=       -0.000000000156 Rises=F Damp=F
 DIIS: error= 1.36D-08 at cycle  15 NSaved=  15.
 NSaved=15 IEnMin=15 EnMin= -7898.37873844651     IErMin=15 ErrMin= 1.36D-08
 ErrMax= 1.36D-08  0.00D+00 EMaxC= 1.00D-01 BMatC= 1.19D-12 BMatP= 5.23D-12
 IDIUse=1 WtCom= 1.00D+00 WtEn= 0.00D+00
 Coeff-Com: -0.278D-04 0.372D-04-0.198D-05-0.355D-04-0.252D-03-0.187D-03
 Coeff-Com:  0.487D-03 0.201D-02 0.126D-02-0.814D-02-0.173D-01-0.337D-01
 Coeff-Com:  0.351D-01 0.401D+00 0.620D+00
 Coeff:     -0.278D-04 0.372D-04-0.198D-05-0.355D-04-0.252D-03-0.187D-03
 Coeff:      0.487D-03 0.201D-02 0.126D-02-0.814D-02-0.173D-01-0.337D-01
 Coeff:      0.351D-01 0.401D+00 0.620D+00
 Gap=     0.107 Goal=   None    Shift=    0.000
 Gap=     0.140 Goal=   None    Shift=    0.000
 RMSDP=4.68D-09 MaxDP=2.45D-07 DE=-1.56D-10 OVMax= 3.01D-07

 SCF Done:  E(UPBE1PBE) =  -7898.37873845     A.U. after   15 cycles
            NFock= 15  Conv=0.47D-08     -V/T= 2.1189
 <Sx>= 0.0000 <Sy>= 0.0000 <Sz>= 0.5000 <S**2>= 0.7520 S= 0.5010
 <L.S>= 0.000000000000E+00
 KE= 7.058989332074D+03 PE=-2.642002565328D+04 EE= 7.521951349376D+03
 Annihilation of the first spin contaminant:
 S**2 before annihilation     0.7520,   after     0.7500
 Leave Link  502 at Fri Sep 11 21:04:20 2026, MaxMem=  6442450944 cpu:             175.0 elap:             175.1
 (Enter C:\G16W\l508.exe)
 QCSCF skips out because SCF is already converged.
 Leave Link  508 at Fri Sep 11 21:04:21 2026, MaxMem=  6442450944 cpu:               0.0 elap:               0.1
 (Enter C:\G16W\l601.exe)
 Copying SCF densities to generalized density rwf, IOpCl= 1 IROHF=0.

 **********************************************************************

            Population analysis using the SCF Density.

 **********************************************************************

 Alpha  occ. eigenvalues -- -323.34471-323.34189-323.34173-323.33673 -38.94514
 Alpha  occ. eigenvalues --  -38.94224 -38.94204 -38.93705 -34.12695 -34.12528
 Alpha  occ. eigenvalues --  -34.12457 -34.12397 -34.12379 -34.12218 -34.12191
 Alpha  occ. eigenvalues --  -34.12188 -34.12177 -34.11896 -34.11679 -34.11675
 Alpha  occ. eigenvalues --   -6.91490  -6.90148  -6.90018  -6.89831  -4.92389
 Alpha  occ. eigenvalues --   -4.92236  -4.92129  -4.91000  -4.90870  -4.90870
 Alpha  occ. eigenvalues --   -4.90864  -4.90740  -4.90734  -4.90682  -4.90556
 Alpha  occ. eigenvalues --   -4.90544  -4.34341  -4.34193  -4.34167  -4.33680
 Alpha  occ. eigenvalues --   -3.76474  -2.82503  -2.82348  -2.82339  -2.82329
 Alpha  occ. eigenvalues --   -2.82206  -2.82191  -2.82137  -2.82118  -2.82110
 Alpha  occ. eigenvalues --   -2.81871  -2.81630  -2.81625  -2.34492  -2.34402
 Alpha  occ. eigenvalues --   -2.34318  -1.95171  -1.95133  -1.95034  -1.94919
 Alpha  occ. eigenvalues --   -1.94894  -1.93754  -1.93730  -1.93730  -1.93625
 Alpha  occ. eigenvalues --   -1.93604  -1.93598  -1.93594  -1.93590  -1.93462
 Alpha  occ. eigenvalues --   -1.93460  -1.93438  -1.93420  -1.93409  -1.93275
 Alpha  occ. eigenvalues --   -1.93273  -0.73367  -0.71802  -0.71089  -0.70906
 Alpha  occ. eigenvalues --   -0.39932  -0.38499  -0.36924  -0.36889  -0.35455
 Alpha  occ. eigenvalues --   -0.34879  -0.34801  -0.34160  -0.34041  -0.33805
 Alpha  occ. eigenvalues --   -0.33742  -0.33594  -0.33145  -0.32914  -0.32728
 Alpha  occ. eigenvalues --   -0.32656  -0.32068  -0.30333  -0.29698  -0.29685
 Alpha  occ. eigenvalues --   -0.29153  -0.29131  -0.29075  -0.28736  -0.28473
 Alpha  occ. eigenvalues --   -0.28417  -0.28210  -0.28205  -0.26954  -0.26749
 Alpha  occ. eigenvalues --   -0.26661  -0.25346  -0.25102  -0.25058  -0.23933
 Alpha  occ. eigenvalues --   -0.23697  -0.23564  -0.16862
 Alpha virt. eigenvalues --   -0.06210  -0.04832  -0.03691  -0.03326  -0.00752
 Alpha virt. eigenvalues --    0.01211   0.02940   0.03428   0.04399   0.04768
 Alpha virt. eigenvalues --    0.05360   0.09605   0.11440   0.11607   0.11739
 Alpha virt. eigenvalues --    0.12323   0.12589   0.15751   0.16166   0.16386
 Alpha virt. eigenvalues --    0.17516   0.23867   0.24265   0.24961   0.29187
 Alpha virt. eigenvalues --    0.31366   0.33203   0.34963   0.35257   0.35757
 Alpha virt. eigenvalues --    0.36028   0.36735   0.37090   0.37352   0.38076
 Alpha virt. eigenvalues --    0.38184   0.39338   0.39959   0.40791   0.41377
 Alpha virt. eigenvalues --    0.42239   0.43207   0.44140   0.45763   0.45889
 Alpha virt. eigenvalues --    0.46391   0.46957   0.48428   0.50173   0.51544
 Alpha virt. eigenvalues --    0.52180   0.53984   0.54330   0.58129   0.60464
 Alpha virt. eigenvalues --    0.61655   0.63054   0.63355   0.64135   0.64752
 Alpha virt. eigenvalues --    0.66668   0.73634   0.75130   0.79073   0.81104
 Alpha virt. eigenvalues --    0.82706   0.82964   0.84498   1.02227   1.03196
 Alpha virt. eigenvalues --    1.08138   1.08297   1.09010   1.21587   1.21635
 Alpha virt. eigenvalues --    1.22349   1.23104   1.26842   1.27400   1.27848
 Alpha virt. eigenvalues --    1.28102   1.28850   1.34257   1.34314   1.34797
 Alpha virt. eigenvalues --    1.46432   1.46772   1.47882   2.06384   2.61075
 Alpha virt. eigenvalues --    2.61112   2.61151   2.61216   2.61237   2.61252
 Alpha virt. eigenvalues --    2.61745   5.81220   5.81274   5.81283   5.81294
 Alpha virt. eigenvalues --    5.81302   5.81327   5.81337   5.81351   5.81360
 Alpha virt. eigenvalues --    5.81380   5.81413   5.81427   5.81447   5.81508
 Alpha virt. eigenvalues --    5.81527   5.81542   5.81568   5.81695   5.81738
 Alpha virt. eigenvalues --    5.81764   5.81775   5.81812   5.81819   5.82015
 Alpha virt. eigenvalues --    5.82052   5.82092   5.82096   5.82404  18.64513
 Alpha virt. eigenvalues --   18.70161  18.71977  18.72335  18.73676  18.74644
 Alpha virt. eigenvalues --   18.76059  18.77150  18.84689  18.91773  18.93218
 Alpha virt. eigenvalues --   19.04324  53.81711  56.19590  56.20082  56.22537
 Alpha virt. eigenvalues --   56.30005
  Beta  occ. eigenvalues -- -323.34468-323.34183-323.34173-323.33672 -38.94490
  Beta  occ. eigenvalues --  -38.94218 -38.94200 -38.93705 -34.12668 -34.12503
  Beta  occ. eigenvalues --  -34.12447 -34.12396 -34.12378 -34.12212 -34.12187
  Beta  occ. eigenvalues --  -34.12182 -34.12172 -34.11895 -34.11680 -34.11675
  Beta  occ. eigenvalues --   -6.91435  -6.90144  -6.90018  -6.89826  -4.92320
  Beta  occ. eigenvalues --   -4.92190  -4.92096  -4.90993  -4.90871  -4.90867
  Beta  occ. eigenvalues --   -4.90862  -4.90741  -4.90734  -4.90679  -4.90553
  Beta  occ. eigenvalues --   -4.90536  -4.34288  -4.34175  -4.34159  -4.33679
  Beta  occ. eigenvalues --   -3.76351  -2.82407  -2.82351  -2.82328  -2.82286
  Beta  occ. eigenvalues --   -2.82185  -2.82144  -2.82128  -2.82111  -2.82096
  Beta  occ. eigenvalues --   -2.81871  -2.81631  -2.81621  -2.34462  -2.34327
  Beta  occ. eigenvalues --   -2.34267  -1.95098  -1.95064  -1.94978  -1.94874
  Beta  occ. eigenvalues --   -1.94850  -1.93748  -1.93725  -1.93724  -1.93625
  Beta  occ. eigenvalues --   -1.93605  -1.93598  -1.93591  -1.93588  -1.93463
  Beta  occ. eigenvalues --   -1.93461  -1.93433  -1.93417  -1.93402  -1.93269
  Beta  occ. eigenvalues --   -1.93266  -0.73100  -0.71722  -0.71076  -0.70881
  Beta  occ. eigenvalues --   -0.39786  -0.38027  -0.36834  -0.36802  -0.35323
  Beta  occ. eigenvalues --   -0.34733  -0.34657  -0.34034  -0.33889  -0.33408
  Beta  occ. eigenvalues --   -0.33288  -0.33122  -0.33022  -0.32767  -0.32690
  Beta  occ. eigenvalues --   -0.32477  -0.31606  -0.30294  -0.29648  -0.29646
  Beta  occ. eigenvalues --   -0.29123  -0.29099  -0.29053  -0.28547  -0.28434
  Beta  occ. eigenvalues --   -0.28384  -0.28195  -0.28175  -0.26807  -0.26724
  Beta  occ. eigenvalues --   -0.26604  -0.25204  -0.25065  -0.25006  -0.23834
  Beta  occ. eigenvalues --   -0.23625  -0.23527
  Beta virt. eigenvalues --   -0.09540  -0.05395  -0.03954  -0.03471  -0.02924
  Beta virt. eigenvalues --    0.01122   0.02076   0.04039   0.04320   0.04769
  Beta virt. eigenvalues --    0.05542   0.05575   0.10320   0.11658   0.11737
  Beta virt. eigenvalues --    0.12044   0.12642   0.13046   0.16032   0.16349
  Beta virt. eigenvalues --    0.16618   0.18204   0.24364   0.24435   0.25218
  Beta virt. eigenvalues --    0.30587   0.32391   0.34462   0.35159   0.35752
  Beta virt. eigenvalues --    0.36150   0.36625   0.37170   0.37491   0.38011
  Beta virt. eigenvalues --    0.38163   0.38243   0.39601   0.40272   0.41019
  Beta virt. eigenvalues --    0.41817   0.42547   0.43856   0.44582   0.45939
  Beta virt. eigenvalues --    0.46117   0.46589   0.47174   0.49502   0.50615
  Beta virt. eigenvalues --    0.51947   0.52512   0.54585   0.55448   0.59102
  Beta virt. eigenvalues --    0.61556   0.61820   0.63107   0.63545   0.64348
  Beta virt. eigenvalues --    0.65003   0.67219   0.73714   0.75295   0.79283
  Beta virt. eigenvalues --    0.81615   0.82754   0.83133   0.84791   1.02280
  Beta virt. eigenvalues --    1.03282   1.08199   1.08366   1.09091   1.21641
  Beta virt. eigenvalues --    1.21680   1.22423   1.23179   1.26885   1.27462
  Beta virt. eigenvalues --    1.27882   1.28172   1.28921   1.34305   1.34358
  Beta virt. eigenvalues --    1.34863   1.46466   1.46817   1.47961   2.07511
  Beta virt. eigenvalues --    2.61140   2.61159   2.61211   2.61243   2.61250
  Beta virt. eigenvalues --    2.61289   2.61868   5.81272   5.81282   5.81297
  Beta virt. eigenvalues --    5.81304   5.81316   5.81341   5.81357   5.81364
  Beta virt. eigenvalues --    5.81375   5.81397   5.81436   5.81439   5.81463
  Beta virt. eigenvalues --    5.81528   5.81537   5.81565   5.81588   5.81705
  Beta virt. eigenvalues --    5.81762   5.81776   5.81788   5.81814   5.81821
  Beta virt. eigenvalues --    5.82016   5.82068   5.82095   5.82099   5.82408
  Beta virt. eigenvalues --   18.64529  18.70165  18.72003  18.72340  18.73681
  Beta virt. eigenvalues --   18.74656  18.76075  18.77180  18.84750  18.91781
  Beta virt. eigenvalues --   18.93246  19.04393  53.81852  56.19593  56.20085
  Beta virt. eigenvalues --   56.22539  56.30048
          Condensed to atoms (all electrons):
               1          2          3          4          5          6
     1  Cu  28.265192   0.027881   0.023098   0.031615   0.157358   0.153230
     2  Cu   0.027881  28.254530   0.035665   0.030967   0.159891   0.158077
     3  Cu   0.023098   0.035665  28.254423   0.026715   0.151352   0.001094
     4  Cu   0.031615   0.030967   0.026715  28.273562   0.000634   0.155830
     5  I    0.157358   0.159891   0.151352   0.000634  24.777255  -0.030442
     6  I    0.153230   0.158077   0.001094   0.155830  -0.030442  24.794156
     7  I    0.155106   0.000282   0.164063   0.159332  -0.030717  -0.030596
     8  I    0.000912   0.142835   0.121766   0.137560  -0.029582  -0.028223
     9  Ag   0.004060   0.004440   0.046123   0.008959   0.001695  -0.000456
               7          8          9
     1  Cu   0.155106   0.000912   0.004060
     2  Cu   0.000282   0.142835   0.004440
     3  Cu   0.164063   0.121766   0.046123
     4  Cu   0.159332   0.137560   0.008959
     5  I   -0.030717  -0.029582   0.001695
     6  I   -0.030596  -0.028223  -0.000456
     7  I   24.781322  -0.028148  -0.002269
     8  I   -0.028148  24.811060  -0.016544
     9  Ag  -0.002269  -0.016544  19.061373
          Atomic-Atomic Spin Densities.
               1          2          3          4          5          6
     1  Cu   0.002766   0.000428   0.000778   0.000976   0.000110   0.000053
     2  Cu   0.000428   0.002238   0.001306   0.001524  -0.000267  -0.000397
     3  Cu   0.000778   0.001306   0.022285   0.001778  -0.003411  -0.000475
     4  Cu   0.000976   0.001524   0.001778   0.032580  -0.000464  -0.006695
     5  I    0.000110  -0.000267  -0.003411  -0.000464   0.013876  -0.000031
     6  I    0.000053  -0.000397  -0.000475  -0.006695  -0.000031   0.013235
     7  I   -0.000005  -0.000241   0.000619  -0.001923   0.000028   0.000199
     8  I   -0.000478  -0.003337  -0.014231   0.004276   0.001995  -0.001437
     9  Ag   0.001483   0.007989   0.033931   0.007678  -0.008094  -0.000393
               7          8          9
     1  Cu  -0.000005  -0.000478   0.001483
     2  Cu  -0.000241  -0.003337   0.007989
     3  Cu   0.000619  -0.014231   0.033931
     4  Cu  -0.001923   0.004276   0.007678
     5  I    0.000028   0.001995  -0.008094
     6  I    0.000199  -0.001437  -0.000393
     7  I   -0.000663   0.000554  -0.000757
     8  I    0.000554   0.187938  -0.130087
     9  Ag  -0.000757  -0.130087   0.939780
 Mulliken charges and spin densities:
               1          2
     1  Cu   0.181548   0.006110
     2  Cu   0.185432   0.009242
     3  Cu   0.175700   0.042582
     4  Cu   0.174826   0.039730
     5  I   -0.157443   0.003741
     6  I   -0.172670   0.004059
     7  I   -0.168376  -0.002189
     8  I   -0.111636   0.045193
     9  Ag  -0.107380   0.851532
 Sum of Mulliken charges =   0.00000   1.00000
 Mulliken charges and spin densities with hydrogens summed into heavy atoms:
               1          2
     1  Cu   0.181548   0.006110
     2  Cu   0.185432   0.009242
     3  Cu   0.175700   0.042582
     4  Cu   0.174826   0.039730
     5  I   -0.157443   0.003741
     6  I   -0.172670   0.004059
     7  I   -0.168376  -0.002189
     8  I   -0.111636   0.045193
     9  Ag  -0.107380   0.851532
 Electronic spatial extent (au):  <R**2>=          10851.0846
 Charge=              0.0000 electrons
 Dipole moment (field-independent basis, Debye):
    X=             -1.4009    Y=              1.0434    Z=             -0.5433  Tot=              1.8293
 Quadrupole moment (field-independent basis, Debye-Ang):
   XX=           -187.2805   YY=           -174.0541   ZZ=           -179.3476
   XY=              3.2110   XZ=             -5.6010   YZ=              2.8390
 Traceless Quadrupole moment (field-independent basis, Debye-Ang):
   XX=             -7.0531   YY=              6.1733   ZZ=              0.8798
   XY=              3.2110   XZ=             -5.6010   YZ=              2.8390
 Octapole moment (field-independent basis, Debye-Ang**2):
  XXX=          -1005.2959  YYY=           -683.3792  ZZZ=           -824.5665  XYY=           -303.3659
  XXY=           -219.4685  XXZ=           -308.7197  XZZ=           -333.1865  YZZ=           -221.5773
  YYZ=           -263.9316  XYZ=            -13.2794
 Hexadecapole moment (field-independent basis, Debye-Ang**3):
 XXXX=          -7408.6996 YYYY=          -3768.9792 ZZZZ=          -4934.2615 XXXY=          -1167.0600
 XXXZ=          -2083.0563 YYYX=          -1179.3228 YYYZ=          -1030.9562 ZZZX=          -1928.3760
 ZZZY=          -1023.8802 XXYY=          -1756.2127 XXZZ=          -2105.6736 YYZZ=          -1418.1763
 XXYZ=           -378.2449 YYXZ=           -651.0488 ZZXY=           -432.3101
 N-N= 3.940706233387D+03 E-N=-2.642002567160D+04  KE= 7.058989332074D+03
                          Isotropic Fermi Contact Couplings
        Atom                 a.u.       MegaHertz       Gauss      10(-4) cm-1
     1  Cu(63)             0.01046      12.41206       4.42893       4.14022
     2  Cu(63)            -0.00358      -4.24068      -1.51318      -1.41454
     3  Cu(63)             0.03525      41.81288      14.91988      13.94728
     4  Cu(63)             0.13331     158.11576      56.41964      52.74174
     5  I(127)             0.00001       0.01079       0.00385       0.00360
     6  I(127)             0.00001       0.00928       0.00331       0.00310
     7  I(127)             0.00000       0.00200       0.00071       0.00067
     8  I(127)             0.00016       0.14754       0.05264       0.04921
     9  Ag(107             0.00027      -0.04990      -0.01780      -0.01664
 --------------------------------------------------------
       Center         ----  Spin Dipole Couplings  ----
                      3XX-RR        3YY-RR        3ZZ-RR
 --------------------------------------------------------
     1   Atom       -0.001154     -0.000483      0.001637
     2   Atom       -0.004426      0.002603      0.001823
     3   Atom        0.051143     -0.003077     -0.048066
     4   Atom        0.005034      0.006484     -0.011518
     5   Atom       -0.000579     -0.002113      0.002692
     6   Atom        0.000138     -0.001487      0.001348
     7   Atom        0.001277     -0.000650     -0.000627
     8   Atom        0.001760      0.007344     -0.009103
     9   Atom       -0.014039      0.006346      0.007693
 --------------------------------------------------------
                        XY            XZ            YZ
 --------------------------------------------------------
     1   Atom        0.002172     -0.000365      0.004005
     2   Atom       -0.006659      0.001797      0.000543
     3   Atom       -0.034282      0.047008     -0.002669
     4   Atom        0.034757      0.019482      0.010693
     5   Atom       -0.000029      0.003158      0.000698
     6   Atom       -0.000288      0.002338     -0.000310
     7   Atom        0.001076      0.000249      0.000128
     8   Atom       -0.017632      0.005335     -0.004015
     9   Atom        0.028500     -0.003532      0.003454
 --------------------------------------------------------


 ---------------------------------------------------------------------------------
              Anisotropic Spin Dipole Couplings in Principal Axis System
 ---------------------------------------------------------------------------------

       Atom             a.u.   MegaHertz   Gauss  10(-4) cm-1        Axes

              Baa    -0.0047    -0.662    -0.236    -0.221 -0.4949  0.7205 -0.4858
     1 Cu(63) Bbb    -0.0002    -0.033    -0.012    -0.011  0.8499  0.2848 -0.4434
              Bcc     0.0049     0.695     0.248     0.232  0.1812  0.6323  0.7533
 
              Baa    -0.0088    -1.240    -0.442    -0.413  0.8466  0.5045 -0.1697
     2 Cu(63) Bbb     0.0021     0.296     0.106     0.099  0.0933  0.1732  0.9804
              Bcc     0.0067     0.944     0.337     0.315 -0.5240  0.8459 -0.0996
 
              Baa    -0.0686    -9.714    -3.466    -3.240 -0.4026 -0.1740  0.8987
     3 Cu(63) Bbb    -0.0140    -1.977    -0.705    -0.659  0.2678  0.9164  0.2974
              Bcc     0.0826    11.690     4.171     3.899  0.8753 -0.3604  0.3223
 
              Baa    -0.0319    -4.521    -1.613    -1.508  0.7301 -0.5462 -0.4107
     4 Cu(63) Bbb    -0.0162    -2.300    -0.821    -0.767  0.0831 -0.5255  0.8467
              Bcc     0.0482     6.820     2.434     2.275  0.6783  0.6523  0.3383
 
              Baa    -0.0028    -0.296    -0.106    -0.099  0.6927  0.5456 -0.4717
     5 I(127) Bbb    -0.0019    -0.205    -0.073    -0.068 -0.5062  0.8336  0.2209
              Bcc     0.0047     0.501     0.179     0.167  0.5138  0.0858  0.8536
 
              Baa    -0.0017    -0.181    -0.064    -0.060  0.7812  0.2333 -0.5791
     6 I(127) Bbb    -0.0015    -0.163    -0.058    -0.054 -0.1317  0.9683  0.2124
              Bcc     0.0032     0.344     0.123     0.115  0.6103 -0.0897  0.7871
 
              Baa    -0.0011    -0.122    -0.043    -0.041 -0.4050  0.9138 -0.0319
     7 I(127) Bbb    -0.0007    -0.071    -0.025    -0.024 -0.1179 -0.0176  0.9929
              Bcc     0.0018     0.192     0.069     0.064  0.9067  0.4059  0.1148
 
              Baa    -0.0139    -1.492    -0.532    -0.498  0.7474  0.5505 -0.3720
     8 I(127) Bbb    -0.0098    -1.055    -0.377    -0.352  0.1681  0.3850  0.9075
              Bcc     0.0237     2.548     0.909     0.850 -0.6428  0.7408 -0.1952
 
              Baa    -0.0347     0.752     0.268     0.251  0.8113 -0.5733  0.1144
     9 Ag(107 Bbb     0.0082    -0.178    -0.064    -0.059 -0.1183  0.0306  0.9925
              Bcc     0.0265    -0.574    -0.205    -0.191  0.5725  0.8188  0.0430
 

 ---------------------------------------------------------------------------------

 No NMR shielding tensors so no spin-rotation constants.
 Leave Link  601 at Fri Sep 11 21:04:22 2026, MaxMem=  6442450944 cpu:               1.0 elap:               1.1
 (Enter C:\G16W\l9999.exe)
 Unable to Open any file for archive entry.
 1|1|UNPC-DESKTOP-2JKEGCA|SP|UPBE1PBE|def2SVP|Ag1Cu4I4(2)|JHKIM|11-Sep-
 2026|0||#P PBE1PBE/Def2SVP EmpiricalDispersion=GD3BJ SP SCF=(XQC,MaxCy
 cle=128) NoSymm Guess=Read||Cu4I4 t=0.500 dz=+0.00 class=site2site||0,
 2|Cu,0,0.235561,0.235561,0.235561|Cu,0,2.384439,2.384439,0.235561|Cu,0
 ,2.384439,0.235561,2.384439|Cu,0,0.235561,2.384439,2.384439|I,0,2.7976
 55,-0.177655,-0.177655|I,0,-0.177655,2.797655,-0.177655|I,0,-0.177655,
 -0.177655,2.797655|I,0,2.797655,2.797655,2.797655|Ag,0,5.2272172,1.264
 1756,3.23487128||Version=EM64W-G16RevC.01|HF=-7898.3787384|S2=0.751964
 |S2-1=0.|S2A=0.750004|RMSD=4.677e-009|Dipole=-0.551159,0.4104873,-0.21
 37494|Quadrupole=-5.2438299,4.5896987,0.6541312,2.3872746,-4.164193,2.
 1107226|PG=C01 [X(Ag1Cu4I4)]||@
 The archive entry for this job was punched.


 CONFIDENCE IS WHAT YOU FEEL BEFORE YOU FULLY
 COMPREHEND THE SITUATION.
 Job cpu time:       0 days  0 hours  3 minutes 11.0 seconds.
 Elapsed time:       0 days  0 hours  3 minutes  9.4 seconds.
 File lengths (MBytes):  RWF=     48 Int=      0 D2E=      0 Chk=      6 Scr=      1
 Normal termination of Gaussian 16 at Fri Sep 11 21:04:22 2026.
