 Entering Gaussian System, Link 0=C:\G16W\g16.exe
 Input=Cu4I4_t0_z0_ref.gjf
 Output=Cu4I4_t0_z0_ref.out
 Initial command:
 C:\G16W\l1.exe ".\Gau-113228.inp" "Cu4I4_t0_z0_ref.out" /scrdir=".\"
 Entering Link 1 = C:\G16W\l1.exe PID=    132600.
  
 Copyright (c) 1988-2019, Gaussian, Inc.  All Rights Reserved.
  
 This is part of the Gaussian(R) 16 program.  It is based on
 the Gaussian(R) 09 system (copyright 2009, Gaussian, Inc.),
 the Gaussian(R) 03 system (copyright 2003, Gaussian, Inc.),
 the Gaussian(R) 98 system (copyright 1998, Gaussian, Inc.),
 the Gaussian(R) 94 system (copyright 1995, Gaussian, Inc.),
 the Gaussian 92(TM) system (copyright 1992, Gaussian, Inc.),
 the Gaussian 90(TM) system (copyright 1990, Gaussian, Inc.),
 the Gaussian 88(TM) system (copyright 1988, Gaussian, Inc.),
 the Gaussian 86(TM) system (copyright 1986, Carnegie Mellon
 University), and the Gaussian 82(TM) system (copyright 1983,
 Carnegie Mellon University). Gaussian is a federally registered
 trademark of Gaussian, Inc.
  
 This software contains proprietary and confidential information,
 including trade secrets, belonging to Gaussian, Inc.
  
 This software is provided under written license and may be
 used, copied, transmitted, or stored only in accord with that
 written license.
  
 The following legend is applicable only to US Government
 contracts under FAR:
  
                    RESTRICTED RIGHTS LEGEND
  
 Use, reproduction and disclosure by the US Government is
 subject to restrictions as set forth in subparagraphs (a)
 and (c) of the Commercial Computer Software - Restricted
 Rights clause in FAR 52.227-19.
  
 Gaussian, Inc.
 340 Quinnipiac St., Bldg. 40, Wallingford CT 06492
  
  
 ---------------------------------------------------------------
 Warning -- This program may not be used in any manner that
 competes with the business of Gaussian, Inc. or will provide
 assistance to any competitor of Gaussian, Inc.  The licensee
 of this program is prohibited from giving any competitor of
 Gaussian, Inc. access to this program.  By using this program,
 the user acknowledges that Gaussian, Inc. is engaged in the
 business of creating and licensing software in the field of
 computational chemistry and represents and warrants to the
 licensee that it is not a competitor of Gaussian, Inc. and that
 it will not use this program in any manner prohibited above.
 ---------------------------------------------------------------
  

 Cite this work as:
 Gaussian 16, Revision C.01,
 M. J. Frisch, G. W. Trucks, H. B. Schlegel, G. E. Scuseria, 
 M. A. Robb, J. R. Cheeseman, G. Scalmani, V. Barone, 
 G. A. Petersson, H. Nakatsuji, X. Li, M. Caricato, A. V. Marenich, 
 J. Bloino, B. G. Janesko, R. Gomperts, B. Mennucci, H. P. Hratchian, 
 J. V. Ortiz, A. F. Izmaylov, J. L. Sonnenberg, D. Williams-Young, 
 F. Ding, F. Lipparini, F. Egidi, J. Goings, B. Peng, A. Petrone, 
 T. Henderson, D. Ranasinghe, V. G. Zakrzewski, J. Gao, N. Rega, 
 G. Zheng, W. Liang, M. Hada, M. Ehara, K. Toyota, R. Fukuda, 
 J. Hasegawa, M. Ishida, T. Nakajima, Y. Honda, O. Kitao, H. Nakai, 
 T. Vreven, K. Throssell, J. A. Montgomery, Jr., J. E. Peralta, 
 F. Ogliaro, M. J. Bearpark, J. J. Heyd, E. N. Brothers, K. N. Kudin, 
 V. N. Staroverov, T. A. Keith, R. Kobayashi, J. Normand, 
 K. Raghavachari, A. P. Rendell, J. C. Burant, S. S. Iyengar, 
 J. Tomasi, M. Cossi, J. M. Millam, M. Klene, C. Adamo, R. Cammi, 
 J. W. Ochterski, R. L. Martin, K. Morokuma, O. Farkas, 
 J. B. Foresman, and D. J. Fox, Gaussian, Inc., Wallingford CT, 2019.
 
 ******************************************
 Gaussian 16:  EM64W-G16RevC.01 30-May-2019
                11-Sep-2026 
 ******************************************
 %Chk=Cu4I4.chk
 %NProcShared=8
 Will use up to    8 processors via shared memory.
 %Mem=48GB
 ----------------------------------------------------------------------
 #P PBE1PBE/Def2SVP EmpiricalDispersion=GD3BJ SP SCF=(XQC,MaxCycle=128)
  NoSymm Guess=Read
 ----------------------------------------------------------------------
 1/38=1,172=1/1;
 2/12=2,15=1,17=6,18=5,40=1/2;
 3/5=43,7=101,11=2,25=1,30=1,74=-13,116=-2,124=41/1,2,3;
 4/5=1/1;
 5/5=2,7=128,8=3,13=1,38=6/2,8;
 6/7=2,8=2,9=2,10=2,28=1/1;
 99/5=1,9=1/99;
 Leave Link    1 at Fri Sep 11 21:20:28 2026, MaxMem=  6442450944 cpu:               0.0 elap:               0.3
 (Enter C:\G16W\l101.exe)
 --------------------------------------
 Cu4I4 t=0.000 dz=+0.00 class=site2site
 --------------------------------------
 Symbolic Z-matrix:
 Charge =  0 Multiplicity = 2
 Cu                    0.23556   0.23556   0.23556 
 Cu                    2.38444   2.38444   0.23556 
 Cu                    2.38444   0.23556   2.38444 
 Cu                    0.23556   2.38444   2.38444 
 I                     2.79766  -0.17766  -0.17766 
 I                    -0.17766   2.79766  -0.17766 
 I                    -0.17766  -0.17766   2.79766 
 I                     2.79766   2.79766   2.79766 
 Ag                    4.58744   4.58744   4.58744 
 
 ITRead=  0  0  0  0  0  0  0  0  0
 MicOpt= -1 -1 -1 -1 -1 -1 -1 -1 -1
 NAtoms=      9 NQM=        9 NQMF=       0 NMMI=      0 NMMIF=      0
                NMic=       0 NMicF=      0.
                    Isotopes and Nuclear Properties:
 (Nuclear quadrupole moments (NQMom) in fm**2, nuclear magnetic moments (NMagM)
  in nuclear magnetons)

  Atom         1           2           3           4           5           6           7           8           9
 IAtWgt=          63          63          63          63         127         127         127         127         107
 AtmWgt=  62.9295992  62.9295992  62.9295992  62.9295992 126.9004000 126.9004000 126.9004000 126.9004000 106.9050900
 NucSpn=           3           3           3           3           5           5           5           5           1
 AtZEff=   0.0000000   0.0000000   0.0000000   0.0000000   0.0000000   0.0000000   0.0000000   0.0000000   0.0000000
 NQMom=  -22.0000000 -22.0000000 -22.0000000 -22.0000000 -71.0000000 -71.0000000 -71.0000000 -71.0000000   0.0000000
 NMagM=    2.2233000   2.2233000   2.2233000   2.2233000   2.8132800   2.8132800   2.8132800   2.8132800  -0.1135700
 AtZNuc=  29.0000000  29.0000000  29.0000000  29.0000000  53.0000000  53.0000000  53.0000000  53.0000000  47.0000000
 Leave Link  101 at Fri Sep 11 21:20:28 2026, MaxMem=  6442450944 cpu:               0.0 elap:               0.3
 (Enter C:\G16W\l202.exe)
                          Input orientation:                          
 ---------------------------------------------------------------------
 Center     Atomic      Atomic             Coordinates (Angstroms)
 Number     Number       Type             X           Y           Z
 ---------------------------------------------------------------------
      1         29           0        0.235561    0.235561    0.235561
      2         29           0        2.384439    2.384439    0.235561
      3         29           0        2.384439    0.235561    2.384439
      4         29           0        0.235561    2.384439    2.384439
      5         53           0        2.797655   -0.177655   -0.177655
      6         53           0       -0.177655    2.797655   -0.177655
      7         53           0       -0.177655   -0.177655    2.797655
      8         53           0        2.797655    2.797655    2.797655
      9         47           0        4.587441    4.587441    4.587441
 ---------------------------------------------------------------------
                    Distance matrix (angstroms):
                    1          2          3          4          5
     1  Cu   0.000000
     2  Cu   3.038972   0.000000
     3  Cu   3.038972   3.038972   0.000000
     4  Cu   3.038972   3.038972   3.038972   0.000000
     5  I    2.627893   2.627893   2.627893   4.437677   0.000000
     6  I    2.627893   2.627893   4.437677   2.627893   4.207724
     7  I    2.627893   4.437677   2.627893   2.627893   4.207724
     8  I    4.437677   2.627893   2.627893   2.627893   4.207724
     9  Ag   7.537677   5.352130   5.352130   5.352130   6.972490
                    6          7          8          9
     6  I    0.000000
     7  I    4.207724   0.000000
     8  I    4.207724   4.207724   0.000000
     9  Ag   6.972490   6.972490   3.100000   0.000000
 Symmetry turned off by external request.
 Stoichiometry    AgCu4I4(2)
 Framework group  C3V[C3(CuIAg),3SGV(CuI)]
 Deg. of freedom     6
 Full point group                 C3V     NOp   6
 Rotational constants (GHZ):           0.1787092           0.0864224           0.0864224
 Leave Link  202 at Fri Sep 11 21:20:29 2026, MaxMem=  6442450944 cpu:               0.0 elap:               0.1
 (Enter C:\G16W\l301.exe)
 Standard basis: def2SVP (5D, 7F)
 Ernie: Thresh=  0.10000D-02 Tol=  0.10000D-05 Strict=F.
   259 basis functions,   657 primitive gaussians,   292 cartesian basis functions
   118 alpha electrons      117 beta electrons
       nuclear repulsion energy      3839.3548368039 Hartrees.
 IExCor= 1009 DFT=T Ex+Corr=PBE1PBE ExCW=0 ScaHFX=  0.250000
 ScaDFX=  0.750000  0.750000  1.000000  1.000000 ScalE2=  1.000000  1.000000
 IRadAn=      5 IRanWt=     -1 IRanGd=            0 ICorTp=0 IEmpDi=141
 NAtoms=    9 NActive=    9 NUniq=    9 SFac= 1.00D+00 NAtFMM=   60 NAOKFM=F Big=F
 Integral buffers will be    131072 words long.
 Raffenetti 2 integral format.
 Two-electron integral symmetry is turned off.
 R6Disp:  Grimme-D3(BJ) Dispersion energy=       -0.0347633619 Hartrees.
 Nuclear repulsion after empirical dispersion term =     3839.3200734420 Hartrees.
 Leave Link  301 at Fri Sep 11 21:20:29 2026, MaxMem=  6442450944 cpu:               0.0 elap:               0.1
 (Enter C:\G16W\l302.exe)
 NPDir=0 NMtPBC=     1 NCelOv=     1 NCel=       1 NClECP=     1 NCelD=      1
         NCelK=      1 NCelE2=     1 NClLst=     1 CellRange=     0.0.
 One-electron integrals computed using PRISM.
   1 Symmetry operations used in ECPInt.
 ECPInt:  NShTT=    4560 NPrTT=   26181 LenC2=    4233 LenP2D=   16159.
 LDataN:  DoStor=T MaxTD1= 7 Len=  274
 NBasis=   259 RedAO= T EigKep=  1.21D-02  NBF=   259
 NBsUse=   259 1.00D-06 EigRej= -1.00D+00 NBFU=   259
 Precomputing XC quadrature grid using
 IXCGrd= 4 IRadAn=           5 IRanWt=          -1 IRanGd=           0 AccXCQ= 0.00D+00.
 Defaulting to unpruned grid for atomic number  53.
 Defaulting to unpruned grid for atomic number  47.
 Defaulting to unpruned grid for atomic number  53.
 Generated NRdTot=       0 NPtTot=           0 NUsed=           0 NTot=          32
 NSgBfM=   284   284   284   284   284 MxSgAt=     9 MxSgA2=     9.
 Leave Link  302 at Fri Sep 11 21:20:34 2026, MaxMem=  6442450944 cpu:               5.0 elap:               5.3
 (Enter C:\G16W\l303.exe)
 DipDrv:  MaxL=1.
 Leave Link  303 at Fri Sep 11 21:20:35 2026, MaxMem=  6442450944 cpu:               0.0 elap:               0.2
 (Enter C:\G16W\l401.exe)
 Initial guess from the checkpoint file:  "Cu4I4.chk"
 B after Tr=     2.519230   -0.531806    0.928494
         Rot=    0.924602    0.148822    0.162115   -0.310936 Ang=  44.78 deg.
 Guess basis will be translated and rotated to current coordinates.
 JPrj=2 DoOrth=T DoCkMO=T.
 Initial guess <Sx>= 0.0000 <Sy>= 0.0000 <Sz>= 0.5000 <S**2>= 0.7515 S= 0.5008
 Leave Link  401 at Fri Sep 11 21:20:46 2026, MaxMem=  6442450944 cpu:              11.0 elap:              10.6
 (Enter C:\G16W\l502.exe)
 Keep R1 and R2 ints in memory in canonical form, NReq=1146280170.
 FoFCou: FMM=F IPFlag=           0 FMFlag=           0 FMFlg1=           0
         NFxFlg=           0 DoJE=F BraDBF=F KetDBF=F FulRan=T
         wScrn=  0.000000 ICntrl=       600 IOpCl=  0 I1Cent=           0 NGrid=           0
         NMat0=    1 NMatS0=  33670 NMatT0=    0 NMatD0=    1 NMtDS0=    0 NMtDT0=    0
 Symmetry not used in FoFCou.
 Two-electron integral symmetry not used.
 UHF open shell SCF:
 Using DIIS extrapolation, IDIIS=  1040.
 NGot=  6442450944 LenX=  5308573398 LenY=  5308487693
 Requested convergence on RMS density matrix=1.00D-08 within 128 cycles.
 Requested convergence on MAX density matrix=1.00D-06.
 Requested convergence on             energy=1.00D-06.
 No special actions if energy rises.

 Cycle   1  Pass 1  IDiag  1:
 Defaulting to unpruned grid for atomic number  53.
 Defaulting to unpruned grid for atomic number  53.
 Defaulting to unpruned grid for atomic number  53.
 Defaulting to unpruned grid for atomic number  53.
 Defaulting to unpruned grid for atomic number  53.
 Defaulting to unpruned grid for atomic number  53.
 Defaulting to unpruned grid for atomic number  53.
 Defaulting to unpruned grid for atomic number  53.
 E= -7898.01401714982    
 DIIS: error= 5.61D-02 at cycle   1 NSaved=   1.
 NSaved= 1 IEnMin= 1 EnMin= -7898.01401714982     IErMin= 1 ErrMin= 5.61D-02
 ErrMax= 5.61D-02  0.00D+00 EMaxC= 1.00D-01 BMatC= 1.40D+00 BMatP= 1.40D+00
 IDIUse=3 WtCom= 4.39D-01 WtEn= 5.61D-01
 Coeff-Com:  0.100D+01
 Coeff-En:   0.100D+01
 Coeff:      0.100D+01
 Gap=     0.180 Goal=   None    Shift=    0.000
 Gap=     0.261 Goal=   None    Shift=    0.000
 GapD=    0.180 DampG=1.000 DampE=0.250 DampFc=0.2500 IDamp=-1.
 Damping current iteration by 2.50D-01
 RMSDP=5.01D-03 MaxDP=9.93D-02              OVMax= 1.33D-01

 Cycle   2  Pass 1  IDiag  1:
 E= -7898.09840908096     Delta-E=       -0.084391931139 Rises=F Damp=T
 DIIS: error= 4.20D-02 at cycle   2 NSaved=   2.
 NSaved= 2 IEnMin= 2 EnMin= -7898.09840908096     IErMin= 2 ErrMin= 4.20D-02
 ErrMax= 4.20D-02  0.00D+00 EMaxC= 1.00D-01 BMatC= 7.80D-01 BMatP= 1.40D+00
 IDIUse=3 WtCom= 5.80D-01 WtEn= 4.20D-01
 Coeff-Com: -0.230D+01 0.330D+01
 Coeff-En:   0.000D+00 0.100D+01
 Coeff:     -0.133D+01 0.233D+01
 Gap=     0.105 Goal=   None    Shift=    0.000
 Gap=     0.156 Goal=   None    Shift=    0.000
 RMSDP=3.85D-03 MaxDP=8.04D-02 DE=-8.44D-02 OVMax= 4.02D-02

 Cycle   3  Pass 1  IDiag  1:
 E= -7898.35630652335     Delta-E=       -0.257897442394 Rises=F Damp=F
 DIIS: error= 9.38D-03 at cycle   3 NSaved=   3.
 NSaved= 3 IEnMin= 3 EnMin= -7898.35630652335     IErMin= 3 ErrMin= 9.38D-03
 ErrMax= 9.38D-03  0.00D+00 EMaxC= 1.00D-01 BMatC= 7.87D-02 BMatP= 7.80D-01
 IDIUse=3 WtCom= 9.06D-01 WtEn= 9.38D-02
 Coeff-Com: -0.107D+01 0.142D+01 0.656D+00
 Coeff-En:   0.000D+00 0.000D+00 0.100D+01
 Coeff:     -0.971D+00 0.128D+01 0.688D+00
 Gap=     0.104 Goal=   None    Shift=    0.000
 Gap=     0.144 Goal=   None    Shift=    0.000
 RMSDP=6.51D-04 MaxDP=1.41D-02 DE=-2.58D-01 OVMax= 2.90D-02

 Cycle   4  Pass 1  IDiag  1:
 E= -7898.36401455872     Delta-E=       -0.007708035366 Rises=F Damp=F
 DIIS: error= 4.76D-03 at cycle   4 NSaved=   4.
 NSaved= 4 IEnMin= 4 EnMin= -7898.36401455872     IErMin= 4 ErrMin= 4.76D-03
 ErrMax= 4.76D-03  0.00D+00 EMaxC= 1.00D-01 BMatC= 2.60D-02 BMatP= 7.87D-02
 IDIUse=3 WtCom= 9.52D-01 WtEn= 4.76D-02
 Coeff-Com: -0.443D+00 0.577D+00 0.444D+00 0.422D+00
 Coeff-En:   0.000D+00 0.000D+00 0.273D+00 0.727D+00
 Coeff:     -0.422D+00 0.549D+00 0.436D+00 0.436D+00
 Gap=     0.099 Goal=   None    Shift=    0.000
 Gap=     0.154 Goal=   None    Shift=    0.000
 RMSDP=3.43D-04 MaxDP=1.40D-02 DE=-7.71D-03 OVMax= 1.12D-02

 Cycle   5  Pass 1  IDiag  1:
 E= -7898.36838085355     Delta-E=       -0.004366294834 Rises=F Damp=F
 DIIS: error= 4.47D-04 at cycle   5 NSaved=   5.
 NSaved= 5 IEnMin= 5 EnMin= -7898.36838085355     IErMin= 5 ErrMin= 4.47D-04
 ErrMax= 4.47D-04  0.00D+00 EMaxC= 1.00D-01 BMatC= 5.12D-04 BMatP= 2.60D-02
 IDIUse=3 WtCom= 9.96D-01 WtEn= 4.47D-03
 Coeff-Com: -0.257D-01 0.313D-01 0.959D-01 0.180D+00 0.718D+00
 Coeff-En:   0.000D+00 0.000D+00 0.000D+00 0.000D+00 0.100D+01
 Coeff:     -0.256D-01 0.312D-01 0.955D-01 0.180D+00 0.719D+00
 Gap=     0.101 Goal=   None    Shift=    0.000
 Gap=     0.151 Goal=   None    Shift=    0.000
 RMSDP=7.92D-05 MaxDP=2.75D-03 DE=-4.37D-03 OVMax= 4.42D-03

 Cycle   6  Pass 1  IDiag  1:
 E= -7898.36853338475     Delta-E=       -0.000152531200 Rises=F Damp=F
 DIIS: error= 1.71D-04 at cycle   6 NSaved=   6.
 NSaved= 6 IEnMin= 6 EnMin= -7898.36853338475     IErMin= 6 ErrMin= 1.71D-04
 ErrMax= 1.71D-04  0.00D+00 EMaxC= 1.00D-01 BMatC= 5.36D-05 BMatP= 5.12D-04
 IDIUse=3 WtCom= 9.98D-01 WtEn= 1.71D-03
 Coeff-Com:  0.413D-01-0.549D-01-0.468D-02 0.308D-01 0.318D+00 0.669D+00
 Coeff-En:   0.000D+00 0.000D+00 0.000D+00 0.000D+00 0.000D+00 0.100D+01
 Coeff:      0.412D-01-0.548D-01-0.467D-02 0.307D-01 0.317D+00 0.670D+00
 Gap=     0.100 Goal=   None    Shift=    0.000
 Gap=     0.151 Goal=   None    Shift=    0.000
 RMSDP=2.55D-05 MaxDP=1.97D-03 DE=-1.53D-04 OVMax= 9.89D-04

 Cycle   7  Pass 1  IDiag  1:
 E= -7898.36854691839     Delta-E=       -0.000013533638 Rises=F Damp=F
 DIIS: error= 7.66D-05 at cycle   7 NSaved=   7.
 NSaved= 7 IEnMin= 7 EnMin= -7898.36854691839     IErMin= 7 ErrMin= 7.66D-05
 ErrMax= 7.66D-05  0.00D+00 EMaxC= 1.00D-01 BMatC= 4.46D-06 BMatP= 5.36D-05
 IDIUse=1 WtCom= 1.00D+00 WtEn= 0.00D+00
 Coeff-Com:  0.232D-01-0.308D-01-0.604D-02 0.892D-02 0.143D+00 0.347D+00
 Coeff-Com:  0.514D+00
 Coeff:      0.232D-01-0.308D-01-0.604D-02 0.892D-02 0.143D+00 0.347D+00
 Coeff:      0.514D+00
 Gap=     0.100 Goal=   None    Shift=    0.000
 Gap=     0.152 Goal=   None    Shift=    0.000
 RMSDP=5.62D-06 MaxDP=2.14D-04 DE=-1.35D-05 OVMax= 2.56D-04

 Cycle   8  Pass 1  IDiag  1:
 E= -7898.36854772527     Delta-E=       -0.000000806876 Rises=F Damp=F
 DIIS: error= 4.67D-05 at cycle   8 NSaved=   8.
 NSaved= 8 IEnMin= 8 EnMin= -7898.36854772527     IErMin= 8 ErrMin= 4.67D-05
 ErrMax= 4.67D-05  0.00D+00 EMaxC= 1.00D-01 BMatC= 1.35D-06 BMatP= 4.46D-06
 IDIUse=1 WtCom= 1.00D+00 WtEn= 0.00D+00
 Coeff-Com:  0.176D-02-0.229D-02-0.265D-02-0.515D-02-0.124D-01 0.160D-02
 Coeff-Com:  0.357D+00 0.662D+00
 Coeff:      0.176D-02-0.229D-02-0.265D-02-0.515D-02-0.124D-01 0.160D-02
 Coeff:      0.357D+00 0.662D+00
 Gap=     0.100 Goal=   None    Shift=    0.000
 Gap=     0.152 Goal=   None    Shift=    0.000
 RMSDP=3.85D-06 MaxDP=1.91D-04 DE=-8.07D-07 OVMax= 2.44D-04

 Cycle   9  Pass 1  IDiag  1:
 E= -7898.36854802804     Delta-E=       -0.000000302776 Rises=F Damp=F
 DIIS: error= 1.75D-05 at cycle   9 NSaved=   9.
 NSaved= 9 IEnMin= 9 EnMin= -7898.36854802804     IErMin= 9 ErrMin= 1.75D-05
 ErrMax= 1.75D-05  0.00D+00 EMaxC= 1.00D-01 BMatC= 1.54D-07 BMatP= 1.35D-06
 IDIUse=1 WtCom= 1.00D+00 WtEn= 0.00D+00
 Coeff-Com: -0.242D-02 0.324D-02-0.526D-03-0.391D-02-0.276D-01-0.486D-01
 Coeff-Com:  0.124D+00 0.357D+00 0.599D+00
 Coeff:     -0.242D-02 0.324D-02-0.526D-03-0.391D-02-0.276D-01-0.486D-01
 Coeff:      0.124D+00 0.357D+00 0.599D+00
 Gap=     0.100 Goal=   None    Shift=    0.000
 Gap=     0.152 Goal=   None    Shift=    0.000
 RMSDP=1.43D-06 MaxDP=1.58D-04 DE=-3.03D-07 OVMax= 1.04D-04

 Cycle  10  Pass 1  IDiag  1:
 E= -7898.36854807415     Delta-E=       -0.000000046104 Rises=F Damp=F
 DIIS: error= 4.15D-06 at cycle  10 NSaved=  10.
 NSaved=10 IEnMin=10 EnMin= -7898.36854807415     IErMin=10 ErrMin= 4.15D-06
 ErrMax= 4.15D-06  0.00D+00 EMaxC= 1.00D-01 BMatC= 7.36D-09 BMatP= 1.54D-07
 IDIUse=1 WtCom= 1.00D+00 WtEn= 0.00D+00
 Coeff-Com: -0.811D-03 0.108D-02 0.212D-03-0.869D-04-0.491D-02-0.105D-01
 Coeff-Com: -0.168D-01-0.333D-02 0.134D+00 0.901D+00
 Coeff:     -0.811D-03 0.108D-02 0.212D-03-0.869D-04-0.491D-02-0.105D-01
 Coeff:     -0.168D-01-0.333D-02 0.134D+00 0.901D+00
 Gap=     0.100 Goal=   None    Shift=    0.000
 Gap=     0.152 Goal=   None    Shift=    0.000
 RMSDP=5.75D-07 MaxDP=4.53D-05 DE=-4.61D-08 OVMax= 5.33D-05

 Cycle  11  Pass 1  IDiag  1:
 E= -7898.36854807864     Delta-E=       -0.000000004491 Rises=F Damp=F
 DIIS: error= 8.34D-07 at cycle  11 NSaved=  11.
 NSaved=11 IEnMin=11 EnMin= -7898.36854807864     IErMin=11 ErrMin= 8.34D-07
 ErrMax= 8.34D-07  0.00D+00 EMaxC= 1.00D-01 BMatC= 6.71D-10 BMatP= 7.36D-09
 IDIUse=1 WtCom= 1.00D+00 WtEn= 0.00D+00
 Coeff-Com:  0.353D-04-0.488D-04 0.109D-03 0.393D-03 0.181D-02 0.267D-02
 Coeff-Com: -0.181D-01-0.403D-01-0.290D-01 0.238D+00 0.845D+00
 Coeff:      0.353D-04-0.488D-04 0.109D-03 0.393D-03 0.181D-02 0.267D-02
 Coeff:     -0.181D-01-0.403D-01-0.290D-01 0.238D+00 0.845D+00
 Gap=     0.100 Goal=   None    Shift=    0.000
 Gap=     0.152 Goal=   None    Shift=    0.000
 RMSDP=1.98D-07 MaxDP=1.55D-05 DE=-4.49D-09 OVMax= 1.96D-05

 Cycle  12  Pass 1  IDiag  1:
 E= -7898.36854807888     Delta-E=       -0.000000000246 Rises=F Damp=F
 DIIS: error= 2.20D-07 at cycle  12 NSaved=  12.
 NSaved=12 IEnMin=12 EnMin= -7898.36854807888     IErMin=12 ErrMin= 2.20D-07
 ErrMax= 2.20D-07  0.00D+00 EMaxC= 1.00D-01 BMatC= 9.48D-11 BMatP= 6.71D-10
 IDIUse=1 WtCom= 1.00D+00 WtEn= 0.00D+00
 Coeff-Com:  0.776D-04-0.104D-03 0.232D-04 0.136D-03 0.105D-02 0.178D-02
 Coeff-Com: -0.512D-02-0.139D-01-0.209D-01 0.345D-02 0.287D+00 0.747D+00
 Coeff:      0.776D-04-0.104D-03 0.232D-04 0.136D-03 0.105D-02 0.178D-02
 Coeff:     -0.512D-02-0.139D-01-0.209D-01 0.345D-02 0.287D+00 0.747D+00
 Gap=     0.100 Goal=   None    Shift=    0.000
 Gap=     0.152 Goal=   None    Shift=    0.000
 RMSDP=5.86D-08 MaxDP=4.09D-06 DE=-2.46D-10 OVMax= 4.95D-06

 Cycle  13  Pass 1  IDiag  1:
 E= -7898.36854807896     Delta-E=       -0.000000000080 Rises=F Damp=F
 DIIS: error= 7.61D-08 at cycle  13 NSaved=  13.
 NSaved=13 IEnMin=13 EnMin= -7898.36854807896     IErMin=13 ErrMin= 7.61D-08
 ErrMax= 7.61D-08  0.00D+00 EMaxC= 1.00D-01 BMatC= 1.60D-11 BMatP= 9.48D-11
 IDIUse=1 WtCom= 1.00D+00 WtEn= 0.00D+00
 Coeff-Com:  0.240D-04-0.320D-04-0.250D-05 0.432D-05 0.156D-03 0.314D-03
 Coeff-Com:  0.179D-03-0.357D-03-0.349D-02-0.250D-01-0.170D-02 0.280D+00
 Coeff-Com:  0.750D+00
 Coeff:      0.240D-04-0.320D-04-0.250D-05 0.432D-05 0.156D-03 0.314D-03
 Coeff:      0.179D-03-0.357D-03-0.349D-02-0.250D-01-0.170D-02 0.280D+00
 Coeff:      0.750D+00
 Gap=     0.100 Goal=   None    Shift=    0.000
 Gap=     0.152 Goal=   None    Shift=    0.000
 RMSDP=2.31D-08 MaxDP=1.39D-06 DE=-8.00D-11 OVMax= 1.60D-06

 Cycle  14  Pass 1  IDiag  1:
 E= -7898.36854807877     Delta-E=        0.000000000193 Rises=F Damp=F
 DIIS: error= 8.45D-08 at cycle  14 NSaved=  14.
 NSaved=14 IEnMin=13 EnMin= -7898.36854807896     IErMin=13 ErrMin= 7.61D-08
 ErrMax= 8.45D-08  0.00D+00 EMaxC= 1.00D-01 BMatC= 1.35D-11 BMatP= 1.60D-11
 IDIUse=1 WtCom= 1.00D+00 WtEn= 0.00D+00
 Coeff-Com: -0.137D-06 0.277D-06-0.744D-05-0.298D-04-0.136D-03-0.194D-03
 Coeff-Com:  0.141D-02 0.314D-02 0.244D-02-0.203D-01-0.691D-01 0.320D-01
 Coeff-Com:  0.564D+00 0.487D+00
 Coeff:     -0.137D-06 0.277D-06-0.744D-05-0.298D-04-0.136D-03-0.194D-03
 Coeff:      0.141D-02 0.314D-02 0.244D-02-0.203D-01-0.691D-01 0.320D-01
 Coeff:      0.564D+00 0.487D+00
 Gap=     0.100 Goal=   None    Shift=    0.000
 Gap=     0.152 Goal=   None    Shift=    0.000
 RMSDP=1.07D-08 MaxDP=7.00D-07 DE= 1.93D-10 OVMax= 5.48D-07

 Cycle  15  Pass 1  IDiag  1:
 E= -7898.36854807895     Delta-E=       -0.000000000178 Rises=F Damp=F
 DIIS: error= 1.22D-08 at cycle  15 NSaved=  15.
 NSaved=15 IEnMin=13 EnMin= -7898.36854807896     IErMin=15 ErrMin= 1.22D-08
 ErrMax= 1.22D-08  0.00D+00 EMaxC= 1.00D-01 BMatC= 5.24D-13 BMatP= 1.35D-11
 IDIUse=1 WtCom= 1.00D+00 WtEn= 0.00D+00
 Coeff-Com: -0.387D-05 0.519D-05-0.286D-05-0.130D-04-0.791D-04-0.131D-03
 Coeff-Com:  0.522D-03 0.127D-02 0.148D-02-0.425D-02-0.260D-01-0.300D-01
 Coeff-Com:  0.103D+00 0.195D+00 0.760D+00
 Coeff:     -0.387D-05 0.519D-05-0.286D-05-0.130D-04-0.791D-04-0.131D-03
 Coeff:      0.522D-03 0.127D-02 0.148D-02-0.425D-02-0.260D-01-0.300D-01
 Coeff:      0.103D+00 0.195D+00 0.760D+00
 Gap=     0.100 Goal=   None    Shift=    0.000
 Gap=     0.152 Goal=   None    Shift=    0.000
 RMSDP=4.85D-09 MaxDP=4.06D-07 DE=-1.78D-10 OVMax= 2.88D-07

 SCF Done:  E(UPBE1PBE) =  -7898.36854808     A.U. after   15 cycles
            NFock= 15  Conv=0.48D-08     -V/T= 2.1189
 <Sx>= 0.0000 <Sy>= 0.0000 <Sz>= 0.5000 <S**2>= 0.7515 S= 0.5008
 <L.S>= 0.000000000000E+00
 KE= 7.059071088168D+03 PE=-2.621765620323D+04 EE= 7.420896493542D+03
 Annihilation of the first spin contaminant:
 S**2 before annihilation     0.7515,   after     0.7500
 Leave Link  502 at Fri Sep 11 21:24:07 2026, MaxMem=  6442450944 cpu:             201.0 elap:             200.8
 (Enter C:\G16W\l508.exe)
 QCSCF skips out because SCF is already converged.
 Leave Link  508 at Fri Sep 11 21:24:09 2026, MaxMem=  6442450944 cpu:               0.0 elap:               0.1
 (Enter C:\G16W\l601.exe)
 Copying SCF densities to generalized density rwf, IOpCl= 1 IROHF=0.

 **********************************************************************

            Population analysis using the SCF Density.

 **********************************************************************

 Alpha  occ. eigenvalues -- -323.34101-323.34101-323.34100-323.33813 -38.94135
 Alpha  occ. eigenvalues --  -38.94135 -38.94133 -38.93844 -34.12325 -34.12325
 Alpha  occ. eigenvalues --  -34.12320 -34.12113 -34.12113 -34.12113 -34.12100
 Alpha  occ. eigenvalues --  -34.12098 -34.12098 -34.12034 -34.11817 -34.11817
 Alpha  occ. eigenvalues --   -6.91017  -6.90152  -6.90152  -6.90152  -4.91972
 Alpha  occ. eigenvalues --   -4.91681  -4.91681  -4.91002  -4.91002  -4.91002
 Alpha  occ. eigenvalues --   -4.90873  -4.90873  -4.90873  -4.90871  -4.90871
 Alpha  occ. eigenvalues --   -4.90871  -4.34118  -4.34116  -4.34116  -4.33828
 Alpha  occ. eigenvalues --   -3.74949  -2.82323  -2.82307  -2.82307  -2.82079
 Alpha  occ. eigenvalues --   -2.82077  -2.82077  -2.82048  -2.82048  -2.82042
 Alpha  occ. eigenvalues --   -2.82019  -2.81777  -2.81777  -2.32926  -2.32879
 Alpha  occ. eigenvalues --   -2.32879  -1.94718  -1.94643  -1.94643  -1.94374
 Alpha  occ. eigenvalues --   -1.94374  -1.93757  -1.93756  -1.93756  -1.93735
 Alpha  occ. eigenvalues --   -1.93735  -1.93734  -1.93733  -1.93733  -1.93733
 Alpha  occ. eigenvalues --   -1.93598  -1.93598  -1.93598  -1.93596  -1.93596
 Alpha  occ. eigenvalues --   -1.93596  -0.72913  -0.71719  -0.71163  -0.71163
 Alpha  occ. eigenvalues --   -0.40087  -0.37249  -0.36686  -0.36686  -0.35122
 Alpha  occ. eigenvalues --   -0.34497  -0.34497  -0.33649  -0.33649  -0.32965
 Alpha  occ. eigenvalues --   -0.32965  -0.32802  -0.32335  -0.32335  -0.32213
 Alpha  occ. eigenvalues --   -0.32213  -0.32021  -0.30304  -0.29643  -0.29643
 Alpha  occ. eigenvalues --   -0.29130  -0.29130  -0.29096  -0.28453  -0.28453
 Alpha  occ. eigenvalues --   -0.28371  -0.28256  -0.28256  -0.26749  -0.26749
 Alpha  occ. eigenvalues --   -0.26747  -0.25116  -0.25116  -0.25083  -0.24364
 Alpha  occ. eigenvalues --   -0.23652  -0.23652  -0.16576
 Alpha virt. eigenvalues --   -0.06572  -0.03591  -0.03591  -0.03362  -0.00449
 Alpha virt. eigenvalues --   -0.00449   0.00719   0.04163   0.04697   0.05042
 Alpha virt. eigenvalues --    0.05042   0.09974   0.11515   0.11515   0.11699
 Alpha virt. eigenvalues --    0.11699   0.11961   0.15472   0.16272   0.16272
 Alpha virt. eigenvalues --    0.16304   0.24166   0.24427   0.24427   0.28784
 Alpha virt. eigenvalues --    0.33514   0.33514   0.34923   0.34923   0.35454
 Alpha virt. eigenvalues --    0.35454   0.36744   0.36744   0.38051   0.38055
 Alpha virt. eigenvalues --    0.38055   0.39252   0.40642   0.40663   0.40663
 Alpha virt. eigenvalues --    0.42225   0.44825   0.44825   0.45685   0.45685
 Alpha virt. eigenvalues --    0.45798   0.47037   0.47486   0.47486   0.49112
 Alpha virt. eigenvalues --    0.52072   0.52072   0.54075   0.55353   0.55353
 Alpha virt. eigenvalues --    0.62050   0.62105   0.62105   0.63474   0.63529
 Alpha virt. eigenvalues --    0.63529   0.73598   0.73598   0.75381   0.80988
 Alpha virt. eigenvalues --    0.82373   0.82373   0.87779   1.02044   1.02044
 Alpha virt. eigenvalues --    1.07942   1.07942   1.08058   1.21369   1.21602
 Alpha virt. eigenvalues --    1.21602   1.24027   1.26747   1.26747   1.27789
 Alpha virt. eigenvalues --    1.27789   1.27846   1.34187   1.34189   1.34189
 Alpha virt. eigenvalues --    1.46333   1.46333   1.51298   2.04257   2.62552
 Alpha virt. eigenvalues --    2.62552   2.62562   2.62562   2.62619   2.62619
 Alpha virt. eigenvalues --    2.62920   5.81318   5.81318   5.81336   5.81336
 Alpha virt. eigenvalues --    5.81345   5.81380   5.81393   5.81393   5.81420
 Alpha virt. eigenvalues --    5.81437   5.81478   5.81478   5.81521   5.81544
 Alpha virt. eigenvalues --    5.81544   5.81613   5.81613   5.81620   5.81679
 Alpha virt. eigenvalues --    5.81679   5.81797   5.81797   5.81810   5.81865
 Alpha virt. eigenvalues --    5.81998   5.81998   5.82082   5.82311  18.64501
 Alpha virt. eigenvalues --   18.64501  18.71799  18.71799  18.72873  18.73672
 Alpha virt. eigenvalues --   18.77293  18.77293  18.78329  18.91361  18.91361
 Alpha virt. eigenvalues --   19.38766  53.81070  56.18971  56.18971  56.20974
 Alpha virt. eigenvalues --   56.21471
  Beta  occ. eigenvalues -- -323.34100-323.34100-323.34099-323.33813 -38.94127
  Beta  occ. eigenvalues --  -38.94127 -38.94125 -38.93844 -34.12316 -34.12316
  Beta  occ. eigenvalues --  -34.12311 -34.12108 -34.12108 -34.12107 -34.12094
  Beta  occ. eigenvalues --  -34.12093 -34.12093 -34.12033 -34.11817 -34.11817
  Beta  occ. eigenvalues --   -6.90982  -6.90149  -6.90149  -6.90149  -4.91930
  Beta  occ. eigenvalues --   -4.91656  -4.91656  -4.90998  -4.90998  -4.90998
  Beta  occ. eigenvalues --   -4.90870  -4.90870  -4.90870  -4.90869  -4.90869
  Beta  occ. eigenvalues --   -4.90869  -4.34101  -4.34098  -4.34098  -4.33827
  Beta  occ. eigenvalues --   -3.74835  -2.82289  -2.82274  -2.82274  -2.82066
  Beta  occ. eigenvalues --   -2.82063  -2.82063  -2.82041  -2.82041  -2.82035
  Beta  occ. eigenvalues --   -2.82017  -2.81776  -2.81776  -2.32917  -2.32835
  Beta  occ. eigenvalues --   -2.32835  -1.94672  -1.94605  -1.94605  -1.94347
  Beta  occ. eigenvalues --   -1.94347  -1.93752  -1.93752  -1.93752  -1.93731
  Beta  occ. eigenvalues --   -1.93731  -1.93730  -1.93730  -1.93729  -1.93729
  Beta  occ. eigenvalues --   -1.93596  -1.93596  -1.93595  -1.93594  -1.93594
  Beta  occ. eigenvalues --   -1.93594  -0.72801  -0.71630  -0.71142  -0.71142
  Beta  occ. eigenvalues --   -0.39852  -0.37110  -0.36639  -0.36639  -0.35018
  Beta  occ. eigenvalues --   -0.34462  -0.34462  -0.33569  -0.33569  -0.32908
  Beta  occ. eigenvalues --   -0.32908  -0.32796  -0.31751  -0.31751  -0.31697
  Beta  occ. eigenvalues --   -0.31697  -0.31501  -0.30224  -0.29630  -0.29630
  Beta  occ. eigenvalues --   -0.29116  -0.29116  -0.29059  -0.28405  -0.28405
  Beta  occ. eigenvalues --   -0.28364  -0.28236  -0.28236  -0.26728  -0.26728
  Beta  occ. eigenvalues --   -0.26688  -0.25087  -0.25087  -0.25072  -0.24021
  Beta  occ. eigenvalues --   -0.23634  -0.23634
  Beta virt. eigenvalues --   -0.08478  -0.06417  -0.03516  -0.03516  -0.03282
  Beta virt. eigenvalues --    0.01839   0.01839   0.02037   0.04323   0.05486
  Beta virt. eigenvalues --    0.05486   0.05906   0.10786   0.11570   0.11570
  Beta virt. eigenvalues --    0.11834   0.11834   0.13344   0.15968   0.16325
  Beta virt. eigenvalues --    0.16338   0.16338   0.24366   0.24491   0.24491
  Beta virt. eigenvalues --    0.30697   0.34690   0.34690   0.35174   0.35174
  Beta virt. eigenvalues --    0.36491   0.36491   0.37442   0.37442   0.38060
  Beta virt. eigenvalues --    0.38113   0.38113   0.39376   0.40742   0.40742
  Beta virt. eigenvalues --    0.41107   0.42327   0.45158   0.45158   0.45948
  Beta virt. eigenvalues --    0.46612   0.46612   0.47048   0.48740   0.48740
  Beta virt. eigenvalues --    0.50008   0.52204   0.52204   0.54716   0.56787
  Beta virt. eigenvalues --    0.56787   0.62073   0.62167   0.62167   0.63607
  Beta virt. eigenvalues --    0.63607   0.63828   0.73637   0.73637   0.75895
  Beta virt. eigenvalues --    0.81476   0.82402   0.82402   0.87931   1.02079
  Beta virt. eigenvalues --    1.02079   1.07966   1.07966   1.08092   1.21399
  Beta virt. eigenvalues --    1.21622   1.21622   1.24053   1.26776   1.26776
  Beta virt. eigenvalues --    1.27820   1.27820   1.27861   1.34205   1.34222
  Beta virt. eigenvalues --    1.34222   1.46348   1.46348   1.51366   2.05515
  Beta virt. eigenvalues --    2.62596   2.62596   2.62613   2.62613   2.62625
  Beta virt. eigenvalues --    2.62625   2.62992   5.81340   5.81340   5.81350
  Beta virt. eigenvalues --    5.81352   5.81352   5.81398   5.81398   5.81402
  Beta virt. eigenvalues --    5.81424   5.81451   5.81487   5.81487   5.81529
  Beta virt. eigenvalues --    5.81553   5.81553   5.81619   5.81619   5.81623
  Beta virt. eigenvalues --    5.81682   5.81682   5.81805   5.81805   5.81823
  Beta virt. eigenvalues --    5.81866   5.82003   5.82003   5.82090   5.82318
  Beta virt. eigenvalues --   18.64508  18.64508  18.71808  18.71808  18.72876
  Beta virt. eigenvalues --   18.73674  18.77321  18.77321  18.78340  18.91370
  Beta virt. eigenvalues --   18.91370  19.38833  53.81222  56.18974  56.18974
  Beta virt. eigenvalues --   56.20978  56.21496
          Condensed to atoms (all electrons):
               1          2          3          4          5          6
     1  Cu  28.259679   0.029602   0.029602   0.029602   0.155310   0.155310
     2  Cu   0.029602  28.255934   0.031427   0.031427   0.155903   0.155903
     3  Cu   0.029602   0.031427  28.255934   0.031427   0.155903   0.000252
     4  Cu   0.029602   0.031427   0.031427  28.255934   0.000252   0.155903
     5  I    0.155310   0.155903   0.155903   0.000252  24.797573  -0.030250
     6  I    0.155310   0.155903   0.000252   0.155903  -0.030250  24.797573
     7  I    0.155310   0.000252   0.155903   0.155903  -0.030250  -0.030250
     8  I    0.000224   0.143254   0.143254   0.143254  -0.028474  -0.028474
     9  Ag   0.000206   0.001655   0.001655   0.001655   0.000188   0.000188
               7          8          9
     1  Cu   0.155310   0.000224   0.000206
     2  Cu   0.000252   0.143254   0.001655
     3  Cu   0.155903   0.143254   0.001655
     4  Cu   0.155903   0.143254   0.001655
     5  I   -0.030250  -0.028474   0.000188
     6  I   -0.030250  -0.028474   0.000188
     7  I   24.797573  -0.028474   0.000188
     8  I   -0.028474  24.803573   0.003815
     9  Ag   0.000188   0.003815  19.079116
          Atomic-Atomic Spin Densities.
               1          2          3          4          5          6
     1  Cu   0.000149   0.000222   0.000222   0.000222  -0.000016  -0.000016
     2  Cu   0.000222   0.008858   0.002083   0.002083  -0.002689  -0.002689
     3  Cu   0.000222   0.002083   0.008858   0.002083  -0.002689  -0.000436
     4  Cu   0.000222   0.002083   0.002083   0.008858  -0.000436  -0.002689
     5  I   -0.000016  -0.002689  -0.002689  -0.000436   0.010581   0.000464
     6  I   -0.000016  -0.002689  -0.000436  -0.002689   0.000464   0.010581
     7  I   -0.000016  -0.000436  -0.002689  -0.002689   0.000464   0.000464
     8  I   -0.000112   0.002007   0.002007   0.002007  -0.000949  -0.000949
     9  Ag   0.000273   0.001623   0.001623   0.001623  -0.000272  -0.000272
               7          8          9
     1  Cu  -0.000016  -0.000112   0.000273
     2  Cu  -0.000436   0.002007   0.001623
     3  Cu  -0.002689   0.002007   0.001623
     4  Cu  -0.002689   0.002007   0.001623
     5  I    0.000464  -0.000949  -0.000272
     6  I    0.000464  -0.000949  -0.000272
     7  I    0.010581  -0.000949  -0.000272
     8  I   -0.000949   0.088468  -0.085582
     9  Ag  -0.000272  -0.085582   1.027827
 Mulliken charges and spin densities:
               1          2
     1  Cu   0.185157   0.000927
     2  Cu   0.194643   0.011061
     3  Cu   0.194643   0.011061
     4  Cu   0.194643   0.011061
     5  I   -0.176156   0.004458
     6  I   -0.176156   0.004458
     7  I   -0.176156   0.004458
     8  I   -0.151951   0.005947
     9  Ag  -0.088667   0.946570
 Sum of Mulliken charges =   0.00000   1.00000
 Mulliken charges and spin densities with hydrogens summed into heavy atoms:
               1          2
     1  Cu   0.185157   0.000927
     2  Cu   0.194643   0.011061
     3  Cu   0.194643   0.011061
     4  Cu   0.194643   0.011061
     5  I   -0.176156   0.004458
     6  I   -0.176156   0.004458
     7  I   -0.176156   0.004458
     8  I   -0.151951   0.005947
     9  Ag  -0.088667   0.946570
 Electronic spatial extent (au):  <R**2>=          12474.7797
 Charge=              0.0000 electrons
 Dipole moment (field-independent basis, Debye):
    X=             -1.3379    Y=             -1.3379    Z=             -1.3379  Tot=              2.3173
 Quadrupole moment (field-independent basis, Debye-Ang):
   XX=           -185.7962   YY=           -185.7962   ZZ=           -185.7962
   XY=             -9.4428   XZ=             -9.4428   YZ=             -9.4428
 Traceless Quadrupole moment (field-independent basis, Debye-Ang):
   XX=              0.0000   YY=              0.0000   ZZ=              0.0000
   XY=             -9.4428   XZ=             -9.4428   YZ=             -9.4428
 Octapole moment (field-independent basis, Debye-Ang**2):
  XXX=           -952.3108  YYY=           -952.3108  ZZZ=           -952.3108  XYY=           -353.3789
  XXY=           -353.3789  XXZ=           -353.3789  XZZ=           -353.3789  YZZ=           -353.3789
  YYZ=           -353.3789  XYZ=            -77.2069
 Hexadecapole moment (field-independent basis, Debye-Ang**3):
 XXXX=          -6518.5812 YYYY=          -6518.5813 ZZZZ=          -6518.5812 XXXY=          -2412.0980
 XXXZ=          -2412.0980 YYYX=          -2412.0980 YYYZ=          -2412.0981 ZZZX=          -2412.0980
 ZZZY=          -2412.0980 XXYY=          -2359.6721 XXZZ=          -2359.6721 YYZZ=          -2359.6722
 XXYZ=          -1057.8725 YYXZ=          -1057.8725 ZZXY=          -1057.8725
 N-N= 3.839320073442D+03 E-N=-2.621765620606D+04  KE= 7.059071088168D+03
                          Isotropic Fermi Contact Couplings
        Atom                 a.u.       MegaHertz       Gauss      10(-4) cm-1
     1  Cu(63)            -0.00013      -0.15665      -0.05590      -0.05225
     2  Cu(63)             0.02997      35.55118      12.68555      11.85860
     3  Cu(63)             0.02997      35.55101      12.68548      11.85854
     4  Cu(63)             0.02997      35.55115      12.68554      11.85859
     5  I(127)             0.00000       0.00296       0.00106       0.00099
     6  I(127)             0.00000       0.00296       0.00106       0.00099
     7  I(127)             0.00000       0.00296       0.00106       0.00099
     8  I(127)             0.00016       0.14003       0.04996       0.04671
     9  Ag(107             0.00031      -0.05670      -0.02023      -0.01891
 --------------------------------------------------------
       Center         ----  Spin Dipole Couplings  ----
                      3XX-RR        3YY-RR        3ZZ-RR
 --------------------------------------------------------
     1   Atom        0.000000      0.000000      0.000000
     2   Atom       -0.015984     -0.015984      0.031968
     3   Atom       -0.015984      0.031968     -0.015984
     4   Atom        0.031968     -0.015984     -0.015984
     5   Atom       -0.001301      0.000651      0.000651
     6   Atom        0.000651     -0.001301      0.000651
     7   Atom        0.000651      0.000651     -0.001301
     8   Atom        0.000000      0.000000      0.000000
     9   Atom        0.000000      0.000000      0.000000
 --------------------------------------------------------
                        XY            XZ            YZ
 --------------------------------------------------------
     1   Atom        0.001021      0.001021      0.001021
     2   Atom        0.000600     -0.004547     -0.004548
     3   Atom       -0.004548      0.000600     -0.004548
     4   Atom       -0.004548     -0.004547      0.000600
     5   Atom        0.000156      0.000156      0.002026
     6   Atom        0.000156      0.002026      0.000156
     7   Atom        0.002026      0.000156      0.000156
     8   Atom        0.004971      0.004971      0.004971
     9   Atom       -0.010651     -0.010651     -0.010651
 --------------------------------------------------------


 ---------------------------------------------------------------------------------
              Anisotropic Spin Dipole Couplings in Principal Axis System
 ---------------------------------------------------------------------------------

       Atom             a.u.   MegaHertz   Gauss  10(-4) cm-1        Axes

              Baa    -0.0010    -0.145    -0.052    -0.048 -0.1504  0.7702 -0.6198
     1 Cu(63) Bbb    -0.0010    -0.145    -0.052    -0.048  0.8025 -0.2710 -0.5315
              Bcc     0.0020     0.289     0.103     0.096  0.5774  0.5773  0.5773
 
              Baa    -0.0166    -2.348    -0.838    -0.783  0.7073 -0.7069  0.0000
     2 Cu(63) Bbb    -0.0162    -2.300    -0.821    -0.767  0.7007  0.7011  0.1322
              Bcc     0.0328     4.648     1.658     1.550 -0.0935 -0.0935  0.9912
 
              Baa    -0.0166    -2.348    -0.838    -0.783 -0.7067  0.0001  0.7075
     3 Cu(63) Bbb    -0.0162    -2.300    -0.821    -0.767  0.7013  0.1322  0.7005
              Bcc     0.0328     4.648     1.658     1.550 -0.0935  0.9912 -0.0935
 
              Baa    -0.0166    -2.348    -0.838    -0.783  0.0000 -0.7070  0.7072
     4 Cu(63) Bbb    -0.0162    -2.300    -0.821    -0.767  0.1322  0.7010  0.7008
              Bcc     0.0328     4.648     1.658     1.550  0.9912 -0.0935 -0.0935
 
              Baa    -0.0014    -0.148    -0.053    -0.049  0.0000  0.7071 -0.7071
     5 I(127) Bbb    -0.0013    -0.141    -0.050    -0.047  0.9985 -0.0391 -0.0391
              Bcc     0.0027     0.289     0.103     0.096  0.0553  0.7060  0.7060
 
              Baa    -0.0014    -0.148    -0.053    -0.049 -0.7071  0.0000  0.7071
     6 I(127) Bbb    -0.0013    -0.141    -0.050    -0.047 -0.0391  0.9985 -0.0391
              Bcc     0.0027     0.289     0.103     0.096  0.7060  0.0553  0.7060
 
              Baa    -0.0014    -0.148    -0.053    -0.049  0.7071 -0.7071  0.0000
     7 I(127) Bbb    -0.0013    -0.141    -0.050    -0.047 -0.0391 -0.0391  0.9985
              Bcc     0.0027     0.289     0.103     0.096  0.7060  0.7060  0.0553
 
              Baa    -0.0050    -0.534    -0.191    -0.178  0.8120 -0.3318 -0.4802
     8 I(127) Bbb    -0.0050    -0.534    -0.191    -0.178 -0.0857  0.7460 -0.6604
              Bcc     0.0099     1.069     0.381     0.356  0.5773  0.5774  0.5774
 
              Baa    -0.0213     0.462     0.165     0.154  0.5774  0.5774  0.5774
     9 Ag(107 Bbb     0.0107    -0.231    -0.082    -0.077  0.7447 -0.0825 -0.6622
              Bcc     0.0107    -0.231    -0.082    -0.077 -0.3347  0.8123 -0.4776
 

 ---------------------------------------------------------------------------------

 No NMR shielding tensors so no spin-rotation constants.
 Leave Link  601 at Fri Sep 11 21:24:12 2026, MaxMem=  6442450944 cpu:               3.0 elap:               3.3
 (Enter C:\G16W\l9999.exe)
 Unable to Open any file for archive entry.
 1|1|UNPC-DESKTOP-2JKEGCA|SP|UPBE1PBE|def2SVP|Ag1Cu4I4(2)|JHKIM|11-Sep-
 2026|0||#P PBE1PBE/Def2SVP EmpiricalDispersion=GD3BJ SP SCF=(XQC,MaxCy
 cle=128) NoSymm Guess=Read||Cu4I4 t=0.000 dz=+0.00 class=site2site||0,
 2|Cu,0,0.235561,0.235561,0.235561|Cu,0,2.384439,2.384439,0.235561|Cu,0
 ,2.384439,0.235561,2.384439|Cu,0,0.235561,2.384439,2.384439|I,0,2.7976
 55,-0.177655,-0.177655|I,0,-0.177655,2.797655,-0.177655|I,0,-0.177655,
 -0.177655,2.797655|I,0,2.797655,2.797655,2.797655|Ag,0,4.587441,4.5874
 41,4.587441||Version=EM64W-G16RevC.01|HF=-7898.3685481|S2=0.751547|S2-
 1=0.|S2A=0.750002|RMSD=4.847e-009|Dipole=-0.5263609,-0.526361,-0.52636
 05|Quadrupole=0.0000006,-0.0000006,0.,-7.0204632,-7.0204625,-7.0204643
 |PG=C03V [C3(Cu1I1Ag1),3SGV(Cu1I1)]||@
 The archive entry for this job was punched.


 IT WAS A GAME, A VERY INTERESTING GAME ONE COULD
 PLAY.  WHENEVER ONE SOLVED ONE OF THE LITTLE PROBLEMS,
 ONE COULD WRITE A PAPER ABOUT IT.  IT WAS VERY EASY IN
 THOSE DAYS FOR ANY SECOND-RATE PHYSICIST TO DO
 FIRST-RATE WORK.  THERE HAS NOT BEEN SUCH A GLORIOUS
 TIME SINCE.  IT IS VERY DIFFICULT NOW FOR A FIRST-RATE
 PHYSICIST TO DO SECOND-RATE WORK.
     P.A.M. DIRAC, ON THE EARLY DAYS OF QUANTUM MECHANICS
                   DIRECTIONS IN PHYSICS, 1978, P. 7
 Job cpu time:       0 days  0 hours  3 minutes 45.0 seconds.
 Elapsed time:       0 days  0 hours  3 minutes 41.3 seconds.
 File lengths (MBytes):  RWF=     48 Int=      0 D2E=      0 Chk=      6 Scr=      1
 Normal termination of Gaussian 16 at Fri Sep 11 21:24:13 2026.
