 Entering Gaussian System, Link 0=C:\G16W\g16.exe
 Input=Cu4I4_t4_z1.gjf
 Output=Cu4I4_t4_z1.out
 Initial command:
 C:\G16W\l1.exe ".\Gau-102444.inp" "Cu4I4_t4_z1.out" /scrdir=".\"
 Entering Link 1 = C:\G16W\l1.exe PID=     80876.
  
 Copyright (c) 1988-2019, Gaussian, Inc.  All Rights Reserved.
  
 This is part of the Gaussian(R) 16 program.  It is based on
 the Gaussian(R) 09 system (copyright 2009, Gaussian, Inc.),
 the Gaussian(R) 03 system (copyright 2003, Gaussian, Inc.),
 the Gaussian(R) 98 system (copyright 1998, Gaussian, Inc.),
 the Gaussian(R) 94 system (copyright 1995, Gaussian, Inc.),
 the Gaussian 92(TM) system (copyright 1992, Gaussian, Inc.),
 the Gaussian 90(TM) system (copyright 1990, Gaussian, Inc.),
 the Gaussian 88(TM) system (copyright 1988, Gaussian, Inc.),
 the Gaussian 86(TM) system (copyright 1986, Carnegie Mellon
 University), and the Gaussian 82(TM) system (copyright 1983,
 Carnegie Mellon University). Gaussian is a federally registered
 trademark of Gaussian, Inc.
  
 This software contains proprietary and confidential information,
 including trade secrets, belonging to Gaussian, Inc.
  
 This software is provided under written license and may be
 used, copied, transmitted, or stored only in accord with that
 written license.
  
 The following legend is applicable only to US Government
 contracts under FAR:
  
                    RESTRICTED RIGHTS LEGEND
  
 Use, reproduction and disclosure by the US Government is
 subject to restrictions as set forth in subparagraphs (a)
 and (c) of the Commercial Computer Software - Restricted
 Rights clause in FAR 52.227-19.
  
 Gaussian, Inc.
 340 Quinnipiac St., Bldg. 40, Wallingford CT 06492
  
  
 ---------------------------------------------------------------
 Warning -- This program may not be used in any manner that
 competes with the business of Gaussian, Inc. or will provide
 assistance to any competitor of Gaussian, Inc.  The licensee
 of this program is prohibited from giving any competitor of
 Gaussian, Inc. access to this program.  By using this program,
 the user acknowledges that Gaussian, Inc. is engaged in the
 business of creating and licensing software in the field of
 computational chemistry and represents and warrants to the
 licensee that it is not a competitor of Gaussian, Inc. and that
 it will not use this program in any manner prohibited above.
 ---------------------------------------------------------------
  

 Cite this work as:
 Gaussian 16, Revision C.01,
 M. J. Frisch, G. W. Trucks, H. B. Schlegel, G. E. Scuseria, 
 M. A. Robb, J. R. Cheeseman, G. Scalmani, V. Barone, 
 G. A. Petersson, H. Nakatsuji, X. Li, M. Caricato, A. V. Marenich, 
 J. Bloino, B. G. Janesko, R. Gomperts, B. Mennucci, H. P. Hratchian, 
 J. V. Ortiz, A. F. Izmaylov, J. L. Sonnenberg, D. Williams-Young, 
 F. Ding, F. Lipparini, F. Egidi, J. Goings, B. Peng, A. Petrone, 
 T. Henderson, D. Ranasinghe, V. G. Zakrzewski, J. Gao, N. Rega, 
 G. Zheng, W. Liang, M. Hada, M. Ehara, K. Toyota, R. Fukuda, 
 J. Hasegawa, M. Ishida, T. Nakajima, Y. Honda, O. Kitao, H. Nakai, 
 T. Vreven, K. Throssell, J. A. Montgomery, Jr., J. E. Peralta, 
 F. Ogliaro, M. J. Bearpark, J. J. Heyd, E. N. Brothers, K. N. Kudin, 
 V. N. Staroverov, T. A. Keith, R. Kobayashi, J. Normand, 
 K. Raghavachari, A. P. Rendell, J. C. Burant, S. S. Iyengar, 
 J. Tomasi, M. Cossi, J. M. Millam, M. Klene, C. Adamo, R. Cammi, 
 J. W. Ochterski, R. L. Martin, K. Morokuma, O. Farkas, 
 J. B. Foresman, and D. J. Fox, Gaussian, Inc., Wallingford CT, 2019.
 
 ******************************************
 Gaussian 16:  EM64W-G16RevC.01 30-May-2019
                11-Sep-2026 
 ******************************************
 %Chk=Cu4I4.chk
 %NProcShared=8
 Will use up to    8 processors via shared memory.
 %Mem=48GB
 ----------------------------------------------------------------------
 #P PBE1PBE/Def2SVP EmpiricalDispersion=GD3BJ SP SCF=(XQC,MaxCycle=128)
  NoSymm Guess=Read
 ----------------------------------------------------------------------
 1/38=1,172=1/1;
 2/12=2,15=1,17=6,18=5,40=1/2;
 3/5=43,7=101,11=2,25=1,30=1,74=-13,116=-2,124=41/1,2,3;
 4/5=1/1;
 5/5=2,7=128,8=3,13=1,38=6/2,8;
 6/7=2,8=2,9=2,10=2,28=1/1;
 99/5=1,9=1/99;
 Leave Link    1 at Fri Sep 11 21:17:17 2026, MaxMem=  6442450944 cpu:               0.0 elap:               0.2
 (Enter C:\G16W\l101.exe)
 --------------------------------------
 Cu4I4 t=1.000 dz=+0.40 class=site2site
 --------------------------------------
 Symbolic Z-matrix:
 Charge =  0 Multiplicity = 2
 Cu                    0.23556   0.23556   0.23556 
 Cu                    2.38444   2.38444   0.23556 
 Cu                    2.38444   0.23556   2.38444 
 Cu                    0.23556   2.38444   2.38444 
 I                     2.79766  -0.17766  -0.17766 
 I                    -0.17766   2.79766  -0.17766 
 I                    -0.17766  -0.17766   2.79766 
 I                     2.79766   2.79766   2.79766 
 Ag                    5.17922  -2.28141   1.28943 
 
 ITRead=  0  0  0  0  0  0  0  0  0
 MicOpt= -1 -1 -1 -1 -1 -1 -1 -1 -1
 NAtoms=      9 NQM=        9 NQMF=       0 NMMI=      0 NMMIF=      0
                NMic=       0 NMicF=      0.
                    Isotopes and Nuclear Properties:
 (Nuclear quadrupole moments (NQMom) in fm**2, nuclear magnetic moments (NMagM)
  in nuclear magnetons)

  Atom         1           2           3           4           5           6           7           8           9
 IAtWgt=          63          63          63          63         127         127         127         127         107
 AtmWgt=  62.9295992  62.9295992  62.9295992  62.9295992 126.9004000 126.9004000 126.9004000 126.9004000 106.9050900
 NucSpn=           3           3           3           3           5           5           5           5           1
 AtZEff=   0.0000000   0.0000000   0.0000000   0.0000000   0.0000000   0.0000000   0.0000000   0.0000000   0.0000000
 NQMom=  -22.0000000 -22.0000000 -22.0000000 -22.0000000 -71.0000000 -71.0000000 -71.0000000 -71.0000000   0.0000000
 NMagM=    2.2233000   2.2233000   2.2233000   2.2233000   2.8132800   2.8132800   2.8132800   2.8132800  -0.1135700
 AtZNuc=  29.0000000  29.0000000  29.0000000  29.0000000  53.0000000  53.0000000  53.0000000  53.0000000  47.0000000
 Leave Link  101 at Fri Sep 11 21:17:17 2026, MaxMem=  6442450944 cpu:               0.0 elap:               0.2
 (Enter C:\G16W\l202.exe)
                          Input orientation:                          
 ---------------------------------------------------------------------
 Center     Atomic      Atomic             Coordinates (Angstroms)
 Number     Number       Type             X           Y           Z
 ---------------------------------------------------------------------
      1         29           0        0.235561    0.235561    0.235561
      2         29           0        2.384439    2.384439    0.235561
      3         29           0        2.384439    0.235561    2.384439
      4         29           0        0.235561    2.384439    2.384439
      5         53           0        2.797655   -0.177655   -0.177655
      6         53           0       -0.177655    2.797655   -0.177655
      7         53           0       -0.177655   -0.177655    2.797655
      8         53           0        2.797655    2.797655    2.797655
      9         47           0        5.179223   -2.281414    1.289428
 ---------------------------------------------------------------------
                    Distance matrix (angstroms):
                    1          2          3          4          5
     1  Cu   0.000000
     2  Cu   3.038972   0.000000
     3  Cu   3.038972   3.038972   0.000000
     4  Cu   3.038972   3.038972   3.038972   0.000000
     5  I    2.627893   2.627893   2.627893   4.437677   0.000000
     6  I    2.627893   2.627893   4.437677   2.627893   4.207724
     7  I    2.627893   4.437677   2.627893   2.627893   4.207724
     8  I    4.437677   2.627893   2.627893   2.627893   4.207724
     9  Ag   5.646733   5.540003   3.917273   6.885421   3.500000
                    6          7          8          9
     6  I    0.000000
     7  I    4.207724   0.000000
     8  I    4.207724   4.207724   0.000000
     9  Ag   7.526315   5.949512   5.808920   0.000000
 Symmetry turned off by external request.
 This structure is nearly, but not quite of a higher symmetry.
 Consider Symm=Loose if the higher symmetry is desired.
 Stoichiometry    AgCu4I4(2)
 Framework group  C1[X(AgCu4I4)]
 Deg. of freedom    21
 Full point group                 C1      NOp   1
 Rotational constants (GHZ):           0.1787092           0.0929068           0.0929068
 Leave Link  202 at Fri Sep 11 21:17:18 2026, MaxMem=  6442450944 cpu:               0.0 elap:               0.1
 (Enter C:\G16W\l301.exe)
 Standard basis: def2SVP (5D, 7F)
 Ernie: Thresh=  0.10000D-02 Tol=  0.10000D-05 Strict=F.
   259 basis functions,   657 primitive gaussians,   292 cartesian basis functions
   118 alpha electrons      117 beta electrons
       nuclear repulsion energy      3859.7846595280 Hartrees.
 IExCor= 1009 DFT=T Ex+Corr=PBE1PBE ExCW=0 ScaHFX=  0.250000
 ScaDFX=  0.750000  0.750000  1.000000  1.000000 ScalE2=  1.000000  1.000000
 IRadAn=      5 IRanWt=     -1 IRanGd=            0 ICorTp=0 IEmpDi=141
 NAtoms=    9 NActive=    9 NUniq=    9 SFac= 1.00D+00 NAtFMM=   60 NAOKFM=F Big=F
 Integral buffers will be    131072 words long.
 Raffenetti 2 integral format.
 Two-electron integral symmetry is turned off.
 R6Disp:  Grimme-D3(BJ) Dispersion energy=       -0.0360371849 Hartrees.
 Nuclear repulsion after empirical dispersion term =     3859.7486223431 Hartrees.
 Leave Link  301 at Fri Sep 11 21:17:18 2026, MaxMem=  6442450944 cpu:               0.0 elap:               0.2
 (Enter C:\G16W\l302.exe)
 NPDir=0 NMtPBC=     1 NCelOv=     1 NCel=       1 NClECP=     1 NCelD=      1
         NCelK=      1 NCelE2=     1 NClLst=     1 CellRange=     0.0.
 One-electron integrals computed using PRISM.
   1 Symmetry operations used in ECPInt.
 ECPInt:  NShTT=    4560 NPrTT=   26181 LenC2=    4262 LenP2D=   16219.
 LDataN:  DoStor=T MaxTD1= 7 Len=  274
 NBasis=   259 RedAO= T EigKep=  1.32D-02  NBF=   259
 NBsUse=   259 1.00D-06 EigRej= -1.00D+00 NBFU=   259
 Precomputing XC quadrature grid using
 IXCGrd= 4 IRadAn=           5 IRanWt=          -1 IRanGd=           0 AccXCQ= 0.00D+00.
 Defaulting to unpruned grid for atomic number  53.
 Defaulting to unpruned grid for atomic number  47.
 Defaulting to unpruned grid for atomic number  53.
 Generated NRdTot=       0 NPtTot=           0 NUsed=           0 NTot=          32
 NSgBfM=   284   284   284   284   284 MxSgAt=     9 MxSgA2=     9.
 Leave Link  302 at Fri Sep 11 21:17:25 2026, MaxMem=  6442450944 cpu:               7.0 elap:               7.0
 (Enter C:\G16W\l303.exe)
 DipDrv:  MaxL=1.
 Leave Link  303 at Fri Sep 11 21:17:26 2026, MaxMem=  6442450944 cpu:               1.0 elap:               0.6
 (Enter C:\G16W\l401.exe)
 Initial guess from the checkpoint file:  "Cu4I4.chk"
 B after Tr=     0.094799   -0.086574    0.019145
         Rot=    0.999967    0.005489    0.005916   -0.000427 Ang=   0.93 deg.
 Guess basis will be translated and rotated to current coordinates.
 JPrj=2 DoOrth=T DoCkMO=T.
 Initial guess <Sx>= 0.0000 <Sy>= 0.0000 <Sz>= 0.5000 <S**2>= 0.7517 S= 0.5009
 Leave Link  401 at Fri Sep 11 21:17:37 2026, MaxMem=  6442450944 cpu:              11.0 elap:              11.2
 (Enter C:\G16W\l502.exe)
 Keep R1 and R2 ints in memory in canonical form, NReq=1146280152.
 FoFCou: FMM=F IPFlag=           0 FMFlag=           0 FMFlg1=           0
         NFxFlg=           0 DoJE=F BraDBF=F KetDBF=F FulRan=T
         wScrn=  0.000000 ICntrl=       600 IOpCl=  0 I1Cent=           0 NGrid=           0
         NMat0=    1 NMatS0=  33670 NMatT0=    0 NMatD0=    1 NMtDS0=    0 NMtDT0=    0
 Symmetry not used in FoFCou.
 Two-electron integral symmetry not used.
 UHF open shell SCF:
 Using DIIS extrapolation, IDIIS=  1040.
 NGot=  6442450944 LenX=  5308573416 LenY=  5308487711
 Requested convergence on RMS density matrix=1.00D-08 within 128 cycles.
 Requested convergence on MAX density matrix=1.00D-06.
 Requested convergence on             energy=1.00D-06.
 No special actions if energy rises.

 Cycle   1  Pass 1  IDiag  1:
 Defaulting to unpruned grid for atomic number  53.
 Defaulting to unpruned grid for atomic number  53.
 Defaulting to unpruned grid for atomic number  53.
 Defaulting to unpruned grid for atomic number  53.
 Defaulting to unpruned grid for atomic number  53.
 Defaulting to unpruned grid for atomic number  53.
 Defaulting to unpruned grid for atomic number  53.
 Defaulting to unpruned grid for atomic number  53.
 E= -7898.36946726185    
 DIIS: error= 1.28D-02 at cycle   1 NSaved=   1.
 NSaved= 1 IEnMin= 1 EnMin= -7898.36946726185     IErMin= 1 ErrMin= 1.28D-02
 ErrMax= 1.28D-02  0.00D+00 EMaxC= 1.00D-01 BMatC= 5.30D-02 BMatP= 5.30D-02
 IDIUse=3 WtCom= 8.72D-01 WtEn= 1.28D-01
 Coeff-Com:  0.100D+01
 Coeff-En:   0.100D+01
 Coeff:      0.100D+01
 Gap=     0.118 Goal=   None    Shift=    0.000
 Gap=     0.151 Goal=   None    Shift=    0.000
 GapD=    0.118 DampG=1.000 DampE=0.250 DampFc=0.2500 IDamp=-1.
 Damping current iteration by 2.50D-01
 RMSDP=4.54D-04 MaxDP=2.18D-02              OVMax= 3.14D-02

 Cycle   2  Pass 1  IDiag  1:
 E= -7898.37010691878     Delta-E=       -0.000639656937 Rises=F Damp=T
 DIIS: error= 9.63D-03 at cycle   2 NSaved=   2.
 NSaved= 2 IEnMin= 2 EnMin= -7898.37010691878     IErMin= 2 ErrMin= 9.63D-03
 ErrMax= 9.63D-03  0.00D+00 EMaxC= 1.00D-01 BMatC= 2.98D-02 BMatP= 5.30D-02
 IDIUse=3 WtCom= 9.04D-01 WtEn= 9.63D-02
 Coeff-Com: -0.298D+01 0.398D+01
 Coeff-En:   0.000D+00 0.100D+01
 Coeff:     -0.269D+01 0.369D+01
 Gap=     0.118 Goal=   None    Shift=    0.000
 Gap=     0.132 Goal=   None    Shift=    0.000
 RMSDP=3.91D-04 MaxDP=1.94D-02 DE=-6.40D-04 OVMax= 1.06D-02

 Cycle   3  Pass 1  IDiag  1:
 E= -7898.37216287193     Delta-E=       -0.002055953149 Rises=F Damp=F
 DIIS: error= 6.45D-04 at cycle   3 NSaved=   3.
 NSaved= 3 IEnMin= 3 EnMin= -7898.37216287193     IErMin= 3 ErrMin= 6.45D-04
 ErrMax= 6.45D-04  0.00D+00 EMaxC= 1.00D-01 BMatC= 3.52D-04 BMatP= 2.98D-02
 IDIUse=3 WtCom= 9.94D-01 WtEn= 6.45D-03
 Coeff-Com: -0.153D+01 0.204D+01 0.491D+00
 Coeff-En:   0.000D+00 0.000D+00 0.100D+01
 Coeff:     -0.152D+01 0.203D+01 0.494D+00
 Gap=     0.118 Goal=   None    Shift=    0.000
 Gap=     0.133 Goal=   None    Shift=    0.000
 RMSDP=4.81D-05 MaxDP=3.40D-03 DE=-2.06D-03 OVMax= 2.48D-03

 Cycle   4  Pass 1  IDiag  1:
 E= -7898.37223921324     Delta-E=       -0.000076341303 Rises=F Damp=F
 DIIS: error= 2.44D-04 at cycle   4 NSaved=   4.
 NSaved= 4 IEnMin= 4 EnMin= -7898.37223921324     IErMin= 4 ErrMin= 2.44D-04
 ErrMax= 2.44D-04  0.00D+00 EMaxC= 1.00D-01 BMatC= 5.46D-05 BMatP= 3.52D-04
 IDIUse=3 WtCom= 9.98D-01 WtEn= 2.44D-03
 Coeff-Com: -0.787D+00 0.105D+01 0.317D+00 0.422D+00
 Coeff-En:   0.000D+00 0.000D+00 0.000D+00 0.100D+01
 Coeff:     -0.785D+00 0.104D+01 0.317D+00 0.424D+00
 Gap=     0.119 Goal=   None    Shift=    0.000
 Gap=     0.133 Goal=   None    Shift=    0.000
 RMSDP=1.39D-05 MaxDP=9.99D-04 DE=-7.63D-05 OVMax= 9.60D-04

 Cycle   5  Pass 1  IDiag  1:
 E= -7898.37224855550     Delta-E=       -0.000009342260 Rises=F Damp=F
 DIIS: error= 7.73D-05 at cycle   5 NSaved=   5.
 NSaved= 5 IEnMin= 5 EnMin= -7898.37224855550     IErMin= 5 ErrMin= 7.73D-05
 ErrMax= 7.73D-05  0.00D+00 EMaxC= 1.00D-01 BMatC= 3.06D-06 BMatP= 5.46D-05
 IDIUse=1 WtCom= 1.00D+00 WtEn= 0.00D+00
 Coeff-Com:  0.231D+00-0.308D+00-0.429D-01 0.142D+00 0.978D+00
 Coeff:      0.231D+00-0.308D+00-0.429D-01 0.142D+00 0.978D+00
 Gap=     0.119 Goal=   None    Shift=    0.000
 Gap=     0.133 Goal=   None    Shift=    0.000
 RMSDP=1.33D-05 MaxDP=1.12D-03 DE=-9.34D-06 OVMax= 1.54D-03

 Cycle   6  Pass 1  IDiag  1:
 E= -7898.37225065740     Delta-E=       -0.000002101904 Rises=F Damp=F
 DIIS: error= 2.61D-05 at cycle   6 NSaved=   6.
 NSaved= 6 IEnMin= 6 EnMin= -7898.37225065740     IErMin= 6 ErrMin= 2.61D-05
 ErrMax= 2.61D-05  0.00D+00 EMaxC= 1.00D-01 BMatC= 4.62D-07 BMatP= 3.06D-06
 IDIUse=1 WtCom= 1.00D+00 WtEn= 0.00D+00
 Coeff-Com:  0.175D+00-0.233D+00-0.510D-01 0.173D-01 0.421D+00 0.671D+00
 Coeff:      0.175D+00-0.233D+00-0.510D-01 0.173D-01 0.421D+00 0.671D+00
 Gap=     0.119 Goal=   None    Shift=    0.000
 Gap=     0.133 Goal=   None    Shift=    0.000
 RMSDP=3.78D-06 MaxDP=4.06D-04 DE=-2.10D-06 OVMax= 3.76D-04

 Cycle   7  Pass 1  IDiag  1:
 E= -7898.37225088232     Delta-E=       -0.000000224922 Rises=F Damp=F
 DIIS: error= 4.96D-06 at cycle   7 NSaved=   7.
 NSaved= 7 IEnMin= 7 EnMin= -7898.37225088232     IErMin= 7 ErrMin= 4.96D-06
 ErrMax= 4.96D-06  0.00D+00 EMaxC= 1.00D-01 BMatC= 3.73D-08 BMatP= 4.62D-07
 IDIUse=1 WtCom= 1.00D+00 WtEn= 0.00D+00
 Coeff-Com:  0.205D-01-0.273D-01-0.955D-02-0.155D-01 0.218D-03 0.173D+00
 Coeff-Com:  0.859D+00
 Coeff:      0.205D-01-0.273D-01-0.955D-02-0.155D-01 0.218D-03 0.173D+00
 Coeff:      0.859D+00
 Gap=     0.119 Goal=   None    Shift=    0.000
 Gap=     0.133 Goal=   None    Shift=    0.000
 RMSDP=1.37D-06 MaxDP=1.40D-04 DE=-2.25D-07 OVMax= 1.51D-04

 Cycle   8  Pass 1  IDiag  1:
 E= -7898.37225089802     Delta-E=       -0.000000015702 Rises=F Damp=F
 DIIS: error= 4.24D-06 at cycle   8 NSaved=   8.
 NSaved= 8 IEnMin= 8 EnMin= -7898.37225089802     IErMin= 8 ErrMin= 4.24D-06
 ErrMax= 4.24D-06  0.00D+00 EMaxC= 1.00D-01 BMatC= 4.47D-08 BMatP= 3.73D-08
 IDIUse=1 WtCom= 1.00D+00 WtEn= 0.00D+00
 Coeff-Com: -0.134D-01 0.179D-01 0.981D-03-0.141D-01-0.663D-01 0.209D-01
 Coeff-Com:  0.622D+00 0.432D+00
 Coeff:     -0.134D-01 0.179D-01 0.981D-03-0.141D-01-0.663D-01 0.209D-01
 Coeff:      0.622D+00 0.432D+00
 Gap=     0.119 Goal=   None    Shift=    0.000
 Gap=     0.133 Goal=   None    Shift=    0.000
 RMSDP=4.58D-07 MaxDP=3.73D-05 DE=-1.57D-08 OVMax= 3.89D-05

 Cycle   9  Pass 1  IDiag  1:
 E= -7898.37225090672     Delta-E=       -0.000000008698 Rises=F Damp=F
 DIIS: error= 8.01D-07 at cycle   9 NSaved=   9.
 NSaved= 9 IEnMin= 9 EnMin= -7898.37225090672     IErMin= 9 ErrMin= 8.01D-07
 ErrMax= 8.01D-07  0.00D+00 EMaxC= 1.00D-01 BMatC= 1.99D-09 BMatP= 3.73D-08
 IDIUse=1 WtCom= 1.00D+00 WtEn= 0.00D+00
 Coeff-Com: -0.113D-01 0.151D-01 0.223D-02-0.419D-02-0.348D-01-0.164D-01
 Coeff-Com:  0.181D+00 0.204D+00 0.664D+00
 Coeff:     -0.113D-01 0.151D-01 0.223D-02-0.419D-02-0.348D-01-0.164D-01
 Coeff:      0.181D+00 0.204D+00 0.664D+00
 Gap=     0.119 Goal=   None    Shift=    0.000
 Gap=     0.133 Goal=   None    Shift=    0.000
 RMSDP=1.72D-07 MaxDP=1.38D-05 DE=-8.70D-09 OVMax= 1.31D-05

 Cycle  10  Pass 1  IDiag  1:
 E= -7898.37225090733     Delta-E=       -0.000000000608 Rises=F Damp=F
 DIIS: error= 2.31D-07 at cycle  10 NSaved=  10.
 NSaved=10 IEnMin=10 EnMin= -7898.37225090733     IErMin=10 ErrMin= 2.31D-07
 ErrMax= 2.31D-07  0.00D+00 EMaxC= 1.00D-01 BMatC= 1.72D-10 BMatP= 1.99D-09
 IDIUse=1 WtCom= 1.00D+00 WtEn= 0.00D+00
 Coeff-Com: -0.191D-02 0.254D-02 0.585D-03 0.512D-03-0.315D-02-0.660D-02
 Coeff-Com: -0.259D-01 0.106D-01 0.218D+00 0.806D+00
 Coeff:     -0.191D-02 0.254D-02 0.585D-03 0.512D-03-0.315D-02-0.660D-02
 Coeff:     -0.259D-01 0.106D-01 0.218D+00 0.806D+00
 Gap=     0.119 Goal=   None    Shift=    0.000
 Gap=     0.133 Goal=   None    Shift=    0.000
 RMSDP=8.60D-08 MaxDP=7.03D-06 DE=-6.08D-10 OVMax= 6.14D-06

 Cycle  11  Pass 1  IDiag  1:
 E= -7898.37225090698     Delta-E=        0.000000000346 Rises=F Damp=F
 DIIS: error= 1.14D-07 at cycle  11 NSaved=  11.
 NSaved=11 IEnMin=10 EnMin= -7898.37225090733     IErMin=11 ErrMin= 1.14D-07
 ErrMax= 1.14D-07  0.00D+00 EMaxC= 1.00D-01 BMatC= 2.76D-11 BMatP= 1.72D-10
 IDIUse=1 WtCom= 1.00D+00 WtEn= 0.00D+00
 Coeff-Com:  0.105D-02-0.140D-02-0.953D-04 0.844D-03 0.383D-02-0.383D-03
 Coeff-Com: -0.360D-01-0.256D-01-0.558D-02 0.295D+00 0.768D+00
 Coeff:      0.105D-02-0.140D-02-0.953D-04 0.844D-03 0.383D-02-0.383D-03
 Coeff:     -0.360D-01-0.256D-01-0.558D-02 0.295D+00 0.768D+00
 Gap=     0.119 Goal=   None    Shift=    0.000
 Gap=     0.133 Goal=   None    Shift=    0.000
 RMSDP=3.44D-08 MaxDP=2.67D-06 DE= 3.46D-10 OVMax= 2.38D-06

 Cycle  12  Pass 1  IDiag  1:
 E= -7898.37225090725     Delta-E=       -0.000000000271 Rises=F Damp=F
 DIIS: error= 4.73D-08 at cycle  12 NSaved=  12.
 NSaved=12 IEnMin=10 EnMin= -7898.37225090733     IErMin=12 ErrMin= 4.73D-08
 ErrMax= 4.73D-08  0.00D+00 EMaxC= 1.00D-01 BMatC= 6.88D-12 BMatP= 2.76D-11
 IDIUse=1 WtCom= 1.00D+00 WtEn= 0.00D+00
 Coeff-Com:  0.698D-03-0.930D-03-0.955D-04 0.336D-03 0.222D-02 0.306D-03
 Coeff-Com: -0.138D-01-0.129D-01-0.286D-01 0.402D-01 0.396D+00 0.617D+00
 Coeff:      0.698D-03-0.930D-03-0.955D-04 0.336D-03 0.222D-02 0.306D-03
 Coeff:     -0.138D-01-0.129D-01-0.286D-01 0.402D-01 0.396D+00 0.617D+00
 Gap=     0.119 Goal=   None    Shift=    0.000
 Gap=     0.133 Goal=   None    Shift=    0.000
 RMSDP=1.07D-08 MaxDP=7.02D-07 DE=-2.71D-10 OVMax= 5.52D-07

 Cycle  13  Pass 1  IDiag  1:
 E= -7898.37225090694     Delta-E=        0.000000000311 Rises=F Damp=F
 DIIS: error= 3.02D-08 at cycle  13 NSaved=  13.
 NSaved=13 IEnMin=10 EnMin= -7898.37225090733     IErMin=13 ErrMin= 3.02D-08
 ErrMax= 3.02D-08  0.00D+00 EMaxC= 1.00D-01 BMatC= 2.31D-12 BMatP= 6.88D-12
 IDIUse=1 WtCom= 1.00D+00 WtEn= 0.00D+00
 Coeff-Com:  0.191D-03-0.254D-03-0.324D-04 0.206D-04 0.523D-03 0.237D-03
 Coeff-Com: -0.583D-03-0.227D-02-0.179D-01-0.371D-01 0.951D-01 0.422D+00
 Coeff-Com:  0.540D+00
 Coeff:      0.191D-03-0.254D-03-0.324D-04 0.206D-04 0.523D-03 0.237D-03
 Coeff:     -0.583D-03-0.227D-02-0.179D-01-0.371D-01 0.951D-01 0.422D+00
 Coeff:      0.540D+00
 Gap=     0.119 Goal=   None    Shift=    0.000
 Gap=     0.133 Goal=   None    Shift=    0.000
 RMSDP=5.21D-09 MaxDP=3.32D-07 DE= 3.11D-10 OVMax= 2.42D-07

 SCF Done:  E(UPBE1PBE) =  -7898.37225091     A.U. after   13 cycles
            NFock= 13  Conv=0.52D-08     -V/T= 2.1189
 <Sx>= 0.0000 <Sy>= 0.0000 <Sz>= 0.5000 <S**2>= 0.7515 S= 0.5007
 <L.S>= 0.000000000000E+00
 KE= 7.059064436712D+03 PE=-2.625916442830D+04 EE= 7.441979118333D+03
 Annihilation of the first spin contaminant:
 S**2 before annihilation     0.7515,   after     0.7500
 Leave Link  502 at Fri Sep 11 21:20:22 2026, MaxMem=  6442450944 cpu:             164.0 elap:             164.3
 (Enter C:\G16W\l508.exe)
 QCSCF skips out because SCF is already converged.
 Leave Link  508 at Fri Sep 11 21:20:24 2026, MaxMem=  6442450944 cpu:               0.0 elap:               0.1
 (Enter C:\G16W\l601.exe)
 Copying SCF densities to generalized density rwf, IOpCl= 1 IROHF=0.

 **********************************************************************

            Population analysis using the SCF Density.

 **********************************************************************

 Alpha  occ. eigenvalues -- -323.33779-323.33730-323.33720-323.33509 -38.93812
 Alpha  occ. eigenvalues --  -38.93764 -38.93753 -38.93541 -34.12005 -34.11945
 Alpha  occ. eigenvalues --  -34.11935 -34.11802 -34.11764 -34.11745 -34.11735
 Alpha  occ. eigenvalues --  -34.11734 -34.11731 -34.11725 -34.11514 -34.11513
 Alpha  occ. eigenvalues --   -6.90394  -6.89889  -6.89789  -6.89779  -4.91249
 Alpha  occ. eigenvalues --   -4.91140  -4.91078  -4.90739  -4.90637  -4.90628
 Alpha  occ. eigenvalues --   -4.90612  -4.90608  -4.90511  -4.90509  -4.90502
 Alpha  occ. eigenvalues --   -4.90498  -4.33756  -4.33742  -4.33732  -4.33521
 Alpha  occ. eigenvalues --   -3.75810  -2.81951  -2.81918  -2.81906  -2.81728
 Alpha  occ. eigenvalues --   -2.81715  -2.81707  -2.81696  -2.81685  -2.81676
 Alpha  occ. eigenvalues --   -2.81664  -2.81470  -2.81468  -2.33796  -2.33766
 Alpha  occ. eigenvalues --   -2.33754  -1.94017  -1.93989  -1.93955  -1.93835
 Alpha  occ. eigenvalues --   -1.93830  -1.93493  -1.93471  -1.93471  -1.93392
 Alpha  occ. eigenvalues --   -1.93382  -1.93372  -1.93369  -1.93362  -1.93359
 Alpha  occ. eigenvalues --   -1.93336  -1.93334  -1.93236  -1.93235  -1.93226
 Alpha  occ. eigenvalues --   -1.93225  -0.72405  -0.71224  -0.70860  -0.70791
 Alpha  occ. eigenvalues --   -0.39190  -0.36600  -0.36300  -0.36281  -0.34570
 Alpha  occ. eigenvalues --   -0.34189  -0.34112  -0.33610  -0.33445  -0.33323
 Alpha  occ. eigenvalues --   -0.33301  -0.33258  -0.32980  -0.32844  -0.32464
 Alpha  occ. eigenvalues --   -0.32452  -0.32323  -0.29970  -0.29300  -0.29278
 Alpha  occ. eigenvalues --   -0.28772  -0.28764  -0.28743  -0.28138  -0.28084
 Alpha  occ. eigenvalues --   -0.27992  -0.27916  -0.27911  -0.26463  -0.26386
 Alpha  occ. eigenvalues --   -0.26349  -0.24944  -0.24746  -0.24730  -0.23556
 Alpha  occ. eigenvalues --   -0.23368  -0.23298  -0.18172
 Alpha virt. eigenvalues --   -0.06299  -0.03989  -0.03349  -0.03097  -0.00984
 Alpha virt. eigenvalues --    0.00165   0.01591   0.03432   0.04531   0.05137
 Alpha virt. eigenvalues --    0.05381   0.10368   0.11388   0.11869   0.11988
 Alpha virt. eigenvalues --    0.12025   0.12144   0.15962   0.16600   0.16696
 Alpha virt. eigenvalues --    0.16884   0.24493   0.24740   0.25427   0.29461
 Alpha virt. eigenvalues --    0.32568   0.33331   0.35255   0.35485   0.35603
 Alpha virt. eigenvalues --    0.35713   0.37073   0.37714   0.38040   0.38307
 Alpha virt. eigenvalues --    0.38394   0.38505   0.40182   0.41048   0.41244
 Alpha virt. eigenvalues --    0.42041   0.43308   0.44250   0.44679   0.45277
 Alpha virt. eigenvalues --    0.46013   0.46758   0.47459   0.47929   0.48911
 Alpha virt. eigenvalues --    0.50461   0.51155   0.52226   0.54004   0.55122
 Alpha virt. eigenvalues --    0.62288   0.62451   0.62642   0.63909   0.64007
 Alpha virt. eigenvalues --    0.64381   0.70887   0.74011   0.74782   0.79853
 Alpha virt. eigenvalues --    0.82702   0.82726   0.83621   1.02379   1.02731
 Alpha virt. eigenvalues --    1.08338   1.08451   1.08514   1.21776   1.21865
 Alpha virt. eigenvalues --    1.22160   1.22905   1.27113   1.27167   1.28148
 Alpha virt. eigenvalues --    1.28169   1.28622   1.34539   1.34557   1.34758
 Alpha virt. eigenvalues --    1.46710   1.46717   1.47244   2.01033   2.61630
 Alpha virt. eigenvalues --    2.61632   2.61637   2.61641   2.61652   2.61653
 Alpha virt. eigenvalues --    2.61760   5.81707   5.81713   5.81720   5.81720
 Alpha virt. eigenvalues --    5.81728   5.81766   5.81772   5.81773   5.81789
 Alpha virt. eigenvalues --    5.81826   5.81855   5.81858   5.81891   5.81898
 Alpha virt. eigenvalues --    5.81904   5.81940   5.81972   5.81977   5.82016
 Alpha virt. eigenvalues --    5.82023   5.82153   5.82155   5.82169   5.82179
 Alpha virt. eigenvalues --    5.82341   5.82343   5.82384   5.82638  18.64996
 Alpha virt. eigenvalues --   18.66010  18.72064  18.72442  18.73046  18.74016
 Alpha virt. eigenvalues --   18.75226  18.75441  18.84064  18.91611  18.92776
 Alpha virt. eigenvalues --   19.07392  53.79045  56.19323  56.19711  56.22615
 Alpha virt. eigenvalues --   56.23180
  Beta  occ. eigenvalues -- -323.33779-323.33729-323.33719-323.33509 -38.93803
  Beta  occ. eigenvalues --  -38.93758 -38.93748 -38.93541 -34.11994 -34.11944
  Beta  occ. eigenvalues --  -34.11933 -34.11791 -34.11762 -34.11739 -34.11732
  Beta  occ. eigenvalues --  -34.11729 -34.11728 -34.11719 -34.11514 -34.11512
  Beta  occ. eigenvalues --   -6.90366  -6.89886  -6.89789  -6.89779  -4.91222
  Beta  occ. eigenvalues --   -4.91106  -4.91062  -4.90734  -4.90637  -4.90628
  Beta  occ. eigenvalues --   -4.90608  -4.90606  -4.90512  -4.90508  -4.90502
  Beta  occ. eigenvalues --   -4.90498  -4.33737  -4.33729  -4.33720  -4.33521
  Beta  occ. eigenvalues --   -3.75698  -2.81922  -2.81909  -2.81902  -2.81715
  Beta  occ. eigenvalues --   -2.81704  -2.81686  -2.81677  -2.81674  -2.81664
  Beta  occ. eigenvalues --   -2.81658  -2.81471  -2.81467  -2.33760  -2.33739
  Beta  occ. eigenvalues --   -2.33735  -1.93982  -1.93955  -1.93932  -1.93808
  Beta  occ. eigenvalues --   -1.93801  -1.93489  -1.93467  -1.93467  -1.93392
  Beta  occ. eigenvalues --   -1.93382  -1.93372  -1.93368  -1.93362  -1.93358
  Beta  occ. eigenvalues --   -1.93333  -1.93331  -1.93236  -1.93235  -1.93225
  Beta  occ. eigenvalues --   -1.93225  -0.72331  -0.71124  -0.70845  -0.70790
  Beta  occ. eigenvalues --   -0.39148  -0.36450  -0.36273  -0.36259  -0.34403
  Beta  occ. eigenvalues --   -0.34138  -0.34086  -0.33424  -0.33191  -0.32754
  Beta  occ. eigenvalues --   -0.32697  -0.32688  -0.32660  -0.32640  -0.32441
  Beta  occ. eigenvalues --   -0.32383  -0.31987  -0.29946  -0.29274  -0.29260
  Beta  occ. eigenvalues --   -0.28756  -0.28738  -0.28735  -0.28081  -0.28063
  Beta  occ. eigenvalues --   -0.27981  -0.27907  -0.27906  -0.26388  -0.26377
  Beta  occ. eigenvalues --   -0.26328  -0.24801  -0.24731  -0.24709  -0.23440
  Beta  occ. eigenvalues --   -0.23331  -0.23291
  Beta virt. eigenvalues --   -0.09984  -0.05871  -0.03442  -0.03234  -0.02950
  Beta virt. eigenvalues --    0.01415   0.01793   0.03743   0.04137   0.04675
  Beta virt. eigenvalues --    0.05468   0.05662   0.11299   0.11542   0.11892
  Beta virt. eigenvalues --    0.12067   0.12169   0.12853   0.16314   0.16641
  Beta virt. eigenvalues --    0.16754   0.17430   0.24605   0.24773   0.25524
  Beta virt. eigenvalues --    0.31341   0.34373   0.35019   0.35412   0.35621
  Beta virt. eigenvalues --    0.36536   0.36612   0.37639   0.37864   0.38173
  Beta virt. eigenvalues --    0.38328   0.38477   0.38643   0.40297   0.41231
  Beta virt. eigenvalues --    0.41326   0.42664   0.43927   0.44988   0.45447
  Beta virt. eigenvalues --    0.46355   0.46516   0.47195   0.48067   0.49179
  Beta virt. eigenvalues --    0.49445   0.50970   0.51634   0.52361   0.54784
  Beta virt. eigenvalues --    0.56212   0.62349   0.62683   0.62694   0.63948
  Beta virt. eigenvalues --    0.64110   0.64442   0.71810   0.74037   0.74923
  Beta virt. eigenvalues --    0.79901   0.82727   0.82738   0.83685   1.02395
  Beta virt. eigenvalues --    1.02764   1.08354   1.08479   1.08536   1.21795
  Beta virt. eigenvalues --    1.21879   1.22176   1.22930   1.27132   1.27183
  Beta virt. eigenvalues --    1.28164   1.28183   1.28650   1.34554   1.34572
  Beta virt. eigenvalues --    1.34780   1.46717   1.46731   1.47273   2.02306
  Beta virt. eigenvalues --    2.61651   2.61653   2.61670   2.61673   2.61695
  Beta virt. eigenvalues --    2.61703   2.61814   5.81717   5.81726   5.81727
  Beta virt. eigenvalues --    5.81729   5.81736   5.81773   5.81782   5.81786
  Beta virt. eigenvalues --    5.81800   5.81836   5.81862   5.81867   5.81900
  Beta virt. eigenvalues --    5.81904   5.81905   5.81942   5.81979   5.81981
  Beta virt. eigenvalues --    5.82026   5.82032   5.82160   5.82164   5.82177
  Beta virt. eigenvalues --    5.82179   5.82345   5.82349   5.82392   5.82644
  Beta virt. eigenvalues --   18.65001  18.66016  18.72068  18.72446  18.73058
  Beta virt. eigenvalues --   18.74017  18.75241  18.75449  18.84091  18.91613
  Beta virt. eigenvalues --   18.92783  19.07440  53.79199  56.19323  56.19714
  Beta virt. eigenvalues --   56.22636  56.23181
          Condensed to atoms (all electrons):
               1          2          3          4          5          6
     1  Cu  28.259504   0.030576   0.028618   0.029721   0.149066   0.155680
     2  Cu   0.030576  28.258625   0.028619   0.029606   0.149559   0.155750
     3  Cu   0.028618   0.028619  28.243387   0.026392   0.141089   0.001249
     4  Cu   0.029721   0.029606   0.026392  28.263410   0.001219   0.153865
     5  I    0.149066   0.149559   0.141089   0.001219  24.806718  -0.029062
     6  I    0.155680   0.155750   0.001249   0.153865  -0.029062  24.803185
     7  I    0.157647   0.001086   0.158722   0.155315  -0.029533  -0.030405
     8  I    0.001126   0.157735   0.157652   0.155313  -0.029593  -0.030395
     9  Ag   0.002060   0.002072   0.014646   0.000710   0.003921   0.000060
               7          8          9
     1  Cu   0.157647   0.001126   0.002060
     2  Cu   0.001086   0.157735   0.002072
     3  Cu   0.158722   0.157652   0.014646
     4  Cu   0.155315   0.155313   0.000710
     5  I   -0.029533  -0.029593   0.003921
     6  I   -0.030405  -0.030395   0.000060
     7  I   24.795967  -0.030800  -0.000143
     8  I   -0.030800  24.796496   0.000450
     9  Ag  -0.000143   0.000450  19.033521
          Atomic-Atomic Spin Densities.
               1          2          3          4          5          6
     1  Cu   0.007803   0.001507   0.000264   0.000081   0.001256  -0.002819
     2  Cu   0.001507   0.005853   0.000286   0.000080   0.000455  -0.002389
     3  Cu   0.000264   0.000286   0.003525   0.000191  -0.003784  -0.000220
     4  Cu   0.000081   0.000080   0.000191   0.000306  -0.000093   0.000172
     5  I    0.001256   0.000455  -0.003784  -0.000093   0.073473  -0.001227
     6  I   -0.002819  -0.002389  -0.000220   0.000172  -0.001227   0.011235
     7  I   -0.000327  -0.000070   0.000094  -0.000009   0.000257   0.000042
     8  I   -0.000067  -0.000220  -0.000019  -0.000013   0.000290   0.000021
     9  Ag   0.002426   0.002496   0.008858   0.000265  -0.051245  -0.000131
               7          8          9
     1  Cu  -0.000327  -0.000067   0.002426
     2  Cu  -0.000070  -0.000220   0.002496
     3  Cu   0.000094  -0.000019   0.008858
     4  Cu  -0.000009  -0.000013   0.000265
     5  I    0.000257   0.000290  -0.051245
     6  I    0.000042   0.000021  -0.000131
     7  I    0.000539  -0.000022  -0.000439
     8  I   -0.000022   0.000797  -0.000550
     9  Ag  -0.000439  -0.000550   0.985677
 Mulliken charges and spin densities:
               1          2
     1  Cu   0.186001   0.010124
     2  Cu   0.186371   0.007998
     3  Cu   0.199627   0.009195
     4  Cu   0.184449   0.000979
     5  I   -0.163384   0.019382
     6  I   -0.179927   0.004685
     7  I   -0.177855   0.000065
     8  I   -0.177984   0.000216
     9  Ag  -0.057297   0.947356
 Sum of Mulliken charges =   0.00000   1.00000
 Mulliken charges and spin densities with hydrogens summed into heavy atoms:
               1          2
     1  Cu   0.186001   0.010124
     2  Cu   0.186371   0.007998
     3  Cu   0.199627   0.009195
     4  Cu   0.184449   0.000979
     5  I   -0.163384   0.019382
     6  I   -0.179927   0.004685
     7  I   -0.177855   0.000065
     8  I   -0.177984   0.000216
     9  Ag  -0.057297   0.947356
 Electronic spatial extent (au):  <R**2>=          10462.5664
 Charge=              0.0000 electrons
 Dipole moment (field-independent basis, Debye):
    X=             -0.7681    Y=              0.7018    Z=             -0.4765  Tot=              1.1444
 Quadrupole moment (field-independent basis, Debye-Ang):
   XX=           -182.1769   YY=           -177.7648   ZZ=           -177.8555
   XY=              3.2118   XZ=             -3.1963   YZ=              1.7671
 Traceless Quadrupole moment (field-independent basis, Debye-Ang):
   XX=             -2.9111   YY=              1.5009   ZZ=              1.4102
   XY=              3.2118   XZ=             -3.1963   YZ=              1.7671
 Octapole moment (field-independent basis, Debye-Ang**2):
  XXX=           -965.3981  YYY=           -469.3597  ZZZ=           -696.9192  XYY=           -318.1615
  XXY=           -140.7127  XXZ=           -249.0250  XZZ=           -317.7998  YZZ=           -154.2261
  YYZ=           -234.6039  XYZ=            -14.9324
 Hexadecapole moment (field-independent basis, Debye-Ang**3):
 XXXX=          -7085.2393 YYYY=          -4243.7602 ZZZZ=          -3811.8422 XXXY=             17.6292
 XXXZ=          -1315.7570 YYYX=            -55.6203 YYYZ=           -610.4581 ZZZX=          -1235.7815
 ZZZY=           -613.0769 XXYY=          -1892.7128 XXZZ=          -1815.4987 YYZZ=          -1341.5376
 XXYZ=           -224.3099 YYXZ=           -486.8962 ZZXY=            -69.1003
 N-N= 3.859748622343D+03 E-N=-2.625916440606D+04  KE= 7.059064436712D+03
                          Isotropic Fermi Contact Couplings
        Atom                 a.u.       MegaHertz       Gauss      10(-4) cm-1
     1  Cu(63)             0.02838      33.66392      12.01212      11.22907
     2  Cu(63)             0.01958      23.22881       8.28862       7.74830
     3  Cu(63)            -0.00585      -6.93771      -2.47555      -2.31417
     4  Cu(63)             0.00055       0.65240       0.23279       0.21762
     5  I(127)             0.00008       0.07164       0.02556       0.02390
     6  I(127)             0.00001       0.00479       0.00171       0.00160
     7  I(127)             0.00000       0.00050       0.00018       0.00017
     8  I(127)             0.00000       0.00056       0.00020       0.00019
     9  Ag(107             0.00032      -0.05852      -0.02088      -0.01952
 --------------------------------------------------------
       Center         ----  Spin Dipole Couplings  ----
                      3XX-RR        3YY-RR        3ZZ-RR
 --------------------------------------------------------
     1   Atom        0.008401     -0.004900     -0.003501
     2   Atom       -0.003750      0.007038     -0.003287
     3   Atom       -0.001196     -0.004783      0.005979
     4   Atom       -0.000033     -0.000005      0.000038
     5   Atom        0.000365     -0.000997      0.000632
     6   Atom        0.000585      0.000677     -0.001263
     7   Atom        0.001080     -0.000442     -0.000638
     8   Atom       -0.000390      0.001102     -0.000712
     9   Atom       -0.002387     -0.000848      0.003235
 --------------------------------------------------------
                        XY            XZ            YZ
 --------------------------------------------------------
     1   Atom       -0.005596     -0.013692     -0.003421
     2   Atom       -0.004386      0.004310      0.011401
     3   Atom       -0.019591      0.005960     -0.004667
     4   Atom       -0.000354     -0.000905      0.000957
     5   Atom       -0.007623      0.007829     -0.007026
     6   Atom       -0.002039      0.000001      0.000004
     7   Atom       -0.000768     -0.000589      0.000138
     8   Atom       -0.000921     -0.000148      0.000560
     9   Atom        0.005456     -0.007698      0.006702
 --------------------------------------------------------


 ---------------------------------------------------------------------------------
              Anisotropic Spin Dipole Couplings in Principal Axis System
 ---------------------------------------------------------------------------------

       Atom             a.u.   MegaHertz   Gauss  10(-4) cm-1        Axes

              Baa    -0.0158    -2.234    -0.797    -0.745  0.5130  0.4862  0.7074
     1 Cu(63) Bbb    -0.0020    -0.278    -0.099    -0.093 -0.1624  0.8642 -0.4762
              Bcc     0.0177     2.512     0.896     0.838  0.8429 -0.1294 -0.5223
 
              Baa    -0.0141    -2.000    -0.714    -0.667 -0.5026 -0.4884  0.7134
     2 Cu(63) Bbb    -0.0004    -0.052    -0.019    -0.017  0.8608 -0.2064  0.4652
              Bcc     0.0145     2.053     0.732     0.685 -0.0800  0.8479  0.5241
 
              Baa    -0.0227    -3.210    -1.145    -1.071  0.6769  0.7358 -0.0210
     3 Cu(63) Bbb     0.0021     0.296     0.105     0.099 -0.3254  0.3247  0.8881
              Bcc     0.0206     2.915     1.040     0.972  0.6602 -0.5943  0.4593
 
              Baa    -0.0011    -0.161    -0.058    -0.054  0.4538 -0.4878  0.7457
     4 Cu(63) Bbb    -0.0004    -0.053    -0.019    -0.018  0.7280  0.6856  0.0055
              Bcc     0.0015     0.214     0.076     0.071 -0.5140  0.5404  0.6662
 
              Baa    -0.0080    -0.857    -0.306    -0.286  0.7088  0.7017 -0.0720
     5 I(127) Bbb    -0.0070    -0.758    -0.270    -0.253 -0.3750  0.4613  0.8041
              Bcc     0.0150     1.615     0.576     0.539  0.5975 -0.5430  0.5901
 
              Baa    -0.0014    -0.151    -0.054    -0.050  0.7148  0.6989 -0.0232
     6 I(127) Bbb    -0.0013    -0.136    -0.048    -0.045  0.0170  0.0158  0.9997
              Bcc     0.0027     0.287     0.102     0.096 -0.6991  0.7150  0.0006
 
              Baa    -0.0009    -0.094    -0.034    -0.032  0.4248  0.5104  0.7477
     7 I(127) Bbb    -0.0007    -0.073    -0.026    -0.025  0.1362  0.7805 -0.6102
              Bcc     0.0016     0.168     0.060     0.056  0.8950 -0.3611 -0.2620
 
              Baa    -0.0009    -0.102    -0.036    -0.034 -0.5384 -0.4393  0.7191
     8 I(127) Bbb    -0.0007    -0.079    -0.028    -0.026  0.7363  0.1697  0.6550
              Bcc     0.0017     0.180     0.064     0.060 -0.4098  0.8822  0.2321
 
              Baa    -0.0134     0.291     0.104     0.097  0.6431 -0.5592  0.5231
     9 Ag(107 Bbb     0.0039    -0.084    -0.030    -0.028  0.6567  0.7541 -0.0012
              Bcc     0.0095    -0.206    -0.074    -0.069 -0.3939  0.3443  0.8522
 

 ---------------------------------------------------------------------------------

 No NMR shielding tensors so no spin-rotation constants.
 Leave Link  601 at Fri Sep 11 21:20:27 2026, MaxMem=  6442450944 cpu:               3.0 elap:               2.9
 (Enter C:\G16W\l9999.exe)
 Unable to Open any file for archive entry.
 1|1|UNPC-DESKTOP-2JKEGCA|SP|UPBE1PBE|def2SVP|Ag1Cu4I4(2)|JHKIM|11-Sep-
 2026|0||#P PBE1PBE/Def2SVP EmpiricalDispersion=GD3BJ SP SCF=(XQC,MaxCy
 cle=128) NoSymm Guess=Read||Cu4I4 t=1.000 dz=+0.40 class=site2site||0,
 2|Cu,0,0.235561,0.235561,0.235561|Cu,0,2.384439,2.384439,0.235561|Cu,0
 ,2.384439,0.235561,2.384439|Cu,0,0.235561,2.384439,2.384439|I,0,2.7976
 55,-0.177655,-0.177655|I,0,-0.177655,2.797655,-0.177655|I,0,-0.177655,
 -0.177655,2.797655|I,0,2.797655,2.797655,2.797655|Ag,0,5.1792234,-2.28
 141356,1.28942845||Version=EM64W-G16RevC.01|HF=-7898.3722509|S2=0.7514
 71|S2-1=0.|S2A=0.750002|RMSD=5.207e-009|Dipole=-0.3022048,0.2761249,-0
 .1874625|Quadrupole=-2.1643682,1.1158901,1.0484781,2.3878663,-2.376407
 ,1.3137638|PG=C01 [X(Ag1Cu4I4)]||@
 The archive entry for this job was punched.


 IT'S WHAT YOU LEARN AFTER YOU KNOW IT ALL
 THAT COUNTS.
 Job cpu time:       0 days  0 hours  3 minutes 11.0 seconds.
 Elapsed time:       0 days  0 hours  3 minutes  7.2 seconds.
 File lengths (MBytes):  RWF=     48 Int=      0 D2E=      0 Chk=      6 Scr=      1
 Normal termination of Gaussian 16 at Fri Sep 11 21:20:28 2026.
