 Entering Gaussian System, Link 0=C:\G16W\g16.exe
 Input=Cu4I4_t0_z1.gjf
 Output=Cu4I4_t0_z1.out
 Initial command:
 C:\G16W\l1.exe ".\Gau-60664.inp" "Cu4I4_t0_z1.out" /scrdir=".\"
 Entering Link 1 = C:\G16W\l1.exe PID=     24304.
  
 Copyright (c) 1988-2019, Gaussian, Inc.  All Rights Reserved.
  
 This is part of the Gaussian(R) 16 program.  It is based on
 the Gaussian(R) 09 system (copyright 2009, Gaussian, Inc.),
 the Gaussian(R) 03 system (copyright 2003, Gaussian, Inc.),
 the Gaussian(R) 98 system (copyright 1998, Gaussian, Inc.),
 the Gaussian(R) 94 system (copyright 1995, Gaussian, Inc.),
 the Gaussian 92(TM) system (copyright 1992, Gaussian, Inc.),
 the Gaussian 90(TM) system (copyright 1990, Gaussian, Inc.),
 the Gaussian 88(TM) system (copyright 1988, Gaussian, Inc.),
 the Gaussian 86(TM) system (copyright 1986, Carnegie Mellon
 University), and the Gaussian 82(TM) system (copyright 1983,
 Carnegie Mellon University). Gaussian is a federally registered
 trademark of Gaussian, Inc.
  
 This software contains proprietary and confidential information,
 including trade secrets, belonging to Gaussian, Inc.
  
 This software is provided under written license and may be
 used, copied, transmitted, or stored only in accord with that
 written license.
  
 The following legend is applicable only to US Government
 contracts under FAR:
  
                    RESTRICTED RIGHTS LEGEND
  
 Use, reproduction and disclosure by the US Government is
 subject to restrictions as set forth in subparagraphs (a)
 and (c) of the Commercial Computer Software - Restricted
 Rights clause in FAR 52.227-19.
  
 Gaussian, Inc.
 340 Quinnipiac St., Bldg. 40, Wallingford CT 06492
  
  
 ---------------------------------------------------------------
 Warning -- This program may not be used in any manner that
 competes with the business of Gaussian, Inc. or will provide
 assistance to any competitor of Gaussian, Inc.  The licensee
 of this program is prohibited from giving any competitor of
 Gaussian, Inc. access to this program.  By using this program,
 the user acknowledges that Gaussian, Inc. is engaged in the
 business of creating and licensing software in the field of
 computational chemistry and represents and warrants to the
 licensee that it is not a competitor of Gaussian, Inc. and that
 it will not use this program in any manner prohibited above.
 ---------------------------------------------------------------
  

 Cite this work as:
 Gaussian 16, Revision C.01,
 M. J. Frisch, G. W. Trucks, H. B. Schlegel, G. E. Scuseria, 
 M. A. Robb, J. R. Cheeseman, G. Scalmani, V. Barone, 
 G. A. Petersson, H. Nakatsuji, X. Li, M. Caricato, A. V. Marenich, 
 J. Bloino, B. G. Janesko, R. Gomperts, B. Mennucci, H. P. Hratchian, 
 J. V. Ortiz, A. F. Izmaylov, J. L. Sonnenberg, D. Williams-Young, 
 F. Ding, F. Lipparini, F. Egidi, J. Goings, B. Peng, A. Petrone, 
 T. Henderson, D. Ranasinghe, V. G. Zakrzewski, J. Gao, N. Rega, 
 G. Zheng, W. Liang, M. Hada, M. Ehara, K. Toyota, R. Fukuda, 
 J. Hasegawa, M. Ishida, T. Nakajima, Y. Honda, O. Kitao, H. Nakai, 
 T. Vreven, K. Throssell, J. A. Montgomery, Jr., J. E. Peralta, 
 F. Ogliaro, M. J. Bearpark, J. J. Heyd, E. N. Brothers, K. N. Kudin, 
 V. N. Staroverov, T. A. Keith, R. Kobayashi, J. Normand, 
 K. Raghavachari, A. P. Rendell, J. C. Burant, S. S. Iyengar, 
 J. Tomasi, M. Cossi, J. M. Millam, M. Klene, C. Adamo, R. Cammi, 
 J. W. Ochterski, R. L. Martin, K. Morokuma, O. Farkas, 
 J. B. Foresman, and D. J. Fox, Gaussian, Inc., Wallingford CT, 2019.
 
 ******************************************
 Gaussian 16:  EM64W-G16RevC.01 30-May-2019
                11-Sep-2026 
 ******************************************
 %Chk=Cu4I4.chk
 %NProcShared=8
 Will use up to    8 processors via shared memory.
 %Mem=48GB
 ----------------------------------------------------------------------
 #P PBE1PBE/Def2SVP EmpiricalDispersion=GD3BJ SP SCF=(XQC,MaxCycle=128)
  NoSymm Guess=Read
 ----------------------------------------------------------------------
 1/38=1,172=1/1;
 2/12=2,15=1,17=6,18=5,40=1/2;
 3/5=43,7=101,11=2,25=1,30=1,74=-13,116=-2,124=41/1,2,3;
 4/5=1/1;
 5/5=2,7=128,8=3,13=1,38=6/2,8;
 6/7=2,8=2,9=2,10=2,28=1/1;
 99/5=1,9=1/99;
 Leave Link    1 at Fri Sep 11 20:52:17 2026, MaxMem=  6442450944 cpu:               1.0 elap:               0.3
 (Enter C:\G16W\l101.exe)
 --------------------------------------
 Cu4I4 t=0.000 dz=+0.40 class=site2site
 --------------------------------------
 Symbolic Z-matrix:
 Charge =  0 Multiplicity = 2
 Cu                    0.23556   0.23556   0.23556 
 Cu                    2.38444   2.38444   0.23556 
 Cu                    2.38444   0.23556   2.38444 
 Cu                    0.23556   2.38444   2.38444 
 I                     2.79766  -0.17766  -0.17766 
 I                    -0.17766   2.79766  -0.17766 
 I                    -0.17766  -0.17766   2.79766 
 I                     2.79766   2.79766   2.79766 
 Ag                    4.81838   4.81838   4.81838 
 
 ITRead=  0  0  0  0  0  0  0  0  0
 MicOpt= -1 -1 -1 -1 -1 -1 -1 -1 -1
 NAtoms=      9 NQM=        9 NQMF=       0 NMMI=      0 NMMIF=      0
                NMic=       0 NMicF=      0.
                    Isotopes and Nuclear Properties:
 (Nuclear quadrupole moments (NQMom) in fm**2, nuclear magnetic moments (NMagM)
  in nuclear magnetons)

  Atom         1           2           3           4           5           6           7           8           9
 IAtWgt=          63          63          63          63         127         127         127         127         107
 AtmWgt=  62.9295992  62.9295992  62.9295992  62.9295992 126.9004000 126.9004000 126.9004000 126.9004000 106.9050900
 NucSpn=           3           3           3           3           5           5           5           5           1
 AtZEff=   0.0000000   0.0000000   0.0000000   0.0000000   0.0000000   0.0000000   0.0000000   0.0000000   0.0000000
 NQMom=  -22.0000000 -22.0000000 -22.0000000 -22.0000000 -71.0000000 -71.0000000 -71.0000000 -71.0000000   0.0000000
 NMagM=    2.2233000   2.2233000   2.2233000   2.2233000   2.8132800   2.8132800   2.8132800   2.8132800  -0.1135700
 AtZNuc=  29.0000000  29.0000000  29.0000000  29.0000000  53.0000000  53.0000000  53.0000000  53.0000000  47.0000000
 Leave Link  101 at Fri Sep 11 20:52:17 2026, MaxMem=  6442450944 cpu:               0.0 elap:               0.3
 (Enter C:\G16W\l202.exe)
                          Input orientation:                          
 ---------------------------------------------------------------------
 Center     Atomic      Atomic             Coordinates (Angstroms)
 Number     Number       Type             X           Y           Z
 ---------------------------------------------------------------------
      1         29           0        0.235561    0.235561    0.235561
      2         29           0        2.384439    2.384439    0.235561
      3         29           0        2.384439    0.235561    2.384439
      4         29           0        0.235561    2.384439    2.384439
      5         53           0        2.797655   -0.177655   -0.177655
      6         53           0       -0.177655    2.797655   -0.177655
      7         53           0       -0.177655   -0.177655    2.797655
      8         53           0        2.797655    2.797655    2.797655
      9         47           0        4.818381    4.818381    4.818381
 ---------------------------------------------------------------------
                    Distance matrix (angstroms):
                    1          2          3          4          5
     1  Cu   0.000000
     2  Cu   3.038972   0.000000
     3  Cu   3.038972   3.038972   0.000000
     4  Cu   3.038972   3.038972   3.038972   0.000000
     5  I    2.627893   2.627893   2.627893   4.437677   0.000000
     6  I    2.627893   2.627893   4.437677   2.627893   4.207724
     7  I    2.627893   4.437677   2.627893   2.627893   4.207724
     8  I    4.437677   2.627893   2.627893   2.627893   4.207724
     9  Ag   7.937677   5.731526   5.731526   5.731526   7.348747
                    6          7          8          9
     6  I    0.000000
     7  I    4.207724   0.000000
     8  I    4.207724   4.207724   0.000000
     9  Ag   7.348747   7.348747   3.500000   0.000000
 Symmetry turned off by external request.
 Stoichiometry    AgCu4I4(2)
 Framework group  C3V[C3(CuIAg),3SGV(CuI)]
 Deg. of freedom     6
 Full point group                 C3V     NOp   6
 Rotational constants (GHZ):           0.1787092           0.0803675           0.0803675
 Leave Link  202 at Fri Sep 11 20:52:17 2026, MaxMem=  6442450944 cpu:               0.0 elap:               0.1
 (Enter C:\G16W\l301.exe)
 Standard basis: def2SVP (5D, 7F)
 Ernie: Thresh=  0.10000D-02 Tol=  0.10000D-05 Strict=F.
   259 basis functions,   657 primitive gaussians,   292 cartesian basis functions
   118 alpha electrons      117 beta electrons
       nuclear repulsion energy      3811.7829355660 Hartrees.
 IExCor= 1009 DFT=T Ex+Corr=PBE1PBE ExCW=0 ScaHFX=  0.250000
 ScaDFX=  0.750000  0.750000  1.000000  1.000000 ScalE2=  1.000000  1.000000
 IRadAn=      5 IRanWt=     -1 IRanGd=            0 ICorTp=0 IEmpDi=141
 NAtoms=    9 NActive=    9 NUniq=    9 SFac= 1.00D+00 NAtFMM=   60 NAOKFM=F Big=F
 Integral buffers will be    131072 words long.
 Raffenetti 2 integral format.
 Two-electron integral symmetry is turned off.
 R6Disp:  Grimme-D3(BJ) Dispersion energy=       -0.0346347541 Hartrees.
 Nuclear repulsion after empirical dispersion term =     3811.7483008119 Hartrees.
 Leave Link  301 at Fri Sep 11 20:52:18 2026, MaxMem=  6442450944 cpu:               0.0 elap:               0.1
 (Enter C:\G16W\l302.exe)
 NPDir=0 NMtPBC=     1 NCelOv=     1 NCel=       1 NClECP=     1 NCelD=      1
         NCelK=      1 NCelE2=     1 NClLst=     1 CellRange=     0.0.
 One-electron integrals computed using PRISM.
   1 Symmetry operations used in ECPInt.
 ECPInt:  NShTT=    4560 NPrTT=   26181 LenC2=    4202 LenP2D=   16025.
 LDataN:  DoStor=T MaxTD1= 7 Len=  274
 NBasis=   259 RedAO= T EigKep=  1.25D-02  NBF=   259
 NBsUse=   259 1.00D-06 EigRej= -1.00D+00 NBFU=   259
 Precomputing XC quadrature grid using
 IXCGrd= 4 IRadAn=           5 IRanWt=          -1 IRanGd=           0 AccXCQ= 0.00D+00.
 Defaulting to unpruned grid for atomic number  53.
 Defaulting to unpruned grid for atomic number  47.
 Defaulting to unpruned grid for atomic number  53.
 Generated NRdTot=       0 NPtTot=           0 NUsed=           0 NTot=          32
 NSgBfM=   284   284   284   284   284 MxSgAt=     9 MxSgA2=     9.
 Leave Link  302 at Fri Sep 11 20:52:23 2026, MaxMem=  6442450944 cpu:               5.0 elap:               5.1
 (Enter C:\G16W\l303.exe)
 DipDrv:  MaxL=1.
 Leave Link  303 at Fri Sep 11 20:52:23 2026, MaxMem=  6442450944 cpu:               0.0 elap:               0.1
 (Enter C:\G16W\l401.exe)
 Initial guess from the checkpoint file:  "Cu4I4.chk"
 B after Tr=     0.054697    0.054697    0.054697
         Rot=    1.000000    0.000000    0.000000    0.000000 Ang=   0.00 deg.
 Guess basis will be translated and rotated to current coordinates.
 JPrj=2 DoOrth=T DoCkMO=T.
 Initial guess <Sx>= 0.0000 <Sy>= 0.0000 <Sz>= 0.5000 <S**2>= 0.7516 S= 0.5008
 Leave Link  401 at Fri Sep 11 20:52:30 2026, MaxMem=  6442450944 cpu:               7.0 elap:               6.3
 (Enter C:\G16W\l502.exe)
 Keep R1 and R2 ints in memory in canonical form, NReq=1146280152.
 FoFCou: FMM=F IPFlag=           0 FMFlag=           0 FMFlg1=           0
         NFxFlg=           0 DoJE=F BraDBF=F KetDBF=F FulRan=T
         wScrn=  0.000000 ICntrl=       600 IOpCl=  0 I1Cent=           0 NGrid=           0
         NMat0=    1 NMatS0=  33670 NMatT0=    0 NMatD0=    1 NMtDS0=    0 NMtDT0=    0
 Symmetry not used in FoFCou.
 Two-electron integral symmetry not used.
 UHF open shell SCF:
 Using DIIS extrapolation, IDIIS=  1040.
 NGot=  6442450944 LenX=  5308573416 LenY=  5308487711
 Requested convergence on RMS density matrix=1.00D-08 within 128 cycles.
 Requested convergence on MAX density matrix=1.00D-06.
 Requested convergence on             energy=1.00D-06.
 No special actions if energy rises.

 Cycle   1  Pass 1  IDiag  1:
 Defaulting to unpruned grid for atomic number  53.
 Defaulting to unpruned grid for atomic number  53.
 Defaulting to unpruned grid for atomic number  53.
 Defaulting to unpruned grid for atomic number  53.
 Defaulting to unpruned grid for atomic number  53.
 Defaulting to unpruned grid for atomic number  53.
 Defaulting to unpruned grid for atomic number  53.
 Defaulting to unpruned grid for atomic number  53.
 E= -7898.36633182951    
 DIIS: error= 2.30D-02 at cycle   1 NSaved=   1.
 NSaved= 1 IEnMin= 1 EnMin= -7898.36633182951     IErMin= 1 ErrMin= 2.30D-02
 ErrMax= 2.30D-02  0.00D+00 EMaxC= 1.00D-01 BMatC= 5.01D-02 BMatP= 5.01D-02
 IDIUse=3 WtCom= 7.70D-01 WtEn= 2.30D-01
 Coeff-Com:  0.100D+01
 Coeff-En:   0.100D+01
 Coeff:      0.100D+01
 Gap=     0.111 Goal=   None    Shift=    0.000
 Gap=     0.165 Goal=   None    Shift=    0.000
 GapD=    0.111 DampG=1.000 DampE=0.250 DampFc=0.2500 IDamp=-1.
 Damping current iteration by 2.50D-01
 RMSDP=3.74D-04 MaxDP=1.81D-02              OVMax= 2.81D-02

 Cycle   2  Pass 1  IDiag  1:
 E= -7898.36683230733     Delta-E=       -0.000500477829 Rises=F Damp=T
 DIIS: error= 1.72D-02 at cycle   2 NSaved=   2.
 NSaved= 2 IEnMin= 2 EnMin= -7898.36683230733     IErMin= 2 ErrMin= 1.72D-02
 ErrMax= 1.72D-02  0.00D+00 EMaxC= 1.00D-01 BMatC= 2.82D-02 BMatP= 5.01D-02
 IDIUse=3 WtCom= 8.28D-01 WtEn= 1.72D-01
 Coeff-Com: -0.298D+01 0.398D+01
 Coeff-En:   0.000D+00 0.100D+01
 Coeff:     -0.246D+01 0.346D+01
 Gap=     0.113 Goal=   None    Shift=    0.000
 DSYEVD-2 returned Info=         519 IAlg= 4 N=   259 NDim=   259 NE2=    20496090 trying  DSYEV.
 Gap=     0.141 Goal=   None    Shift=    0.000
 RMSDP=3.22D-04 MaxDP=1.59D-02 DE=-5.00D-04 OVMax= 8.53D-03

 Cycle   3  Pass 1  IDiag  1:
 E= -7898.36841083024     Delta-E=       -0.001578522908 Rises=F Damp=F
 DIIS: error= 6.48D-04 at cycle   3 NSaved=   3.
 NSaved= 3 IEnMin= 3 EnMin= -7898.36841083024     IErMin= 3 ErrMin= 6.48D-04
 ErrMax= 6.48D-04  0.00D+00 EMaxC= 1.00D-01 BMatC= 2.71D-04 BMatP= 2.82D-02
 IDIUse=3 WtCom= 9.94D-01 WtEn= 6.48D-03
 Coeff-Com: -0.149D+01 0.198D+01 0.506D+00
 Coeff-En:   0.000D+00 0.000D+00 0.100D+01
 Coeff:     -0.148D+01 0.197D+01 0.509D+00
 Gap=     0.113 Goal=   None    Shift=    0.000
 Gap=     0.142 Goal=   None    Shift=    0.000
 RMSDP=4.25D-05 MaxDP=3.28D-03 DE=-1.58D-03 OVMax= 2.56D-03

 Cycle   4  Pass 1  IDiag  1:
 E= -7898.36846967255     Delta-E=       -0.000058842306 Rises=F Damp=F
 DIIS: error= 2.38D-04 at cycle   4 NSaved=   4.
 NSaved= 4 IEnMin= 4 EnMin= -7898.36846967255     IErMin= 4 ErrMin= 2.38D-04
 ErrMax= 2.38D-04  0.00D+00 EMaxC= 1.00D-01 BMatC= 4.36D-05 BMatP= 2.71D-04
 IDIUse=3 WtCom= 9.98D-01 WtEn= 2.38D-03
 Coeff-Com: -0.790D+00 0.105D+01 0.323D+00 0.415D+00
 Coeff-En:   0.000D+00 0.000D+00 0.000D+00 0.100D+01
 Coeff:     -0.788D+00 0.105D+01 0.322D+00 0.417D+00
 Gap=     0.113 Goal=   None    Shift=    0.000
 Gap=     0.141 Goal=   None    Shift=    0.000
 RMSDP=1.21D-05 MaxDP=8.74D-04 DE=-5.88D-05 OVMax= 7.48D-04

 Cycle   5  Pass 1  IDiag  1:
 E= -7898.36847692200     Delta-E=       -0.000007249455 Rises=F Damp=F
 DIIS: error= 6.57D-05 at cycle   5 NSaved=   5.
 NSaved= 5 IEnMin= 5 EnMin= -7898.36847692200     IErMin= 5 ErrMin= 6.57D-05
 ErrMax= 6.57D-05  0.00D+00 EMaxC= 1.00D-01 BMatC= 2.18D-06 BMatP= 4.36D-05
 IDIUse=1 WtCom= 1.00D+00 WtEn= 0.00D+00
 Coeff-Com:  0.142D+00-0.189D+00-0.370D-01 0.130D+00 0.955D+00
 Coeff:      0.142D+00-0.189D+00-0.370D-01 0.130D+00 0.955D+00
 Gap=     0.113 Goal=   None    Shift=    0.000
 DSYEVD-2 returned Info=         519 IAlg= 4 N=   259 NDim=   259 NE2=    20496090 trying  DSYEV.
 Gap=     0.141 Goal=   None    Shift=    0.000
 RMSDP=1.01D-05 MaxDP=9.15D-04 DE=-7.25D-06 OVMax= 1.26D-03

 Cycle   6  Pass 1  IDiag  1:
 E= -7898.36847828168     Delta-E=       -0.000001359678 Rises=F Damp=F
 DIIS: error= 2.62D-05 at cycle   6 NSaved=   6.
 NSaved= 6 IEnMin= 6 EnMin= -7898.36847828168     IErMin= 6 ErrMin= 2.62D-05
 ErrMax= 2.62D-05  0.00D+00 EMaxC= 1.00D-01 BMatC= 4.29D-07 BMatP= 2.18D-06
 IDIUse=1 WtCom= 1.00D+00 WtEn= 0.00D+00
 Coeff-Com:  0.162D+00-0.216D+00-0.604D-01-0.228D-03 0.423D+00 0.692D+00
 Coeff:      0.162D+00-0.216D+00-0.604D-01-0.228D-03 0.423D+00 0.692D+00
 Gap=     0.113 Goal=   None    Shift=    0.000
 Gap=     0.141 Goal=   None    Shift=    0.000
 RMSDP=3.62D-06 MaxDP=3.66D-04 DE=-1.36D-06 OVMax= 4.44D-04

 Cycle   7  Pass 1  IDiag  1:
 E= -7898.36847848734     Delta-E=       -0.000000205660 Rises=F Damp=F
 DIIS: error= 8.34D-06 at cycle   7 NSaved=   7.
 NSaved= 7 IEnMin= 7 EnMin= -7898.36847848734     IErMin= 7 ErrMin= 8.34D-06
 ErrMax= 8.34D-06  0.00D+00 EMaxC= 1.00D-01 BMatC= 2.93D-08 BMatP= 4.29D-07
 IDIUse=1 WtCom= 1.00D+00 WtEn= 0.00D+00
 Coeff-Com:  0.245D-01-0.326D-01-0.115D-01-0.179D-01 0.111D-01 0.163D+00
 Coeff-Com:  0.863D+00
 Coeff:      0.245D-01-0.326D-01-0.115D-01-0.179D-01 0.111D-01 0.163D+00
 Coeff:      0.863D+00
 Gap=     0.113 Goal=   None    Shift=    0.000
 Gap=     0.141 Goal=   None    Shift=    0.000
 RMSDP=1.20D-06 MaxDP=1.03D-04 DE=-2.06D-07 OVMax= 1.74D-04

 Cycle   8  Pass 1  IDiag  1:
 E= -7898.36847850036     Delta-E=       -0.000000013020 Rises=F Damp=F
 DIIS: error= 5.86D-06 at cycle   8 NSaved=   8.
 NSaved= 8 IEnMin= 8 EnMin= -7898.36847850036     IErMin= 8 ErrMin= 5.86D-06
 ErrMax= 5.86D-06  0.00D+00 EMaxC= 1.00D-01 BMatC= 3.32D-08 BMatP= 2.93D-08
 IDIUse=1 WtCom= 1.00D+00 WtEn= 0.00D+00
 Coeff-Com: -0.108D-01 0.144D-01 0.177D-02-0.131D-01-0.658D-01 0.129D-02
 Coeff-Com:  0.623D+00 0.449D+00
 Coeff:     -0.108D-01 0.144D-01 0.177D-02-0.131D-01-0.658D-01 0.129D-02
 Coeff:      0.623D+00 0.449D+00
 Gap=     0.113 Goal=   None    Shift=    0.000
 Gap=     0.141 Goal=   None    Shift=    0.000
 RMSDP=4.21D-07 MaxDP=3.08D-05 DE=-1.30D-08 OVMax= 5.19D-05

 Cycle   9  Pass 1  IDiag  1:
 E= -7898.36847850707     Delta-E=       -0.000000006705 Rises=F Damp=F
 DIIS: error= 1.29D-06 at cycle   9 NSaved=   9.
 NSaved= 9 IEnMin= 9 EnMin= -7898.36847850707     IErMin= 9 ErrMin= 1.29D-06
 ErrMax= 1.29D-06  0.00D+00 EMaxC= 1.00D-01 BMatC= 2.04D-09 BMatP= 2.93D-08
 IDIUse=1 WtCom= 1.00D+00 WtEn= 0.00D+00
 Coeff-Com: -0.101D-01 0.135D-01 0.257D-02-0.395D-02-0.373D-01-0.232D-01
 Coeff-Com:  0.221D+00 0.234D+00 0.604D+00
 Coeff:     -0.101D-01 0.135D-01 0.257D-02-0.395D-02-0.373D-01-0.232D-01
 Coeff:      0.221D+00 0.234D+00 0.604D+00
 Gap=     0.113 Goal=   None    Shift=    0.000
 Gap=     0.141 Goal=   None    Shift=    0.000
 RMSDP=1.59D-07 MaxDP=1.43D-05 DE=-6.70D-09 OVMax= 1.56D-05

 Cycle  10  Pass 1  IDiag  1:
 E= -7898.36847850788     Delta-E=       -0.000000000815 Rises=F Damp=F
 DIIS: error= 3.90D-07 at cycle  10 NSaved=  10.
 NSaved=10 IEnMin=10 EnMin= -7898.36847850788     IErMin=10 ErrMin= 3.90D-07
 ErrMax= 3.90D-07  0.00D+00 EMaxC= 1.00D-01 BMatC= 1.62D-10 BMatP= 2.04D-09
 IDIUse=1 WtCom= 1.00D+00 WtEn= 0.00D+00
 Coeff-Com: -0.344D-02 0.458D-02 0.110D-02 0.285D-03-0.805D-02-0.107D-01
 Coeff-Com:  0.448D-02 0.309D-01 0.225D+00 0.756D+00
 Coeff:     -0.344D-02 0.458D-02 0.110D-02 0.285D-03-0.805D-02-0.107D-01
 Coeff:      0.448D-02 0.309D-01 0.225D+00 0.756D+00
 Gap=     0.113 Goal=   None    Shift=    0.000
 Gap=     0.141 Goal=   None    Shift=    0.000
 RMSDP=6.88D-08 MaxDP=5.26D-06 DE=-8.15D-10 OVMax= 7.85D-06

 Cycle  11  Pass 1  IDiag  1:
 E= -7898.36847850775     Delta-E=        0.000000000135 Rises=F Damp=F
 DIIS: error= 2.67D-07 at cycle  11 NSaved=  11.
 NSaved=11 IEnMin=10 EnMin= -7898.36847850788     IErMin=11 ErrMin= 2.67D-07
 ErrMax= 2.67D-07  0.00D+00 EMaxC= 1.00D-01 BMatC= 1.91D-11 BMatP= 1.62D-10
 IDIUse=1 WtCom= 1.00D+00 WtEn= 0.00D+00
 Coeff-Com:  0.107D-02-0.142D-02-0.170D-03 0.729D-03 0.390D-02 0.136D-02
 Coeff-Com: -0.333D-01-0.286D-01-0.371D-01 0.193D+00 0.900D+00
 Coeff:      0.107D-02-0.142D-02-0.170D-03 0.729D-03 0.390D-02 0.136D-02
 Coeff:     -0.333D-01-0.286D-01-0.371D-01 0.193D+00 0.900D+00
 Gap=     0.113 Goal=   None    Shift=    0.000
 Gap=     0.141 Goal=   None    Shift=    0.000
 RMSDP=3.46D-08 MaxDP=3.85D-06 DE= 1.35D-10 OVMax= 3.85D-06

 Cycle  12  Pass 1  IDiag  1:
 E= -7898.36847850746     Delta-E=        0.000000000284 Rises=F Damp=F
 DIIS: error= 8.22D-08 at cycle  12 NSaved=  12.
 NSaved=12 IEnMin=10 EnMin= -7898.36847850788     IErMin=12 ErrMin= 8.22D-08
 ErrMax= 8.22D-08  0.00D+00 EMaxC= 1.00D-01 BMatC= 3.20D-12 BMatP= 1.91D-11
 IDIUse=1 WtCom= 1.00D+00 WtEn= 0.00D+00
 Coeff-Com:  0.564D-03-0.752D-03-0.964D-04 0.221D-03 0.189D-02 0.956D-03
 Coeff-Com: -0.110D-01-0.121D-01-0.302D-01-0.562D-02 0.364D+00 0.692D+00
 Coeff:      0.564D-03-0.752D-03-0.964D-04 0.221D-03 0.189D-02 0.956D-03
 Coeff:     -0.110D-01-0.121D-01-0.302D-01-0.562D-02 0.364D+00 0.692D+00
 Gap=     0.113 Goal=   None    Shift=    0.000
 Gap=     0.141 Goal=   None    Shift=    0.000
 RMSDP=8.21D-09 MaxDP=4.31D-07 DE= 2.84D-10 OVMax= 5.17D-07

 SCF Done:  E(UPBE1PBE) =  -7898.36847851     A.U. after   12 cycles
            NFock= 12  Conv=0.82D-08     -V/T= 2.1189
 <Sx>= 0.0000 <Sy>= 0.0000 <Sz>= 0.5000 <S**2>= 0.7514 S= 0.5007
 <L.S>= 0.000000000000E+00
 KE= 7.059087073054D+03 PE=-2.616321649845D+04 EE= 7.394012646079D+03
 Annihilation of the first spin contaminant:
 S**2 before annihilation     0.7514,   after     0.7500
 Leave Link  502 at Fri Sep 11 20:54:47 2026, MaxMem=  6442450944 cpu:             137.0 elap:             137.4
 (Enter C:\G16W\l508.exe)
 QCSCF skips out because SCF is already converged.
 Leave Link  508 at Fri Sep 11 20:54:50 2026, MaxMem=  6442450944 cpu:               0.0 elap:               0.1
 (Enter C:\G16W\l601.exe)
 Copying SCF densities to generalized density rwf, IOpCl= 1 IROHF=0.

 **********************************************************************

            Population analysis using the SCF Density.

 **********************************************************************

 Alpha  occ. eigenvalues -- -323.33742-323.33742-323.33741-323.33573 -38.93774
 Alpha  occ. eigenvalues --  -38.93774 -38.93773 -38.93604 -34.11965 -34.11965
 Alpha  occ. eigenvalues --  -34.11960 -34.11794 -34.11750 -34.11750 -34.11750
 Alpha  occ. eigenvalues --  -34.11742 -34.11741 -34.11741 -34.11577 -34.11577
 Alpha  occ. eigenvalues --   -6.90355  -6.89899  -6.89899  -6.89899  -4.91261
 Alpha  occ. eigenvalues --   -4.91045  -4.91045  -4.90747  -4.90747  -4.90747
 Alpha  occ. eigenvalues --   -4.90620  -4.90620  -4.90620  -4.90619  -4.90619
 Alpha  occ. eigenvalues --   -4.90619  -4.33758  -4.33756  -4.33756  -4.33587
 Alpha  occ. eigenvalues --   -3.75162  -2.81960  -2.81945  -2.81945  -2.81779
 Alpha  occ. eigenvalues --   -2.81714  -2.81712  -2.81712  -2.81696  -2.81696
 Alpha  occ. eigenvalues --   -2.81690  -2.81536  -2.81536  -2.33129  -2.33129
 Alpha  occ. eigenvalues --   -2.33118  -1.94007  -1.93958  -1.93958  -1.93752
 Alpha  occ. eigenvalues --   -1.93752  -1.93502  -1.93502  -1.93502  -1.93481
 Alpha  occ. eigenvalues --   -1.93481  -1.93480  -1.93480  -1.93480  -1.93479
 Alpha  occ. eigenvalues --   -1.93346  -1.93346  -1.93346  -1.93344  -1.93344
 Alpha  occ. eigenvalues --   -1.93344  -0.72421  -0.71216  -0.70908  -0.70908
 Alpha  occ. eigenvalues --   -0.39350  -0.36573  -0.36327  -0.36327  -0.34567
 Alpha  occ. eigenvalues --   -0.34151  -0.34151  -0.33233  -0.33233  -0.32739
 Alpha  occ. eigenvalues --   -0.32739  -0.32668  -0.32668  -0.32510  -0.32438
 Alpha  occ. eigenvalues --   -0.32424  -0.32424  -0.30009  -0.29310  -0.29310
 Alpha  occ. eigenvalues --   -0.28802  -0.28802  -0.28790  -0.28116  -0.28116
 Alpha  occ. eigenvalues --   -0.28023  -0.27961  -0.27961  -0.26428  -0.26424
 Alpha  occ. eigenvalues --   -0.26424  -0.24793  -0.24793  -0.24775  -0.23852
 Alpha  occ. eigenvalues --   -0.23364  -0.23364  -0.17692
 Alpha virt. eigenvalues --   -0.06362  -0.03266  -0.03266  -0.03165  -0.00648
 Alpha virt. eigenvalues --   -0.00648   0.00304   0.04142   0.04570   0.05042
 Alpha virt. eigenvalues --    0.05042   0.09953   0.11790   0.11790   0.11873
 Alpha virt. eigenvalues --    0.11982   0.11982   0.15075   0.16589   0.16591
 Alpha virt. eigenvalues --    0.16591   0.24734   0.24734   0.24816   0.29262
 Alpha virt. eigenvalues --    0.33458   0.33458   0.35150   0.35150   0.35555
 Alpha virt. eigenvalues --    0.35555   0.37256   0.37256   0.38287   0.38311
 Alpha virt. eigenvalues --    0.38311   0.38713   0.39924   0.40996   0.40996
 Alpha virt. eigenvalues --    0.42515   0.44297   0.44760   0.44760   0.45875
 Alpha virt. eigenvalues --    0.45875   0.46893   0.47262   0.47262   0.47279
 Alpha virt. eigenvalues --    0.51767   0.51767   0.52581   0.52801   0.52801
 Alpha virt. eigenvalues --    0.62318   0.62494   0.62494   0.62672   0.63758
 Alpha virt. eigenvalues --    0.63758   0.71684   0.73917   0.73917   0.79716
 Alpha virt. eigenvalues --    0.82626   0.82626   0.87749   1.02305   1.02305
 Alpha virt. eigenvalues --    1.08253   1.08253   1.08366   1.21717   1.21858
 Alpha virt. eigenvalues --    1.21858   1.24030   1.27051   1.27051   1.28089
 Alpha virt. eigenvalues --    1.28089   1.28118   1.34499   1.34499   1.34500
 Alpha virt. eigenvalues --    1.46616   1.46616   1.50852   2.01676   2.62279
 Alpha virt. eigenvalues --    2.62279   2.62284   2.62284   2.62284   2.62285
 Alpha virt. eigenvalues --    2.62457   5.81682   5.81682   5.81692   5.81692
 Alpha virt. eigenvalues --    5.81693   5.81739   5.81740   5.81740   5.81766
 Alpha virt. eigenvalues --    5.81798   5.81828   5.81828   5.81851   5.81851
 Alpha virt. eigenvalues --    5.81869   5.81881   5.81929   5.81929   5.81987
 Alpha virt. eigenvalues --    5.81987   5.82112   5.82125   5.82125   5.82140
 Alpha virt. eigenvalues --    5.82300   5.82300   5.82380   5.82608  18.64474
 Alpha virt. eigenvalues --   18.64474  18.71928  18.71928  18.72902  18.73922
 Alpha virt. eigenvalues --   18.76095  18.76095  18.78521  18.91494  18.91494
 Alpha virt. eigenvalues --   19.31333  53.79376  56.19208  56.19208  56.20613
 Alpha virt. eigenvalues --   56.21341
  Beta  occ. eigenvalues -- -323.33741-323.33741-323.33740-323.33573 -38.93769
  Beta  occ. eigenvalues --  -38.93769 -38.93768 -38.93604 -34.11959 -34.11959
  Beta  occ. eigenvalues --  -34.11954 -34.11794 -34.11747 -34.11747 -34.11746
  Beta  occ. eigenvalues --  -34.11739 -34.11738 -34.11738 -34.11577 -34.11577
  Beta  occ. eigenvalues --   -6.90334  -6.89897  -6.89897  -6.89897  -4.91234
  Beta  occ. eigenvalues --   -4.91030  -4.91030  -4.90745  -4.90745  -4.90745
  Beta  occ. eigenvalues --   -4.90619  -4.90619  -4.90619  -4.90618  -4.90618
  Beta  occ. eigenvalues --   -4.90618  -4.33747  -4.33744  -4.33744  -4.33587
  Beta  occ. eigenvalues --   -3.75049  -2.81940  -2.81925  -2.81925  -2.81778
  Beta  occ. eigenvalues --   -2.81704  -2.81702  -2.81702  -2.81691  -2.81691
  Beta  occ. eigenvalues --   -2.81685  -2.81536  -2.81536  -2.33104  -2.33096
  Beta  occ. eigenvalues --   -2.33096  -1.93978  -1.93935  -1.93935  -1.93736
  Beta  occ. eigenvalues --   -1.93736  -1.93500  -1.93499  -1.93499  -1.93479
  Beta  occ. eigenvalues --   -1.93479  -1.93478  -1.93477  -1.93477  -1.93477
  Beta  occ. eigenvalues --   -1.93344  -1.93344  -1.93344  -1.93343  -1.93343
  Beta  occ. eigenvalues --   -1.93343  -0.72372  -0.71144  -0.70896  -0.70896
  Beta  occ. eigenvalues --   -0.39242  -0.36479  -0.36303  -0.36303  -0.34456
  Beta  occ. eigenvalues --   -0.34135  -0.34135  -0.33175  -0.33175  -0.32579
  Beta  occ. eigenvalues --   -0.32579  -0.32506  -0.32038  -0.32038  -0.31970
  Beta  occ. eigenvalues --   -0.31970  -0.31863  -0.29976  -0.29304  -0.29304
  Beta  occ. eigenvalues --   -0.28793  -0.28793  -0.28770  -0.28090  -0.28090
  Beta  occ. eigenvalues --   -0.28019  -0.27945  -0.27945  -0.26411  -0.26411
  Beta  occ. eigenvalues --   -0.26393  -0.24777  -0.24777  -0.24769  -0.23579
  Beta  occ. eigenvalues --   -0.23353  -0.23353
  Beta virt. eigenvalues --   -0.09212  -0.06284  -0.03221  -0.03221  -0.03102
  Beta virt. eigenvalues --    0.01923   0.01923   0.01944   0.04534   0.05327
  Beta virt. eigenvalues --    0.05389   0.05389   0.11003   0.11819   0.11819
  Beta virt. eigenvalues --    0.12062   0.12062   0.12926   0.15785   0.16600
  Beta virt. eigenvalues --    0.16631   0.16631   0.24776   0.24776   0.24872
  Beta virt. eigenvalues --    0.31266   0.35094   0.35094   0.35298   0.35298
  Beta virt. eigenvalues --    0.36682   0.36682   0.37666   0.37666   0.38292
  Beta virt. eigenvalues --    0.38346   0.38346   0.38930   0.40354   0.41068
  Beta virt. eigenvalues --    0.41068   0.42549   0.45147   0.45199   0.45199
  Beta virt. eigenvalues --    0.47087   0.47087   0.47285   0.47323   0.48405
  Beta virt. eigenvalues --    0.48405   0.52159   0.52159   0.52822   0.53906
  Beta virt. eigenvalues --    0.53906   0.62331   0.62538   0.62538   0.63053
  Beta virt. eigenvalues --    0.63784   0.63784   0.72606   0.73943   0.73943
  Beta virt. eigenvalues --    0.79777   0.82639   0.82639   0.87889   1.02323
  Beta virt. eigenvalues --    1.02323   1.08266   1.08266   1.08384   1.21734
  Beta virt. eigenvalues --    1.21869   1.21869   1.24051   1.27067   1.27067
  Beta virt. eigenvalues --    1.28106   1.28106   1.28126   1.34509   1.34517
  Beta virt. eigenvalues --    1.34517   1.46624   1.46624   1.50910   2.02968
  Beta virt. eigenvalues --    2.62306   2.62306   2.62313   2.62313   2.62329
  Beta virt. eigenvalues --    2.62329   2.62505   5.81695   5.81695   5.81696
  Beta virt. eigenvalues --    5.81702   5.81702   5.81743   5.81743   5.81754
  Beta virt. eigenvalues --    5.81767   5.81808   5.81834   5.81834   5.81855
  Beta virt. eigenvalues --    5.81855   5.81874   5.81882   5.81932   5.81932
  Beta virt. eigenvalues --    5.81992   5.81992   5.82113   5.82129   5.82129
  Beta virt. eigenvalues --    5.82148   5.82304   5.82304   5.82385   5.82615
  Beta virt. eigenvalues --   18.64479  18.64479  18.71934  18.71934  18.72904
  Beta virt. eigenvalues --   18.73923  18.76110  18.76110  18.78528  18.91499
  Beta virt. eigenvalues --   18.91499  19.31381  53.79532  56.19209  56.19209
  Beta virt. eigenvalues --   56.20623  56.21348
          Condensed to atoms (all electrons):
               1          2          3          4          5          6
     1  Cu  28.260331   0.029213   0.029213   0.029213   0.155396   0.155396
     2  Cu   0.029213  28.256137   0.029633   0.029633   0.155723   0.155723
     3  Cu   0.029213   0.029633  28.256137   0.029633   0.155723   0.000685
     4  Cu   0.029213   0.029633   0.029633  28.256137   0.000685   0.155723
     5  I    0.155396   0.155723   0.155723   0.000685  24.802586  -0.030329
     6  I    0.155396   0.155723   0.000685   0.155723  -0.030329  24.802586
     7  I    0.155396   0.000685   0.155723   0.155723  -0.030329  -0.030329
     8  I    0.000596   0.148971   0.148971   0.148971  -0.029156  -0.029156
     9  Ag   0.000087   0.000536   0.000536   0.000536   0.000144   0.000144
               7          8          9
     1  Cu   0.155396   0.000596   0.000087
     2  Cu   0.000685   0.148971   0.000536
     3  Cu   0.155723   0.148971   0.000536
     4  Cu   0.155723   0.148971   0.000536
     5  I   -0.030329  -0.029156   0.000144
     6  I   -0.030329  -0.029156   0.000144
     7  I   24.802586  -0.029156   0.000144
     8  I   -0.029156  24.806082   0.010006
     9  Ag   0.000144   0.010006  19.036819
          Atomic-Atomic Spin Densities.
               1          2          3          4          5          6
     1  Cu   0.000065   0.000117   0.000117   0.000117   0.000000   0.000000
     2  Cu   0.000117   0.005038   0.001065   0.001065  -0.001421  -0.001421
     3  Cu   0.000117   0.001065   0.005038   0.001065  -0.001421  -0.000222
     4  Cu   0.000117   0.001065   0.001065   0.005038  -0.000222  -0.001421
     5  I    0.000000  -0.001421  -0.001421  -0.000222   0.005801   0.000244
     6  I    0.000000  -0.001421  -0.000222  -0.001421   0.000244   0.005801
     7  I    0.000000  -0.000222  -0.001421  -0.001421   0.000244   0.000244
     8  I   -0.000081   0.001464   0.001464   0.001464  -0.000492  -0.000492
     9  Ag   0.000139   0.000589   0.000589   0.000589  -0.000125  -0.000125
               7          8          9
     1  Cu   0.000000  -0.000081   0.000139
     2  Cu  -0.000222   0.001464   0.000589
     3  Cu  -0.001421   0.001464   0.000589
     4  Cu  -0.001421   0.001464   0.000589
     5  I    0.000244  -0.000492  -0.000125
     6  I    0.000244  -0.000492  -0.000125
     7  I    0.005801  -0.000492  -0.000125
     8  I   -0.000492   0.043037  -0.041527
     9  Ag  -0.000125  -0.041527   1.008520
 Mulliken charges and spin densities:
               1          2
     1  Cu   0.185161   0.000475
     2  Cu   0.193748   0.006276
     3  Cu   0.193748   0.006276
     4  Cu   0.193748   0.006276
     5  I   -0.180442   0.002610
     6  I   -0.180442   0.002610
     7  I   -0.180442   0.002610
     8  I   -0.176129   0.004344
     9  Ag  -0.048949   0.968523
 Sum of Mulliken charges =   0.00000   1.00000
 Mulliken charges and spin densities with hydrogens summed into heavy atoms:
               1          2
     1  Cu   0.185161   0.000475
     2  Cu   0.193748   0.006276
     3  Cu   0.193748   0.006276
     4  Cu   0.193748   0.006276
     5  I   -0.180442   0.002610
     6  I   -0.180442   0.002610
     7  I   -0.180442   0.002610
     8  I   -0.176129   0.004344
     9  Ag  -0.048949   0.968523
 Electronic spatial extent (au):  <R**2>=          12909.5152
 Charge=              0.0000 electrons
 Dipole moment (field-independent basis, Debye):
    X=             -0.8281    Y=             -0.8281    Z=             -0.8281  Tot=              1.4343
 Quadrupole moment (field-independent basis, Debye-Ang):
   XX=           -182.4724   YY=           -182.4724   ZZ=           -182.4724
   XY=             -5.9812   XZ=             -5.9812   YZ=             -5.9812
 Traceless Quadrupole moment (field-independent basis, Debye-Ang):
   XX=              0.0000   YY=              0.0000   ZZ=              0.0000
   XY=             -5.9812   XZ=             -5.9812   YZ=             -5.9812
 Octapole moment (field-independent basis, Debye-Ang**2):
  XXX=           -945.0064  YYY=           -945.0064  ZZZ=           -945.0064  XYY=           -338.4891
  XXY=           -338.4891  XXZ=           -338.4891  XZZ=           -338.4891  YZZ=           -338.4891
  YYZ=           -338.4891  XYZ=            -58.7530
 Hexadecapole moment (field-independent basis, Debye-Ang**3):
 XXXX=          -6651.8081 YYYY=          -6651.8081 ZZZZ=          -6651.8081 XXXY=          -2431.6036
 XXXZ=          -2431.6036 YYYX=          -2431.6036 YYYZ=          -2431.6036 ZZZX=          -2431.6036
 ZZZY=          -2431.6036 XXYY=          -2342.6369 XXZZ=          -2342.6369 YYZZ=          -2342.6369
 XXYZ=          -1002.8898 YYXZ=          -1002.8898 ZZXY=          -1002.8898
 N-N= 3.811748300812D+03 E-N=-2.616321647566D+04  KE= 7.059087073054D+03
                          Isotropic Fermi Contact Couplings
        Atom                 a.u.       MegaHertz       Gauss      10(-4) cm-1
     1  Cu(63)            -0.00008      -0.09297      -0.03318      -0.03101
     2  Cu(63)             0.01482      17.58010       6.27302       5.86409
     3  Cu(63)             0.01482      17.58010       6.27302       5.86409
     4  Cu(63)             0.01482      17.58010       6.27302       5.86409
     5  I(127)             0.00000       0.00144       0.00051       0.00048
     6  I(127)             0.00000       0.00144       0.00051       0.00048
     7  I(127)             0.00000       0.00144       0.00051       0.00048
     8  I(127)             0.00008       0.07561       0.02698       0.02522
     9  Ag(107             0.00033      -0.05964      -0.02128      -0.01989
 --------------------------------------------------------
       Center         ----  Spin Dipole Couplings  ----
                      3XX-RR        3YY-RR        3ZZ-RR
 --------------------------------------------------------
     1   Atom        0.000000      0.000000      0.000000
     2   Atom       -0.009932     -0.009932      0.019863
     3   Atom       -0.009932      0.019863     -0.009932
     4   Atom        0.019863     -0.009932     -0.009932
     5   Atom       -0.000853      0.000426      0.000426
     6   Atom        0.000426     -0.000853      0.000426
     7   Atom        0.000426      0.000426     -0.000853
     8   Atom        0.000000      0.000000      0.000000
     9   Atom        0.000000      0.000000      0.000000
 --------------------------------------------------------
                        XY            XZ            YZ
 --------------------------------------------------------
     1   Atom        0.000673      0.000673      0.000673
     2   Atom        0.000213     -0.002428     -0.002428
     3   Atom       -0.002428      0.000213     -0.002428
     4   Atom       -0.002428     -0.002428      0.000213
     5   Atom        0.000177      0.000177      0.001342
     6   Atom        0.000177      0.001342      0.000177
     7   Atom        0.001342      0.000177      0.000177
     8   Atom        0.004468      0.004468      0.004468
     9   Atom       -0.005102     -0.005102     -0.005102
 --------------------------------------------------------


 ---------------------------------------------------------------------------------
              Anisotropic Spin Dipole Couplings in Principal Axis System
 ---------------------------------------------------------------------------------

       Atom             a.u.   MegaHertz   Gauss  10(-4) cm-1        Axes

              Baa    -0.0007    -0.095    -0.034    -0.032 -0.5405 -0.2597  0.8002
     1 Cu(63) Bbb    -0.0007    -0.095    -0.034    -0.032 -0.6120  0.7741 -0.1621
              Bcc     0.0013     0.191     0.068     0.064  0.5774  0.5774  0.5774
 
              Baa    -0.0101    -1.436    -0.513    -0.479  0.7071 -0.7071  0.0000
     2 Cu(63) Bbb    -0.0101    -1.432    -0.511    -0.478  0.7025  0.7025  0.1138
              Bcc     0.0203     2.868     1.023     0.957 -0.0805 -0.0805  0.9935
 
              Baa    -0.0101    -1.436    -0.513    -0.479  0.7071  0.0000 -0.7071
     3 Cu(63) Bbb    -0.0101    -1.432    -0.511    -0.478  0.7025  0.1138  0.7025
              Bcc     0.0203     2.868     1.023     0.957 -0.0805  0.9935 -0.0805
 
              Baa    -0.0101    -1.436    -0.513    -0.479  0.0000  0.7071 -0.7071
     4 Cu(63) Bbb    -0.0101    -1.432    -0.511    -0.478  0.1138  0.7025  0.7025
              Bcc     0.0203     2.868     1.023     0.957  0.9935 -0.0805 -0.0805
 
              Baa    -0.0009    -0.098    -0.035    -0.033  0.0000  0.7071 -0.7071
     5 I(127) Bbb    -0.0009    -0.094    -0.034    -0.031  0.9956 -0.0665 -0.0665
              Bcc     0.0018     0.193     0.069     0.064  0.0941  0.7040  0.7040
 
              Baa    -0.0009    -0.098    -0.035    -0.033  0.7071  0.0000 -0.7071
     6 I(127) Bbb    -0.0009    -0.094    -0.034    -0.031 -0.0665  0.9956 -0.0665
              Bcc     0.0018     0.193     0.069     0.064  0.7040  0.0941  0.7040
 
              Baa    -0.0009    -0.098    -0.035    -0.033  0.7071 -0.7071  0.0000
     7 I(127) Bbb    -0.0009    -0.094    -0.034    -0.031 -0.0665 -0.0665  0.9956
              Bcc     0.0018     0.193     0.069     0.064  0.7040  0.7040  0.0941
 
              Baa    -0.0045    -0.480    -0.171    -0.160 -0.6914  0.7218 -0.0305
     8 I(127) Bbb    -0.0045    -0.480    -0.171    -0.160 -0.4343 -0.3816  0.8159
              Bcc     0.0089     0.960     0.343     0.320  0.5774  0.5774  0.5774
 
              Baa    -0.0102     0.221     0.079     0.074  0.5774  0.5774  0.5774
     9 Ag(107 Bbb     0.0051    -0.111    -0.040    -0.037  0.7352 -0.0600 -0.6752
              Bcc     0.0051    -0.111    -0.040    -0.037 -0.3551  0.8143 -0.4591
 

 ---------------------------------------------------------------------------------

 No NMR shielding tensors so no spin-rotation constants.
 Leave Link  601 at Fri Sep 11 20:54:53 2026, MaxMem=  6442450944 cpu:               3.0 elap:               2.9
 (Enter C:\G16W\l9999.exe)
 Unable to Open any file for archive entry.
 1|1|UNPC-DESKTOP-2JKEGCA|SP|UPBE1PBE|def2SVP|Ag1Cu4I4(2)|JHKIM|11-Sep-
 2026|0||#P PBE1PBE/Def2SVP EmpiricalDispersion=GD3BJ SP SCF=(XQC,MaxCy
 cle=128) NoSymm Guess=Read||Cu4I4 t=0.000 dz=+0.40 class=site2site||0,
 2|Cu,0,0.235561,0.235561,0.235561|Cu,0,2.384439,2.384439,0.235561|Cu,0
 ,2.384439,0.235561,2.384439|Cu,0,0.235561,2.384439,2.384439|I,0,2.7976
 55,-0.177655,-0.177655|I,0,-0.177655,2.797655,-0.177655|I,0,-0.177655,
 -0.177655,2.797655|I,0,2.797655,2.797655,2.797655|Ag,0,4.81838111,4.81
 838111,4.81838111||Version=EM64W-G16RevC.01|HF=-7898.3684785|S2=0.7513
 99|S2-1=0.|S2A=0.750002|RMSD=8.210e-009|Dipole=-0.3257981,-0.3257981,-
 0.3257981|Quadrupole=0.,0.,0.,-4.4468888,-4.4468888,-4.4468888|PG=C03V
  [C3(Cu1I1Ag1),3SGV(Cu1I1)]||@
 The archive entry for this job was punched.


 RESEARCH IS WHAT I AM DOING WHEN I DON'T KNOW WHAT I AM DOING.
     -- WERNER VON BRAUN
 Job cpu time:       0 days  0 hours  2 minutes 38.0 seconds.
 Elapsed time:       0 days  0 hours  2 minutes 33.1 seconds.
 File lengths (MBytes):  RWF=     48 Int=      0 D2E=      0 Chk=      6 Scr=      1
 Normal termination of Gaussian 16 at Fri Sep 11 20:54:54 2026.
