 Entering Gaussian System, Link 0=C:\G16W\g16.exe
 Input=DMABN_t3_z0.gjf
 Output=DMABN_t3_z0.out
 Initial command:
 C:\G16W\l1.exe ".\Gau-76864.inp" "DMABN_t3_z0.out" /scrdir=".\"
 Entering Link 1 = C:\G16W\l1.exe PID=     27708.
  
 Copyright (c) 1988-2019, Gaussian, Inc.  All Rights Reserved.
  
 This is part of the Gaussian(R) 16 program.  It is based on
 the Gaussian(R) 09 system (copyright 2009, Gaussian, Inc.),
 the Gaussian(R) 03 system (copyright 2003, Gaussian, Inc.),
 the Gaussian(R) 98 system (copyright 1998, Gaussian, Inc.),
 the Gaussian(R) 94 system (copyright 1995, Gaussian, Inc.),
 the Gaussian 92(TM) system (copyright 1992, Gaussian, Inc.),
 the Gaussian 90(TM) system (copyright 1990, Gaussian, Inc.),
 the Gaussian 88(TM) system (copyright 1988, Gaussian, Inc.),
 the Gaussian 86(TM) system (copyright 1986, Carnegie Mellon
 University), and the Gaussian 82(TM) system (copyright 1983,
 Carnegie Mellon University). Gaussian is a federally registered
 trademark of Gaussian, Inc.
  
 This software contains proprietary and confidential information,
 including trade secrets, belonging to Gaussian, Inc.
  
 This software is provided under written license and may be
 used, copied, transmitted, or stored only in accord with that
 written license.
  
 The following legend is applicable only to US Government
 contracts under FAR:
  
                    RESTRICTED RIGHTS LEGEND
  
 Use, reproduction and disclosure by the US Government is
 subject to restrictions as set forth in subparagraphs (a)
 and (c) of the Commercial Computer Software - Restricted
 Rights clause in FAR 52.227-19.
  
 Gaussian, Inc.
 340 Quinnipiac St., Bldg. 40, Wallingford CT 06492
  
  
 ---------------------------------------------------------------
 Warning -- This program may not be used in any manner that
 competes with the business of Gaussian, Inc. or will provide
 assistance to any competitor of Gaussian, Inc.  The licensee
 of this program is prohibited from giving any competitor of
 Gaussian, Inc. access to this program.  By using this program,
 the user acknowledges that Gaussian, Inc. is engaged in the
 business of creating and licensing software in the field of
 computational chemistry and represents and warrants to the
 licensee that it is not a competitor of Gaussian, Inc. and that
 it will not use this program in any manner prohibited above.
 ---------------------------------------------------------------
  

 Cite this work as:
 Gaussian 16, Revision C.01,
 M. J. Frisch, G. W. Trucks, H. B. Schlegel, G. E. Scuseria, 
 M. A. Robb, J. R. Cheeseman, G. Scalmani, V. Barone, 
 G. A. Petersson, H. Nakatsuji, X. Li, M. Caricato, A. V. Marenich, 
 J. Bloino, B. G. Janesko, R. Gomperts, B. Mennucci, H. P. Hratchian, 
 J. V. Ortiz, A. F. Izmaylov, J. L. Sonnenberg, D. Williams-Young, 
 F. Ding, F. Lipparini, F. Egidi, J. Goings, B. Peng, A. Petrone, 
 T. Henderson, D. Ranasinghe, V. G. Zakrzewski, J. Gao, N. Rega, 
 G. Zheng, W. Liang, M. Hada, M. Ehara, K. Toyota, R. Fukuda, 
 J. Hasegawa, M. Ishida, T. Nakajima, Y. Honda, O. Kitao, H. Nakai, 
 T. Vreven, K. Throssell, J. A. Montgomery, Jr., J. E. Peralta, 
 F. Ogliaro, M. J. Bearpark, J. J. Heyd, E. N. Brothers, K. N. Kudin, 
 V. N. Staroverov, T. A. Keith, R. Kobayashi, J. Normand, 
 K. Raghavachari, A. P. Rendell, J. C. Burant, S. S. Iyengar, 
 J. Tomasi, M. Cossi, J. M. Millam, M. Klene, C. Adamo, R. Cammi, 
 J. W. Ochterski, R. L. Martin, K. Morokuma, O. Farkas, 
 J. B. Foresman, and D. J. Fox, Gaussian, Inc., Wallingford CT, 2019.
 
 ******************************************
 Gaussian 16:  EM64W-G16RevC.01 30-May-2019
                11-Sep-2026 
 ******************************************
 %Chk=DMABN.chk
 %NProcShared=8
 Will use up to    8 processors via shared memory.
 %Mem=48GB
 ----------------------------------------------------------------------
 #P PBE1PBE/Def2SVP EmpiricalDispersion=GD3BJ SP SCF=(XQC,MaxCycle=128)
  NoSymm Guess=Read
 ----------------------------------------------------------------------
 1/38=1,172=1/1;
 2/12=2,15=1,17=6,18=5,40=1/2;
 3/5=43,7=101,11=2,25=1,30=1,74=-13,116=-2,124=41/1,2,3;
 4/5=1/1;
 5/5=2,7=128,8=3,13=1,38=6/2,8;
 6/7=2,8=2,9=2,10=2,28=1/1;
 99/5=1,9=1/99;
 Leave Link    1 at Fri Sep 11 21:16:01 2026, MaxMem=  6442450944 cpu:               0.0 elap:               0.2
 (Enter C:\G16W\l101.exe)
 -----------------------------------
 DMABN t=0.750 dz=+0.00 class=toface
 -----------------------------------
 Symbolic Z-matrix:
 Charge =  0 Multiplicity = 2
 N                     5.14367  -0.35032   0.21822 
 C                     3.99887  -0.27223   0.17033 
 C                     2.59631  -0.17777   0.11153 
 C                     1.86162  -1.00914  -0.73686 
 C                     0.49137  -0.91611  -0.7956 
 C                    -0.21206   0.01392  -0.00846 
 N                    -1.57233   0.10784  -0.06771 
 C                    -2.27612   1.06728   0.74702 
 C                    -2.32799  -0.75131  -0.94547 
 C                     0.54152   0.84348   0.84201 
 C                     1.91173   0.74972   0.90008 
 H                     2.37955  -1.73117  -1.35157 
 H                    -0.03685  -1.57609  -1.46322 
 H                    -3.34412   0.99069   0.55827 
 H                    -1.96262   2.08988   0.51411 
 H                    -2.10537   0.88317   1.81253 
 H                    -2.03938  -0.60155  -1.99071 
 H                    -3.38735  -0.52503  -0.85235 
 H                    -2.18205  -1.80571  -0.68989 
 H                     0.05287   1.57224   1.46686 
 H                     2.46872   1.39822   1.56087 
 Ag                    3.15642   1.31454  -1.42287 
 
 ITRead=  0  0  0  0  0  0  0  0  0  0  0  0  0  0  0  0  0  0  0  0
 ITRead=  0  0
 MicOpt= -1 -1 -1 -1 -1 -1 -1 -1 -1 -1 -1 -1 -1 -1 -1 -1 -1 -1 -1 -1
 MicOpt= -1 -1
 NAtoms=     22 NQM=       22 NQMF=       0 NMMI=      0 NMMIF=      0
                NMic=       0 NMicF=      0.
                    Isotopes and Nuclear Properties:
 (Nuclear quadrupole moments (NQMom) in fm**2, nuclear magnetic moments (NMagM)
  in nuclear magnetons)

  Atom         1           2           3           4           5           6           7           8           9          10
 IAtWgt=          14          12          12          12          12          12          14          12          12          12
 AtmWgt=  14.0030740  12.0000000  12.0000000  12.0000000  12.0000000  12.0000000  14.0030740  12.0000000  12.0000000  12.0000000
 NucSpn=           2           0           0           0           0           0           2           0           0           0
 AtZEff=   0.0000000   0.0000000   0.0000000   0.0000000   0.0000000   0.0000000   0.0000000   0.0000000   0.0000000   0.0000000
 NQMom=    2.0440000   0.0000000   0.0000000   0.0000000   0.0000000   0.0000000   2.0440000   0.0000000   0.0000000   0.0000000
 NMagM=    0.4037610   0.0000000   0.0000000   0.0000000   0.0000000   0.0000000   0.4037610   0.0000000   0.0000000   0.0000000
 AtZNuc=   7.0000000   6.0000000   6.0000000   6.0000000   6.0000000   6.0000000   7.0000000   6.0000000   6.0000000   6.0000000

  Atom        11          12          13          14          15          16          17          18          19          20
 IAtWgt=          12           1           1           1           1           1           1           1           1           1
 AtmWgt=  12.0000000   1.0078250   1.0078250   1.0078250   1.0078250   1.0078250   1.0078250   1.0078250   1.0078250   1.0078250
 NucSpn=           0           1           1           1           1           1           1           1           1           1
 AtZEff=   0.0000000   0.0000000   0.0000000   0.0000000   0.0000000   0.0000000   0.0000000   0.0000000   0.0000000   0.0000000
 NQMom=    0.0000000   0.0000000   0.0000000   0.0000000   0.0000000   0.0000000   0.0000000   0.0000000   0.0000000   0.0000000
 NMagM=    0.0000000   2.7928460   2.7928460   2.7928460   2.7928460   2.7928460   2.7928460   2.7928460   2.7928460   2.7928460
 AtZNuc=   6.0000000   1.0000000   1.0000000   1.0000000   1.0000000   1.0000000   1.0000000   1.0000000   1.0000000   1.0000000

  Atom        21          22
 IAtWgt=           1         107
 AtmWgt=   1.0078250 106.9050900
 NucSpn=           1           1
 AtZEff=   0.0000000   0.0000000
 NQMom=    0.0000000   0.0000000
 NMagM=    2.7928460  -0.1135700
 AtZNuc=   1.0000000  47.0000000
 Leave Link  101 at Fri Sep 11 21:16:01 2026, MaxMem=  6442450944 cpu:               0.0 elap:               0.2
 (Enter C:\G16W\l202.exe)
                          Input orientation:                          
 ---------------------------------------------------------------------
 Center     Atomic      Atomic             Coordinates (Angstroms)
 Number     Number       Type             X           Y           Z
 ---------------------------------------------------------------------
      1          7           0        5.143673   -0.350316    0.218220
      2          6           0        3.998871   -0.272231    0.170326
      3          6           0        2.596311   -0.177765    0.111532
      4          6           0        1.861617   -1.009137   -0.736855
      5          6           0        0.491372   -0.916108   -0.795599
      6          6           0       -0.212060    0.013916   -0.008461
      7          7           0       -1.572327    0.107840   -0.067705
      8          6           0       -2.276121    1.067277    0.747024
      9          6           0       -2.327988   -0.751309   -0.945467
     10          6           0        0.541516    0.843475    0.842005
     11          6           0        1.911725    0.749715    0.900076
     12          1           0        2.379549   -1.731167   -1.351567
     13          1           0       -0.036847   -1.576092   -1.463215
     14          1           0       -3.344118    0.990693    0.558268
     15          1           0       -1.962619    2.089882    0.514110
     16          1           0       -2.105367    0.883166    1.812531
     17          1           0       -2.039382   -0.601554   -1.990713
     18          1           0       -3.387348   -0.525033   -0.852352
     19          1           0       -2.182049   -1.805705   -0.689891
     20          1           0        0.052874    1.572236    1.466859
     21          1           0        2.468717    1.398215    1.560873
     22         47           0        3.156416    1.314535   -1.422872
 ---------------------------------------------------------------------
                    Distance matrix (angstroms):
                    1          2          3          4          5
     1  N    0.000000
     2  C    1.148461   0.000000
     3  C    2.555427   1.406967   0.000000
     4  C    3.481107   2.435952   1.396680   0.000000
     5  C    4.794982   3.694609   2.408071   1.374655   0.000000
     6  C    5.372888   4.224427   2.817461   2.424321   1.406893
     7  N    6.737679   5.589218   4.182253   3.672516   2.416020
     8  C    7.572486   6.442235   5.068981   4.861509   3.737983
     9  C    7.572363   6.442333   5.069016   4.202712   2.828146
    10  C    4.795216   3.694490   2.408050   2.769050   2.404245
    11  C    3.481449   2.435793   1.396667   2.403251   2.769058
    12  H    3.465741   2.658356   2.144925   1.080487   2.130407
    13  H    5.582789   4.544835   3.371745   2.110261   1.077175
    14  H    8.599798   7.460896   6.070714   5.725062   4.492197
    15  H    7.519408   6.421614   5.107655   5.078741   4.095532
    16  H    7.524087   6.426002   5.111237   5.081057   4.096679
    17  H    7.519228   6.421763   5.107708   4.117776   2.816373
    18  H    8.599708   7.460966   6.070737   5.272507   3.898798
    19  H    7.523897   6.426141   5.111281   4.121645   2.819528
    20  H    5.583148   4.544662   3.371719   3.845958   3.391586
    21  H    3.466333   2.658079   2.144897   3.382820   3.849538
    22  Ag   3.068241   2.401216   2.212481   2.747103   3.531529
                    6          7          8          9         10
     6  C    0.000000
     7  N    1.364792   0.000000
     8  C    2.437350   1.442092   0.000000
     9  C    2.437355   1.442091   2.484848   0.000000
    10  C    1.406889   2.416002   2.828107   3.737973   0.000000
    11  C    2.424315   3.672495   4.202657   4.861509   1.374640
    12  H    3.400836   4.543960   5.823284   4.825551   3.849533
    13  H    2.162206   2.672223   4.109368   2.489509   3.391585
    14  H    3.329424   2.076178   1.087250   2.515613   3.898760
    15  H    2.765352   2.102220   1.094648   3.215000   2.816334
    16  H    2.766987   2.102510   1.094696   3.213662   2.819483
    17  H    2.765363   2.102223   3.215003   1.094650   4.095538
    18  H    3.329425   2.076174   2.515607   1.087251   4.492175
    19  H    2.766988   2.102506   3.213658   1.094700   4.096665
    20  H    2.162203   2.672194   2.489450   4.109341   1.077175
    21  H    3.400832   4.543938   4.825490   5.823278   2.130402
    22  Ag   3.877989   5.064938   5.855087   5.879993   3.491313
                   11         12         13         14         15
    11  C    0.000000
    12  H    3.382829   0.000000
    13  H    3.845966   2.423940   0.000000
    14  H    5.272456   6.619392   4.648959   0.000000
    15  H    4.117713   6.077466   4.588875   1.765986   0.000000
    16  H    4.121579   6.079533   4.588816   1.766138   1.778324
    17  H    5.078763   4.605593   2.288695   3.276414   3.677480
    18  H    5.725047   5.912789   3.564230   2.071025   3.276408
    19  H    5.081058   4.609940   2.291865   3.275385   4.083303
    20  H    2.110240   4.926400   4.301785   3.564167   2.288646
    21  H    1.080484   4.275896   4.926405   5.912727   4.605524
    22  Ag   2.695248   3.144028   4.307468   6.803435   5.527891
                   16         17         18         19         20
    16  H    0.000000
    17  H    4.083309   0.000000
    18  H    3.275378   1.765994   0.000000
    19  H    3.673966   1.778334   1.766143   0.000000
    20  H    2.291792   4.588867   4.648914   4.588784   0.000000
    21  H    4.609865   6.077483   6.619368   6.079528   2.423926
    22  Ag   6.191952   5.566880   6.821316   6.226746   4.248403
                   21         22
    21  H    0.000000
    22  Ag   3.063113   0.000000
 Symmetry turned off by external request.
 Stoichiometry    C9H10AgN2(2)
 Framework group  C1[X(C9H10AgN2)]
 Deg. of freedom    60
 Full point group                 C1      NOp   1
 Rotational constants (GHZ):           1.4616586           0.3654520           0.3490576
 Leave Link  202 at Fri Sep 11 21:16:02 2026, MaxMem=  6442450944 cpu:               1.0 elap:               0.1
 (Enter C:\G16W\l301.exe)
 Standard basis: def2SVP (5D, 7F)
 Ernie: Thresh=  0.10000D-02 Tol=  0.10000D-05 Strict=F.
   235 basis functions,   410 primitive gaussians,   251 cartesian basis functions
    49 alpha electrons       48 beta electrons
       nuclear repulsion energy       775.7596972539 Hartrees.
 IExCor= 1009 DFT=T Ex+Corr=PBE1PBE ExCW=0 ScaHFX=  0.250000
 ScaDFX=  0.750000  0.750000  1.000000  1.000000 ScalE2=  1.000000  1.000000
 IRadAn=      5 IRanWt=     -1 IRanGd=            0 ICorTp=0 IEmpDi=141
 NAtoms=   22 NActive=   22 NUniq=   22 SFac= 1.00D+00 NAtFMM=   60 NAOKFM=F Big=F
 Integral buffers will be    131072 words long.
 Raffenetti 2 integral format.
 Two-electron integral symmetry is turned off.
 R6Disp:  Grimme-D3(BJ) Dispersion energy=       -0.0250855953 Hartrees.
 Nuclear repulsion after empirical dispersion term =      775.7346116586 Hartrees.
 Leave Link  301 at Fri Sep 11 21:16:02 2026, MaxMem=  6442450944 cpu:               0.0 elap:               0.1
 (Enter C:\G16W\l302.exe)
 NPDir=0 NMtPBC=     1 NCelOv=     1 NCel=       1 NClECP=     1 NCelD=      1
         NCelK=      1 NCelE2=     1 NClLst=     1 CellRange=     0.0.
 One-electron integrals computed using PRISM.
   1 Symmetry operations used in ECPInt.
 ECPInt:  NShTT=    5778 NPrTT=   20489 LenC2=    5584 LenP2D=   15307.
 LDataN:  DoStor=T MaxTD1= 7 Len=  274
 NBasis=   235 RedAO= T EigKep=  2.16D-04  NBF=   235
 NBsUse=   235 1.00D-06 EigRej= -1.00D+00 NBFU=   235
 Precomputing XC quadrature grid using
 IXCGrd= 4 IRadAn=           5 IRanWt=          -1 IRanGd=           0 AccXCQ= 0.00D+00.
 Defaulting to unpruned grid for atomic number  47.
 Generated NRdTot=       0 NPtTot=           0 NUsed=           0 NTot=          32
 NSgBfM=   250   250   250   250   250 MxSgAt=    22 MxSgA2=    22.
 Leave Link  302 at Fri Sep 11 21:16:03 2026, MaxMem=  6442450944 cpu:               1.0 elap:               1.7
 (Enter C:\G16W\l303.exe)
 DipDrv:  MaxL=1.
 Leave Link  303 at Fri Sep 11 21:16:04 2026, MaxMem=  6442450944 cpu:               0.0 elap:               0.2
 (Enter C:\G16W\l401.exe)
 Initial guess from the checkpoint file:  "DMABN.chk"
 B after Tr=    -1.723823   -0.573738    0.632717
         Rot=    0.996567   -0.001951   -0.059212   -0.057826 Ang=  -9.50 deg.
 Guess basis will be translated and rotated to current coordinates.
 JPrj=2 DoOrth=T DoCkMO=T.
 Initial guess <Sx>= 0.0000 <Sy>= 0.0000 <Sz>= 0.5000 <S**2>= 0.7518 S= 0.5009
 Leave Link  401 at Fri Sep 11 21:16:17 2026, MaxMem=  6442450944 cpu:              13.0 elap:              12.8
 (Enter C:\G16W\l502.exe)
 Two-electron integral symmetry not used.
 UHF open shell SCF:
 Using DIIS extrapolation, IDIIS=  1040.
 NGot=  6442450944 LenX=  6442320325 LenY=  6442256883
 Requested convergence on RMS density matrix=1.00D-08 within 128 cycles.
 Requested convergence on MAX density matrix=1.00D-06.
 Requested convergence on             energy=1.00D-06.
 No special actions if energy rises.
 Fock matrices will be formed incrementally for  20 cycles.

 Cycle   1  Pass 1  IDiag  1:
 FoFJK:  IHMeth= 1 ICntrl=       0 DoSepK=F KAlg= 0 I1Cent=           0 FoldK=F
 IRaf= 930000000 NMat=       1 IRICut=       1 DoRegI=T DoRafI=F ISym2E= 0 IDoP0=0 IntGTp=1.
 FoFCou: FMM=F IPFlag=           0 FMFlag=      100000 FMFlg1=           0
         NFxFlg=           0 DoJE=F BraDBF=F KetDBF=F FulRan=T
         wScrn=  0.000000 ICntrl=         0 IOpCl=  1 I1Cent=           0 NGrid=           0
         NMat0=    1 NMatS0=      1 NMatT0=    0 NMatD0=    1 NMtDS0=    0 NMtDT0=    0
 Symmetry not used in FoFCou.
 Defaulting to unpruned grid for atomic number  47.
 Defaulting to unpruned grid for atomic number  47.
 Defaulting to unpruned grid for atomic number  47.
 Defaulting to unpruned grid for atomic number  47.
 Defaulting to unpruned grid for atomic number  47.
 Defaulting to unpruned grid for atomic number  47.
 Defaulting to unpruned grid for atomic number  47.
 Defaulting to unpruned grid for atomic number  47.
 E= -604.348567776178    
 DIIS: error= 5.25D-02 at cycle   1 NSaved=   1.
 NSaved= 1 IEnMin= 1 EnMin= -604.348567776178     IErMin= 1 ErrMin= 5.25D-02
 ErrMax= 5.25D-02  0.00D+00 EMaxC= 1.00D-01 BMatC= 1.18D+00 BMatP= 1.18D+00
 IDIUse=3 WtCom= 4.75D-01 WtEn= 5.25D-01
 Coeff-Com:  0.100D+01
 Coeff-En:   0.100D+01
 Coeff:      0.100D+01
 Gap=     0.349 Goal=   None    Shift=    0.000
 Gap=     0.273 Goal=   None    Shift=    0.000
 GapD=    0.273 DampG=1.000 DampE=0.250 DampFc=0.2500 IDamp=-1.
 Damping current iteration by 2.50D-01
 RMSDP=6.31D-03 MaxDP=5.82D-01              OVMax= 1.45D-01

 Cycle   2  Pass 1  IDiag  1:
 RMSU=  1.58D-03    CP:  1.00D+00
 E= -604.389027929018     Delta-E=       -0.040460152841 Rises=F Damp=T
 DIIS: error= 3.93D-02 at cycle   2 NSaved=   2.
 NSaved= 2 IEnMin= 2 EnMin= -604.389027929018     IErMin= 2 ErrMin= 3.93D-02
 ErrMax= 3.93D-02  0.00D+00 EMaxC= 1.00D-01 BMatC= 6.63D-01 BMatP= 1.18D+00
 IDIUse=3 WtCom= 6.07D-01 WtEn= 3.93D-01
 Coeff-Com: -0.260D+01 0.360D+01
 Coeff-En:   0.000D+00 0.100D+01
 Coeff:     -0.158D+01 0.258D+01
 Gap=     0.092 Goal=   None    Shift=    0.000
 Gap=     0.179 Goal=   None    Shift=    0.000
 RMSDP=3.50D-03 MaxDP=2.36D-01 DE=-4.05D-02 OVMax= 7.95D-02

 Cycle   3  Pass 1  IDiag  1:
 RMSU=  1.47D-03    CP:  1.00D+00  3.00D+00
 E= -604.494049822718     Delta-E=       -0.105021893699 Rises=F Damp=F
 DIIS: error= 1.10D-02 at cycle   3 NSaved=   3.
 NSaved= 3 IEnMin= 3 EnMin= -604.494049822718     IErMin= 3 ErrMin= 1.10D-02
 ErrMax= 1.10D-02  0.00D+00 EMaxC= 1.00D-01 BMatC= 1.26D-01 BMatP= 6.63D-01
 IDIUse=3 WtCom= 8.90D-01 WtEn= 1.10D-01
 Coeff-Com: -0.157D+01 0.209D+01 0.482D+00
 Coeff-En:   0.000D+00 0.000D+00 0.100D+01
 Coeff:     -0.140D+01 0.186D+01 0.539D+00
 Gap=     0.094 Goal=   None    Shift=    0.000
 Gap=     0.176 Goal=   None    Shift=    0.000
 RMSDP=1.10D-03 MaxDP=7.75D-02 DE=-1.05D-01 OVMax= 6.50D-02

 Cycle   4  Pass 1  IDiag  1:
 RMSU=  9.25D-04    CP:  1.01D+00  3.00D+00  6.05D-01
 E= -604.517619736617     Delta-E=       -0.023569913900 Rises=F Damp=F
 DIIS: error= 4.29D-03 at cycle   4 NSaved=   4.
 NSaved= 4 IEnMin= 4 EnMin= -604.517619736617     IErMin= 4 ErrMin= 4.29D-03
 ErrMax= 4.29D-03  0.00D+00 EMaxC= 1.00D-01 BMatC= 2.08D-02 BMatP= 1.26D-01
 IDIUse=3 WtCom= 9.57D-01 WtEn= 4.29D-02
 Coeff-Com: -0.468D+00 0.615D+00 0.329D+00 0.525D+00
 Coeff-En:   0.000D+00 0.000D+00 0.192D+00 0.808D+00
 Coeff:     -0.448D+00 0.588D+00 0.323D+00 0.537D+00
 Gap=     0.092 Goal=   None    Shift=    0.000
 Gap=     0.177 Goal=   None    Shift=    0.000
 RMSDP=3.70D-04 MaxDP=1.95D-02 DE=-2.36D-02 OVMax= 2.06D-02

 Cycle   5  Pass 1  IDiag  1:
 RMSU=  3.30D-04    CP:  1.00D+00  3.00D+00  7.07D-01  9.29D-01
 E= -604.522315992392     Delta-E=       -0.004696255774 Rises=F Damp=F
 DIIS: error= 7.19D-04 at cycle   5 NSaved=   5.
 NSaved= 5 IEnMin= 5 EnMin= -604.522315992392     IErMin= 5 ErrMin= 7.19D-04
 ErrMax= 7.19D-04  0.00D+00 EMaxC= 1.00D-01 BMatC= 4.76D-04 BMatP= 2.08D-02
 IDIUse=3 WtCom= 9.93D-01 WtEn= 7.19D-03
 Coeff-Com: -0.199D-01 0.238D-01 0.708D-01 0.229D+00 0.697D+00
 Coeff-En:   0.000D+00 0.000D+00 0.000D+00 0.000D+00 0.100D+01
 Coeff:     -0.197D-01 0.236D-01 0.702D-01 0.227D+00 0.699D+00
 Gap=     0.094 Goal=   None    Shift=    0.000
 Gap=     0.176 Goal=   None    Shift=    0.000
 RMSDP=1.19D-04 MaxDP=1.04D-02 DE=-4.70D-03 OVMax= 7.52D-03

 Cycle   6  Pass 1  IDiag  1:
 RMSU=  1.07D-04    CP:  1.00D+00  3.00D+00  7.16D-01  9.66D-01  8.88D-01
 E= -604.522427685128     Delta-E=       -0.000111692736 Rises=F Damp=F
 DIIS: error= 2.63D-04 at cycle   6 NSaved=   6.
 NSaved= 6 IEnMin= 6 EnMin= -604.522427685128     IErMin= 6 ErrMin= 2.63D-04
 ErrMax= 2.63D-04  0.00D+00 EMaxC= 1.00D-01 BMatC= 7.59D-05 BMatP= 4.76D-04
 IDIUse=3 WtCom= 9.97D-01 WtEn= 2.63D-03
 Coeff-Com:  0.522D-01-0.697D-01-0.701D-02 0.557D-01 0.383D+00 0.585D+00
 Coeff-En:   0.000D+00 0.000D+00 0.000D+00 0.000D+00 0.000D+00 0.100D+01
 Coeff:      0.521D-01-0.695D-01-0.699D-02 0.555D-01 0.382D+00 0.587D+00
 Gap=     0.093 Goal=   None    Shift=    0.000
 Gap=     0.176 Goal=   None    Shift=    0.000
 RMSDP=4.56D-05 MaxDP=1.95D-03 DE=-1.12D-04 OVMax= 5.01D-03

 Cycle   7  Pass 1  IDiag  1:
 RMSU=  4.06D-05    CP:  1.00D+00  3.00D+00  7.25D-01  9.78D-01  9.08D-01
                    CP:  9.04D-01
 E= -604.522452149586     Delta-E=       -0.000024464458 Rises=F Damp=F
 DIIS: error= 5.47D-05 at cycle   7 NSaved=   7.
 NSaved= 7 IEnMin= 7 EnMin= -604.522452149586     IErMin= 7 ErrMin= 5.47D-05
 ErrMax= 5.47D-05  0.00D+00 EMaxC= 1.00D-01 BMatC= 3.01D-06 BMatP= 7.59D-05
 IDIUse=1 WtCom= 1.00D+00 WtEn= 0.00D+00
 Coeff-Com:  0.134D-01-0.177D-01-0.658D-02-0.441D-02 0.241D-01 0.126D+00
 Coeff-Com:  0.865D+00
 Coeff:      0.134D-01-0.177D-01-0.658D-02-0.441D-02 0.241D-01 0.126D+00
 Coeff:      0.865D+00
 Gap=     0.093 Goal=   None    Shift=    0.000
 Gap=     0.176 Goal=   None    Shift=    0.000
 RMSDP=2.33D-05 MaxDP=1.24D-03 DE=-2.45D-05 OVMax= 3.16D-03

 Cycle   8  Pass 1  IDiag  1:
 RMSU=  1.07D-05    CP:  1.00D+00  3.00D+00  7.28D-01  9.86D-01  9.23D-01
                    CP:  1.03D+00  1.30D+00
 E= -604.522455477405     Delta-E=       -0.000003327819 Rises=F Damp=F
 DIIS: error= 4.43D-05 at cycle   8 NSaved=   8.
 NSaved= 8 IEnMin= 8 EnMin= -604.522455477405     IErMin= 8 ErrMin= 4.43D-05
 ErrMax= 4.43D-05  0.00D+00 EMaxC= 1.00D-01 BMatC= 1.45D-06 BMatP= 3.01D-06
 IDIUse=1 WtCom= 1.00D+00 WtEn= 0.00D+00
 Coeff-Com: -0.548D-02 0.738D-02-0.116D-02-0.133D-01-0.766D-01-0.730D-01
 Coeff-Com:  0.426D+00 0.736D+00
 Coeff:     -0.548D-02 0.738D-02-0.116D-02-0.133D-01-0.766D-01-0.730D-01
 Coeff:      0.426D+00 0.736D+00
 Gap=     0.093 Goal=   None    Shift=    0.000
 Gap=     0.176 Goal=   None    Shift=    0.000
 RMSDP=1.41D-05 MaxDP=6.65D-04 DE=-3.33D-06 OVMax= 2.06D-03

 Cycle   9  Pass 1  IDiag  1:
 RMSU=  5.90D-06    CP:  1.00D+00  3.00D+00  7.31D-01  9.89D-01  9.28D-01
                    CP:  1.10D+00  1.52D+00  1.19D+00
 E= -604.522456858882     Delta-E=       -0.000001381477 Rises=F Damp=F
 DIIS: error= 3.48D-05 at cycle   9 NSaved=   9.
 NSaved= 9 IEnMin= 9 EnMin= -604.522456858882     IErMin= 9 ErrMin= 3.48D-05
 ErrMax= 3.48D-05  0.00D+00 EMaxC= 1.00D-01 BMatC= 5.05D-07 BMatP= 1.45D-06
 IDIUse=1 WtCom= 1.00D+00 WtEn= 0.00D+00
 Coeff-Com: -0.740D-02 0.985D-02 0.183D-02-0.397D-02-0.449D-01-0.778D-01
 Coeff-Com: -0.864D-01 0.379D+00 0.830D+00
 Coeff:     -0.740D-02 0.985D-02 0.183D-02-0.397D-02-0.449D-01-0.778D-01
 Coeff:     -0.864D-01 0.379D+00 0.830D+00
 Gap=     0.093 Goal=   None    Shift=    0.000
 Gap=     0.176 Goal=   None    Shift=    0.000
 RMSDP=8.89D-06 MaxDP=4.10D-04 DE=-1.38D-06 OVMax= 1.24D-03

 Cycle  10  Pass 1  IDiag  1:
 RMSU=  3.80D-06    CP:  1.00D+00  3.00D+00  7.32D-01  9.92D-01  9.32D-01
                    CP:  1.14D+00  1.63D+00  1.47D+00  1.16D+00
 E= -604.522457410918     Delta-E=       -0.000000552036 Rises=F Damp=F
 DIIS: error= 2.20D-05 at cycle  10 NSaved=  10.
 NSaved=10 IEnMin=10 EnMin= -604.522457410918     IErMin=10 ErrMin= 2.20D-05
 ErrMax= 2.20D-05  0.00D+00 EMaxC= 1.00D-01 BMatC= 1.49D-07 BMatP= 5.05D-07
 IDIUse=1 WtCom= 1.00D+00 WtEn= 0.00D+00
 Coeff-Com: -0.204D-02 0.270D-02 0.137D-02 0.250D-02 0.145D-02-0.190D-01
 Coeff-Com: -0.174D+00-0.407D-01 0.393D+00 0.835D+00
 Coeff:     -0.204D-02 0.270D-02 0.137D-02 0.250D-02 0.145D-02-0.190D-01
 Coeff:     -0.174D+00-0.407D-01 0.393D+00 0.835D+00
 Gap=     0.093 Goal=   None    Shift=    0.000
 Gap=     0.176 Goal=   None    Shift=    0.000
 RMSDP=4.35D-06 MaxDP=1.63D-04 DE=-5.52D-07 OVMax= 5.35D-04

 Cycle  11  Pass 1  IDiag  1:
 RMSU=  1.59D-06    CP:  1.00D+00  3.00D+00  7.33D-01  9.92D-01  9.32D-01
                    CP:  1.15D+00  1.69D+00  1.65D+00  1.50D+00  1.21D+00
 E= -604.522457567673     Delta-E=       -0.000000156754 Rises=F Damp=F
 DIIS: error= 1.19D-05 at cycle  11 NSaved=  11.
 NSaved=11 IEnMin=11 EnMin= -604.522457567673     IErMin=11 ErrMin= 1.19D-05
 ErrMax= 1.19D-05  0.00D+00 EMaxC= 1.00D-01 BMatC= 6.65D-08 BMatP= 1.49D-07
 IDIUse=1 WtCom= 1.00D+00 WtEn= 0.00D+00
 Coeff-Com:  0.175D-02-0.235D-02 0.124D-03 0.316D-02 0.192D-01 0.185D-01
 Coeff-Com: -0.684D-01-0.172D+00-0.624D-01 0.535D+00 0.728D+00
 Coeff:      0.175D-02-0.235D-02 0.124D-03 0.316D-02 0.192D-01 0.185D-01
 Coeff:     -0.684D-01-0.172D+00-0.624D-01 0.535D+00 0.728D+00
 Gap=     0.093 Goal=   None    Shift=    0.000
 Gap=     0.176 Goal=   None    Shift=    0.000
 RMSDP=1.92D-06 MaxDP=5.12D-05 DE=-1.57D-07 OVMax= 1.99D-04

 Cycle  12  Pass 1  IDiag  1:
 RMSU=  1.02D-06    CP:  1.00D+00  3.00D+00  7.33D-01  9.92D-01  9.32D-01
                    CP:  1.16D+00  1.70D+00  1.73D+00  1.64D+00  1.48D+00
                    CP:  1.22D+00
 E= -604.522457615912     Delta-E=       -0.000000048240 Rises=F Damp=F
 DIIS: error= 3.50D-06 at cycle  12 NSaved=  12.
 NSaved=12 IEnMin=12 EnMin= -604.522457615912     IErMin=12 ErrMin= 3.50D-06
 ErrMax= 3.50D-06  0.00D+00 EMaxC= 1.00D-01 BMatC= 1.29D-08 BMatP= 6.65D-08
 IDIUse=1 WtCom= 1.00D+00 WtEn= 0.00D+00
 Coeff-Com:  0.143D-02-0.191D-02-0.309D-03 0.744D-03 0.891D-02 0.146D-01
 Coeff-Com:  0.211D-01-0.678D-01-0.135D+00 0.378D-01 0.337D+00 0.784D+00
 Coeff:      0.143D-02-0.191D-02-0.309D-03 0.744D-03 0.891D-02 0.146D-01
 Coeff:      0.211D-01-0.678D-01-0.135D+00 0.378D-01 0.337D+00 0.784D+00
 Gap=     0.093 Goal=   None    Shift=    0.000
 Gap=     0.176 Goal=   None    Shift=    0.000
 RMSDP=1.07D-06 MaxDP=4.95D-05 DE=-4.82D-08 OVMax= 8.67D-05

 Cycle  13  Pass 1  IDiag  1:
 RMSU=  4.41D-07    CP:  1.00D+00  3.00D+00  7.33D-01  9.92D-01  9.31D-01
                    CP:  1.15D+00  1.69D+00  1.73D+00  1.68D+00  1.58D+00
                    CP:  1.53D+00  1.18D+00
 E= -604.522457625977     Delta-E=       -0.000000010065 Rises=F Damp=F
 DIIS: error= 2.46D-06 at cycle  13 NSaved=  13.
 NSaved=13 IEnMin=13 EnMin= -604.522457625977     IErMin=13 ErrMin= 2.46D-06
 ErrMax= 2.46D-06  0.00D+00 EMaxC= 1.00D-01 BMatC= 3.04D-09 BMatP= 1.29D-08
 IDIUse=1 WtCom= 1.00D+00 WtEn= 0.00D+00
 Coeff-Com:  0.218D-03-0.288D-03-0.185D-03-0.507D-03-0.654D-03 0.242D-02
 Coeff-Com:  0.232D-01 0.816D-02-0.487D-01-0.974D-01-0.256D-01 0.351D+00
 Coeff-Com:  0.789D+00
 Coeff:      0.218D-03-0.288D-03-0.185D-03-0.507D-03-0.654D-03 0.242D-02
 Coeff:      0.232D-01 0.816D-02-0.487D-01-0.974D-01-0.256D-01 0.351D+00
 Coeff:      0.789D+00
 Gap=     0.093 Goal=   None    Shift=    0.000
 Gap=     0.176 Goal=   None    Shift=    0.000
 RMSDP=4.57D-07 MaxDP=1.18D-05 DE=-1.01D-08 OVMax= 4.26D-05

 Cycle  14  Pass 1  IDiag  1:
 RMSU=  2.10D-07    CP:  1.00D+00  3.00D+00  7.33D-01  9.92D-01  9.31D-01
                    CP:  1.15D+00  1.69D+00  1.73D+00  1.69D+00  1.65D+00
                    CP:  1.66D+00  1.36D+00  1.13D+00
 E= -604.522457628592     Delta-E=       -0.000000002615 Rises=F Damp=F
 DIIS: error= 1.34D-06 at cycle  14 NSaved=  14.
 NSaved=14 IEnMin=14 EnMin= -604.522457628592     IErMin=14 ErrMin= 1.34D-06
 ErrMax= 1.34D-06  0.00D+00 EMaxC= 1.00D-01 BMatC= 7.89D-10 BMatP= 3.04D-09
 IDIUse=1 WtCom= 1.00D+00 WtEn= 0.00D+00
 Coeff-Com: -0.231D-03 0.309D-03-0.124D-04-0.361D-03-0.219D-02-0.181D-02
 Coeff-Com:  0.526D-02 0.194D-01 0.731D-02-0.509D-01-0.927D-01-0.304D-01
 Coeff-Com:  0.359D+00 0.787D+00
 Coeff:     -0.231D-03 0.309D-03-0.124D-04-0.361D-03-0.219D-02-0.181D-02
 Coeff:      0.526D-02 0.194D-01 0.731D-02-0.509D-01-0.927D-01-0.304D-01
 Coeff:      0.359D+00 0.787D+00
 Gap=     0.093 Goal=   None    Shift=    0.000
 Gap=     0.176 Goal=   None    Shift=    0.000
 RMSDP=2.35D-07 MaxDP=1.22D-05 DE=-2.62D-09 OVMax= 2.10D-05

 Cycle  15  Pass 1  IDiag  1:
 RMSU=  1.16D-07    CP:  1.00D+00  3.00D+00  7.33D-01  9.92D-01  9.31D-01
                    CP:  1.15D+00  1.69D+00  1.73D+00  1.70D+00  1.67D+00
                    CP:  1.71D+00  1.45D+00  1.31D+00  1.24D+00
 E= -604.522457629303     Delta-E=       -0.000000000711 Rises=F Damp=F
 DIIS: error= 4.17D-07 at cycle  15 NSaved=  15.
 NSaved=15 IEnMin=15 EnMin= -604.522457629303     IErMin=15 ErrMin= 4.17D-07
 ErrMax= 4.17D-07  0.00D+00 EMaxC= 1.00D-01 BMatC= 1.29D-10 BMatP= 7.89D-10
 IDIUse=1 WtCom= 1.00D+00 WtEn= 0.00D+00
 Coeff-Com: -0.571D-04 0.759D-04 0.386D-04 0.114D-03 0.299D-05-0.675D-03
 Coeff-Com: -0.490D-02-0.704D-03 0.123D-01 0.194D-01 0.356D-02-0.894D-01
 Coeff-Com: -0.190D+00 0.155D-01 0.123D+01
 Coeff:     -0.571D-04 0.759D-04 0.386D-04 0.114D-03 0.299D-05-0.675D-03
 Coeff:     -0.490D-02-0.704D-03 0.123D-01 0.194D-01 0.356D-02-0.894D-01
 Coeff:     -0.190D+00 0.155D-01 0.123D+01
 Gap=     0.093 Goal=   None    Shift=    0.000
 Gap=     0.176 Goal=   None    Shift=    0.000
 RMSDP=1.40D-07 MaxDP=4.14D-06 DE=-7.11D-10 OVMax= 1.39D-05

 Cycle  16  Pass 1  IDiag  1:
 RMSU=  5.75D-08    CP:  1.00D+00  3.00D+00  7.33D-01  9.92D-01  9.31D-01
                    CP:  1.15D+00  1.69D+00  1.73D+00  1.70D+00  1.67D+00
                    CP:  1.73D+00  1.49D+00  1.45D+00  1.62D+00  1.32D+00
 E= -604.522457629519     Delta-E=       -0.000000000216 Rises=F Damp=F
 DIIS: error= 1.97D-07 at cycle  16 NSaved=  16.
 NSaved=16 IEnMin=16 EnMin= -604.522457629519     IErMin=16 ErrMin= 1.97D-07
 ErrMax= 1.97D-07  0.00D+00 EMaxC= 1.00D-01 BMatC= 5.28D-11 BMatP= 1.29D-10
 IDIUse=1 WtCom= 1.00D+00 WtEn= 0.00D+00
 Coeff-Com:  0.223D-04-0.301D-04 0.203D-04 0.128D-03 0.441D-03 0.184D-04
 Coeff-Com: -0.341D-02-0.431D-02 0.394D-02 0.189D-01 0.217D-01-0.332D-01
 Coeff-Com: -0.167D+00-0.150D+00 0.630D+00 0.683D+00
 Coeff:      0.223D-04-0.301D-04 0.203D-04 0.128D-03 0.441D-03 0.184D-04
 Coeff:     -0.341D-02-0.431D-02 0.394D-02 0.189D-01 0.217D-01-0.332D-01
 Coeff:     -0.167D+00-0.150D+00 0.630D+00 0.683D+00
 Gap=     0.093 Goal=   None    Shift=    0.000
 Gap=     0.176 Goal=   None    Shift=    0.000
 RMSDP=5.91D-08 MaxDP=1.96D-06 DE=-2.16D-10 OVMax= 5.09D-06

 Cycle  17  Pass 1  IDiag  1:
 RMSU=  3.20D-08    CP:  1.00D+00  3.00D+00  7.33D-01  9.92D-01  9.31D-01
                    CP:  1.15D+00  1.69D+00  1.73D+00  1.70D+00  1.68D+00
                    CP:  1.73D+00  1.50D+00  1.48D+00  1.70D+00  1.53D+00
                    CP:  1.04D+00
 E= -604.522457629559     Delta-E=       -0.000000000039 Rises=F Damp=F
 DIIS: error= 1.02D-07 at cycle  17 NSaved=  17.
 NSaved=17 IEnMin=17 EnMin= -604.522457629559     IErMin=17 ErrMin= 1.02D-07
 ErrMax= 1.02D-07  0.00D+00 EMaxC= 1.00D-01 BMatC= 1.56D-11 BMatP= 5.28D-11
 IDIUse=1 WtCom= 1.00D+00 WtEn= 0.00D+00
 Coeff-Com:  0.315D-04-0.421D-04-0.923D-06 0.307D-04 0.235D-03 0.230D-03
 Coeff-Com: -0.702D-04-0.191D-02-0.235D-02 0.282D-02 0.104D-01 0.148D-01
 Coeff-Com: -0.280D-01-0.873D-01-0.547D-01 0.348D+00 0.798D+00
 Coeff:      0.315D-04-0.421D-04-0.923D-06 0.307D-04 0.235D-03 0.230D-03
 Coeff:     -0.702D-04-0.191D-02-0.235D-02 0.282D-02 0.104D-01 0.148D-01
 Coeff:     -0.280D-01-0.873D-01-0.547D-01 0.348D+00 0.798D+00
 Gap=     0.093 Goal=   None    Shift=    0.000
 Gap=     0.176 Goal=   None    Shift=    0.000
 RMSDP=3.61D-08 MaxDP=1.32D-06 DE=-3.91D-11 OVMax= 3.69D-06

 Cycle  18  Pass 1  IDiag  1:
 RMSU=  1.64D-08    CP:  1.00D+00  3.00D+00  7.33D-01  9.92D-01  9.31D-01
                    CP:  1.15D+00  1.69D+00  1.73D+00  1.70D+00  1.68D+00
                    CP:  1.74D+00  1.50D+00  1.48D+00  1.74D+00  1.60D+00
                    CP:  1.34D+00  1.08D+00
 E= -604.522457629618     Delta-E=       -0.000000000060 Rises=F Damp=F
 DIIS: error= 5.08D-08 at cycle  18 NSaved=  18.
 NSaved=18 IEnMin=18 EnMin= -604.522457629618     IErMin=18 ErrMin= 5.08D-08
 ErrMax= 5.08D-08  0.00D+00 EMaxC= 1.00D-01 BMatC= 4.17D-12 BMatP= 1.56D-11
 IDIUse=1 WtCom= 1.00D+00 WtEn= 0.00D+00
 Coeff-Com:  0.405D-05-0.535D-05-0.645D-05-0.317D-04-0.655D-04 0.781D-04
 Coeff-Com:  0.127D-02 0.926D-03-0.226D-02-0.603D-02-0.378D-02 0.183D-01
 Coeff-Com:  0.439D-01 0.129D-01-0.232D+00-0.976D-01 0.347D+00 0.918D+00
 Coeff:      0.405D-05-0.535D-05-0.645D-05-0.317D-04-0.655D-04 0.781D-04
 Coeff:      0.127D-02 0.926D-03-0.226D-02-0.603D-02-0.378D-02 0.183D-01
 Coeff:      0.439D-01 0.129D-01-0.232D+00-0.976D-01 0.347D+00 0.918D+00
 Gap=     0.093 Goal=   None    Shift=    0.000
 Gap=     0.176 Goal=   None    Shift=    0.000
 RMSDP=2.07D-08 MaxDP=7.92D-07 DE=-5.96D-11 OVMax= 1.70D-06

 Cycle  19  Pass 1  IDiag  1:
 RMSU=  7.31D-09    CP:  1.00D+00  3.00D+00  7.33D-01  9.92D-01  9.31D-01
                    CP:  1.15D+00  1.69D+00  1.73D+00  1.71D+00  1.68D+00
                    CP:  1.74D+00  1.50D+00  1.49D+00  1.74D+00  1.63D+00
                    CP:  1.50D+00  1.42D+00  1.18D+00
 E= -604.522457629592     Delta-E=        0.000000000026 Rises=F Damp=F
 DIIS: error= 3.71D-08 at cycle  19 NSaved=  19.
 NSaved=19 IEnMin=18 EnMin= -604.522457629618     IErMin=19 ErrMin= 3.71D-08
 ErrMax= 3.71D-08  0.00D+00 EMaxC= 1.00D-01 BMatC= 1.02D-12 BMatP= 4.17D-12
 IDIUse=1 WtCom= 1.00D+00 WtEn= 0.00D+00
 Coeff-Com: -0.600D-05 0.805D-05-0.266D-05-0.199D-04-0.861D-04-0.284D-04
 Coeff-Com:  0.490D-03 0.823D-03-0.190D-03-0.309D-02-0.404D-02 0.366D-02
 Coeff-Com:  0.239D-01 0.271D-01-0.775D-01-0.134D+00-0.700D-01 0.386D+00
 Coeff-Com:  0.846D+00
 Coeff:     -0.600D-05 0.805D-05-0.266D-05-0.199D-04-0.861D-04-0.284D-04
 Coeff:      0.490D-03 0.823D-03-0.190D-03-0.309D-02-0.404D-02 0.366D-02
 Coeff:      0.239D-01 0.271D-01-0.775D-01-0.134D+00-0.700D-01 0.386D+00
 Coeff:      0.846D+00
 Gap=     0.093 Goal=   None    Shift=    0.000
 Gap=     0.176 Goal=   None    Shift=    0.000
 RMSDP=9.18D-09 MaxDP=3.50D-07 DE= 2.59D-11 OVMax= 7.63D-07

 SCF Done:  E(UPBE1PBE) =  -604.522457630     A.U. after   19 cycles
            NFock= 19  Conv=0.92D-08     -V/T= 2.1866
 <Sx>= 0.0000 <Sy>= 0.0000 <Sz>= 0.5000 <S**2>= 0.7522 S= 0.5011
 <L.S>= 0.000000000000E+00
 KE= 5.094411359171D+02 PE=-2.928006334066D+03 EE= 1.038308128860D+03
 Annihilation of the first spin contaminant:
 S**2 before annihilation     0.7522,   after     0.7500
 Leave Link  502 at Fri Sep 11 21:19:42 2026, MaxMem=  6442450944 cpu:             205.0 elap:             205.1
 (Enter C:\G16W\l508.exe)
 QCSCF skips out because SCF is already converged.
 Leave Link  508 at Fri Sep 11 21:19:42 2026, MaxMem=  6442450944 cpu:               0.0 elap:               0.1
 (Enter C:\G16W\l601.exe)
 Copying SCF densities to generalized density rwf, IOpCl= 1 IROHF=0.

 **********************************************************************

            Population analysis using the SCF Density.

 **********************************************************************

 Alpha  occ. eigenvalues --  -14.44673 -14.38836 -10.30851 -10.29110 -10.28985
 Alpha  occ. eigenvalues --  -10.28977 -10.27696 -10.27529 -10.27456 -10.25875
 Alpha  occ. eigenvalues --  -10.25867  -3.75820  -2.34093  -2.33618  -2.33512
 Alpha  occ. eigenvalues --   -1.00771  -0.94018  -0.90735  -0.81973  -0.80457
 Alpha  occ. eigenvalues --   -0.76947  -0.73068  -0.65864  -0.64372  -0.59964
 Alpha  occ. eigenvalues --   -0.56016  -0.54079  -0.51310  -0.49356  -0.47844
 Alpha  occ. eigenvalues --   -0.46962  -0.46265  -0.44928  -0.44757  -0.43122
 Alpha  occ. eigenvalues --   -0.42064  -0.39572  -0.38901  -0.37396  -0.35792
 Alpha  occ. eigenvalues --   -0.35644  -0.34121  -0.32718  -0.32559  -0.32125
 Alpha  occ. eigenvalues --   -0.30024  -0.29178  -0.23316  -0.14020
 Alpha virt. eigenvalues --   -0.04746  -0.03868   0.02033   0.02232   0.04129
 Alpha virt. eigenvalues --    0.04247   0.06177   0.07604   0.08180   0.08302
 Alpha virt. eigenvalues --    0.09186   0.11680   0.11808   0.13133   0.13212
 Alpha virt. eigenvalues --    0.14099   0.14858   0.16648   0.17305   0.17717
 Alpha virt. eigenvalues --    0.20285   0.22061   0.26090   0.27647   0.28145
 Alpha virt. eigenvalues --    0.30119   0.31413   0.31809   0.34375   0.34617
 Alpha virt. eigenvalues --    0.35945   0.38219   0.38267   0.38470   0.41772
 Alpha virt. eigenvalues --    0.43084   0.44552   0.45072   0.45463   0.48078
 Alpha virt. eigenvalues --    0.48907   0.49938   0.50109   0.52230   0.53498
 Alpha virt. eigenvalues --    0.53608   0.59608   0.60803   0.61347   0.62287
 Alpha virt. eigenvalues --    0.62371   0.62967   0.63504   0.63637   0.64395
 Alpha virt. eigenvalues --    0.65418   0.65539   0.66035   0.67534   0.67866
 Alpha virt. eigenvalues --    0.68375   0.68702   0.69776   0.70454   0.71944
 Alpha virt. eigenvalues --    0.72716   0.74448   0.75079   0.78357   0.79463
 Alpha virt. eigenvalues --    0.81098   0.81430   0.84978   0.87529   0.88519
 Alpha virt. eigenvalues --    0.89104   0.92733   0.93395   0.93613   0.96986
 Alpha virt. eigenvalues --    1.03361   1.05183   1.07668   1.09983   1.10596
 Alpha virt. eigenvalues --    1.11435   1.18235   1.21556   1.23341   1.23988
 Alpha virt. eigenvalues --    1.24779   1.27643   1.27906   1.28513   1.31101
 Alpha virt. eigenvalues --    1.33715   1.34734   1.37700   1.47832   1.49541
 Alpha virt. eigenvalues --    1.50766   1.51315   1.52847   1.53661   1.63101
 Alpha virt. eigenvalues --    1.66578   1.66729   1.69950   1.70873   1.72064
 Alpha virt. eigenvalues --    1.72675   1.73469   1.73698   1.76943   1.77135
 Alpha virt. eigenvalues --    1.77951   1.81096   1.81336   1.81723   1.82360
 Alpha virt. eigenvalues --    1.85038   1.89523   1.89617   1.92252   1.93247
 Alpha virt. eigenvalues --    1.93618   1.95114   1.98039   2.00439   2.00981
 Alpha virt. eigenvalues --    2.06202   2.07789   2.08752   2.14519   2.15777
 Alpha virt. eigenvalues --    2.17014   2.18733   2.20568   2.21576   2.24313
 Alpha virt. eigenvalues --    2.24939   2.26241   2.30595   2.30860   2.34479
 Alpha virt. eigenvalues --    2.34582   2.36838   2.37663   2.38174   2.44086
 Alpha virt. eigenvalues --    2.44637   2.45550   2.57473   2.59944   2.61034
 Alpha virt. eigenvalues --    2.61760   2.61968   2.62602   2.62645   2.64286
 Alpha virt. eigenvalues --    2.64736   2.65245   2.66023   2.68768   2.69105
 Alpha virt. eigenvalues --    2.70761   2.75911   2.76662   2.80867   2.86660
 Alpha virt. eigenvalues --    2.89721   2.91562   2.91781   2.91901   2.93033
 Alpha virt. eigenvalues --    2.97362   3.03039   3.03611   3.05980   3.17085
 Alpha virt. eigenvalues --    3.20861   3.26459   3.43562   3.50321   3.72635
 Alpha virt. eigenvalues --   53.88304
  Beta  occ. eigenvalues --  -14.44662 -14.38814 -10.30831 -10.29069 -10.28986
  Beta  occ. eigenvalues --  -10.28978 -10.27692 -10.27469 -10.27395 -10.25897
  Beta  occ. eigenvalues --  -10.25888  -3.75663  -2.34015  -2.33513  -2.33425
  Beta  occ. eigenvalues --   -1.00749  -0.93942  -0.90656  -0.81914  -0.80409
  Beta  occ. eigenvalues --   -0.76924  -0.73034  -0.65815  -0.64312  -0.59931
  Beta  occ. eigenvalues --   -0.55990  -0.54051  -0.51276  -0.49323  -0.47820
  Beta  occ. eigenvalues --   -0.46943  -0.45921  -0.44911  -0.44754  -0.43094
  Beta  occ. eigenvalues --   -0.42056  -0.39458  -0.38879  -0.37367  -0.35624
  Beta  occ. eigenvalues --   -0.35402  -0.33653  -0.32193  -0.32087  -0.31521
  Beta  occ. eigenvalues --   -0.29608  -0.28910  -0.23144
  Beta virt. eigenvalues --   -0.05497  -0.03928  -0.03511   0.03546   0.03961
  Beta virt. eigenvalues --    0.04694   0.04824   0.06739   0.08295   0.08487
  Beta virt. eigenvalues --    0.08693   0.10088   0.11894   0.12624   0.13260
  Beta virt. eigenvalues --    0.13355   0.14118   0.15136   0.16823   0.17782
  Beta virt. eigenvalues --    0.18270   0.20524   0.22093   0.26348   0.27828
  Beta virt. eigenvalues --    0.28632   0.30906   0.32016   0.32147   0.35022
  Beta virt. eigenvalues --    0.35884   0.37304   0.38475   0.39066   0.39976
  Beta virt. eigenvalues --    0.42157   0.43742   0.44826   0.45279   0.46119
  Beta virt. eigenvalues --    0.48365   0.49505   0.50123   0.50700   0.53372
  Beta virt. eigenvalues --    0.53910   0.54524   0.59908   0.61067   0.61792
  Beta virt. eigenvalues --    0.62354   0.62618   0.63036   0.63559   0.63967
  Beta virt. eigenvalues --    0.65298   0.65555   0.65870   0.66218   0.67716
  Beta virt. eigenvalues --    0.67945   0.68575   0.68783   0.69800   0.70566
  Beta virt. eigenvalues --    0.71995   0.72940   0.74458   0.75284   0.78801
  Beta virt. eigenvalues --    0.80097   0.81444   0.81582   0.85179   0.87707
  Beta virt. eigenvalues --    0.88687   0.89306   0.92905   0.93439   0.93656
  Beta virt. eigenvalues --    0.97086   1.03395   1.05264   1.07694   1.09990
  Beta virt. eigenvalues --    1.10621   1.11908   1.18337   1.21615   1.23401
  Beta virt. eigenvalues --    1.24106   1.24908   1.27687   1.27993   1.28620
  Beta virt. eigenvalues --    1.31196   1.33790   1.34875   1.37875   1.47858
  Beta virt. eigenvalues --    1.49559   1.50771   1.51319   1.52860   1.53713
  Beta virt. eigenvalues --    1.63156   1.66675   1.66749   1.70085   1.70917
  Beta virt. eigenvalues --    1.72108   1.72708   1.73508   1.73722   1.76984
  Beta virt. eigenvalues --    1.77159   1.78026   1.81150   1.81409   1.81732
  Beta virt. eigenvalues --    1.82387   1.85119   1.89577   1.89635   1.92311
  Beta virt. eigenvalues --    1.93293   1.93630   1.95116   1.98077   2.00520
  Beta virt. eigenvalues --    2.01021   2.06270   2.08130   2.08760   2.14616
  Beta virt. eigenvalues --    2.15786   2.17069   2.18755   2.20610   2.21761
  Beta virt. eigenvalues --    2.24527   2.24985   2.26279   2.30633   2.30943
  Beta virt. eigenvalues --    2.34548   2.34802   2.36857   2.37724   2.38268
  Beta virt. eigenvalues --    2.44135   2.44708   2.45552   2.57503   2.59985
  Beta virt. eigenvalues --    2.61112   2.61790   2.61993   2.62617   2.62658
  Beta virt. eigenvalues --    2.64331   2.64859   2.65283   2.66142   2.68895
  Beta virt. eigenvalues --    2.69225   2.70777   2.75933   2.76677   2.80899
  Beta virt. eigenvalues --    2.86669   2.89777   2.91601   2.91787   2.91904
  Beta virt. eigenvalues --    2.93045   2.97374   3.03054   3.03645   3.06025
  Beta virt. eigenvalues --    3.17106   3.20887   3.26486   3.43578   3.50349
  Beta virt. eigenvalues --    3.72668  53.88458
          Condensed to atoms (all electrons):
               1          2          3          4          5          6
     1  N    6.271450   0.787952  -0.087463  -0.000297   0.000072   0.000055
     2  C    0.787952   5.598756  -0.185285  -0.042495   0.014176   0.006647
     3  C   -0.087463  -0.185285   6.554103   0.073167   0.122821  -0.215085
     4  C   -0.000297  -0.042495   0.073167   5.078834   0.291307   0.148820
     5  C    0.000072   0.014176   0.122821   0.291307   5.186269   0.177981
     6  C    0.000055   0.006647  -0.215085   0.148820   0.177981   5.198169
     7  N    0.000000   0.000045  -0.000605   0.007808  -0.097472   0.403614
     8  C    0.000000   0.000000   0.000070  -0.000155   0.007953  -0.061891
     9  C    0.000000  -0.000001   0.000069   0.001023   0.003582  -0.061940
    10  C    0.000078   0.014651   0.121962  -0.154547   0.094349   0.177896
    11  C   -0.000357  -0.044123   0.061724   0.119468  -0.156175   0.150417
    12  H   -0.001340  -0.029491  -0.054485   0.462644  -0.063652   0.015748
    13  H   -0.000006  -0.000759   0.019979  -0.071112   0.467486  -0.084599
    14  H    0.000000   0.000000   0.000006   0.000010  -0.000146   0.007581
    15  H    0.000000   0.000004  -0.000156   0.000048  -0.000489  -0.011287
    16  H    0.000000  -0.000002  -0.000032  -0.000025  -0.000057  -0.012133
    17  H    0.000000   0.000004  -0.000154   0.001268   0.004926  -0.011312
    18  H    0.000000   0.000000   0.000006  -0.000081   0.000578   0.007578
    19  H    0.000000  -0.000002  -0.000031   0.000967   0.006361  -0.012112
    20  H   -0.000005  -0.000739   0.020160  -0.002446   0.015661  -0.084849
    21  H   -0.001382  -0.029497  -0.054123   0.013927  -0.002349   0.015659
    22  Ag   0.006734  -0.069693   0.058834  -0.049817   0.003315  -0.007690
               7          8          9         10         11         12
     1  N    0.000000   0.000000   0.000000   0.000078  -0.000357  -0.001340
     2  C    0.000045   0.000000  -0.000001   0.014651  -0.044123  -0.029491
     3  C   -0.000605   0.000070   0.000069   0.121962   0.061724  -0.054485
     4  C    0.007808  -0.000155   0.001023  -0.154547   0.119468   0.462644
     5  C   -0.097472   0.007953   0.003582   0.094349  -0.156175  -0.063652
     6  C    0.403614  -0.061891  -0.061940   0.177896   0.150417   0.015748
     7  N    6.671606   0.349459   0.349539  -0.097520   0.007852  -0.000091
     8  C    0.349459   4.466546  -0.049400   0.003624   0.001018   0.000007
     9  C    0.349539  -0.049400   4.466553   0.007955  -0.000156  -0.000049
    10  C   -0.097520   0.003624   0.007955   5.183980   0.290409  -0.002366
    11  C    0.007852   0.001018  -0.000156   0.290409   5.097314   0.014076
    12  H   -0.000091   0.000007  -0.000049  -0.002366   0.014076   0.637240
    13  H   -0.016449   0.000005   0.012478   0.015602  -0.002402  -0.013275
    14  H   -0.019511   0.399277  -0.012800   0.000582  -0.000082   0.000000
    15  H   -0.028496   0.401344   0.003455   0.004858   0.001283   0.000000
    16  H   -0.029870   0.400068   0.003438   0.006380   0.000978   0.000000
    17  H   -0.028520   0.003456   0.401257  -0.000494   0.000049   0.000007
    18  H   -0.019492  -0.012799   0.399292  -0.000147   0.000011   0.000000
    19  H   -0.029897   0.003440   0.400132  -0.000050  -0.000026   0.000016
    20  H   -0.016468   0.012501   0.000007   0.468304  -0.071835   0.000023
    21  H   -0.000090  -0.000049   0.000007  -0.062841   0.462284  -0.000107
    22  Ag  -0.000535  -0.000208  -0.000207   0.001115  -0.047290  -0.000067
              13         14         15         16         17         18
     1  N   -0.000006   0.000000   0.000000   0.000000   0.000000   0.000000
     2  C   -0.000759   0.000000   0.000004  -0.000002   0.000004   0.000000
     3  C    0.019979   0.000006  -0.000156  -0.000032  -0.000154   0.000006
     4  C   -0.071112   0.000010   0.000048  -0.000025   0.001268  -0.000081
     5  C    0.467486  -0.000146  -0.000489  -0.000057   0.004926   0.000578
     6  C   -0.084599   0.007581  -0.011287  -0.012133  -0.011312   0.007578
     7  N   -0.016449  -0.019511  -0.028496  -0.029870  -0.028520  -0.019492
     8  C    0.000005   0.399277   0.401344   0.400068   0.003456  -0.012799
     9  C    0.012478  -0.012800   0.003455   0.003438   0.401257   0.399292
    10  C    0.015602   0.000582   0.004858   0.006380  -0.000494  -0.000147
    11  C   -0.002402  -0.000082   0.001283   0.000978   0.000049   0.000011
    12  H   -0.013275   0.000000   0.000000   0.000000   0.000007   0.000000
    13  H    0.669641  -0.000004  -0.000026  -0.000017  -0.001938   0.000084
    14  H   -0.000004   0.607390  -0.020108  -0.020744   0.000354   0.004904
    15  H   -0.000026  -0.020108   0.629365  -0.041000   0.001280   0.000355
    16  H   -0.000017  -0.020744  -0.041000   0.636705  -0.000899   0.000334
    17  H   -0.001938   0.000354   0.001280  -0.000899   0.629670  -0.020106
    18  H    0.000084   0.004904   0.000355   0.000334  -0.020106   0.607345
    19  H   -0.001572   0.000334  -0.000899   0.001307  -0.041062  -0.020737
    20  H   -0.000163   0.000086  -0.001970  -0.001565  -0.000026  -0.000004
    21  H    0.000024   0.000000   0.000005   0.000017   0.000000   0.000000
    22  Ag  -0.000098  -0.000014   0.000543  -0.000035   0.000522  -0.000013
              19         20         21         22
     1  N    0.000000  -0.000005  -0.001382   0.006734
     2  C   -0.000002  -0.000739  -0.029497  -0.069693
     3  C   -0.000031   0.020160  -0.054123   0.058834
     4  C    0.000967  -0.002446   0.013927  -0.049817
     5  C    0.006361   0.015661  -0.002349   0.003315
     6  C   -0.012112  -0.084849   0.015659  -0.007690
     7  N   -0.029897  -0.016468  -0.000090  -0.000535
     8  C    0.003440   0.012501  -0.000049  -0.000208
     9  C    0.400132   0.000007   0.000007  -0.000207
    10  C   -0.000050   0.468304  -0.062841   0.001115
    11  C   -0.000026  -0.071835   0.462284  -0.047290
    12  H    0.000016   0.000023  -0.000107  -0.000067
    13  H   -0.001572  -0.000163   0.000024  -0.000098
    14  H    0.000334   0.000086   0.000000  -0.000014
    15  H   -0.000899  -0.001970   0.000005   0.000543
    16  H    0.001307  -0.001565   0.000017  -0.000035
    17  H   -0.041062  -0.000026   0.000000   0.000522
    18  H   -0.020737  -0.000004   0.000000  -0.000013
    19  H    0.636728  -0.000017   0.000000  -0.000035
    20  H   -0.000017   0.669476  -0.013258  -0.000059
    21  H    0.000000  -0.013258   0.634807  -0.000739
    22  Ag  -0.000035  -0.000059  -0.000739  19.191496
          Atomic-Atomic Spin Densities.
               1          2          3          4          5          6
     1  N    0.020364  -0.000763   0.004588  -0.000014  -0.000003   0.000004
     2  C   -0.000763   0.007272   0.049034  -0.002555   0.000017   0.000273
     3  C    0.004588   0.049034  -0.025319   0.023501  -0.000948   0.001980
     4  C   -0.000014  -0.002555   0.023501   0.039473  -0.000758  -0.001226
     5  C   -0.000003   0.000017  -0.000948  -0.000758  -0.017549   0.000669
     6  C    0.000004   0.000273   0.001980  -0.001226   0.000669   0.018371
     7  N    0.000000   0.000002   0.000105   0.000007   0.000024  -0.003614
     8  C    0.000000   0.000000   0.000016  -0.000005  -0.000022  -0.000402
     9  C    0.000000   0.000000   0.000016   0.000005   0.000068  -0.000443
    10  C   -0.000003  -0.000013  -0.000750  -0.000391   0.001052  -0.000248
    11  C    0.000050  -0.001921   0.024189   0.000645  -0.000583  -0.001205
    12  H   -0.000074  -0.000299  -0.000564   0.000565  -0.000145  -0.000041
    13  H    0.000000  -0.000006   0.000006  -0.000060  -0.000108   0.000033
    14  H    0.000000   0.000000   0.000000   0.000000   0.000001   0.000011
    15  H    0.000000  -0.000001  -0.000021   0.000002   0.000016   0.000405
    16  H    0.000000   0.000000   0.000006  -0.000004  -0.000007   0.000007
    17  H    0.000000  -0.000001  -0.000021  -0.000022  -0.000022   0.000425
    18  H    0.000000   0.000000   0.000000   0.000000  -0.000001   0.000011
    19  H    0.000000   0.000001   0.000006  -0.000014   0.000002   0.000007
    20  H    0.000000  -0.000005   0.000009  -0.000003   0.000012   0.000055
    21  H   -0.000066  -0.000194  -0.000587   0.000080  -0.000017  -0.000029
    22  Ag  -0.022996  -0.064435  -0.083002  -0.033978   0.002797  -0.001427
               7          8          9         10         11         12
     1  N    0.000000   0.000000   0.000000  -0.000003   0.000050  -0.000074
     2  C    0.000002   0.000000   0.000000  -0.000013  -0.001921  -0.000299
     3  C    0.000105   0.000016   0.000016  -0.000750   0.024189  -0.000564
     4  C    0.000007  -0.000005   0.000005  -0.000391   0.000645   0.000565
     5  C    0.000024  -0.000022   0.000068   0.001052  -0.000583  -0.000145
     6  C   -0.003614  -0.000402  -0.000443  -0.000248  -0.001205  -0.000041
     7  N    0.007663   0.000729   0.000788   0.000161   0.000007  -0.000002
     8  C    0.000729   0.000063   0.000083   0.000091   0.000006   0.000000
     9  C    0.000788   0.000083   0.000121  -0.000020  -0.000004  -0.000002
    10  C    0.000161   0.000091  -0.000020  -0.017687   0.001315  -0.000016
    11  C    0.000007   0.000006  -0.000004   0.001315   0.036481   0.000080
    12  H   -0.000002   0.000000  -0.000002  -0.000016   0.000080  -0.001613
    13  H   -0.000020  -0.000001   0.000012   0.000013  -0.000002   0.000011
    14  H   -0.000012   0.000010   0.000002  -0.000001   0.000000   0.000000
    15  H   -0.000556  -0.001006  -0.000072  -0.000073  -0.000020   0.000000
    16  H   -0.000038   0.000239   0.000011  -0.000025  -0.000013   0.000000
    17  H   -0.000576  -0.000071  -0.001045   0.000013   0.000002   0.000003
    18  H   -0.000012   0.000002   0.000010   0.000001   0.000000   0.000000
    19  H   -0.000045   0.000012   0.000222  -0.000010  -0.000004  -0.000002
    20  H   -0.000018   0.000017  -0.000001  -0.000128  -0.000055   0.000000
    21  H   -0.000001  -0.000002   0.000000  -0.000130   0.000706   0.000004
    22  Ag  -0.001139  -0.000315  -0.000307   0.001247  -0.037194   0.001491
              13         14         15         16         17         18
     1  N    0.000000   0.000000   0.000000   0.000000   0.000000   0.000000
     2  C   -0.000006   0.000000  -0.000001   0.000000  -0.000001   0.000000
     3  C    0.000006   0.000000  -0.000021   0.000006  -0.000021   0.000000
     4  C   -0.000060   0.000000   0.000002  -0.000004  -0.000022   0.000000
     5  C   -0.000108   0.000001   0.000016  -0.000007  -0.000022  -0.000001
     6  C    0.000033   0.000011   0.000405   0.000007   0.000425   0.000011
     7  N   -0.000020  -0.000012  -0.000556  -0.000038  -0.000576  -0.000012
     8  C   -0.000001   0.000010  -0.001006   0.000239  -0.000071   0.000002
     9  C    0.000012   0.000002  -0.000072   0.000011  -0.001045   0.000010
    10  C    0.000013  -0.000001  -0.000073  -0.000025   0.000013   0.000001
    11  C   -0.000002   0.000000  -0.000020  -0.000013   0.000002   0.000000
    12  H    0.000011   0.000000   0.000000   0.000000   0.000003   0.000000
    13  H    0.000744   0.000000   0.000000   0.000000   0.000001   0.000001
    14  H    0.000000  -0.000005   0.000009  -0.000014   0.000003  -0.000001
    15  H    0.000000   0.000009   0.001999  -0.000387   0.000064   0.000003
    16  H    0.000000  -0.000014  -0.000387   0.000570  -0.000015  -0.000002
    17  H    0.000001   0.000003   0.000064  -0.000015   0.002067   0.000012
    18  H    0.000001  -0.000001   0.000003  -0.000002   0.000012  -0.000008
    19  H   -0.000017  -0.000002  -0.000016   0.000014  -0.000428  -0.000016
    20  H   -0.000001   0.000001  -0.000005  -0.000015   0.000000   0.000000
    21  H    0.000000   0.000000   0.000003  -0.000001   0.000000   0.000000
    22  Ag   0.000077   0.000002   0.000594  -0.000101   0.000576   0.000003
              19         20         21         22
     1  N    0.000000   0.000000  -0.000066  -0.022996
     2  C    0.000001  -0.000005  -0.000194  -0.064435
     3  C    0.000006   0.000009  -0.000587  -0.083002
     4  C   -0.000014  -0.000003   0.000080  -0.033978
     5  C    0.000002   0.000012  -0.000017   0.002797
     6  C    0.000007   0.000055  -0.000029  -0.001427
     7  N   -0.000045  -0.000018  -0.000001  -0.001139
     8  C    0.000012   0.000017  -0.000002  -0.000315
     9  C    0.000222  -0.000001   0.000000  -0.000307
    10  C   -0.000010  -0.000128  -0.000130   0.001247
    11  C   -0.000004  -0.000055   0.000706  -0.037194
    12  H   -0.000002   0.000000   0.000004   0.001491
    13  H   -0.000017  -0.000001   0.000000   0.000077
    14  H   -0.000002   0.000001   0.000000   0.000002
    15  H   -0.000016  -0.000005   0.000003   0.000594
    16  H    0.000014  -0.000015  -0.000001  -0.000101
    17  H   -0.000428   0.000000   0.000000   0.000576
    18  H   -0.000016   0.000000   0.000000   0.000003
    19  H    0.000640   0.000000   0.000000  -0.000103
    20  H    0.000000   0.000753   0.000006   0.000055
    21  H    0.000000   0.000006  -0.001527   0.001233
    22  Ag  -0.000103   0.000055   0.001233   1.221995
 Mulliken charges and spin densities:
               1          2
     1  N    0.024509   0.001086
     2  C   -0.020148  -0.013593
     3  C   -0.435481  -0.007756
     4  C    0.121682   0.025248
     5  C   -0.076496  -0.015506
     6  C    0.252730   0.013616
     7  N   -0.404906   0.003452
     8  C    0.075734  -0.000556
     9  C    0.075766  -0.000556
    10  C   -0.073778  -0.015603
    11  C    0.115565   0.022480
    12  H    0.035164  -0.000604
    13  H    0.007121   0.000684
    14  H    0.052885   0.000004
    15  H    0.061893   0.000939
    16  H    0.057152   0.000224
    17  H    0.061720   0.000964
    18  H    0.052894   0.000003
    19  H    0.057158   0.000247
    20  H    0.007188   0.000678
    21  H    0.037706  -0.000523
    22  Ag  -0.086057   0.985071
 Sum of Mulliken charges =   0.00000   1.00000
 Mulliken charges and spin densities with hydrogens summed into heavy atoms:
               1          2
     1  N    0.024509   0.001086
     2  C   -0.020148  -0.013593
     3  C   -0.435481  -0.007756
     4  C    0.156846   0.024645
     5  C   -0.069375  -0.014823
     6  C    0.252730   0.013616
     7  N   -0.404906   0.003452
     8  C    0.247664   0.000611
     9  C    0.247538   0.000657
    10  C   -0.066591  -0.014925
    11  C    0.153271   0.021958
    22  Ag  -0.086057   0.985071
 Electronic spatial extent (au):  <R**2>=           3265.7484
 Charge=              0.0000 electrons
 Dipole moment (field-independent basis, Debye):
    X=             -8.6192    Y=             -1.5119    Z=              1.7934  Tot=              8.9326
 Quadrupole moment (field-independent basis, Debye-Ang):
   XX=           -112.4575   YY=            -87.1821   ZZ=            -88.4923
   XY=             -4.9698   XZ=              6.0922   YZ=             10.4561
 Traceless Quadrupole moment (field-independent basis, Debye-Ang):
   XX=            -16.4135   YY=              8.8618   ZZ=              7.5517
   XY=             -4.9698   XZ=              6.0922   YZ=             10.4561
 Octapole moment (field-independent basis, Debye-Ang**2):
  XXX=           -566.3421  YYY=            -88.4462  ZZZ=            101.0177  XYY=           -129.9905
  XXY=            -32.6082  XXZ=             42.6134  XZZ=           -131.6349  YZZ=            -36.1160
  YYZ=             38.9593  XYZ=             19.1524
 Hexadecapole moment (field-independent basis, Debye-Ang**3):
 XXXX=          -4882.1920 YYYY=           -599.7333 ZZZZ=           -613.3691 XXXY=           -195.9210
 XXXZ=            275.2707 YYYX=           -232.2662 YYYZ=             67.5415 ZZZX=            284.7715
 ZZZY=             67.7308 XXYY=           -771.7291 XXZZ=           -778.1393 YYZZ=           -205.3506
 XXYZ=             84.3071 YYXZ=            109.6036 ZZXY=            -96.1482
 N-N= 7.757346116586D+02 E-N=-2.928006340779D+03  KE= 5.094411359172D+02
                          Isotropic Fermi Contact Couplings
        Atom                 a.u.       MegaHertz       Gauss      10(-4) cm-1
     1  N(14)              0.01221       3.94519       1.40774       1.31597
     2  C(13)              0.00640       7.19668       2.56796       2.40055
     3  C(13)              0.02738      30.77770      10.98225      10.26634
     4  C(13)              0.01421      15.97817       5.70141       5.32974
     5  C(13)             -0.00266      -2.98666      -1.06571      -0.99624
     6  C(13)              0.00328       3.68952       1.31651       1.23069
     7  N(14)              0.00137       0.44165       0.15759       0.14732
     8  C(13)             -0.00025      -0.27841      -0.09934      -0.09287
     9  C(13)             -0.00024      -0.27070      -0.09659      -0.09029
    10  C(13)             -0.00248      -2.78597      -0.99410      -0.92930
    11  C(13)              0.01543      17.35087       6.19122       5.78763
    12  H(1)              -0.00028      -1.23381      -0.44025      -0.41155
    13  H(1)               0.00018       0.80864       0.28854       0.26973
    14  H(1)               0.00000       0.00127       0.00045       0.00042
    15  H(1)               0.00011       0.47151       0.16825       0.15728
    16  H(1)               0.00009       0.40531       0.14463       0.13520
    17  H(1)               0.00010       0.43419       0.15493       0.14483
    18  H(1)               0.00000      -0.00068      -0.00024      -0.00023
    19  H(1)               0.00008       0.37153       0.13257       0.12393
    20  H(1)               0.00018       0.81688       0.29148       0.27248
    21  H(1)              -0.00020      -0.89017      -0.31763      -0.29693
    22  Ag(107             0.00028      -0.05016      -0.01790      -0.01673
 --------------------------------------------------------
       Center         ----  Spin Dipole Couplings  ----
                      3XX-RR        3YY-RR        3ZZ-RR
 --------------------------------------------------------
     1   Atom       -0.008630      0.004797      0.003833
     2   Atom        0.000849     -0.000629     -0.000220
     3   Atom       -0.006681      0.002772      0.003909
     4   Atom       -0.018890      0.009834      0.009056
     5   Atom        0.008470     -0.002553     -0.005917
     6   Atom       -0.004105      0.001272      0.002833
     7   Atom       -0.005021      0.001763      0.003258
     8   Atom        0.000895     -0.000653     -0.000242
     9   Atom        0.000922     -0.000260     -0.000661
    10   Atom        0.008224     -0.004570     -0.003655
    11   Atom       -0.017628      0.004381      0.013247
    12   Atom       -0.003666      0.006008     -0.002342
    13   Atom        0.001275      0.000342     -0.001617
    14   Atom        0.000750     -0.000428     -0.000322
    15   Atom        0.001062     -0.000685     -0.000377
    16   Atom        0.000448     -0.000494      0.000046
    17   Atom        0.001088     -0.000390     -0.000698
    18   Atom        0.000769     -0.000345     -0.000424
    19   Atom        0.000476      0.000006     -0.000482
    20   Atom        0.001305     -0.001751      0.000445
    21   Atom       -0.003539     -0.002544      0.006084
    22   Atom        0.008743     -0.003376     -0.005366
 --------------------------------------------------------
                        XY            XZ            YZ
 --------------------------------------------------------
     1   Atom       -0.004006      0.004068     -0.016227
     2   Atom       -0.003536      0.003527     -0.005429
     3   Atom        0.009260     -0.009691     -0.012807
     4   Atom        0.009994     -0.008667     -0.029128
     5   Atom        0.001861     -0.000383      0.008923
     6   Atom        0.001209     -0.001353     -0.010386
     7   Atom        0.001522     -0.001686     -0.009815
     8   Atom        0.000034     -0.000830      0.000110
     9   Atom        0.000808     -0.000113      0.000055
    10   Atom        0.000395     -0.002158      0.008731
    11   Atom        0.008156     -0.010696     -0.027154
    12   Atom       -0.000149     -0.001422      0.000180
    13   Atom        0.001513     -0.000444     -0.000381
    14   Atom        0.000017     -0.000484     -0.000025
    15   Atom       -0.000191     -0.000940      0.000139
    16   Atom        0.000106     -0.000783     -0.000037
    17   Atom        0.000914      0.000113      0.000102
    18   Atom        0.000457     -0.000070     -0.000043
    19   Atom        0.000762     -0.000170     -0.000079
    20   Atom        0.000282     -0.001681     -0.000254
    21   Atom        0.001522      0.000222      0.000475
    22   Atom       -0.010024      0.011493      0.025164
 --------------------------------------------------------


 ---------------------------------------------------------------------------------
              Anisotropic Spin Dipole Couplings in Principal Axis System
 ---------------------------------------------------------------------------------

       Atom             a.u.   MegaHertz   Gauss  10(-4) cm-1        Axes

              Baa    -0.0119    -0.460    -0.164    -0.153 -0.0560  0.6883  0.7232
     1 N(14)  Bbb    -0.0097    -0.374    -0.133    -0.125  0.9811  0.1724 -0.0882
              Bcc     0.0216     0.834     0.298     0.278 -0.1854  0.7046 -0.6850
 
              Baa    -0.0059    -0.786    -0.281    -0.262  0.0227  0.7273  0.6860
     2 C(13)  Bbb    -0.0025    -0.333    -0.119    -0.111  0.8317  0.3670 -0.4166
              Bcc     0.0083     1.119     0.399     0.373  0.5548 -0.5800  0.5966
 
              Baa    -0.0129    -1.727    -0.616    -0.576  0.9079 -0.2884  0.3042
     3 C(13)  Bbb    -0.0095    -1.272    -0.454    -0.424 -0.0017  0.7232  0.6906
              Bcc     0.0223     2.999     1.070     1.000 -0.4192 -0.6275  0.6561
 
              Baa    -0.0221    -2.961    -1.057    -0.988  0.9226 -0.3743 -0.0934
     4 C(13)  Bbb    -0.0194    -2.603    -0.929    -0.868  0.3212  0.6111  0.7235
              Bcc     0.0415     5.564     1.985     1.856  0.2137  0.6975 -0.6840
 
              Baa    -0.0134    -1.800    -0.642    -0.600  0.0678 -0.6402  0.7652
     5 C(13)  Bbb     0.0045     0.604     0.215     0.201 -0.2787  0.7243  0.6306
              Bcc     0.0089     1.196     0.427     0.399  0.9580  0.2561  0.1293
 
              Baa    -0.0084    -1.122    -0.400    -0.374  0.0083  0.7326  0.6806
     6 C(13)  Bbb    -0.0043    -0.577    -0.206    -0.192  0.9942 -0.0793  0.0732
              Bcc     0.0127     1.699     0.606     0.567 -0.1076 -0.6760  0.7290
 
              Baa    -0.0073    -0.283    -0.101    -0.094  0.0146  0.7322  0.6809
     7 N(14)  Bbb    -0.0053    -0.205    -0.073    -0.068  0.9917 -0.0974  0.0836
              Bcc     0.0126     0.488     0.174     0.163 -0.1275 -0.6741  0.7276
 
              Baa    -0.0008    -0.105    -0.037    -0.035 -0.3415  0.6667 -0.6624
     8 C(13)  Bbb    -0.0006    -0.074    -0.026    -0.025  0.3185  0.7452  0.5859
              Bcc     0.0013     0.179     0.064     0.060  0.8843 -0.0109 -0.4668
 
              Baa    -0.0008    -0.103    -0.037    -0.034  0.3469 -0.6282  0.6964
     9 C(13)  Bbb    -0.0006    -0.076    -0.027    -0.025 -0.2897  0.6344  0.7167
              Bcc     0.0013     0.179     0.064     0.060  0.8920  0.4504 -0.0381
 
              Baa    -0.0130    -1.745    -0.623    -0.582 -0.0835  0.7186 -0.6904
    10 C(13)  Bbb     0.0042     0.568     0.203     0.189  0.2956  0.6795  0.6715
              Bcc     0.0088     1.177     0.420     0.393  0.9517 -0.1480 -0.2692
 
              Baa    -0.0210    -2.818    -1.005    -0.940  0.9320  0.0791  0.3538
    11 C(13)  Bbb    -0.0185    -2.481    -0.885    -0.828 -0.2811  0.7739  0.5674
              Bcc     0.0395     5.299     1.891     1.767 -0.2290 -0.6283  0.7435
 
              Baa    -0.0046    -2.440    -0.871    -0.814  0.8433  0.0027  0.5374
    12 H(1)   Bbb    -0.0014    -0.770    -0.275    -0.257 -0.5370 -0.0311  0.8430
              Bcc     0.0060     3.210     1.145     1.071 -0.0190  0.9995  0.0248
 
              Baa    -0.0017    -0.908    -0.324    -0.303  0.0863  0.1206  0.9889
    13 H(1)   Bbb    -0.0008    -0.412    -0.147    -0.137 -0.5999  0.7988 -0.0451
              Bcc     0.0025     1.320     0.471     0.440  0.7954  0.5894 -0.1413
 
              Baa    -0.0005    -0.273    -0.097    -0.091  0.3476  0.2076  0.9144
    14 H(1)   Bbb    -0.0004    -0.227    -0.081    -0.076 -0.0912  0.9780 -0.1874
              Bcc     0.0009     0.500     0.178     0.167  0.9332  0.0182 -0.3589
 
              Baa    -0.0009    -0.455    -0.162    -0.152  0.4025 -0.2699  0.8747
    15 H(1)   Bbb    -0.0007    -0.372    -0.133    -0.124  0.2099  0.9573  0.1987
              Bcc     0.0016     0.827     0.295     0.276  0.8910 -0.1036 -0.4420
 
              Baa    -0.0006    -0.308    -0.110    -0.103  0.5779 -0.4196  0.7000
    16 H(1)   Bbb    -0.0005    -0.259    -0.092    -0.086  0.2082  0.9051  0.3707
              Bcc     0.0011     0.567     0.202     0.189  0.7891  0.0685 -0.6104
 
              Baa    -0.0008    -0.448    -0.160    -0.150 -0.3928  0.8664 -0.3083
    17 H(1)   Bbb    -0.0007    -0.370    -0.132    -0.123 -0.1893  0.2518  0.9491
              Bcc     0.0015     0.819     0.292     0.273  0.8999  0.4312  0.0651
 
              Baa    -0.0005    -0.273    -0.097    -0.091 -0.3203  0.9276  0.1925
    18 H(1)   Bbb    -0.0004    -0.227    -0.081    -0.076  0.1197 -0.1620  0.9795
              Bcc     0.0009     0.500     0.179     0.167  0.9397  0.3367 -0.0591
 
              Baa    -0.0006    -0.307    -0.110    -0.102 -0.5706  0.6863 -0.4510
    19 H(1)   Bbb    -0.0005    -0.259    -0.092    -0.086 -0.1838  0.4285  0.8846
              Bcc     0.0011     0.566     0.202     0.189  0.8004  0.5877 -0.1184
 
              Baa    -0.0018    -0.952    -0.340    -0.318 -0.0495  0.9959  0.0763
    20 H(1)   Bbb    -0.0009    -0.459    -0.164    -0.153  0.6156 -0.0297  0.7875
              Bcc     0.0026     1.410     0.503     0.470  0.7865  0.0860 -0.6116
 
              Baa    -0.0046    -2.478    -0.884    -0.827  0.8086 -0.5883  0.0093
    21 H(1)   Bbb    -0.0015    -0.787    -0.281    -0.263  0.5875  0.8064 -0.0680
              Bcc     0.0061     3.265     1.165     1.089  0.0325  0.0605  0.9976
 
              Baa    -0.0349     0.757     0.270     0.252 -0.3298 -0.6511  0.6836
    22 Ag(107 Bbb     0.0140    -0.304    -0.108    -0.101  0.9390 -0.3009  0.1664
              Bcc     0.0209    -0.453    -0.162    -0.151  0.0974  0.6968  0.7106
 

 ---------------------------------------------------------------------------------

 No NMR shielding tensors so no spin-rotation constants.
 Leave Link  601 at Fri Sep 11 21:19:46 2026, MaxMem=  6442450944 cpu:               3.0 elap:               2.9
 (Enter C:\G16W\l9999.exe)
 Unable to Open any file for archive entry.
 1|1|UNPC-DESKTOP-2JKEGCA|SP|UPBE1PBE|def2SVP|C9H10Ag1N2(2)|JHKIM|11-Se
 p-2026|0||#P PBE1PBE/Def2SVP EmpiricalDispersion=GD3BJ SP SCF=(XQC,Max
 Cycle=128) NoSymm Guess=Read||DMABN t=0.750 dz=+0.00 class=toface||0,2
 |N,0,5.143673,-0.350316,0.21822|C,0,3.998871,-0.272231,0.170326|C,0,2.
 596311,-0.177765,0.111532|C,0,1.861617,-1.009137,-0.736855|C,0,0.49137
 2,-0.916108,-0.795599|C,0,-0.21206,0.013916,-0.008461|N,0,-1.572327,0.
 10784,-0.067705|C,0,-2.276121,1.067277,0.747024|C,0,-2.327988,-0.75130
 9,-0.945467|C,0,0.541516,0.843475,0.842005|C,0,1.911725,0.749715,0.900
 076|H,0,2.379549,-1.731167,-1.351567|H,0,-0.036847,-1.576092,-1.463215
 |H,0,-3.344118,0.990693,0.558268|H,0,-1.962619,2.089882,0.51411|H,0,-2
 .105367,0.883166,1.812531|H,0,-2.039382,-0.601554,-1.990713|H,0,-3.387
 348,-0.525033,-0.852352|H,0,-2.182049,-1.805705,-0.689891|H,0,0.052874
 ,1.572236,1.466859|H,0,2.468717,1.398215,1.560873|Ag,0,3.15641577,1.31
 453542,-1.42287158||Version=EM64W-G16RevC.01|HF=-604.5224576|S2=0.7521
 87|S2-1=0.|S2A=0.750004|RMSD=9.179e-009|Dipole=-3.3910424,-0.5948312,0
 .7055624|Quadrupole=-12.2030719,6.5885549,5.6145171,-3.6949022,4.52942
 5,7.773819|PG=C01 [X(C9H10Ag1N2)]||@
 The archive entry for this job was punched.


 KNOWLEDGE IS EXPERIMENT'S DAUGHTER.
 -- LEONARDO DA VINCI, IN "PENSIERI" CA. 1492
 Job cpu time:       0 days  0 hours  3 minutes 45.0 seconds.
 Elapsed time:       0 days  0 hours  3 minutes 43.8 seconds.
 File lengths (MBytes):  RWF=     57 Int=      0 D2E=      0 Chk=      5 Scr=      1
 Normal termination of Gaussian 16 at Fri Sep 11 21:19:46 2026.
