 Entering Gaussian System, Link 0=C:\G16W\g16.exe
 Input=DMABN_t2_z1.gjf
 Output=DMABN_t2_z1.out
 Initial command:
 C:\G16W\l1.exe ".\Gau-125532.inp" "DMABN_t2_z1.out" /scrdir=".\"
 Entering Link 1 = C:\G16W\l1.exe PID=    154424.
  
 Copyright (c) 1988-2019, Gaussian, Inc.  All Rights Reserved.
  
 This is part of the Gaussian(R) 16 program.  It is based on
 the Gaussian(R) 09 system (copyright 2009, Gaussian, Inc.),
 the Gaussian(R) 03 system (copyright 2003, Gaussian, Inc.),
 the Gaussian(R) 98 system (copyright 1998, Gaussian, Inc.),
 the Gaussian(R) 94 system (copyright 1995, Gaussian, Inc.),
 the Gaussian 92(TM) system (copyright 1992, Gaussian, Inc.),
 the Gaussian 90(TM) system (copyright 1990, Gaussian, Inc.),
 the Gaussian 88(TM) system (copyright 1988, Gaussian, Inc.),
 the Gaussian 86(TM) system (copyright 1986, Carnegie Mellon
 University), and the Gaussian 82(TM) system (copyright 1983,
 Carnegie Mellon University). Gaussian is a federally registered
 trademark of Gaussian, Inc.
  
 This software contains proprietary and confidential information,
 including trade secrets, belonging to Gaussian, Inc.
  
 This software is provided under written license and may be
 used, copied, transmitted, or stored only in accord with that
 written license.
  
 The following legend is applicable only to US Government
 contracts under FAR:
  
                    RESTRICTED RIGHTS LEGEND
  
 Use, reproduction and disclosure by the US Government is
 subject to restrictions as set forth in subparagraphs (a)
 and (c) of the Commercial Computer Software - Restricted
 Rights clause in FAR 52.227-19.
  
 Gaussian, Inc.
 340 Quinnipiac St., Bldg. 40, Wallingford CT 06492
  
  
 ---------------------------------------------------------------
 Warning -- This program may not be used in any manner that
 competes with the business of Gaussian, Inc. or will provide
 assistance to any competitor of Gaussian, Inc.  The licensee
 of this program is prohibited from giving any competitor of
 Gaussian, Inc. access to this program.  By using this program,
 the user acknowledges that Gaussian, Inc. is engaged in the
 business of creating and licensing software in the field of
 computational chemistry and represents and warrants to the
 licensee that it is not a competitor of Gaussian, Inc. and that
 it will not use this program in any manner prohibited above.
 ---------------------------------------------------------------
  

 Cite this work as:
 Gaussian 16, Revision C.01,
 M. J. Frisch, G. W. Trucks, H. B. Schlegel, G. E. Scuseria, 
 M. A. Robb, J. R. Cheeseman, G. Scalmani, V. Barone, 
 G. A. Petersson, H. Nakatsuji, X. Li, M. Caricato, A. V. Marenich, 
 J. Bloino, B. G. Janesko, R. Gomperts, B. Mennucci, H. P. Hratchian, 
 J. V. Ortiz, A. F. Izmaylov, J. L. Sonnenberg, D. Williams-Young, 
 F. Ding, F. Lipparini, F. Egidi, J. Goings, B. Peng, A. Petrone, 
 T. Henderson, D. Ranasinghe, V. G. Zakrzewski, J. Gao, N. Rega, 
 G. Zheng, W. Liang, M. Hada, M. Ehara, K. Toyota, R. Fukuda, 
 J. Hasegawa, M. Ishida, T. Nakajima, Y. Honda, O. Kitao, H. Nakai, 
 T. Vreven, K. Throssell, J. A. Montgomery, Jr., J. E. Peralta, 
 F. Ogliaro, M. J. Bearpark, J. J. Heyd, E. N. Brothers, K. N. Kudin, 
 V. N. Staroverov, T. A. Keith, R. Kobayashi, J. Normand, 
 K. Raghavachari, A. P. Rendell, J. C. Burant, S. S. Iyengar, 
 J. Tomasi, M. Cossi, J. M. Millam, M. Klene, C. Adamo, R. Cammi, 
 J. W. Ochterski, R. L. Martin, K. Morokuma, O. Farkas, 
 J. B. Foresman, and D. J. Fox, Gaussian, Inc., Wallingford CT, 2019.
 
 ******************************************
 Gaussian 16:  EM64W-G16RevC.01 30-May-2019
                11-Sep-2026 
 ******************************************
 %Chk=DMABN.chk
 %NProcShared=8
 Will use up to    8 processors via shared memory.
 %Mem=48GB
 ----------------------------------------------------------------------
 #P PBE1PBE/Def2SVP EmpiricalDispersion=GD3BJ SP SCF=(XQC,MaxCycle=128)
  NoSymm Guess=Read
 ----------------------------------------------------------------------
 1/38=1,172=1/1;
 2/12=2,15=1,17=6,18=5,40=1/2;
 3/5=43,7=101,11=2,25=1,30=1,74=-13,116=-2,124=41/1,2,3;
 4/5=1/1;
 5/5=2,7=128,8=3,13=1,38=6/2,8;
 6/7=2,8=2,9=2,10=2,28=1/1;
 99/5=1,9=1/99;
 Leave Link    1 at Fri Sep 11 21:13:09 2026, MaxMem=  6442450944 cpu:               0.0 elap:               0.3
 (Enter C:\G16W\l101.exe)
 -----------------------------------
 DMABN t=0.500 dz=+0.40 class=toface
 -----------------------------------
 Symbolic Z-matrix:
 Charge =  0 Multiplicity = 2
 N                     5.14367  -0.35032   0.21822 
 C                     3.99887  -0.27223   0.17033 
 C                     2.59631  -0.17777   0.11153 
 C                     1.86162  -1.00914  -0.73686 
 C                     0.49137  -0.91611  -0.7956 
 C                    -0.21206   0.01392  -0.00846 
 N                    -1.57233   0.10784  -0.06771 
 C                    -2.27612   1.06728   0.74702 
 C                    -2.32799  -0.75131  -0.94547 
 C                     0.54152   0.84348   0.84201 
 C                     1.91173   0.74972   0.90008 
 H                     2.37955  -1.73117  -1.35157 
 H                    -0.03685  -1.57609  -1.46322 
 H                    -3.34412   0.99069   0.55827 
 H                    -1.96262   2.08988   0.51411 
 H                    -2.10537   0.88317   1.81253 
 H                    -2.03938  -0.60155  -1.99071 
 H                    -3.38735  -0.52503  -0.85235 
 H                    -2.18205  -1.80571  -0.68989 
 H                     0.05287   1.57224   1.46686 
 H                     2.46872   1.39822   1.56087 
 Ag                    5.99277   1.30888  -1.49457 
 
 ITRead=  0  0  0  0  0  0  0  0  0  0  0  0  0  0  0  0  0  0  0  0
 ITRead=  0  0
 MicOpt= -1 -1 -1 -1 -1 -1 -1 -1 -1 -1 -1 -1 -1 -1 -1 -1 -1 -1 -1 -1
 MicOpt= -1 -1
 NAtoms=     22 NQM=       22 NQMF=       0 NMMI=      0 NMMIF=      0
                NMic=       0 NMicF=      0.
                    Isotopes and Nuclear Properties:
 (Nuclear quadrupole moments (NQMom) in fm**2, nuclear magnetic moments (NMagM)
  in nuclear magnetons)

  Atom         1           2           3           4           5           6           7           8           9          10
 IAtWgt=          14          12          12          12          12          12          14          12          12          12
 AtmWgt=  14.0030740  12.0000000  12.0000000  12.0000000  12.0000000  12.0000000  14.0030740  12.0000000  12.0000000  12.0000000
 NucSpn=           2           0           0           0           0           0           2           0           0           0
 AtZEff=   0.0000000   0.0000000   0.0000000   0.0000000   0.0000000   0.0000000   0.0000000   0.0000000   0.0000000   0.0000000
 NQMom=    2.0440000   0.0000000   0.0000000   0.0000000   0.0000000   0.0000000   2.0440000   0.0000000   0.0000000   0.0000000
 NMagM=    0.4037610   0.0000000   0.0000000   0.0000000   0.0000000   0.0000000   0.4037610   0.0000000   0.0000000   0.0000000
 AtZNuc=   7.0000000   6.0000000   6.0000000   6.0000000   6.0000000   6.0000000   7.0000000   6.0000000   6.0000000   6.0000000

  Atom        11          12          13          14          15          16          17          18          19          20
 IAtWgt=          12           1           1           1           1           1           1           1           1           1
 AtmWgt=  12.0000000   1.0078250   1.0078250   1.0078250   1.0078250   1.0078250   1.0078250   1.0078250   1.0078250   1.0078250
 NucSpn=           0           1           1           1           1           1           1           1           1           1
 AtZEff=   0.0000000   0.0000000   0.0000000   0.0000000   0.0000000   0.0000000   0.0000000   0.0000000   0.0000000   0.0000000
 NQMom=    0.0000000   0.0000000   0.0000000   0.0000000   0.0000000   0.0000000   0.0000000   0.0000000   0.0000000   0.0000000
 NMagM=    0.0000000   2.7928460   2.7928460   2.7928460   2.7928460   2.7928460   2.7928460   2.7928460   2.7928460   2.7928460
 AtZNuc=   6.0000000   1.0000000   1.0000000   1.0000000   1.0000000   1.0000000   1.0000000   1.0000000   1.0000000   1.0000000

  Atom        21          22
 IAtWgt=           1         107
 AtmWgt=   1.0078250 106.9050900
 NucSpn=           1           1
 AtZEff=   0.0000000   0.0000000
 NQMom=    0.0000000   0.0000000
 NMagM=    2.7928460  -0.1135700
 AtZNuc=   1.0000000  47.0000000
 Leave Link  101 at Fri Sep 11 21:13:09 2026, MaxMem=  6442450944 cpu:               0.0 elap:               0.3
 (Enter C:\G16W\l202.exe)
                          Input orientation:                          
 ---------------------------------------------------------------------
 Center     Atomic      Atomic             Coordinates (Angstroms)
 Number     Number       Type             X           Y           Z
 ---------------------------------------------------------------------
      1          7           0        5.143673   -0.350316    0.218220
      2          6           0        3.998871   -0.272231    0.170326
      3          6           0        2.596311   -0.177765    0.111532
      4          6           0        1.861617   -1.009137   -0.736855
      5          6           0        0.491372   -0.916108   -0.795599
      6          6           0       -0.212060    0.013916   -0.008461
      7          7           0       -1.572327    0.107840   -0.067705
      8          6           0       -2.276121    1.067277    0.747024
      9          6           0       -2.327988   -0.751309   -0.945467
     10          6           0        0.541516    0.843475    0.842005
     11          6           0        1.911725    0.749715    0.900076
     12          1           0        2.379549   -1.731167   -1.351567
     13          1           0       -0.036847   -1.576092   -1.463215
     14          1           0       -3.344118    0.990693    0.558268
     15          1           0       -1.962619    2.089882    0.514110
     16          1           0       -2.105367    0.883166    1.812531
     17          1           0       -2.039382   -0.601554   -1.990713
     18          1           0       -3.387348   -0.525033   -0.852352
     19          1           0       -2.182049   -1.805705   -0.689891
     20          1           0        0.052874    1.572236    1.466859
     21          1           0        2.468717    1.398215    1.560873
     22         47           0        5.992774    1.308879   -1.494571
 ---------------------------------------------------------------------
                    Distance matrix (angstroms):
                    1          2          3          4          5
     1  N    0.000000
     2  C    1.148461   0.000000
     3  C    2.555427   1.406967   0.000000
     4  C    3.481107   2.435952   1.396680   0.000000
     5  C    4.794982   3.694609   2.408071   1.374655   0.000000
     6  C    5.372888   4.224427   2.817461   2.424321   1.406893
     7  N    6.737679   5.589218   4.182253   3.672516   2.416020
     8  C    7.572486   6.442235   5.068981   4.861509   3.737983
     9  C    7.572363   6.442333   5.069016   4.202712   2.828146
    10  C    4.795216   3.694490   2.408050   2.769050   2.404245
    11  C    3.481449   2.435793   1.396667   2.403251   2.769058
    12  H    3.465741   2.658356   2.144925   1.080487   2.130407
    13  H    5.582789   4.544835   3.371745   2.110261   1.077175
    14  H    8.599798   7.460896   6.070714   5.725062   4.492197
    15  H    7.519408   6.421614   5.107655   5.078741   4.095532
    16  H    7.524087   6.426002   5.111237   5.081057   4.096679
    17  H    7.519228   6.421763   5.107708   4.117776   2.816373
    18  H    8.599708   7.460966   6.070737   5.272507   3.898798
    19  H    7.523897   6.426141   5.111281   4.121645   2.819528
    20  H    5.583148   4.544662   3.371719   3.845958   3.391586
    21  H    3.466333   2.658079   2.144897   3.382820   3.849538
    22  Ag   2.531315   3.040960   4.040500   4.797269   5.975329
                    6          7          8          9         10
     6  C    0.000000
     7  N    1.364792   0.000000
     8  C    2.437350   1.442092   0.000000
     9  C    2.437355   1.442091   2.484848   0.000000
    10  C    1.406889   2.416002   2.828107   3.737973   0.000000
    11  C    2.424315   3.672495   4.202657   4.861509   1.374640
    12  H    3.400836   4.543960   5.823284   4.825551   3.849533
    13  H    2.162206   2.672223   4.109368   2.489509   3.391585
    14  H    3.329424   2.076178   1.087250   2.515613   3.898760
    15  H    2.765352   2.102220   1.094648   3.215000   2.816334
    16  H    2.766987   2.102510   1.094696   3.213662   2.819483
    17  H    2.765363   2.102223   3.215003   1.094650   4.095538
    18  H    3.329425   2.076174   2.515607   1.087251   4.492175
    19  H    2.766988   2.102506   3.213658   1.094700   4.096665
    20  H    2.162203   2.672194   2.489450   4.109341   1.077175
    21  H    3.400832   4.543938   4.825490   5.823278   2.130402
    22  Ag   6.510408   7.791610   8.570749   8.589585   5.949151
                   11         12         13         14         15
    11  C    0.000000
    12  H    3.382829   0.000000
    13  H    3.845966   2.423940   0.000000
    14  H    5.272456   6.619392   4.648959   0.000000
    15  H    4.117713   6.077466   4.588875   1.765986   0.000000
    16  H    4.121579   6.079533   4.588816   1.766138   1.778324
    17  H    5.078763   4.605593   2.288695   3.276414   3.677480
    18  H    5.725047   5.912789   3.564230   2.071025   3.276408
    19  H    5.081058   4.609940   2.291865   3.275385   4.083303
    20  H    2.110240   4.926400   4.301785   3.564167   2.288646
    21  H    1.080484   4.275896   4.926405   5.912727   4.605524
    22  Ag   4.764657   4.724164   6.684338   9.565194   8.242150
                   16         17         18         19         20
    16  H    0.000000
    17  H    4.083309   0.000000
    18  H    3.275378   1.765994   0.000000
    19  H    3.673966   1.778334   1.766143   0.000000
    20  H    2.291792   4.588867   4.648914   4.588784   0.000000
    21  H    4.609865   6.077483   6.619368   6.079528   2.423926
    22  Ag   8.757742   8.271121   9.579267   8.784980   6.642427
                   21         22
    21  H    0.000000
    22  Ag   4.665051   0.000000
 Symmetry turned off by external request.
 Stoichiometry    C9H10AgN2(2)
 Framework group  C1[X(C9H10AgN2)]
 Deg. of freedom    60
 Full point group                 C1      NOp   1
 Rotational constants (GHZ):           1.9219132           0.1820248           0.1807538
 Leave Link  202 at Fri Sep 11 21:13:10 2026, MaxMem=  6442450944 cpu:               0.0 elap:               0.1
 (Enter C:\G16W\l301.exe)
 Standard basis: def2SVP (5D, 7F)
 Ernie: Thresh=  0.10000D-02 Tol=  0.10000D-05 Strict=F.
   235 basis functions,   410 primitive gaussians,   251 cartesian basis functions
    49 alpha electrons       48 beta electrons
       nuclear repulsion energy       705.2530683339 Hartrees.
 IExCor= 1009 DFT=T Ex+Corr=PBE1PBE ExCW=0 ScaHFX=  0.250000
 ScaDFX=  0.750000  0.750000  1.000000  1.000000 ScalE2=  1.000000  1.000000
 IRadAn=      5 IRanWt=     -1 IRanGd=            0 ICorTp=0 IEmpDi=141
 NAtoms=   22 NActive=   22 NUniq=   22 SFac= 1.00D+00 NAtFMM=   60 NAOKFM=F Big=F
 Integral buffers will be    131072 words long.
 Raffenetti 2 integral format.
 Two-electron integral symmetry is turned off.
 R6Disp:  Grimme-D3(BJ) Dispersion energy=       -0.0228403578 Hartrees.
 Nuclear repulsion after empirical dispersion term =      705.2302279761 Hartrees.
 Leave Link  301 at Fri Sep 11 21:13:10 2026, MaxMem=  6442450944 cpu:               0.0 elap:               0.2
 (Enter C:\G16W\l302.exe)
 NPDir=0 NMtPBC=     1 NCelOv=     1 NCel=       1 NClECP=     1 NCelD=      1
         NCelK=      1 NCelE2=     1 NClLst=     1 CellRange=     0.0.
 One-electron integrals computed using PRISM.
   1 Symmetry operations used in ECPInt.
 ECPInt:  NShTT=    5778 NPrTT=   20489 LenC2=    5437 LenP2D=   14701.
 LDataN:  DoStor=T MaxTD1= 7 Len=  274
 NBasis=   235 RedAO= T EigKep=  2.43D-04  NBF=   235
 NBsUse=   235 1.00D-06 EigRej= -1.00D+00 NBFU=   235
 Precomputing XC quadrature grid using
 IXCGrd= 4 IRadAn=           5 IRanWt=          -1 IRanGd=           0 AccXCQ= 0.00D+00.
 Defaulting to unpruned grid for atomic number  47.
 Generated NRdTot=       0 NPtTot=           0 NUsed=           0 NTot=          32
 NSgBfM=   250   250   250   250   250 MxSgAt=    22 MxSgA2=    22.
 Leave Link  302 at Fri Sep 11 21:13:16 2026, MaxMem=  6442450944 cpu:               6.0 elap:               6.0
 (Enter C:\G16W\l303.exe)
 DipDrv:  MaxL=1.
 Leave Link  303 at Fri Sep 11 21:13:16 2026, MaxMem=  6442450944 cpu:               0.0 elap:               0.2
 (Enter C:\G16W\l401.exe)
 Initial guess from the checkpoint file:  "DMABN.chk"
 B after Tr=     0.243560    0.070581   -0.078318
         Rot=    0.999977   -0.000155   -0.004813   -0.004702 Ang=  -0.77 deg.
 Guess basis will be translated and rotated to current coordinates.
 JPrj=2 DoOrth=T DoCkMO=T.
 Initial guess <Sx>= 0.0000 <Sy>= 0.0000 <Sz>= 0.5000 <S**2>= 0.7521 S= 0.5011
 Leave Link  401 at Fri Sep 11 21:13:21 2026, MaxMem=  6442450944 cpu:               5.0 elap:               4.1
 (Enter C:\G16W\l502.exe)
 Two-electron integral symmetry not used.
 UHF open shell SCF:
 Using DIIS extrapolation, IDIIS=  1040.
 NGot=  6442450944 LenX=  6442320325 LenY=  6442256883
 Requested convergence on RMS density matrix=1.00D-08 within 128 cycles.
 Requested convergence on MAX density matrix=1.00D-06.
 Requested convergence on             energy=1.00D-06.
 No special actions if energy rises.
 Fock matrices will be formed incrementally for  20 cycles.

 Cycle   1  Pass 1  IDiag  1:
 FoFJK:  IHMeth= 1 ICntrl=       0 DoSepK=F KAlg= 0 I1Cent=           0 FoldK=F
 IRaf= 910000000 NMat=       1 IRICut=       1 DoRegI=T DoRafI=F ISym2E= 0 IDoP0=0 IntGTp=1.
 FoFCou: FMM=F IPFlag=           0 FMFlag=      100000 FMFlg1=           0
         NFxFlg=           0 DoJE=F BraDBF=F KetDBF=F FulRan=T
         wScrn=  0.000000 ICntrl=         0 IOpCl=  1 I1Cent=           0 NGrid=           0
         NMat0=    1 NMatS0=      1 NMatT0=    0 NMatD0=    1 NMtDS0=    0 NMtDT0=    0
 Symmetry not used in FoFCou.
 Defaulting to unpruned grid for atomic number  47.
 Defaulting to unpruned grid for atomic number  47.
 Defaulting to unpruned grid for atomic number  47.
 Defaulting to unpruned grid for atomic number  47.
 Defaulting to unpruned grid for atomic number  47.
 Defaulting to unpruned grid for atomic number  47.
 Defaulting to unpruned grid for atomic number  47.
 Defaulting to unpruned grid for atomic number  47.
 E= -604.539158209850    
 DIIS: error= 1.60D-02 at cycle   1 NSaved=   1.
 NSaved= 1 IEnMin= 1 EnMin= -604.539158209850     IErMin= 1 ErrMin= 1.60D-02
 ErrMax= 1.60D-02  0.00D+00 EMaxC= 1.00D-01 BMatC= 9.67D-02 BMatP= 9.67D-02
 IDIUse=3 WtCom= 8.40D-01 WtEn= 1.60D-01
 Coeff-Com:  0.100D+01
 Coeff-En:   0.100D+01
 Coeff:      0.100D+01
 Gap=     0.114 Goal=   None    Shift=    0.000
 Gap=     0.190 Goal=   None    Shift=    0.000
 GapD=    0.114 DampG=1.000 DampE=0.250 DampFc=0.2500 IDamp=-1.
 Damping current iteration by 2.50D-01
 RMSDP=7.28D-04 MaxDP=3.54D-02              OVMax= 4.45D-02

 Cycle   2  Pass 1  IDiag  1:
 RMSU=  1.82D-04    CP:  1.00D+00
 E= -604.540932986376     Delta-E=       -0.001774776526 Rises=F Damp=T
 DIIS: error= 1.20D-02 at cycle   2 NSaved=   2.
 NSaved= 2 IEnMin= 2 EnMin= -604.540932986376     IErMin= 2 ErrMin= 1.20D-02
 ErrMax= 1.20D-02  0.00D+00 EMaxC= 1.00D-01 BMatC= 5.42D-02 BMatP= 9.67D-02
 IDIUse=3 WtCom= 8.80D-01 WtEn= 1.20D-01
 Coeff-Com: -0.281D+01 0.381D+01
 Coeff-En:   0.000D+00 0.100D+01
 Coeff:     -0.247D+01 0.347D+01
 Gap=     0.103 Goal=   None    Shift=    0.000
 Gap=     0.169 Goal=   None    Shift=    0.000
 RMSDP=6.14D-04 MaxDP=2.79D-02 DE=-1.77D-03 OVMax= 2.05D-02

 Cycle   3  Pass 1  IDiag  1:
 RMSU=  3.28D-04    CP:  9.98D-01  3.00D+00
 E= -604.544883885813     Delta-E=       -0.003950899437 Rises=F Damp=F
 DIIS: error= 3.41D-03 at cycle   3 NSaved=   3.
 NSaved= 3 IEnMin= 3 EnMin= -604.544883885813     IErMin= 3 ErrMin= 3.41D-03
 ErrMax= 3.41D-03  0.00D+00 EMaxC= 1.00D-01 BMatC= 8.59D-03 BMatP= 5.42D-02
 IDIUse=3 WtCom= 9.66D-01 WtEn= 3.41D-02
 Coeff-Com: -0.182D+01 0.242D+01 0.396D+00
 Coeff-En:   0.000D+00 0.000D+00 0.100D+01
 Coeff:     -0.175D+01 0.234D+01 0.417D+00
 Gap=     0.104 Goal=   None    Shift=    0.000
 Gap=     0.170 Goal=   None    Shift=    0.000
 RMSDP=1.73D-04 MaxDP=1.11D-02 DE=-3.95D-03 OVMax= 1.59D-02

 Cycle   4  Pass 1  IDiag  1:
 RMSU=  1.48D-04    CP:  9.98D-01  3.00D+00  7.29D-01
 E= -604.546666087825     Delta-E=       -0.001782202012 Rises=F Damp=F
 DIIS: error= 1.03D-03 at cycle   4 NSaved=   4.
 NSaved= 4 IEnMin= 4 EnMin= -604.546666087825     IErMin= 4 ErrMin= 1.03D-03
 ErrMax= 1.03D-03  0.00D+00 EMaxC= 1.00D-01 BMatC= 6.45D-04 BMatP= 8.59D-03
 IDIUse=3 WtCom= 9.90D-01 WtEn= 1.03D-02
 Coeff-Com: -0.908D+00 0.121D+01 0.270D+00 0.431D+00
 Coeff-En:   0.000D+00 0.000D+00 0.391D-01 0.961D+00
 Coeff:     -0.899D+00 0.119D+01 0.268D+00 0.436D+00
 Gap=     0.105 Goal=   None    Shift=    0.000
 Gap=     0.169 Goal=   None    Shift=    0.000
 RMSDP=5.70D-05 MaxDP=4.18D-03 DE=-1.78D-03 OVMax= 4.32D-03

 Cycle   5  Pass 1  IDiag  1:
 RMSU=  5.00D-05    CP:  9.98D-01  3.00D+00  7.86D-01  8.66D-01
 E= -604.546811960504     Delta-E=       -0.000145872679 Rises=F Damp=F
 DIIS: error= 2.47D-04 at cycle   5 NSaved=   5.
 NSaved= 5 IEnMin= 5 EnMin= -604.546811960504     IErMin= 5 ErrMin= 2.47D-04
 ErrMax= 2.47D-04  0.00D+00 EMaxC= 1.00D-01 BMatC= 1.96D-05 BMatP= 6.45D-04
 IDIUse=3 WtCom= 9.98D-01 WtEn= 2.47D-03
 Coeff-Com: -0.147D+00 0.194D+00 0.626D-01 0.186D+00 0.704D+00
 Coeff-En:   0.000D+00 0.000D+00 0.000D+00 0.000D+00 0.100D+01
 Coeff:     -0.146D+00 0.194D+00 0.625D-01 0.186D+00 0.704D+00
 Gap=     0.105 Goal=   None    Shift=    0.000
 Gap=     0.169 Goal=   None    Shift=    0.000
 RMSDP=2.11D-05 MaxDP=1.65D-03 DE=-1.46D-04 OVMax= 2.12D-03

 Cycle   6  Pass 1  IDiag  1:
 RMSU=  1.65D-05    CP:  9.98D-01  3.00D+00  8.14D-01  9.14D-01  8.86D-01
 E= -604.546818970826     Delta-E=       -0.000007010322 Rises=F Damp=F
 DIIS: error= 1.42D-04 at cycle   6 NSaved=   6.
 NSaved= 6 IEnMin= 6 EnMin= -604.546818970826     IErMin= 6 ErrMin= 1.42D-04
 ErrMax= 1.42D-04  0.00D+00 EMaxC= 1.00D-01 BMatC= 6.94D-06 BMatP= 1.96D-05
 IDIUse=3 WtCom= 9.99D-01 WtEn= 1.42D-03
 Coeff-Com:  0.148D+00-0.197D+00-0.305D-01 0.949D-02 0.435D+00 0.635D+00
 Coeff-En:   0.000D+00 0.000D+00 0.000D+00 0.000D+00 0.000D+00 0.100D+01
 Coeff:      0.147D+00-0.196D+00-0.304D-01 0.948D-02 0.435D+00 0.635D+00
 Gap=     0.105 Goal=   None    Shift=    0.000
 Gap=     0.169 Goal=   None    Shift=    0.000
 RMSDP=1.30D-05 MaxDP=1.15D-03 DE=-7.01D-06 OVMax= 1.37D-03

 Cycle   7  Pass 1  IDiag  1:
 RMSU=  1.03D-05    CP:  9.98D-01  3.00D+00  8.28D-01  9.40D-01  9.92D-01
                    CP:  9.41D-01
 E= -604.546821888388     Delta-E=       -0.000002917562 Rises=F Damp=F
 DIIS: error= 5.86D-05 at cycle   7 NSaved=   7.
 NSaved= 7 IEnMin= 7 EnMin= -604.546821888388     IErMin= 7 ErrMin= 5.86D-05
 ErrMax= 5.86D-05  0.00D+00 EMaxC= 1.00D-01 BMatC= 1.28D-06 BMatP= 6.94D-06
 IDIUse=1 WtCom= 1.00D+00 WtEn= 0.00D+00
 Coeff-Com:  0.986D-01-0.131D+00-0.256D-01-0.235D-01 0.107D+00 0.351D+00
 Coeff-Com:  0.623D+00
 Coeff:      0.986D-01-0.131D+00-0.256D-01-0.235D-01 0.107D+00 0.351D+00
 Coeff:      0.623D+00
 Gap=     0.105 Goal=   None    Shift=    0.000
 Gap=     0.169 Goal=   None    Shift=    0.000
 RMSDP=5.21D-06 MaxDP=4.79D-04 DE=-2.92D-06 OVMax= 6.00D-04

 Cycle   8  Pass 1  IDiag  1:
 RMSU=  2.91D-06    CP:  9.98D-01  3.00D+00  8.32D-01  9.50D-01  1.01D+00
                    CP:  1.16D+00  1.03D+00
 E= -604.546822477587     Delta-E=       -0.000000589200 Rises=F Damp=F
 DIIS: error= 1.56D-05 at cycle   8 NSaved=   8.
 NSaved= 8 IEnMin= 8 EnMin= -604.546822477587     IErMin= 8 ErrMin= 1.56D-05
 ErrMax= 1.56D-05  0.00D+00 EMaxC= 1.00D-01 BMatC= 1.37D-07 BMatP= 1.28D-06
 IDIUse=1 WtCom= 1.00D+00 WtEn= 0.00D+00
 Coeff-Com: -0.524D-02 0.706D-02-0.501D-03-0.838D-02-0.671D-01-0.448D-01
 Coeff-Com:  0.162D+00 0.957D+00
 Coeff:     -0.524D-02 0.706D-02-0.501D-03-0.838D-02-0.671D-01-0.448D-01
 Coeff:      0.162D+00 0.957D+00
 Gap=     0.105 Goal=   None    Shift=    0.000
 Gap=     0.169 Goal=   None    Shift=    0.000
 RMSDP=2.87D-06 MaxDP=2.98D-04 DE=-5.89D-07 OVMax= 3.48D-04

 Cycle   9  Pass 1  IDiag  1:
 RMSU=  1.55D-06    CP:  9.98D-01  3.00D+00  8.34D-01  9.54D-01  1.02D+00
                    CP:  1.24D+00  1.20D+00  1.09D+00
 E= -604.546822624537     Delta-E=       -0.000000146949 Rises=F Damp=F
 DIIS: error= 9.80D-06 at cycle   9 NSaved=   9.
 NSaved= 9 IEnMin= 9 EnMin= -604.546822624537     IErMin= 9 ErrMin= 9.80D-06
 ErrMax= 9.80D-06  0.00D+00 EMaxC= 1.00D-01 BMatC= 4.17D-08 BMatP= 1.37D-07
 IDIUse=1 WtCom= 1.00D+00 WtEn= 0.00D+00
 Coeff-Com: -0.209D-01 0.279D-01 0.468D-02 0.115D-02-0.449D-01-0.829D-01
 Coeff-Com: -0.589D-01 0.351D+00 0.823D+00
 Coeff:     -0.209D-01 0.279D-01 0.468D-02 0.115D-02-0.449D-01-0.829D-01
 Coeff:     -0.589D-01 0.351D+00 0.823D+00
 Gap=     0.105 Goal=   None    Shift=    0.000
 Gap=     0.169 Goal=   None    Shift=    0.000
 RMSDP=1.35D-06 MaxDP=7.63D-05 DE=-1.47D-07 OVMax= 1.35D-04

 Cycle  10  Pass 1  IDiag  1:
 RMSU=  8.13D-07    CP:  9.98D-01  3.00D+00  8.35D-01  9.55D-01  1.02D+00
                    CP:  1.27D+00  1.25D+00  1.26D+00  1.42D+00
 E= -604.546822668078     Delta-E=       -0.000000043542 Rises=F Damp=F
 DIIS: error= 7.99D-06 at cycle  10 NSaved=  10.
 NSaved=10 IEnMin=10 EnMin= -604.546822668078     IErMin=10 ErrMin= 7.99D-06
 ErrMax= 7.99D-06  0.00D+00 EMaxC= 1.00D-01 BMatC= 1.95D-08 BMatP= 4.17D-08
 IDIUse=1 WtCom= 1.00D+00 WtEn= 0.00D+00
 Coeff-Com: -0.989D-02 0.131D-01 0.283D-02 0.375D-02-0.106D-03-0.292D-01
 Coeff-Com: -0.871D-01-0.128D+00 0.444D+00 0.791D+00
 Coeff:     -0.989D-02 0.131D-01 0.283D-02 0.375D-02-0.106D-03-0.292D-01
 Coeff:     -0.871D-01-0.128D+00 0.444D+00 0.791D+00
 Gap=     0.105 Goal=   None    Shift=    0.000
 Gap=     0.169 Goal=   None    Shift=    0.000
 RMSDP=9.06D-07 MaxDP=3.62D-05 DE=-4.35D-08 OVMax= 9.59D-05

 Cycle  11  Pass 1  IDiag  1:
 RMSU=  4.33D-07    CP:  9.98D-01  3.00D+00  8.35D-01  9.55D-01  1.02D+00
                    CP:  1.28D+00  1.27D+00  1.35D+00  1.86D+00  1.19D+00
 E= -604.546822688965     Delta-E=       -0.000000020887 Rises=F Damp=F
 DIIS: error= 5.06D-06 at cycle  11 NSaved=  11.
 NSaved=11 IEnMin=11 EnMin= -604.546822688965     IErMin=11 ErrMin= 5.06D-06
 ErrMax= 5.06D-06  0.00D+00 EMaxC= 1.00D-01 BMatC= 4.73D-09 BMatP= 1.95D-08
 IDIUse=1 WtCom= 1.00D+00 WtEn= 0.00D+00
 Coeff-Com:  0.798D-02-0.106D-01-0.157D-02 0.654D-03 0.230D-01 0.313D-01
 Coeff-Com:  0.157D-02-0.215D+00-0.274D+00 0.240D+00 0.120D+01
 Coeff:      0.798D-02-0.106D-01-0.157D-02 0.654D-03 0.230D-01 0.313D-01
 Coeff:      0.157D-02-0.215D+00-0.274D+00 0.240D+00 0.120D+01
 Gap=     0.105 Goal=   None    Shift=    0.000
 Gap=     0.169 Goal=   None    Shift=    0.000
 RMSDP=9.13D-07 MaxDP=3.29D-05 DE=-2.09D-08 OVMax= 9.62D-05

 Cycle  12  Pass 1  IDiag  1:
 RMSU=  3.07D-07    CP:  9.98D-01  3.00D+00  8.35D-01  9.55D-01  1.02D+00
                    CP:  1.28D+00  1.28D+00  1.42D+00  2.28D+00  1.70D+00
                    CP:  1.71D+00
 E= -604.546822698589     Delta-E=       -0.000000009624 Rises=F Damp=F
 DIIS: error= 2.32D-06 at cycle  12 NSaved=  12.
 NSaved=12 IEnMin=12 EnMin= -604.546822698589     IErMin=12 ErrMin= 2.32D-06
 ErrMax= 2.32D-06  0.00D+00 EMaxC= 1.00D-01 BMatC= 9.49D-10 BMatP= 4.73D-09
 IDIUse=1 WtCom= 1.00D+00 WtEn= 0.00D+00
 Coeff-Com:  0.464D-02-0.617D-02-0.104D-02-0.196D-03 0.882D-02 0.168D-01
 Coeff-Com:  0.146D-01-0.631D-01-0.189D+00-0.345D-01 0.495D+00 0.754D+00
 Coeff:      0.464D-02-0.617D-02-0.104D-02-0.196D-03 0.882D-02 0.168D-01
 Coeff:      0.146D-01-0.631D-01-0.189D+00-0.345D-01 0.495D+00 0.754D+00
 Gap=     0.105 Goal=   None    Shift=    0.000
 Gap=     0.169 Goal=   None    Shift=    0.000
 RMSDP=2.56D-07 MaxDP=9.87D-06 DE=-9.62D-09 OVMax= 2.84D-05

 Cycle  13  Pass 1  IDiag  1:
 RMSU=  8.64D-08    CP:  9.98D-01  3.00D+00  8.35D-01  9.55D-01  1.02D+00
                    CP:  1.28D+00  1.28D+00  1.44D+00  2.38D+00  1.84D+00
                    CP:  2.01D+00  1.16D+00
 E= -604.546822699536     Delta-E=       -0.000000000947 Rises=F Damp=F
 DIIS: error= 1.04D-06 at cycle  13 NSaved=  13.
 NSaved=13 IEnMin=13 EnMin= -604.546822699536     IErMin=13 ErrMin= 1.04D-06
 ErrMax= 1.04D-06  0.00D+00 EMaxC= 1.00D-01 BMatC= 1.81D-10 BMatP= 9.49D-10
 IDIUse=1 WtCom= 1.00D+00 WtEn= 0.00D+00
 Coeff-Com: -0.373D-03 0.499D-03 0.300D-04-0.195D-03-0.253D-02-0.149D-02
 Coeff-Com:  0.532D-02 0.286D-01-0.774D-02-0.717D-01-0.973D-01 0.281D+00
 Coeff-Com:  0.866D+00
 Coeff:     -0.373D-03 0.499D-03 0.300D-04-0.195D-03-0.253D-02-0.149D-02
 Coeff:      0.532D-02 0.286D-01-0.774D-02-0.717D-01-0.973D-01 0.281D+00
 Coeff:      0.866D+00
 Gap=     0.105 Goal=   None    Shift=    0.000
 Gap=     0.169 Goal=   None    Shift=    0.000
 RMSDP=1.17D-07 MaxDP=4.68D-06 DE=-9.47D-10 OVMax= 1.35D-05

 Cycle  14  Pass 1  IDiag  1:
 RMSU=  4.78D-08    CP:  9.98D-01  3.00D+00  8.35D-01  9.55D-01  1.02D+00
                    CP:  1.28D+00  1.28D+00  1.45D+00  2.41D+00  1.89D+00
                    CP:  2.16D+00  1.30D+00  1.13D+00
 E= -604.546822699703     Delta-E=       -0.000000000167 Rises=F Damp=F
 DIIS: error= 4.01D-07 at cycle  14 NSaved=  14.
 NSaved=14 IEnMin=14 EnMin= -604.546822699703     IErMin=14 ErrMin= 4.01D-07
 ErrMax= 4.01D-07  0.00D+00 EMaxC= 1.00D-01 BMatC= 3.15D-11 BMatP= 1.81D-10
 IDIUse=1 WtCom= 1.00D+00 WtEn= 0.00D+00
 Coeff-Com: -0.802D-03 0.107D-02 0.153D-03-0.902D-04-0.221D-02-0.294D-02
 Coeff-Com: -0.406D-03 0.187D-01 0.277D-01-0.161D-01-0.111D+00-0.405D-01
 Coeff-Com:  0.267D+00 0.859D+00
 Coeff:     -0.802D-03 0.107D-02 0.153D-03-0.902D-04-0.221D-02-0.294D-02
 Coeff:     -0.406D-03 0.187D-01 0.277D-01-0.161D-01-0.111D+00-0.405D-01
 Coeff:      0.267D+00 0.859D+00
 Gap=     0.105 Goal=   None    Shift=    0.000
 Gap=     0.169 Goal=   None    Shift=    0.000
 RMSDP=4.26D-08 MaxDP=1.21D-06 DE=-1.67D-10 OVMax= 4.96D-06

 Cycle  15  Pass 1  IDiag  1:
 RMSU=  2.14D-08    CP:  9.98D-01  3.00D+00  8.35D-01  9.55D-01  1.02D+00
                    CP:  1.28D+00  1.28D+00  1.45D+00  2.42D+00  1.91D+00
                    CP:  2.20D+00  1.37D+00  1.30D+00  1.11D+00
 E= -604.546822699732     Delta-E=       -0.000000000029 Rises=F Damp=F
 DIIS: error= 1.70D-07 at cycle  15 NSaved=  15.
 NSaved=15 IEnMin=15 EnMin= -604.546822699732     IErMin=15 ErrMin= 1.70D-07
 ErrMax= 1.70D-07  0.00D+00 EMaxC= 1.00D-01 BMatC= 6.65D-12 BMatP= 3.15D-11
 IDIUse=1 WtCom= 1.00D+00 WtEn= 0.00D+00
 Coeff-Com: -0.327D-04 0.432D-04 0.206D-04 0.469D-04 0.424D-03 0.507D-04
 Coeff-Com: -0.187D-02-0.571D-02 0.746D-02 0.191D-01 0.940D-02-0.871D-01
 Coeff-Com: -0.211D+00 0.144D+00 0.112D+01
 Coeff:     -0.327D-04 0.432D-04 0.206D-04 0.469D-04 0.424D-03 0.507D-04
 Coeff:     -0.187D-02-0.571D-02 0.746D-02 0.191D-01 0.940D-02-0.871D-01
 Coeff:     -0.211D+00 0.144D+00 0.112D+01
 Gap=     0.105 Goal=   None    Shift=    0.000
 Gap=     0.169 Goal=   None    Shift=    0.000
 RMSDP=2.46D-08 MaxDP=7.61D-07 DE=-2.89D-11 OVMax= 3.05D-06

 Cycle  16  Pass 1  IDiag  1:
 RMSU=  1.06D-08    CP:  9.98D-01  3.00D+00  8.35D-01  9.55D-01  1.02D+00
                    CP:  1.28D+00  1.28D+00  1.45D+00  2.42D+00  1.91D+00
                    CP:  2.21D+00  1.38D+00  1.38D+00  1.39D+00  1.42D+00
 E= -604.546822699734     Delta-E=       -0.000000000002 Rises=F Damp=F
 DIIS: error= 5.22D-08 at cycle  16 NSaved=  16.
 NSaved=16 IEnMin=16 EnMin= -604.546822699734     IErMin=16 ErrMin= 5.22D-08
 ErrMax= 5.22D-08  0.00D+00 EMaxC= 1.00D-01 BMatC= 1.21D-12 BMatP= 6.65D-12
 IDIUse=1 WtCom= 1.00D+00 WtEn= 0.00D+00
 Coeff-Com:  0.100D-03-0.133D-03-0.157D-04 0.270D-04 0.381D-03 0.327D-03
 Coeff-Com: -0.380D-03-0.378D-02-0.141D-02 0.698D-02 0.160D-01-0.162D-01
 Coeff-Com: -0.853D-01-0.926D-01 0.296D+00 0.880D+00
 Coeff:      0.100D-03-0.133D-03-0.157D-04 0.270D-04 0.381D-03 0.327D-03
 Coeff:     -0.380D-03-0.378D-02-0.141D-02 0.698D-02 0.160D-01-0.162D-01
 Coeff:     -0.853D-01-0.926D-01 0.296D+00 0.880D+00
 Gap=     0.105 Goal=   None    Shift=    0.000
 Gap=     0.169 Goal=   None    Shift=    0.000
 RMSDP=8.38D-09 MaxDP=3.59D-07 DE=-2.27D-12 OVMax= 8.67D-07

 SCF Done:  E(UPBE1PBE) =  -604.546822700     A.U. after   16 cycles
            NFock= 16  Conv=0.84D-08     -V/T= 2.1868
 <Sx>= 0.0000 <Sy>= 0.0000 <Sz>= 0.5000 <S**2>= 0.7517 S= 0.5009
 <L.S>= 0.000000000000E+00
 KE= 5.093855549509D+02 PE=-2.788023620452D+03 EE= 9.688610148253D+02
 Annihilation of the first spin contaminant:
 S**2 before annihilation     0.7517,   after     0.7500
 Leave Link  502 at Fri Sep 11 21:15:58 2026, MaxMem=  6442450944 cpu:             157.0 elap:             157.4
 (Enter C:\G16W\l508.exe)
 QCSCF skips out because SCF is already converged.
 Leave Link  508 at Fri Sep 11 21:15:59 2026, MaxMem=  6442450944 cpu:               1.0 elap:               0.1
 (Enter C:\G16W\l601.exe)
 Copying SCF densities to generalized density rwf, IOpCl= 1 IROHF=0.

 **********************************************************************

            Population analysis using the SCF Density.

 **********************************************************************

 Alpha  occ. eigenvalues --  -14.44227 -14.39668 -10.30268 -10.28731 -10.28724
 Alpha  occ. eigenvalues --  -10.28008 -10.27059 -10.26433 -10.26429 -10.25123
 Alpha  occ. eigenvalues --  -10.25120  -3.72638  -2.30640  -2.30620  -2.30532
 Alpha  occ. eigenvalues --   -1.00342  -0.93989  -0.89701  -0.80674  -0.79602
 Alpha  occ. eigenvalues --   -0.76478  -0.72169  -0.64748  -0.63467  -0.58893
 Alpha  occ. eigenvalues --   -0.55333  -0.53254  -0.50963  -0.48547  -0.47098
 Alpha  occ. eigenvalues --   -0.46195  -0.44513  -0.44325  -0.43199  -0.42449
 Alpha  occ. eigenvalues --   -0.41694  -0.39828  -0.38360  -0.38337  -0.35680
 Alpha  occ. eigenvalues --   -0.32539  -0.30132  -0.30130  -0.29900  -0.29882
 Alpha  occ. eigenvalues --   -0.29251  -0.29027  -0.23026  -0.14571
 Alpha virt. eigenvalues --   -0.04047  -0.02325   0.01325   0.01597   0.04199
 Alpha virt. eigenvalues --    0.04353   0.05146   0.07461   0.08164   0.08305
 Alpha virt. eigenvalues --    0.09272   0.11556   0.11964   0.13228   0.13305
 Alpha virt. eigenvalues --    0.14174   0.14309   0.16038   0.17829   0.18069
 Alpha virt. eigenvalues --    0.21025   0.22518   0.25430   0.27136   0.28354
 Alpha virt. eigenvalues --    0.30052   0.31057   0.32766   0.35300   0.35548
 Alpha virt. eigenvalues --    0.35799   0.36593   0.38175   0.40488   0.42041
 Alpha virt. eigenvalues --    0.43516   0.44556   0.45707   0.46023   0.47770
 Alpha virt. eigenvalues --    0.47844   0.48429   0.48716   0.49685   0.50386
 Alpha virt. eigenvalues --    0.50705   0.53704   0.55203   0.55645   0.58029
 Alpha virt. eigenvalues --    0.61266   0.61569   0.62179   0.62599   0.62699
 Alpha virt. eigenvalues --    0.63355   0.64008   0.65788   0.66658   0.66672
 Alpha virt. eigenvalues --    0.67465   0.68254   0.69354   0.69768   0.69926
 Alpha virt. eigenvalues --    0.71379   0.72593   0.73031   0.74881   0.75911
 Alpha virt. eigenvalues --    0.78937   0.80347   0.81807   0.83236   0.86867
 Alpha virt. eigenvalues --    0.88232   0.88780   0.94209   0.95428   0.95945
 Alpha virt. eigenvalues --    1.02579   1.04116   1.08173   1.10028   1.11259
 Alpha virt. eigenvalues --    1.11278   1.17677   1.18837   1.21615   1.22105
 Alpha virt. eigenvalues --    1.23636   1.26048   1.28032   1.28449   1.28512
 Alpha virt. eigenvalues --    1.32516   1.33377   1.36429   1.47600   1.49672
 Alpha virt. eigenvalues --    1.50995   1.51524   1.52611   1.52810   1.60168
 Alpha virt. eigenvalues --    1.61718   1.66985   1.67516   1.70106   1.72555
 Alpha virt. eigenvalues --    1.72965   1.73090   1.73547   1.76138   1.76734
 Alpha virt. eigenvalues --    1.78443   1.79831   1.81040   1.81939   1.82204
 Alpha virt. eigenvalues --    1.85880   1.89852   1.90023   1.92680   1.92975
 Alpha virt. eigenvalues --    1.94143   1.95409   1.96141   1.98027   2.01009
 Alpha virt. eigenvalues --    2.05838   2.06004   2.09324   2.10490   2.15904
 Alpha virt. eigenvalues --    2.16185   2.16676   2.19311   2.21219   2.23172
 Alpha virt. eigenvalues --    2.25305   2.26827   2.30751   2.30935   2.34514
 Alpha virt. eigenvalues --    2.35408   2.37459   2.37507   2.38235   2.44534
 Alpha virt. eigenvalues --    2.44682   2.45830   2.58557   2.60749   2.62631
 Alpha virt. eigenvalues --    2.63263   2.64795   2.64826   2.64847   2.64886
 Alpha virt. eigenvalues --    2.64902   2.65214   2.65556   2.66542   2.66740
 Alpha virt. eigenvalues --    2.71076   2.76222   2.77091   2.80699   2.86940
 Alpha virt. eigenvalues --    2.88864   2.89978   2.92037   2.92158   2.93378
 Alpha virt. eigenvalues --    2.97639   3.02295   3.03446   3.05464   3.17793
 Alpha virt. eigenvalues --    3.20919   3.27035   3.44179   3.50204   3.73114
 Alpha virt. eigenvalues --   53.83875
  Beta  occ. eigenvalues --  -14.44218 -14.39618 -10.30255 -10.28731 -10.28725
  Beta  occ. eigenvalues --  -10.27930 -10.27067 -10.26419 -10.26416 -10.25130
  Beta  occ. eigenvalues --  -10.25127  -3.72522  -2.30596  -2.30565  -2.30520
  Beta  occ. eigenvalues --   -1.00326  -0.93893  -0.89686  -0.80654  -0.79595
  Beta  occ. eigenvalues --   -0.76472  -0.72151  -0.64739  -0.63425  -0.58875
  Beta  occ. eigenvalues --   -0.55306  -0.53249  -0.50941  -0.48540  -0.47091
  Beta  occ. eigenvalues --   -0.46192  -0.44511  -0.44304  -0.43009  -0.42410
  Beta  occ. eigenvalues --   -0.41691  -0.39542  -0.38311  -0.38224  -0.35620
  Beta  occ. eigenvalues --   -0.32425  -0.29570  -0.29569  -0.29300  -0.29276
  Beta  occ. eigenvalues --   -0.29216  -0.28401  -0.22967
  Beta virt. eigenvalues --   -0.06089  -0.03538  -0.02265   0.03427   0.04047
  Beta virt. eigenvalues --    0.04870   0.04904   0.06466   0.07723   0.08186
  Beta virt. eigenvalues --    0.08722   0.09766   0.11643   0.13163   0.13308
  Beta virt. eigenvalues --    0.13448   0.14316   0.14579   0.16433   0.17884
  Beta virt. eigenvalues --    0.18469   0.21230   0.22521   0.25650   0.27450
  Beta virt. eigenvalues --    0.28454   0.30072   0.31151   0.32813   0.36013
  Beta virt. eigenvalues --    0.37416   0.38184   0.38416   0.38889   0.40608
  Beta virt. eigenvalues --    0.42292   0.43726   0.44621   0.45854   0.46786
  Beta virt. eigenvalues --    0.47862   0.49152   0.49909   0.50080   0.50393
  Beta virt. eigenvalues --    0.50668   0.51541   0.53951   0.55432   0.56893
  Beta virt. eigenvalues --    0.58735   0.61584   0.61802   0.62217   0.62687
  Beta virt. eigenvalues --    0.62811   0.63365   0.64025   0.65814   0.66684
  Beta virt. eigenvalues --    0.66731   0.67608   0.68406   0.69377   0.69825
  Beta virt. eigenvalues --    0.70036   0.71465   0.72615   0.73089   0.74896
  Beta virt. eigenvalues --    0.75955   0.79308   0.80732   0.81817   0.83276
  Beta virt. eigenvalues --    0.86904   0.88274   0.88824   0.94222   0.95496
  Beta virt. eigenvalues --    0.95975   1.02647   1.04135   1.08191   1.10031
  Beta virt. eigenvalues --    1.11276   1.11522   1.17752   1.18890   1.21677
  Beta virt. eigenvalues --    1.22122   1.23646   1.26059   1.28041   1.28490
  Beta virt. eigenvalues --    1.28526   1.32520   1.33406   1.36557   1.47610
  Beta virt. eigenvalues --    1.49683   1.50998   1.51526   1.52631   1.52814
  Beta virt. eigenvalues --    1.60388   1.62000   1.66997   1.67547   1.70109
  Beta virt. eigenvalues --    1.72567   1.72980   1.73107   1.73557   1.76154
  Beta virt. eigenvalues --    1.76746   1.78471   1.79847   1.81085   1.81947
  Beta virt. eigenvalues --    1.82210   1.85929   1.89889   1.90034   1.92693
  Beta virt. eigenvalues --    1.93025   1.94147   1.95410   1.96244   1.98037
  Beta virt. eigenvalues --    2.01012   2.05861   2.07089   2.09327   2.10490
  Beta virt. eigenvalues --    2.15936   2.16189   2.16683   2.19328   2.21225
  Beta virt. eigenvalues --    2.23183   2.25318   2.26847   2.30771   2.30962
  Beta virt. eigenvalues --    2.34678   2.35427   2.37469   2.37518   2.38247
  Beta virt. eigenvalues --    2.44539   2.44707   2.45831   2.58571   2.60760
  Beta virt. eigenvalues --    2.62647   2.63278   2.64807   2.64819   2.64860
  Beta virt. eigenvalues --    2.64919   2.64976   2.65287   2.65584   2.66555
  Beta virt. eigenvalues --    2.66833   2.71097   2.76237   2.77094   2.80708
  Beta virt. eigenvalues --    2.86957   2.88892   2.89989   2.92041   2.92170
  Beta virt. eigenvalues --    2.93386   2.97648   3.02351   3.03471   3.05612
  Beta virt. eigenvalues --    3.17797   3.20935   3.27071   3.44190   3.50274
  Beta virt. eigenvalues --    3.73145  53.84025
          Condensed to atoms (all electrons):
               1          2          3          4          5          6
     1  N    6.335354   0.724650  -0.042371  -0.001592   0.000045   0.000034
     2  C    0.724650   5.111359   0.343737  -0.088135   0.014907   0.003377
     3  C   -0.042371   0.343737   5.413365   0.268559   0.089412  -0.171868
     4  C   -0.001592  -0.088135   0.268559   4.967647   0.322942   0.118085
     5  C    0.000045   0.014907   0.089412   0.322942   5.176402   0.216645
     6  C    0.000034   0.003377  -0.171868   0.118085   0.216645   5.144418
     7  N    0.000000   0.000024  -0.000291   0.007392  -0.095459   0.398470
     8  C    0.000000  -0.000001   0.000037  -0.000157   0.007948  -0.061212
     9  C    0.000000  -0.000001   0.000037   0.000970   0.003086  -0.061209
    10  C    0.000045   0.014887   0.089474  -0.143759   0.074587   0.216688
    11  C   -0.001625  -0.088269   0.268391   0.091725  -0.143772   0.118096
    12  H   -0.000540  -0.023398  -0.063733   0.458751  -0.063286   0.015791
    13  H   -0.000003  -0.000552   0.017265  -0.067459   0.462764  -0.082219
    14  H    0.000000   0.000000   0.000005   0.000010  -0.000154   0.007522
    15  H    0.000000   0.000001  -0.000082   0.000014  -0.000275  -0.011678
    16  H    0.000000   0.000001  -0.000079   0.000008  -0.000230  -0.011676
    17  H    0.000000   0.000001  -0.000082   0.001102   0.005828  -0.011683
    18  H    0.000000   0.000000   0.000005  -0.000077   0.000582   0.007520
    19  H    0.000000   0.000001  -0.000079   0.001049   0.005928  -0.011669
    20  H   -0.000003  -0.000551   0.017260  -0.001986   0.015061  -0.082216
    21  H   -0.000547  -0.023429  -0.063759   0.014195  -0.001950   0.015780
    22  Ag   0.053284  -0.025728   0.000928   0.000644  -0.000002  -0.000002
               7          8          9         10         11         12
     1  N    0.000000   0.000000   0.000000   0.000045  -0.001625  -0.000540
     2  C    0.000024  -0.000001  -0.000001   0.014887  -0.088269  -0.023398
     3  C   -0.000291   0.000037   0.000037   0.089474   0.268391  -0.063733
     4  C    0.007392  -0.000157   0.000970  -0.143759   0.091725   0.458751
     5  C   -0.095459   0.007948   0.003086   0.074587  -0.143772  -0.063286
     6  C    0.398470  -0.061212  -0.061209   0.216688   0.118096   0.015791
     7  N    6.671786   0.350599   0.350612  -0.095471   0.007394  -0.000093
     8  C    0.350599   4.464841  -0.049924   0.003092   0.000971   0.000008
     9  C    0.350612  -0.049924   4.464841   0.007948  -0.000158  -0.000047
    10  C   -0.095471   0.003092   0.007948   5.176283   0.322931  -0.001949
    11  C    0.007394   0.000971  -0.000158   0.322931   4.967818   0.014214
    12  H   -0.000093   0.000008  -0.000047  -0.001949   0.014214   0.655192
    13  H   -0.016397  -0.000001   0.012413   0.015060  -0.001987  -0.013680
    14  H   -0.019611   0.399152  -0.012887   0.000582  -0.000077   0.000000
    15  H   -0.029464   0.400731   0.003494   0.005824   0.001101   0.000000
    16  H   -0.029820   0.400311   0.003470   0.005933   0.001050   0.000000
    17  H   -0.029468   0.003494   0.400716  -0.000276   0.000015   0.000010
    18  H   -0.019608  -0.012886   0.399157  -0.000154   0.000010   0.000000
    19  H   -0.029827   0.003470   0.400313  -0.000228   0.000008   0.000013
    20  H   -0.016400   0.012413  -0.000001   0.462789  -0.067460   0.000023
    21  H   -0.000093  -0.000047   0.000008  -0.063257   0.458800  -0.000199
    22  Ag   0.000003   0.000001   0.000001  -0.000007   0.000753   0.000558
              13         14         15         16         17         18
     1  N   -0.000003   0.000000   0.000000   0.000000   0.000000   0.000000
     2  C   -0.000552   0.000000   0.000001   0.000001   0.000001   0.000000
     3  C    0.017265   0.000005  -0.000082  -0.000079  -0.000082   0.000005
     4  C   -0.067459   0.000010   0.000014   0.000008   0.001102  -0.000077
     5  C    0.462764  -0.000154  -0.000275  -0.000230   0.005828   0.000582
     6  C   -0.082219   0.007522  -0.011678  -0.011676  -0.011683   0.007520
     7  N   -0.016397  -0.019611  -0.029464  -0.029820  -0.029468  -0.019608
     8  C   -0.000001   0.399152   0.400731   0.400311   0.003494  -0.012886
     9  C    0.012413  -0.012887   0.003494   0.003470   0.400716   0.399157
    10  C    0.015060   0.000582   0.005824   0.005933  -0.000276  -0.000154
    11  C   -0.001987  -0.000077   0.001101   0.001050   0.000015   0.000010
    12  H   -0.013680   0.000000   0.000000   0.000000   0.000010   0.000000
    13  H    0.674278  -0.000004  -0.000023  -0.000021  -0.001825   0.000090
    14  H   -0.000004   0.610183  -0.020643  -0.020831   0.000348   0.004928
    15  H   -0.000023  -0.020643   0.635946  -0.041863   0.001318   0.000348
    16  H   -0.000021  -0.020831  -0.041863   0.637947  -0.000925   0.000335
    17  H   -0.001825   0.000348   0.001318  -0.000925   0.636011  -0.020644
    18  H    0.000090   0.004928   0.000348   0.000335  -0.020644   0.610168
    19  H   -0.001727   0.000335  -0.000925   0.001347  -0.041872  -0.020830
    20  H   -0.000183   0.000090  -0.001828  -0.001725  -0.000023  -0.000004
    21  H    0.000023   0.000000   0.000010   0.000013   0.000000   0.000000
    22  Ag  -0.000021   0.000000  -0.000003   0.000001  -0.000003   0.000000
              19         20         21         22
     1  N    0.000000  -0.000003  -0.000547   0.053284
     2  C    0.000001  -0.000551  -0.023429  -0.025728
     3  C   -0.000079   0.017260  -0.063759   0.000928
     4  C    0.001049  -0.001986   0.014195   0.000644
     5  C    0.005928   0.015061  -0.001950  -0.000002
     6  C   -0.011669  -0.082216   0.015780  -0.000002
     7  N   -0.029827  -0.016400  -0.000093   0.000003
     8  C    0.003470   0.012413  -0.000047   0.000001
     9  C    0.400313  -0.000001   0.000008   0.000001
    10  C   -0.000228   0.462789  -0.063257  -0.000007
    11  C    0.000008  -0.067460   0.458800   0.000753
    12  H    0.000013   0.000023  -0.000199   0.000558
    13  H   -0.001727  -0.000183   0.000023  -0.000021
    14  H    0.000335   0.000090   0.000000   0.000000
    15  H   -0.000925  -0.001828   0.000010  -0.000003
    16  H    0.001347  -0.001725   0.000013   0.000001
    17  H   -0.041872  -0.000023   0.000000  -0.000003
    18  H   -0.020830  -0.000004   0.000000   0.000000
    19  H    0.637970  -0.000021   0.000000   0.000001
    20  H   -0.000021   0.674208  -0.013669  -0.000020
    21  H    0.000000  -0.013669   0.654875   0.000654
    22  Ag   0.000001  -0.000020   0.000654  19.069338
          Atomic-Atomic Spin Densities.
               1          2          3          4          5          6
     1  N    0.039539  -0.002558  -0.000063  -0.000054   0.000005   0.000000
     2  C   -0.002558   0.053782   0.002555  -0.001974   0.000124   0.000010
     3  C   -0.000063   0.002555  -0.009296  -0.000604   0.000582  -0.000056
     4  C   -0.000054  -0.001974  -0.000604   0.012612  -0.001118  -0.000425
     5  C    0.000005   0.000124   0.000582  -0.001118  -0.005786   0.000848
     6  C    0.000000   0.000010  -0.000056  -0.000425   0.000848   0.009941
     7  N    0.000000   0.000000  -0.000002   0.000027  -0.000016  -0.002371
     8  C    0.000000   0.000000   0.000001  -0.000001  -0.000008  -0.000111
     9  C    0.000000   0.000000   0.000001   0.000000   0.000022  -0.000110
    10  C    0.000005   0.000133   0.000583  -0.000353   0.000202   0.000921
    11  C   -0.000063  -0.002008  -0.000631   0.000974  -0.000360  -0.000437
    12  H   -0.000091  -0.000152  -0.000119   0.000068  -0.000253  -0.000007
    13  H    0.000000  -0.000001  -0.000007  -0.000018  -0.000046   0.000007
    14  H    0.000000   0.000000   0.000000   0.000000   0.000000   0.000003
    15  H    0.000000   0.000000   0.000002  -0.000003   0.000003   0.000108
    16  H    0.000000   0.000000  -0.000002   0.000002  -0.000001   0.000097
    17  H    0.000000   0.000000   0.000002  -0.000016   0.000014   0.000105
    18  H    0.000000   0.000000   0.000000   0.000000  -0.000001   0.000003
    19  H    0.000000   0.000000  -0.000002   0.000003   0.000004   0.000099
    20  H    0.000000  -0.000001  -0.000009   0.000005   0.000000   0.000006
    21  H   -0.000094  -0.000191  -0.000117   0.000065  -0.000022  -0.000009
    22  Ag  -0.048447  -0.016777  -0.000482   0.001050  -0.000218  -0.000088
               7          8          9         10         11         12
     1  N    0.000000   0.000000   0.000000   0.000005  -0.000063  -0.000091
     2  C    0.000000   0.000000   0.000000   0.000133  -0.002008  -0.000152
     3  C   -0.000002   0.000001   0.000001   0.000583  -0.000631  -0.000119
     4  C    0.000027  -0.000001   0.000000  -0.000353   0.000974   0.000068
     5  C   -0.000016  -0.000008   0.000022   0.000202  -0.000360  -0.000253
     6  C   -0.002371  -0.000111  -0.000110   0.000921  -0.000437  -0.000007
     7  N    0.005590   0.000252   0.000248  -0.000028   0.000027   0.000000
     8  C    0.000252  -0.000280   0.000014   0.000020   0.000000   0.000000
     9  C    0.000248   0.000014  -0.000283  -0.000008  -0.000001  -0.000001
    10  C   -0.000028   0.000020  -0.000008  -0.005659  -0.001233  -0.000022
    11  C    0.000027   0.000000  -0.000001  -0.001233   0.012872   0.000071
    12  H    0.000000   0.000000  -0.000001  -0.000022   0.000071  -0.000157
    13  H   -0.000004   0.000000   0.000004   0.000001   0.000005   0.000023
    14  H   -0.000005   0.000010   0.000002  -0.000001   0.000000   0.000000
    15  H   -0.000162  -0.000051  -0.000003   0.000015  -0.000016   0.000000
    16  H   -0.000157  -0.000173  -0.000014   0.000009   0.000003   0.000000
    17  H   -0.000162  -0.000003  -0.000052   0.000003  -0.000003  -0.000003
    18  H   -0.000005   0.000002   0.000010   0.000000   0.000000   0.000000
    19  H   -0.000157  -0.000014  -0.000169   0.000000   0.000002   0.000003
    20  H   -0.000004   0.000004   0.000000  -0.000051  -0.000015   0.000000
    21  H    0.000000  -0.000001   0.000000  -0.000261   0.000082   0.000008
    22  Ag   0.000005   0.000000   0.000000  -0.000238   0.001159   0.000607
              13         14         15         16         17         18
     1  N    0.000000   0.000000   0.000000   0.000000   0.000000   0.000000
     2  C   -0.000001   0.000000   0.000000   0.000000   0.000000   0.000000
     3  C   -0.000007   0.000000   0.000002  -0.000002   0.000002   0.000000
     4  C   -0.000018   0.000000  -0.000003   0.000002  -0.000016   0.000000
     5  C   -0.000046   0.000000   0.000003  -0.000001   0.000014  -0.000001
     6  C    0.000007   0.000003   0.000108   0.000097   0.000105   0.000003
     7  N   -0.000004  -0.000005  -0.000162  -0.000157  -0.000162  -0.000005
     8  C    0.000000   0.000010  -0.000051  -0.000173  -0.000003   0.000002
     9  C    0.000004   0.000002  -0.000003  -0.000014  -0.000052   0.000010
    10  C    0.000001  -0.000001   0.000015   0.000009   0.000003   0.000000
    11  C    0.000005   0.000000  -0.000016   0.000003  -0.000003   0.000000
    12  H    0.000023   0.000000   0.000000   0.000000  -0.000003   0.000000
    13  H    0.000263   0.000000   0.000000   0.000001  -0.000024   0.000001
    14  H    0.000000   0.000000  -0.000014   0.000008  -0.000002  -0.000001
    15  H    0.000000  -0.000014   0.000687  -0.000240   0.000016  -0.000001
    16  H    0.000001   0.000008  -0.000240   0.000754  -0.000009   0.000001
    17  H   -0.000024  -0.000002   0.000016  -0.000009   0.000684  -0.000013
    18  H    0.000001  -0.000001  -0.000001   0.000001  -0.000013   0.000000
    19  H    0.000018   0.000002  -0.000009   0.000020  -0.000238   0.000007
    20  H    0.000000   0.000001  -0.000028   0.000023  -0.000001   0.000000
    21  H    0.000000   0.000000  -0.000003   0.000003   0.000000   0.000000
    22  Ag   0.000007   0.000000  -0.000004   0.000002  -0.000004   0.000000
              19         20         21         22
     1  N    0.000000   0.000000  -0.000094  -0.048447
     2  C    0.000000  -0.000001  -0.000191  -0.016777
     3  C   -0.000002  -0.000009  -0.000117  -0.000482
     4  C    0.000003   0.000005   0.000065   0.001050
     5  C    0.000004   0.000000  -0.000022  -0.000218
     6  C    0.000099   0.000006  -0.000009  -0.000088
     7  N   -0.000157  -0.000004   0.000000   0.000005
     8  C   -0.000014   0.000004  -0.000001   0.000000
     9  C   -0.000169   0.000000   0.000000   0.000000
    10  C    0.000000  -0.000051  -0.000261  -0.000238
    11  C    0.000002  -0.000015   0.000082   0.001159
    12  H    0.000003   0.000000   0.000008   0.000607
    13  H    0.000018   0.000000   0.000000   0.000007
    14  H    0.000002   0.000001   0.000000   0.000000
    15  H   -0.000009  -0.000028  -0.000003  -0.000004
    16  H    0.000020   0.000023   0.000003   0.000002
    17  H   -0.000238  -0.000001   0.000000  -0.000004
    18  H    0.000007   0.000000   0.000000   0.000000
    19  H    0.000752   0.000001   0.000000   0.000001
    20  H    0.000001   0.000266   0.000027   0.000009
    21  H    0.000000   0.000027  -0.000174   0.000672
    22  Ag   0.000001   0.000009   0.000672   1.028002
 Mulliken charges and spin densities:
               1          2
     1  N   -0.066730  -0.011821
     2  C    0.037117   0.032944
     3  C   -0.166132  -0.007663
     4  C    0.050071   0.010240
     5  C   -0.091009  -0.006024
     6  C    0.243005   0.008531
     7  N   -0.404279   0.003078
     8  C    0.077159  -0.000340
     9  C    0.077163  -0.000339
    10  C   -0.091022  -0.005963
    11  C    0.050070   0.010426
    12  H    0.022365  -0.000025
    13  H    0.004207   0.000230
    14  H    0.051051   0.000004
    15  H    0.057996   0.000296
    16  H    0.056752   0.000326
    17  H    0.057958   0.000295
    18  H    0.051059   0.000004
    19  H    0.056742   0.000324
    20  H    0.004246   0.000231
    21  H    0.022591  -0.000013
    22  Ag  -0.100381   0.965254
 Sum of Mulliken charges =   0.00000   1.00000
 Mulliken charges and spin densities with hydrogens summed into heavy atoms:
               1          2
     1  N   -0.066730  -0.011821
     2  C    0.037117   0.032944
     3  C   -0.166132  -0.007663
     4  C    0.072436   0.010215
     5  C   -0.086801  -0.005794
     6  C    0.243005   0.008531
     7  N   -0.404279   0.003078
     8  C    0.242959   0.000287
     9  C    0.242922   0.000285
    10  C   -0.086776  -0.005731
    11  C    0.072660   0.010414
    22  Ag  -0.100381   0.965254
 Electronic spatial extent (au):  <R**2>=           5045.0132
 Charge=              0.0000 electrons
 Dipole moment (field-independent basis, Debye):
    X=             -9.1600    Y=             -0.9215    Z=              1.1810  Tot=              9.2817
 Quadrupole moment (field-independent basis, Debye-Ang):
   XX=           -122.0874   YY=            -85.9596   ZZ=            -87.2667
   XY=             -7.2673   XZ=              8.6003   YZ=              8.8713
 Traceless Quadrupole moment (field-independent basis, Debye-Ang):
   XX=            -23.6495   YY=             12.4783   ZZ=             11.1712
   XY=             -7.2673   XZ=              8.6003   YZ=              8.8713
 Octapole moment (field-independent basis, Debye-Ang**2):
  XXX=           -820.8235  YYY=            -81.9069  ZZZ=             99.3411  XYY=           -193.9978
  XXY=            -65.1749  XXZ=             79.1649  XZZ=           -197.5770  YZZ=            -32.3064
  YYZ=             36.6006  XYZ=             25.3253
 Hexadecapole moment (field-independent basis, Debye-Ang**3):
 XXXX=          -8707.9573 YYYY=           -579.3764 ZZZZ=           -620.6653 XXXY=           -694.8601
 XXXZ=            841.0488 YYYX=           -473.8466 YYYZ=             59.8588 ZZZX=            581.3816
 ZZZY=             60.6364 XXYY=          -1387.6495 XXZZ=          -1415.5365 YYZZ=           -200.8087
 XXYZ=            165.8728 YYXZ=            215.0911 ZZXY=           -187.9940
 N-N= 7.052302279761D+02 E-N=-2.788023626253D+03  KE= 5.093855549509D+02
                          Isotropic Fermi Contact Couplings
        Atom                 a.u.       MegaHertz       Gauss      10(-4) cm-1
     1  N(14)              0.10016      32.36177      11.54749      10.79473
     2  C(13)              0.00740       8.32343       2.97001       2.77640
     3  C(13)              0.00063       0.71002       0.25335       0.23684
     4  C(13)              0.00178       1.99692       0.71255       0.66610
     5  C(13)             -0.00130      -1.46491      -0.52272      -0.48864
     6  C(13)              0.00153       1.72178       0.61437       0.57432
     7  N(14)              0.00115       0.37301       0.13310       0.12442
     8  C(13)             -0.00022      -0.25184      -0.08986      -0.08401
     9  C(13)             -0.00022      -0.25236      -0.09005      -0.08418
    10  C(13)             -0.00129      -1.44591      -0.51594      -0.48230
    11  C(13)              0.00175       1.96583       0.70146       0.65573
    12  H(1)              -0.00015      -0.68414      -0.24412      -0.22820
    13  H(1)               0.00006       0.28342       0.10113       0.09454
    14  H(1)               0.00000       0.00450       0.00161       0.00150
    15  H(1)               0.00009       0.39441       0.14074       0.13156
    16  H(1)               0.00008       0.35836       0.12787       0.11954
    17  H(1)               0.00009       0.39456       0.14079       0.13161
    18  H(1)               0.00000       0.00444       0.00158       0.00148
    19  H(1)               0.00008       0.36337       0.12966       0.12121
    20  H(1)               0.00006       0.28416       0.10139       0.09478
    21  H(1)              -0.00016      -0.69449      -0.24781      -0.23166
    22  Ag(107             0.00030      -0.05509      -0.01966      -0.01838
 --------------------------------------------------------
       Center         ----  Spin Dipole Couplings  ----
                      3XX-RR        3YY-RR        3ZZ-RR
 --------------------------------------------------------
     1   Atom        0.025907     -0.012742     -0.013165
     2   Atom       -0.028172      0.013238      0.014935
     3   Atom        0.007619     -0.003602     -0.004016
     4   Atom       -0.003230      0.002685      0.000546
     5   Atom        0.003158     -0.001195     -0.001963
     6   Atom       -0.003198      0.001124      0.002074
     7   Atom       -0.004164      0.001524      0.002640
     8   Atom        0.000415     -0.000207     -0.000209
     9   Atom        0.000427     -0.000202     -0.000225
    10   Atom        0.003134     -0.001508     -0.001626
    11   Atom       -0.003290     -0.000722      0.004012
    12   Atom        0.000379      0.000398     -0.000777
    13   Atom        0.000800     -0.000252     -0.000548
    14   Atom        0.000370     -0.000189     -0.000182
    15   Atom        0.000417     -0.000176     -0.000241
    16   Atom        0.000300     -0.000231     -0.000069
    17   Atom        0.000425     -0.000237     -0.000188
    18   Atom        0.000379     -0.000187     -0.000192
    19   Atom        0.000308     -0.000073     -0.000235
    20   Atom        0.000805     -0.000553     -0.000252
    21   Atom        0.000384     -0.000815      0.000431
    22   Atom        0.008963     -0.003826     -0.005136
 --------------------------------------------------------
                        XY            XZ            YZ
 --------------------------------------------------------
     1   Atom        0.005075     -0.005784      0.009747
     2   Atom        0.000350     -0.000407     -0.044537
     3   Atom        0.002819     -0.003167      0.003809
     4   Atom        0.001842     -0.000857     -0.007061
     5   Atom        0.000180      0.000030      0.003049
     6   Atom        0.001255     -0.001371     -0.006551
     7   Atom        0.001095     -0.001195     -0.007292
     8   Atom       -0.000076     -0.000258      0.000115
     9   Atom        0.000253      0.000050      0.000106
    10   Atom       -0.000041     -0.000231      0.003001
    11   Atom        0.000755     -0.002009     -0.006817
    12   Atom        0.001508     -0.000453      0.000107
    13   Atom        0.000385     -0.000149      0.000030
    14   Atom       -0.000054     -0.000168      0.000012
    15   Atom       -0.000123     -0.000221      0.000070
    16   Atom       -0.000002     -0.000294      0.000053
    17   Atom        0.000217      0.000099      0.000067
    18   Atom        0.000159      0.000031      0.000007
    19   Atom        0.000286     -0.000025      0.000036
    20   Atom        0.000100     -0.000429      0.000052
    21   Atom        0.000400     -0.001591      0.000167
    22   Atom       -0.009242      0.009552      0.021496
 --------------------------------------------------------


 ---------------------------------------------------------------------------------
              Anisotropic Spin Dipole Couplings in Principal Axis System
 ---------------------------------------------------------------------------------

       Atom             a.u.   MegaHertz   Gauss  10(-4) cm-1        Axes

              Baa    -0.0239    -0.921    -0.329    -0.307  0.1525 -0.6890  0.7085
     1 N(14)  Bbb    -0.0032    -0.124    -0.044    -0.041  0.0130  0.7183  0.6957
              Bcc     0.0271     1.045     0.373     0.349  0.9882  0.0969 -0.1185
 
              Baa    -0.0305    -4.087    -1.458    -1.363  0.0154  0.7137  0.7003
     2 C(13)  Bbb    -0.0282    -3.781    -1.349    -1.261  0.9999 -0.0153 -0.0064
              Bcc     0.0586     7.868     2.808     2.625 -0.0062 -0.7003  0.7138
 
              Baa    -0.0087    -1.171    -0.418    -0.390  0.2510 -0.6629  0.7054
     3 C(13)  Bbb     0.0000     0.000     0.000     0.000  0.0132  0.7310  0.6823
              Bcc     0.0087     1.170     0.418     0.390  0.9679  0.1620 -0.1922
 
              Baa    -0.0057    -0.760    -0.271    -0.254 -0.2460  0.6569  0.7127
     4 C(13)  Bbb    -0.0034    -0.456    -0.163    -0.152  0.9564  0.0452  0.2885
              Bcc     0.0091     1.217     0.434     0.406  0.1573  0.7526 -0.6394
 
              Baa    -0.0047    -0.624    -0.223    -0.208  0.0123 -0.6617  0.7497
     5 C(13)  Bbb     0.0015     0.199     0.071     0.066 -0.0919  0.7458  0.6598
              Bcc     0.0032     0.426     0.152     0.142  0.9957  0.0770  0.0516
 
              Baa    -0.0050    -0.667    -0.238    -0.222  0.0101  0.7312  0.6821
     6 C(13)  Bbb    -0.0035    -0.469    -0.167    -0.156  0.9875 -0.1146  0.1083
              Bcc     0.0085     1.136     0.405     0.379 -0.1574 -0.6724  0.7232
 
              Baa    -0.0052    -0.202    -0.072    -0.067  0.0103  0.7328  0.6804
     7 N(14)  Bbb    -0.0044    -0.168    -0.060    -0.056  0.9931 -0.0872  0.0788
              Bcc     0.0096     0.370     0.132     0.123 -0.1171 -0.6749  0.7286
 
              Baa    -0.0004    -0.047    -0.017    -0.016  0.2229 -0.5277  0.8197
     8 C(13)  Bbb    -0.0002    -0.023    -0.008    -0.008  0.3070  0.8360  0.4547
              Bcc     0.0005     0.070     0.025     0.023  0.9252 -0.1503 -0.3484
 
              Baa    -0.0004    -0.047    -0.017    -0.016 -0.2181  0.7853 -0.5795
     9 C(13)  Bbb    -0.0002    -0.023    -0.008    -0.008 -0.2842  0.5169  0.8075
              Bcc     0.0005     0.071     0.025     0.024  0.9336  0.3408  0.1105
 
              Baa    -0.0046    -0.613    -0.219    -0.205  0.0177 -0.6996  0.7143
    10 C(13)  Bbb     0.0014     0.190     0.068     0.063  0.1101  0.7114  0.6941
              Bcc     0.0032     0.424     0.151     0.141  0.9938 -0.0664 -0.0896
 
              Baa    -0.0057    -0.767    -0.274    -0.256  0.2497  0.7679  0.5899
    11 C(13)  Bbb    -0.0035    -0.469    -0.167    -0.156  0.9543 -0.2984 -0.0156
              Bcc     0.0092     1.235     0.441     0.412 -0.1641 -0.5668  0.8073
 
              Baa    -0.0014    -0.740    -0.264    -0.247  0.6175 -0.5554  0.5570
    12 H(1)   Bbb    -0.0005    -0.284    -0.102    -0.095 -0.3377  0.4523  0.8255
              Bcc     0.0019     1.024     0.365     0.342  0.7104  0.6978 -0.0918
 
              Baa    -0.0006    -0.313    -0.112    -0.104  0.1829 -0.2953  0.9377
    13 H(1)   Bbb    -0.0004    -0.188    -0.067    -0.063 -0.2594  0.9055  0.3357
              Bcc     0.0009     0.500     0.179     0.167  0.9483  0.3047 -0.0890
 
              Baa    -0.0002    -0.122    -0.044    -0.041  0.2754  0.0721  0.9586
    14 H(1)   Bbb    -0.0002    -0.103    -0.037    -0.034  0.0666  0.9934 -0.0938
              Bcc     0.0004     0.225     0.080     0.075  0.9590 -0.0897 -0.2688
 
              Baa    -0.0003    -0.169    -0.060    -0.056  0.2395 -0.2545  0.9369
    15 H(1)   Bbb    -0.0002    -0.104    -0.037    -0.035  0.2585  0.9469  0.1911
              Bcc     0.0005     0.273     0.098     0.091  0.9358 -0.1964 -0.2926
 
              Baa    -0.0003    -0.148    -0.053    -0.049 -0.3187  0.7077 -0.6305
    16 H(1)   Bbb    -0.0002    -0.100    -0.036    -0.033  0.3691  0.7053  0.6052
              Bcc     0.0005     0.248     0.088     0.083  0.8730 -0.0399 -0.4860
 
              Baa    -0.0003    -0.167    -0.060    -0.056 -0.2287  0.9219 -0.3126
    17 H(1)   Bbb    -0.0002    -0.104    -0.037    -0.035 -0.2396  0.2579  0.9360
              Bcc     0.0005     0.271     0.097     0.090  0.9435  0.2890  0.1619
 
              Baa    -0.0002    -0.122    -0.044    -0.041 -0.2550  0.9662  0.0372
    18 H(1)   Bbb    -0.0002    -0.103    -0.037    -0.035 -0.0405 -0.0491  0.9980
              Bcc     0.0004     0.225     0.080     0.075  0.9661  0.2530  0.0517
 
              Baa    -0.0003    -0.146    -0.052    -0.049  0.3199 -0.5852  0.7451
    19 H(1)   Bbb    -0.0002    -0.100    -0.036    -0.033 -0.3467  0.6596  0.6669
              Bcc     0.0005     0.246     0.088     0.082  0.8817  0.4717 -0.0081
 
              Baa    -0.0006    -0.317    -0.113    -0.106 -0.1769  0.9149 -0.3629
    20 H(1)   Bbb    -0.0004    -0.196    -0.070    -0.065  0.2842  0.4005  0.8711
              Bcc     0.0010     0.513     0.183     0.171  0.9423  0.0509 -0.3308
 
              Baa    -0.0014    -0.770    -0.275    -0.257  0.6157 -0.5434  0.5706
    21 H(1)   Bbb    -0.0006    -0.301    -0.107    -0.100  0.3503  0.8374  0.4195
              Bcc     0.0020     1.071     0.382     0.357 -0.7059 -0.0584  0.7059
 
              Baa    -0.0305     0.661     0.236     0.221 -0.3194 -0.6597  0.6803
    22 Ag(107 Bbb     0.0134    -0.292    -0.104    -0.097  0.9476 -0.2255  0.2263
              Bcc     0.0170    -0.369    -0.132    -0.123  0.0041  0.7169  0.6972
 

 ---------------------------------------------------------------------------------

 No NMR shielding tensors so no spin-rotation constants.
 Leave Link  601 at Fri Sep 11 21:16:00 2026, MaxMem=  6442450944 cpu:               1.0 elap:               1.6
 (Enter C:\G16W\l9999.exe)
 Unable to Open any file for archive entry.
 1|1|UNPC-DESKTOP-2JKEGCA|SP|UPBE1PBE|def2SVP|C9H10Ag1N2(2)|JHKIM|11-Se
 p-2026|0||#P PBE1PBE/Def2SVP EmpiricalDispersion=GD3BJ SP SCF=(XQC,Max
 Cycle=128) NoSymm Guess=Read||DMABN t=0.500 dz=+0.40 class=toface||0,2
 |N,0,5.143673,-0.350316,0.21822|C,0,3.998871,-0.272231,0.170326|C,0,2.
 596311,-0.177765,0.111532|C,0,1.861617,-1.009137,-0.736855|C,0,0.49137
 2,-0.916108,-0.795599|C,0,-0.21206,0.013916,-0.008461|N,0,-1.572327,0.
 10784,-0.067705|C,0,-2.276121,1.067277,0.747024|C,0,-2.327988,-0.75130
 9,-0.945467|C,0,0.541516,0.843475,0.842005|C,0,1.911725,0.749715,0.900
 076|H,0,2.379549,-1.731167,-1.351567|H,0,-0.036847,-1.576092,-1.463215
 |H,0,-3.344118,0.990693,0.558268|H,0,-1.962619,2.089882,0.51411|H,0,-2
 .105367,0.883166,1.812531|H,0,-2.039382,-0.601554,-1.990713|H,0,-3.387
 348,-0.525033,-0.852352|H,0,-2.182049,-1.805705,-0.689891|H,0,0.052874
 ,1.572236,1.466859|H,0,2.468717,1.398215,1.560873|Ag,0,5.99277396,1.30
 887877,-1.49457115||Version=EM64W-G16RevC.01|HF=-604.5468227|S2=0.7517
 45|S2-1=0.|S2A=0.750003|RMSD=8.381e-009|Dipole=-3.603828,-0.3625637,0.
 4646522|Quadrupole=-17.582829,9.2773144,8.3055147,-5.4030721,6.3941434
 ,6.5956296|PG=C01 [X(C9H10Ag1N2)]||@
 The archive entry for this job was punched.


 COLLEGE PROFESSOR: SOMEONE WHO TALKS IN OTHER PEOPLE'S SLEEP.
 Job cpu time:       0 days  0 hours  2 minutes 52.0 seconds.
 Elapsed time:       0 days  0 hours  2 minutes 50.4 seconds.
 File lengths (MBytes):  RWF=     57 Int=      0 D2E=      0 Chk=      5 Scr=      1
 Normal termination of Gaussian 16 at Fri Sep 11 21:16:01 2026.
