 Entering Gaussian System, Link 0=C:\G16W\g16.exe
 Input=DMABN_t4_z0.gjf
 Output=DMABN_t4_z0.out
 Initial command:
 C:\G16W\l1.exe ".\Gau-115592.inp" "DMABN_t4_z0.out" /scrdir=".\"
 Entering Link 1 = C:\G16W\l1.exe PID=      8552.
  
 Copyright (c) 1988-2019, Gaussian, Inc.  All Rights Reserved.
  
 This is part of the Gaussian(R) 16 program.  It is based on
 the Gaussian(R) 09 system (copyright 2009, Gaussian, Inc.),
 the Gaussian(R) 03 system (copyright 2003, Gaussian, Inc.),
 the Gaussian(R) 98 system (copyright 1998, Gaussian, Inc.),
 the Gaussian(R) 94 system (copyright 1995, Gaussian, Inc.),
 the Gaussian 92(TM) system (copyright 1992, Gaussian, Inc.),
 the Gaussian 90(TM) system (copyright 1990, Gaussian, Inc.),
 the Gaussian 88(TM) system (copyright 1988, Gaussian, Inc.),
 the Gaussian 86(TM) system (copyright 1986, Carnegie Mellon
 University), and the Gaussian 82(TM) system (copyright 1983,
 Carnegie Mellon University). Gaussian is a federally registered
 trademark of Gaussian, Inc.
  
 This software contains proprietary and confidential information,
 including trade secrets, belonging to Gaussian, Inc.
  
 This software is provided under written license and may be
 used, copied, transmitted, or stored only in accord with that
 written license.
  
 The following legend is applicable only to US Government
 contracts under FAR:
  
                    RESTRICTED RIGHTS LEGEND
  
 Use, reproduction and disclosure by the US Government is
 subject to restrictions as set forth in subparagraphs (a)
 and (c) of the Commercial Computer Software - Restricted
 Rights clause in FAR 52.227-19.
  
 Gaussian, Inc.
 340 Quinnipiac St., Bldg. 40, Wallingford CT 06492
  
  
 ---------------------------------------------------------------
 Warning -- This program may not be used in any manner that
 competes with the business of Gaussian, Inc. or will provide
 assistance to any competitor of Gaussian, Inc.  The licensee
 of this program is prohibited from giving any competitor of
 Gaussian, Inc. access to this program.  By using this program,
 the user acknowledges that Gaussian, Inc. is engaged in the
 business of creating and licensing software in the field of
 computational chemistry and represents and warrants to the
 licensee that it is not a competitor of Gaussian, Inc. and that
 it will not use this program in any manner prohibited above.
 ---------------------------------------------------------------
  

 Cite this work as:
 Gaussian 16, Revision C.01,
 M. J. Frisch, G. W. Trucks, H. B. Schlegel, G. E. Scuseria, 
 M. A. Robb, J. R. Cheeseman, G. Scalmani, V. Barone, 
 G. A. Petersson, H. Nakatsuji, X. Li, M. Caricato, A. V. Marenich, 
 J. Bloino, B. G. Janesko, R. Gomperts, B. Mennucci, H. P. Hratchian, 
 J. V. Ortiz, A. F. Izmaylov, J. L. Sonnenberg, D. Williams-Young, 
 F. Ding, F. Lipparini, F. Egidi, J. Goings, B. Peng, A. Petrone, 
 T. Henderson, D. Ranasinghe, V. G. Zakrzewski, J. Gao, N. Rega, 
 G. Zheng, W. Liang, M. Hada, M. Ehara, K. Toyota, R. Fukuda, 
 J. Hasegawa, M. Ishida, T. Nakajima, Y. Honda, O. Kitao, H. Nakai, 
 T. Vreven, K. Throssell, J. A. Montgomery, Jr., J. E. Peralta, 
 F. Ogliaro, M. J. Bearpark, J. J. Heyd, E. N. Brothers, K. N. Kudin, 
 V. N. Staroverov, T. A. Keith, R. Kobayashi, J. Normand, 
 K. Raghavachari, A. P. Rendell, J. C. Burant, S. S. Iyengar, 
 J. Tomasi, M. Cossi, J. M. Millam, M. Klene, C. Adamo, R. Cammi, 
 J. W. Ochterski, R. L. Martin, K. Morokuma, O. Farkas, 
 J. B. Foresman, and D. J. Fox, Gaussian, Inc., Wallingford CT, 2019.
 
 ******************************************
 Gaussian 16:  EM64W-G16RevC.01 30-May-2019
                11-Sep-2026 
 ******************************************
 %Chk=DMABN.chk
 %NProcShared=8
 Will use up to    8 processors via shared memory.
 %Mem=48GB
 ----------------------------------------------------------------------
 #P PBE1PBE/Def2SVP EmpiricalDispersion=GD3BJ SP SCF=(XQC,MaxCycle=128)
  NoSymm Guess=Read
 ----------------------------------------------------------------------
 1/38=1,172=1/1;
 2/12=2,15=1,17=6,18=5,40=1/2;
 3/5=43,7=101,11=2,25=1,30=1,74=-13,116=-2,124=41/1,2,3;
 4/5=1/1;
 5/5=2,7=128,8=3,13=1,38=6/2,8;
 6/7=2,8=2,9=2,10=2,28=1/1;
 99/5=1,9=1/99;
 Leave Link    1 at Fri Sep 11 21:23:08 2026, MaxMem=  6442450944 cpu:               0.0 elap:               0.2
 (Enter C:\G16W\l101.exe)
 -----------------------------------
 DMABN t=1.000 dz=+0.00 class=toface
 -----------------------------------
 Symbolic Z-matrix:
 Charge =  0 Multiplicity = 2
 N                     5.14367  -0.35032   0.21822 
 C                     3.99887  -0.27223   0.17033 
 C                     2.59631  -0.17777   0.11153 
 C                     1.86162  -1.00914  -0.73686 
 C                     0.49137  -0.91611  -0.7956 
 C                    -0.21206   0.01392  -0.00846 
 N                    -1.57233   0.10784  -0.06771 
 C                    -2.27612   1.06728   0.74702 
 C                    -2.32799  -0.75131  -0.94547 
 C                     0.54152   0.84348   0.84201 
 C                     1.91173   0.74972   0.90008 
 H                     2.37955  -1.73117  -1.35157 
 H                    -0.03685  -1.57609  -1.46322 
 H                    -3.34412   0.99069   0.55827 
 H                    -1.96262   2.08988   0.51411 
 H                    -2.10537   0.88317   1.81253 
 H                    -2.03938  -0.60155  -1.99071 
 H                    -3.38735  -0.52503  -0.85235 
 H                    -2.18205  -1.80571  -0.68989 
 H                     0.05287   1.57224   1.46686 
 H                     2.46872   1.39822   1.56087 
 Ag                    1.39405   1.50852  -1.57236 
 
 ITRead=  0  0  0  0  0  0  0  0  0  0  0  0  0  0  0  0  0  0  0  0
 ITRead=  0  0
 MicOpt= -1 -1 -1 -1 -1 -1 -1 -1 -1 -1 -1 -1 -1 -1 -1 -1 -1 -1 -1 -1
 MicOpt= -1 -1
 NAtoms=     22 NQM=       22 NQMF=       0 NMMI=      0 NMMIF=      0
                NMic=       0 NMicF=      0.
                    Isotopes and Nuclear Properties:
 (Nuclear quadrupole moments (NQMom) in fm**2, nuclear magnetic moments (NMagM)
  in nuclear magnetons)

  Atom         1           2           3           4           5           6           7           8           9          10
 IAtWgt=          14          12          12          12          12          12          14          12          12          12
 AtmWgt=  14.0030740  12.0000000  12.0000000  12.0000000  12.0000000  12.0000000  14.0030740  12.0000000  12.0000000  12.0000000
 NucSpn=           2           0           0           0           0           0           2           0           0           0
 AtZEff=   0.0000000   0.0000000   0.0000000   0.0000000   0.0000000   0.0000000   0.0000000   0.0000000   0.0000000   0.0000000
 NQMom=    2.0440000   0.0000000   0.0000000   0.0000000   0.0000000   0.0000000   2.0440000   0.0000000   0.0000000   0.0000000
 NMagM=    0.4037610   0.0000000   0.0000000   0.0000000   0.0000000   0.0000000   0.4037610   0.0000000   0.0000000   0.0000000
 AtZNuc=   7.0000000   6.0000000   6.0000000   6.0000000   6.0000000   6.0000000   7.0000000   6.0000000   6.0000000   6.0000000

  Atom        11          12          13          14          15          16          17          18          19          20
 IAtWgt=          12           1           1           1           1           1           1           1           1           1
 AtmWgt=  12.0000000   1.0078250   1.0078250   1.0078250   1.0078250   1.0078250   1.0078250   1.0078250   1.0078250   1.0078250
 NucSpn=           0           1           1           1           1           1           1           1           1           1
 AtZEff=   0.0000000   0.0000000   0.0000000   0.0000000   0.0000000   0.0000000   0.0000000   0.0000000   0.0000000   0.0000000
 NQMom=    0.0000000   0.0000000   0.0000000   0.0000000   0.0000000   0.0000000   0.0000000   0.0000000   0.0000000   0.0000000
 NMagM=    0.0000000   2.7928460   2.7928460   2.7928460   2.7928460   2.7928460   2.7928460   2.7928460   2.7928460   2.7928460
 AtZNuc=   6.0000000   1.0000000   1.0000000   1.0000000   1.0000000   1.0000000   1.0000000   1.0000000   1.0000000   1.0000000

  Atom        21          22
 IAtWgt=           1         107
 AtmWgt=   1.0078250 106.9050900
 NucSpn=           1           1
 AtZEff=   0.0000000   0.0000000
 NQMom=    0.0000000   0.0000000
 NMagM=    2.7928460  -0.1135700
 AtZNuc=   1.0000000  47.0000000
 Leave Link  101 at Fri Sep 11 21:23:08 2026, MaxMem=  6442450944 cpu:               0.0 elap:               0.3
 (Enter C:\G16W\l202.exe)
                          Input orientation:                          
 ---------------------------------------------------------------------
 Center     Atomic      Atomic             Coordinates (Angstroms)
 Number     Number       Type             X           Y           Z
 ---------------------------------------------------------------------
      1          7           0        5.143673   -0.350316    0.218220
      2          6           0        3.998871   -0.272231    0.170326
      3          6           0        2.596311   -0.177765    0.111532
      4          6           0        1.861617   -1.009137   -0.736855
      5          6           0        0.491372   -0.916108   -0.795599
      6          6           0       -0.212060    0.013916   -0.008461
      7          7           0       -1.572327    0.107840   -0.067705
      8          6           0       -2.276121    1.067277    0.747024
      9          6           0       -2.327988   -0.751309   -0.945467
     10          6           0        0.541516    0.843475    0.842005
     11          6           0        1.911725    0.749715    0.900076
     12          1           0        2.379549   -1.731167   -1.351567
     13          1           0       -0.036847   -1.576092   -1.463215
     14          1           0       -3.344118    0.990693    0.558268
     15          1           0       -1.962619    2.089882    0.514110
     16          1           0       -2.105367    0.883166    1.812531
     17          1           0       -2.039382   -0.601554   -1.990713
     18          1           0       -3.387348   -0.525033   -0.852352
     19          1           0       -2.182049   -1.805705   -0.689891
     20          1           0        0.052874    1.572236    1.466859
     21          1           0        2.468717    1.398215    1.560873
     22         47           0        1.394049    1.508520   -1.572362
 ---------------------------------------------------------------------
                    Distance matrix (angstroms):
                    1          2          3          4          5
     1  N    0.000000
     2  C    1.148461   0.000000
     3  C    2.555427   1.406967   0.000000
     4  C    3.481107   2.435952   1.396680   0.000000
     5  C    4.794982   3.694609   2.408071   1.374655   0.000000
     6  C    5.372888   4.224427   2.817461   2.424321   1.406893
     7  N    6.737679   5.589218   4.182253   3.672516   2.416020
     8  C    7.572486   6.442235   5.068981   4.861509   3.737983
     9  C    7.572363   6.442333   5.069016   4.202712   2.828146
    10  C    4.795216   3.694490   2.408050   2.769050   2.404245
    11  C    3.481449   2.435793   1.396667   2.403251   2.769058
    12  H    3.465741   2.658356   2.144925   1.080487   2.130407
    13  H    5.582789   4.544835   3.371745   2.110261   1.077175
    14  H    8.599798   7.460896   6.070714   5.725062   4.492197
    15  H    7.519408   6.421614   5.107655   5.078741   4.095532
    16  H    7.524087   6.426002   5.111237   5.081057   4.096679
    17  H    7.519228   6.421763   5.107708   4.117776   2.816373
    18  H    8.599708   7.460966   6.070737   5.272507   3.898798
    19  H    7.523897   6.426141   5.111281   4.121645   2.819528
    20  H    5.583148   4.544662   3.371719   3.845958   3.391586
    21  H    3.466333   2.658079   2.144897   3.382820   3.849538
    22  Ag   4.552048   3.604599   2.669174   2.693564   2.701297
                    6          7          8          9         10
     6  C    0.000000
     7  N    1.364792   0.000000
     8  C    2.437350   1.442092   0.000000
     9  C    2.437355   1.442091   2.484848   0.000000
    10  C    1.406889   2.416002   2.828107   3.737973   0.000000
    11  C    2.424315   3.672495   4.202657   4.861509   1.374640
    12  H    3.400836   4.543960   5.823284   4.825551   3.849533
    13  H    2.162206   2.672223   4.109368   2.489509   3.391585
    14  H    3.329424   2.076178   1.087250   2.515613   3.898760
    15  H    2.765352   2.102220   1.094648   3.215000   2.816334
    16  H    2.766987   2.102510   1.094696   3.213662   2.819483
    17  H    2.765363   2.102223   3.215003   1.094650   4.095538
    18  H    3.329425   2.076174   2.515607   1.087251   4.492175
    19  H    2.766988   2.102506   3.213658   1.094700   4.096665
    20  H    2.162203   2.672194   2.489450   4.109341   1.077175
    21  H    3.400832   4.543938   4.825490   5.823278   2.130402
    22  Ag   2.694293   3.609056   4.363989   4.399248   2.645424
                   11         12         13         14         15
    11  C    0.000000
    12  H    3.382829   0.000000
    13  H    3.845966   2.423940   0.000000
    14  H    5.272456   6.619392   4.648959   0.000000
    15  H    4.117713   6.077466   4.588875   1.765986   0.000000
    16  H    4.121579   6.079533   4.588816   1.766138   1.778324
    17  H    5.078763   4.605593   2.288695   3.276414   3.677480
    18  H    5.725047   5.912789   3.564230   2.071025   3.276408
    19  H    5.081058   4.609940   2.291865   3.275385   4.083303
    20  H    2.110240   4.926400   4.301785   3.564167   2.288646
    21  H    1.080484   4.275896   4.926405   5.912727   4.605524
    22  Ag   2.637560   3.393454   3.402089   5.220915   3.994818
                   16         17         18         19         20
    16  H    0.000000
    17  H    4.083309   0.000000
    18  H    3.275378   1.765994   0.000000
    19  H    3.673966   1.778334   1.766143   0.000000
    20  H    2.291792   4.588867   4.648914   4.588784   0.000000
    21  H    4.609865   6.077483   6.619368   6.079528   2.423926
    22  Ag   4.908613   4.051651   5.245523   4.954929   3.322601
                   21         22
    21  H    0.000000
    22  Ag   3.314248   0.000000
 Symmetry turned off by external request.
 Stoichiometry    C9H10AgN2(2)
 Framework group  C1[X(C9H10AgN2)]
 Deg. of freedom    60
 Full point group                 C1      NOp   1
 Rotational constants (GHZ):           1.1005133           0.4979860           0.4236099
 Leave Link  202 at Fri Sep 11 21:23:09 2026, MaxMem=  6442450944 cpu:               1.0 elap:               0.1
 (Enter C:\G16W\l301.exe)
 Standard basis: def2SVP (5D, 7F)
 Ernie: Thresh=  0.10000D-02 Tol=  0.10000D-05 Strict=F.
   235 basis functions,   410 primitive gaussians,   251 cartesian basis functions
    49 alpha electrons       48 beta electrons
       nuclear repulsion energy       790.2447330439 Hartrees.
 IExCor= 1009 DFT=T Ex+Corr=PBE1PBE ExCW=0 ScaHFX=  0.250000
 ScaDFX=  0.750000  0.750000  1.000000  1.000000 ScalE2=  1.000000  1.000000
 IRadAn=      5 IRanWt=     -1 IRanGd=            0 ICorTp=0 IEmpDi=141
 NAtoms=   22 NActive=   22 NUniq=   22 SFac= 1.00D+00 NAtFMM=   60 NAOKFM=F Big=F
 Integral buffers will be    131072 words long.
 Raffenetti 2 integral format.
 Two-electron integral symmetry is turned off.
 R6Disp:  Grimme-D3(BJ) Dispersion energy=       -0.0257510073 Hartrees.
 Nuclear repulsion after empirical dispersion term =      790.2189820366 Hartrees.
 Leave Link  301 at Fri Sep 11 21:23:09 2026, MaxMem=  6442450944 cpu:               0.0 elap:               0.1
 (Enter C:\G16W\l302.exe)
 NPDir=0 NMtPBC=     1 NCelOv=     1 NCel=       1 NClECP=     1 NCelD=      1
         NCelK=      1 NCelE2=     1 NClLst=     1 CellRange=     0.0.
 One-electron integrals computed using PRISM.
   1 Symmetry operations used in ECPInt.
 ECPInt:  NShTT=    5778 NPrTT=   20489 LenC2=    5611 LenP2D=   15500.
 LDataN:  DoStor=T MaxTD1= 7 Len=  274
 NBasis=   235 RedAO= T EigKep=  2.39D-04  NBF=   235
 NBsUse=   235 1.00D-06 EigRej= -1.00D+00 NBFU=   235
 Precomputing XC quadrature grid using
 IXCGrd= 4 IRadAn=           5 IRanWt=          -1 IRanGd=           0 AccXCQ= 0.00D+00.
 Defaulting to unpruned grid for atomic number  47.
 Generated NRdTot=       0 NPtTot=           0 NUsed=           0 NTot=          32
 NSgBfM=   250   250   250   250   250 MxSgAt=    22 MxSgA2=    22.
 Leave Link  302 at Fri Sep 11 21:23:11 2026, MaxMem=  6442450944 cpu:               2.0 elap:               2.3
 (Enter C:\G16W\l303.exe)
 DipDrv:  MaxL=1.
 Leave Link  303 at Fri Sep 11 21:23:12 2026, MaxMem=  6442450944 cpu:               1.0 elap:               0.3
 (Enter C:\G16W\l401.exe)
 Initial guess from the checkpoint file:  "DMABN.chk"
 B after Tr=    -1.051473   -0.430875    0.469047
         Rot=    0.995750   -0.001972   -0.065928   -0.064280 Ang= -10.57 deg.
 Guess basis will be translated and rotated to current coordinates.
 JPrj=2 DoOrth=T DoCkMO=T.
 Initial guess <Sx>= 0.0000 <Sy>= 0.0000 <Sz>= 0.5000 <S**2>= 0.7519 S= 0.5009
 Leave Link  401 at Fri Sep 11 21:23:21 2026, MaxMem=  6442450944 cpu:               9.0 elap:               9.3
 (Enter C:\G16W\l502.exe)
 Two-electron integral symmetry not used.
 UHF open shell SCF:
 Using DIIS extrapolation, IDIIS=  1040.
 NGot=  6442450944 LenX=  6442320325 LenY=  6442256883
 Requested convergence on RMS density matrix=1.00D-08 within 128 cycles.
 Requested convergence on MAX density matrix=1.00D-06.
 Requested convergence on             energy=1.00D-06.
 No special actions if energy rises.
 Fock matrices will be formed incrementally for  20 cycles.

 Cycle   1  Pass 1  IDiag  1:
 FoFJK:  IHMeth= 1 ICntrl=       0 DoSepK=F KAlg= 0 I1Cent=           0 FoldK=F
 IRaf= 940000000 NMat=       1 IRICut=       1 DoRegI=T DoRafI=F ISym2E= 0 IDoP0=0 IntGTp=1.
 FoFCou: FMM=F IPFlag=           0 FMFlag=      100000 FMFlg1=           0
         NFxFlg=           0 DoJE=F BraDBF=F KetDBF=F FulRan=T
         wScrn=  0.000000 ICntrl=         0 IOpCl=  1 I1Cent=           0 NGrid=           0
         NMat0=    1 NMatS0=      1 NMatT0=    0 NMatD0=    1 NMtDS0=    0 NMtDT0=    0
 Symmetry not used in FoFCou.
 Defaulting to unpruned grid for atomic number  47.
 Defaulting to unpruned grid for atomic number  47.
 Defaulting to unpruned grid for atomic number  47.
 Defaulting to unpruned grid for atomic number  47.
 Defaulting to unpruned grid for atomic number  47.
 Defaulting to unpruned grid for atomic number  47.
 Defaulting to unpruned grid for atomic number  47.
 Defaulting to unpruned grid for atomic number  47.
 E= -604.361754110908    
 DIIS: error= 3.13D-02 at cycle   1 NSaved=   1.
 NSaved= 1 IEnMin= 1 EnMin= -604.361754110908     IErMin= 1 ErrMin= 3.13D-02
 ErrMax= 3.13D-02  0.00D+00 EMaxC= 1.00D-01 BMatC= 7.08D-01 BMatP= 7.08D-01
 IDIUse=3 WtCom= 6.87D-01 WtEn= 3.13D-01
 Coeff-Com:  0.100D+01
 Coeff-En:   0.100D+01
 Coeff:      0.100D+01
 Gap=     0.368 Goal=   None    Shift=    0.000
 Gap=     0.249 Goal=   None    Shift=    0.000
 GapD=    0.249 DampG=1.000 DampE=0.250 DampFc=0.2500 IDamp=-1.
 Damping current iteration by 2.50D-01
 RMSDP=4.60D-03 MaxDP=1.79D-01              OVMax= 9.74D-02

 Cycle   2  Pass 1  IDiag  1:
 RMSU=  1.14D-03    CP:  9.94D-01
 E= -604.400137256485     Delta-E=       -0.038383145577 Rises=F Damp=T
 DIIS: error= 2.34D-02 at cycle   2 NSaved=   2.
 NSaved= 2 IEnMin= 2 EnMin= -604.400137256485     IErMin= 2 ErrMin= 2.34D-02
 ErrMax= 2.34D-02  0.00D+00 EMaxC= 1.00D-01 BMatC= 4.05D-01 BMatP= 7.08D-01
 IDIUse=3 WtCom= 7.66D-01 WtEn= 2.34D-01
 Coeff-Com: -0.295D+01 0.395D+01
 Coeff-En:   0.000D+00 0.100D+01
 Coeff:     -0.226D+01 0.326D+01
 Gap=     0.100 Goal=   None    Shift=    0.000
 Gap=     0.176 Goal=   None    Shift=    0.000
 RMSDP=3.39D-03 MaxDP=1.37D-01 DE=-3.84D-02 OVMax= 4.17D-02

 Cycle   3  Pass 1  IDiag  1:
 RMSU=  1.32D-03    CP:  9.75D-01  3.00D+00
 E= -604.524263970426     Delta-E=       -0.124126713941 Rises=F Damp=F
 DIIS: error= 3.71D-03 at cycle   3 NSaved=   3.
 NSaved= 3 IEnMin= 3 EnMin= -604.524263970426     IErMin= 3 ErrMin= 3.71D-03
 ErrMax= 3.71D-03  0.00D+00 EMaxC= 1.00D-01 BMatC= 1.54D-02 BMatP= 4.05D-01
 IDIUse=3 WtCom= 9.63D-01 WtEn= 3.71D-02
 Coeff-Com: -0.138D+01 0.181D+01 0.567D+00
 Coeff-En:   0.000D+00 0.000D+00 0.100D+01
 Coeff:     -0.133D+01 0.175D+01 0.583D+00
 Gap=     0.095 Goal=   None    Shift=    0.000
 Gap=     0.179 Goal=   None    Shift=    0.000
 RMSDP=4.99D-04 MaxDP=2.05D-02 DE=-1.24D-01 OVMax= 2.32D-02

 Cycle   4  Pass 1  IDiag  1:
 RMSU=  4.99D-04    CP:  9.75D-01  3.00D+00  1.00D+00
 E= -604.527557145636     Delta-E=       -0.003293175210 Rises=F Damp=F
 DIIS: error= 2.37D-03 at cycle   4 NSaved=   4.
 NSaved= 4 IEnMin= 4 EnMin= -604.527557145636     IErMin= 4 ErrMin= 2.37D-03
 ErrMax= 2.37D-03  0.00D+00 EMaxC= 1.00D-01 BMatC= 2.27D-03 BMatP= 1.54D-02
 IDIUse=3 WtCom= 9.76D-01 WtEn= 2.37D-02
 Coeff-Com: -0.540D+00 0.705D+00 0.330D+00 0.505D+00
 Coeff-En:   0.000D+00 0.000D+00 0.634D-01 0.937D+00
 Coeff:     -0.528D+00 0.689D+00 0.324D+00 0.515D+00
 Gap=     0.096 Goal=   None    Shift=    0.000
 Gap=     0.177 Goal=   None    Shift=    0.000
 RMSDP=1.34D-04 MaxDP=5.92D-03 DE=-3.29D-03 OVMax= 1.00D-02

 Cycle   5  Pass 1  IDiag  1:
 RMSU=  1.23D-04    CP:  9.74D-01  3.00D+00  1.02D+00  9.07D-01
 E= -604.528001095512     Delta-E=       -0.000443949875 Rises=F Damp=F
 DIIS: error= 1.32D-03 at cycle   5 NSaved=   5.
 NSaved= 5 IEnMin= 5 EnMin= -604.528001095512     IErMin= 5 ErrMin= 1.32D-03
 ErrMax= 1.32D-03  0.00D+00 EMaxC= 1.00D-01 BMatC= 5.30D-04 BMatP= 2.27D-03
 IDIUse=3 WtCom= 9.87D-01 WtEn= 1.32D-02
 Coeff-Com: -0.464D-01 0.579D-01 0.916D-01 0.352D+00 0.544D+00
 Coeff-En:   0.000D+00 0.000D+00 0.000D+00 0.176D+00 0.824D+00
 Coeff:     -0.458D-01 0.571D-01 0.904D-01 0.350D+00 0.548D+00
 Gap=     0.097 Goal=   None    Shift=    0.000
 Gap=     0.177 Goal=   None    Shift=    0.000
 RMSDP=5.93D-05 MaxDP=2.49D-03 DE=-4.44D-04 OVMax= 4.26D-03

 Cycle   6  Pass 1  IDiag  1:
 RMSU=  5.66D-05    CP:  9.74D-01  3.00D+00  1.03D+00  9.11D-01  8.93D-01
 E= -604.528105430969     Delta-E=       -0.000104335457 Rises=F Damp=F
 DIIS: error= 3.04D-04 at cycle   6 NSaved=   6.
 NSaved= 6 IEnMin= 6 EnMin= -604.528105430969     IErMin= 6 ErrMin= 3.04D-04
 ErrMax= 3.04D-04  0.00D+00 EMaxC= 1.00D-01 BMatC= 8.04D-05 BMatP= 5.30D-04
 IDIUse=3 WtCom= 9.97D-01 WtEn= 3.04D-03
 Coeff-Com:  0.618D-01-0.825D-01 0.193D-02 0.143D+00 0.357D+00 0.518D+00
 Coeff-En:   0.000D+00 0.000D+00 0.000D+00 0.000D+00 0.981D-01 0.902D+00
 Coeff:      0.616D-01-0.822D-01 0.192D-02 0.143D+00 0.356D+00 0.520D+00
 Gap=     0.097 Goal=   None    Shift=    0.000
 Gap=     0.177 Goal=   None    Shift=    0.000
 RMSDP=3.21D-05 MaxDP=1.36D-03 DE=-1.04D-04 OVMax= 1.80D-03

 Cycle   7  Pass 1  IDiag  1:
 RMSU=  2.71D-05    CP:  9.74D-01  3.00D+00  1.03D+00  9.28D-01  9.15D-01
                    CP:  7.60D-01
 E= -604.528124885675     Delta-E=       -0.000019454706 Rises=F Damp=F
 DIIS: error= 9.82D-05 at cycle   7 NSaved=   7.
 NSaved= 7 IEnMin= 7 EnMin= -604.528124885675     IErMin= 7 ErrMin= 9.82D-05
 ErrMax= 9.82D-05  0.00D+00 EMaxC= 1.00D-01 BMatC= 5.85D-06 BMatP= 8.04D-05
 IDIUse=1 WtCom= 1.00D+00 WtEn= 0.00D+00
 Coeff-Com:  0.362D-01-0.480D-01-0.658D-02 0.501D-01 0.152D+00 0.289D+00
 Coeff-Com:  0.527D+00
 Coeff:      0.362D-01-0.480D-01-0.658D-02 0.501D-01 0.152D+00 0.289D+00
 Coeff:      0.527D+00
 Gap=     0.097 Goal=   None    Shift=    0.000
 Gap=     0.177 Goal=   None    Shift=    0.000
 RMSDP=1.27D-05 MaxDP=6.02D-04 DE=-1.95D-05 OVMax= 9.67D-04

 Cycle   8  Pass 1  IDiag  1:
 RMSU=  1.14D-05    CP:  9.74D-01  3.00D+00  1.03D+00  9.28D-01  9.11D-01
                    CP:  8.35D-01  9.74D-01
 E= -604.528126833854     Delta-E=       -0.000001948179 Rises=F Damp=F
 DIIS: error= 3.88D-05 at cycle   8 NSaved=   8.
 NSaved= 8 IEnMin= 8 EnMin= -604.528126833854     IErMin= 8 ErrMin= 3.88D-05
 ErrMax= 3.88D-05  0.00D+00 EMaxC= 1.00D-01 BMatC= 8.11D-07 BMatP= 5.85D-06
 IDIUse=1 WtCom= 1.00D+00 WtEn= 0.00D+00
 Coeff-Com:  0.611D-02-0.800D-02-0.408D-02-0.389D-02 0.692D-02 0.376D-01
 Coeff-Com:  0.260D+00 0.705D+00
 Coeff:      0.611D-02-0.800D-02-0.408D-02-0.389D-02 0.692D-02 0.376D-01
 Coeff:      0.260D+00 0.705D+00
 Gap=     0.097 Goal=   None    Shift=    0.000
 Gap=     0.177 Goal=   None    Shift=    0.000
 RMSDP=7.43D-06 MaxDP=2.78D-04 DE=-1.95D-06 OVMax= 8.45D-04

 Cycle   9  Pass 1  IDiag  1:
 RMSU=  3.69D-06    CP:  9.74D-01  3.00D+00  1.03D+00  9.31D-01  9.34D-01
                    CP:  8.75D-01  1.16D+00  9.90D-01
 E= -604.528127316499     Delta-E=       -0.000000482645 Rises=F Damp=F
 DIIS: error= 1.69D-05 at cycle   9 NSaved=   9.
 NSaved= 9 IEnMin= 9 EnMin= -604.528127316499     IErMin= 9 ErrMin= 1.69D-05
 ErrMax= 1.69D-05  0.00D+00 EMaxC= 1.00D-01 BMatC= 2.30D-07 BMatP= 8.11D-07
 IDIUse=1 WtCom= 1.00D+00 WtEn= 0.00D+00
 Coeff-Com: -0.605D-02 0.808D-02-0.795D-03-0.152D-01-0.345D-01-0.541D-01
 Coeff-Com:  0.170D-01 0.369D+00 0.717D+00
 Coeff:     -0.605D-02 0.808D-02-0.795D-03-0.152D-01-0.345D-01-0.541D-01
 Coeff:      0.170D-01 0.369D+00 0.717D+00
 Gap=     0.097 Goal=   None    Shift=    0.000
 Gap=     0.177 Goal=   None    Shift=    0.000
 RMSDP=4.42D-06 MaxDP=1.51D-04 DE=-4.83D-07 OVMax= 5.52D-04

 Cycle  10  Pass 1  IDiag  1:
 RMSU=  2.15D-06    CP:  9.74D-01  3.00D+00  1.04D+00  9.32D-01  9.46D-01
                    CP:  9.12D-01  1.23D+00  1.13D+00  1.23D+00
 E= -604.528127491186     Delta-E=       -0.000000174687 Rises=F Damp=F
 DIIS: error= 9.33D-06 at cycle  10 NSaved=  10.
 NSaved=10 IEnMin=10 EnMin= -604.528127491186     IErMin=10 ErrMin= 9.33D-06
 ErrMax= 9.33D-06  0.00D+00 EMaxC= 1.00D-01 BMatC= 7.23D-08 BMatP= 2.30D-07
 IDIUse=1 WtCom= 1.00D+00 WtEn= 0.00D+00
 Coeff-Com: -0.554D-02 0.735D-02 0.949D-03-0.648D-02-0.200D-01-0.411D-01
 Coeff-Com: -0.748D-01-0.437D-01 0.403D+00 0.781D+00
 Coeff:     -0.554D-02 0.735D-02 0.949D-03-0.648D-02-0.200D-01-0.411D-01
 Coeff:     -0.748D-01-0.437D-01 0.403D+00 0.781D+00
 Gap=     0.097 Goal=   None    Shift=    0.000
 Gap=     0.177 Goal=   None    Shift=    0.000
 RMSDP=2.70D-06 MaxDP=7.26D-05 DE=-1.75D-07 OVMax= 3.29D-04

 Cycle  11  Pass 1  IDiag  1:
 RMSU=  9.63D-07    CP:  9.74D-01  3.00D+00  1.04D+00  9.33D-01  9.50D-01
                    CP:  9.24D-01  1.30D+00  1.22D+00  1.55D+00  1.20D+00
 E= -604.528127556202     Delta-E=       -0.000000065017 Rises=F Damp=F
 DIIS: error= 5.29D-06 at cycle  11 NSaved=  11.
 NSaved=11 IEnMin=11 EnMin= -604.528127556202     IErMin=11 ErrMin= 5.29D-06
 ErrMax= 5.29D-06  0.00D+00 EMaxC= 1.00D-01 BMatC= 9.08D-09 BMatP= 7.23D-08
 IDIUse=1 WtCom= 1.00D+00 WtEn= 0.00D+00
 Coeff-Com:  0.132D-02-0.176D-02 0.154D-03 0.332D-02 0.712D-02 0.111D-01
 Coeff-Com: -0.995D-02-0.855D-01-0.160D+00 0.169D-01 0.122D+01
 Coeff:      0.132D-02-0.176D-02 0.154D-03 0.332D-02 0.712D-02 0.111D-01
 Coeff:     -0.995D-02-0.855D-01-0.160D+00 0.169D-01 0.122D+01
 Gap=     0.097 Goal=   None    Shift=    0.000
 Gap=     0.177 Goal=   None    Shift=    0.000
 RMSDP=1.31D-06 MaxDP=3.44D-05 DE=-6.50D-08 OVMax= 1.25D-04

 Cycle  12  Pass 1  IDiag  1:
 RMSU=  6.07D-07    CP:  9.74D-01  3.00D+00  1.04D+00  9.33D-01  9.50D-01
                    CP:  9.28D-01  1.31D+00  1.24D+00  1.71D+00  1.50D+00
                    CP:  1.56D+00
 E= -604.528127574835     Delta-E=       -0.000000018632 Rises=F Damp=F
 DIIS: error= 2.06D-06 at cycle  12 NSaved=  12.
 NSaved=12 IEnMin=12 EnMin= -604.528127574835     IErMin=12 ErrMin= 2.06D-06
 ErrMax= 2.06D-06  0.00D+00 EMaxC= 1.00D-01 BMatC= 3.28D-09 BMatP= 9.08D-09
 IDIUse=1 WtCom= 1.00D+00 WtEn= 0.00D+00
 Coeff-Com:  0.150D-02-0.199D-02-0.616D-04 0.246D-02 0.644D-02 0.118D-01
 Coeff-Com:  0.108D-01-0.178D-01-0.135D+00-0.153D+00 0.463D+00 0.812D+00
 Coeff:      0.150D-02-0.199D-02-0.616D-04 0.246D-02 0.644D-02 0.118D-01
 Coeff:      0.108D-01-0.178D-01-0.135D+00-0.153D+00 0.463D+00 0.812D+00
 Gap=     0.097 Goal=   None    Shift=    0.000
 Gap=     0.177 Goal=   None    Shift=    0.000
 RMSDP=5.37D-07 MaxDP=1.39D-05 DE=-1.86D-08 OVMax= 4.46D-05

 Cycle  13  Pass 1  IDiag  1:
 RMSU=  3.06D-07    CP:  9.74D-01  3.00D+00  1.04D+00  9.33D-01  9.50D-01
                    CP:  9.27D-01  1.31D+00  1.24D+00  1.73D+00  1.55D+00
                    CP:  1.81D+00  1.48D+00
 E= -604.528127578884     Delta-E=       -0.000000004050 Rises=F Damp=F
 DIIS: error= 1.24D-06 at cycle  13 NSaved=  13.
 NSaved=13 IEnMin=13 EnMin= -604.528127578884     IErMin=13 ErrMin= 1.24D-06
 ErrMax= 1.24D-06  0.00D+00 EMaxC= 1.00D-01 BMatC= 9.90D-10 BMatP= 3.28D-09
 IDIUse=1 WtCom= 1.00D+00 WtEn= 0.00D+00
 Coeff-Com:  0.187D-03-0.245D-03-0.107D-03-0.351D-03-0.181D-03 0.864D-03
 Coeff-Com:  0.937D-02 0.296D-01 0.686D-02-0.813D-01-0.304D+00 0.318D+00
 Coeff-Com:  0.102D+01
 Coeff:      0.187D-03-0.245D-03-0.107D-03-0.351D-03-0.181D-03 0.864D-03
 Coeff:      0.937D-02 0.296D-01 0.686D-02-0.813D-01-0.304D+00 0.318D+00
 Coeff:      0.102D+01
 Gap=     0.097 Goal=   None    Shift=    0.000
 Gap=     0.177 Goal=   None    Shift=    0.000
 RMSDP=4.82D-07 MaxDP=1.51D-05 DE=-4.05D-09 OVMax= 4.28D-05

 Cycle  14  Pass 1  IDiag  1:
 RMSU=  1.33D-07    CP:  9.74D-01  3.00D+00  1.04D+00  9.33D-01  9.49D-01
                    CP:  9.25D-01  1.30D+00  1.23D+00  1.73D+00  1.59D+00
                    CP:  2.06D+00  2.00D+00  1.24D+00
 E= -604.528127580612     Delta-E=       -0.000000001728 Rises=F Damp=F
 DIIS: error= 6.61D-07 at cycle  14 NSaved=  14.
 NSaved=14 IEnMin=14 EnMin= -604.528127580612     IErMin=14 ErrMin= 6.61D-07
 ErrMax= 6.61D-07  0.00D+00 EMaxC= 1.00D-01 BMatC= 2.18D-10 BMatP= 9.90D-10
 IDIUse=1 WtCom= 1.00D+00 WtEn= 0.00D+00
 Coeff-Com: -0.216D-03 0.288D-03-0.246D-04-0.605D-03-0.133D-02-0.186D-02
 Coeff-Com:  0.175D-02 0.155D-01 0.274D-01-0.643D-02-0.215D+00-0.755D-02
 Coeff-Com:  0.423D+00 0.766D+00
 Coeff:     -0.216D-03 0.288D-03-0.246D-04-0.605D-03-0.133D-02-0.186D-02
 Coeff:      0.175D-02 0.155D-01 0.274D-01-0.643D-02-0.215D+00-0.755D-02
 Coeff:      0.423D+00 0.766D+00
 Gap=     0.097 Goal=   None    Shift=    0.000
 Gap=     0.177 Goal=   None    Shift=    0.000
 RMSDP=1.64D-07 MaxDP=4.66D-06 DE=-1.73D-09 OVMax= 1.63D-05

 Cycle  15  Pass 1  IDiag  1:
 RMSU=  7.75D-08    CP:  9.74D-01  3.00D+00  1.04D+00  9.33D-01  9.49D-01
                    CP:  9.25D-01  1.30D+00  1.23D+00  1.73D+00  1.60D+00
                    CP:  2.13D+00  2.16D+00  1.44D+00  1.10D+00
 E= -604.528127580832     Delta-E=       -0.000000000220 Rises=F Damp=F
 DIIS: error= 3.58D-07 at cycle  15 NSaved=  15.
 NSaved=15 IEnMin=15 EnMin= -604.528127580832     IErMin=15 ErrMin= 3.58D-07
 ErrMax= 3.58D-07  0.00D+00 EMaxC= 1.00D-01 BMatC= 8.58D-11 BMatP= 2.18D-10
 IDIUse=1 WtCom= 1.00D+00 WtEn= 0.00D+00
 Coeff-Com: -0.163D-03 0.217D-03 0.112D-04-0.248D-03-0.706D-03-0.125D-02
 Coeff-Com: -0.127D-02 0.122D-02 0.133D-01 0.159D-01-0.460D-01-0.738D-01
 Coeff-Com: -0.158D-01 0.430D+00 0.679D+00
 Coeff:     -0.163D-03 0.217D-03 0.112D-04-0.248D-03-0.706D-03-0.125D-02
 Coeff:     -0.127D-02 0.122D-02 0.133D-01 0.159D-01-0.460D-01-0.738D-01
 Coeff:     -0.158D-01 0.430D+00 0.679D+00
 Gap=     0.097 Goal=   None    Shift=    0.000
 Gap=     0.177 Goal=   None    Shift=    0.000
 RMSDP=6.71D-08 MaxDP=1.55D-06 DE=-2.20D-10 OVMax= 6.67D-06

 Cycle  16  Pass 1  IDiag  1:
 RMSU=  3.18D-08    CP:  9.74D-01  3.00D+00  1.04D+00  9.33D-01  9.49D-01
                    CP:  9.25D-01  1.30D+00  1.23D+00  1.73D+00  1.60D+00
                    CP:  2.14D+00  2.22D+00  1.50D+00  1.38D+00  8.75D-01
 E= -604.528127580907     Delta-E=       -0.000000000075 Rises=F Damp=F
 DIIS: error= 2.26D-07 at cycle  16 NSaved=  16.
 NSaved=16 IEnMin=16 EnMin= -604.528127580907     IErMin=16 ErrMin= 2.26D-07
 ErrMax= 2.26D-07  0.00D+00 EMaxC= 1.00D-01 BMatC= 2.03D-11 BMatP= 8.58D-11
 IDIUse=1 WtCom= 1.00D+00 WtEn= 0.00D+00
 Coeff-Com: -0.164D-05 0.171D-05 0.108D-04 0.852D-04 0.117D-03 0.349D-04
 Coeff-Com: -0.107D-02-0.459D-02-0.265D-02 0.976D-02 0.489D-01-0.319D-01
 Coeff-Com: -0.151D+00-0.442D-01 0.321D+00 0.856D+00
 Coeff:     -0.164D-05 0.171D-05 0.108D-04 0.852D-04 0.117D-03 0.349D-04
 Coeff:     -0.107D-02-0.459D-02-0.265D-02 0.976D-02 0.489D-01-0.319D-01
 Coeff:     -0.151D+00-0.442D-01 0.321D+00 0.856D+00
 Gap=     0.097 Goal=   None    Shift=    0.000
 Gap=     0.177 Goal=   None    Shift=    0.000
 RMSDP=3.61D-08 MaxDP=1.36D-06 DE=-7.50D-11 OVMax= 4.16D-06

 Cycle  17  Pass 1  IDiag  1:
 RMSU=  1.79D-08    CP:  9.74D-01  3.00D+00  1.04D+00  9.33D-01  9.49D-01
                    CP:  9.25D-01  1.30D+00  1.23D+00  1.73D+00  1.60D+00
                    CP:  2.15D+00  2.24D+00  1.53D+00  1.49D+00  1.13D+00
                    CP:  1.01D+00
 E= -604.528127580893     Delta-E=        0.000000000015 Rises=F Damp=F
 DIIS: error= 1.19D-07 at cycle  17 NSaved=  17.
 NSaved=17 IEnMin=16 EnMin= -604.528127580907     IErMin=17 ErrMin= 1.19D-07
 ErrMax= 1.19D-07  0.00D+00 EMaxC= 1.00D-01 BMatC= 5.42D-12 BMatP= 2.03D-11
 IDIUse=1 WtCom= 1.00D+00 WtEn= 0.00D+00
 Coeff-Com:  0.500D-04-0.667D-04 0.142D-05 0.115D-03 0.285D-03 0.428D-03
 Coeff-Com:  0.224D-04-0.217D-02-0.535D-02-0.161D-02 0.329D-01 0.128D-01
 Coeff-Com: -0.513D-01-0.160D+00-0.880D-01 0.372D+00 0.890D+00
 Coeff:      0.500D-04-0.667D-04 0.142D-05 0.115D-03 0.285D-03 0.428D-03
 Coeff:      0.224D-04-0.217D-02-0.535D-02-0.161D-02 0.329D-01 0.128D-01
 Coeff:     -0.513D-01-0.160D+00-0.880D-01 0.372D+00 0.890D+00
 Gap=     0.097 Goal=   None    Shift=    0.000
 Gap=     0.177 Goal=   None    Shift=    0.000
 RMSDP=1.79D-08 MaxDP=9.08D-07 DE= 1.46D-11 OVMax= 1.80D-06

 Cycle  18  Pass 1  IDiag  1:
 RMSU=  8.58D-09    CP:  9.74D-01  3.00D+00  1.04D+00  9.33D-01  9.49D-01
                    CP:  9.25D-01  1.30D+00  1.23D+00  1.73D+00  1.61D+00
                    CP:  2.16D+00  2.25D+00  1.54D+00  1.55D+00  1.19D+00
                    CP:  1.29D+00  1.25D+00
 E= -604.528127580936     Delta-E=       -0.000000000043 Rises=F Damp=F
 DIIS: error= 4.80D-08 at cycle  18 NSaved=  18.
 NSaved=18 IEnMin=18 EnMin= -604.528127580936     IErMin=18 ErrMin= 4.80D-08
 ErrMax= 4.80D-08  0.00D+00 EMaxC= 1.00D-01 BMatC= 1.04D-12 BMatP= 5.42D-12
 IDIUse=1 WtCom= 1.00D+00 WtEn= 0.00D+00
 Coeff-Com:  0.173D-04-0.230D-04-0.285D-05 0.142D-04 0.633D-04 0.133D-03
 Coeff-Com:  0.258D-03 0.473D-03-0.113D-02-0.293D-02-0.230D-02 0.124D-01
 Coeff-Com:  0.235D-01-0.397D-01-0.105D+00-0.889D-01 0.253D+00 0.950D+00
 Coeff:      0.173D-04-0.230D-04-0.285D-05 0.142D-04 0.633D-04 0.133D-03
 Coeff:      0.258D-03 0.473D-03-0.113D-02-0.293D-02-0.230D-02 0.124D-01
 Coeff:      0.235D-01-0.397D-01-0.105D+00-0.889D-01 0.253D+00 0.950D+00
 Gap=     0.097 Goal=   None    Shift=    0.000
 Gap=     0.177 Goal=   None    Shift=    0.000
 RMSDP=9.04D-09 MaxDP=4.51D-07 DE=-4.32D-11 OVMax= 7.21D-07

 SCF Done:  E(UPBE1PBE) =  -604.528127581     A.U. after   18 cycles
            NFock= 18  Conv=0.90D-08     -V/T= 2.1866
 <Sx>= 0.0000 <Sy>= 0.0000 <Sz>= 0.5000 <S**2>= 0.7523 S= 0.5012
 <L.S>= 0.000000000000E+00
 KE= 5.094451475935D+02 PE=-2.957079016906D+03 EE= 1.052886759695D+03
 Annihilation of the first spin contaminant:
 S**2 before annihilation     0.7523,   after     0.7500
 Leave Link  502 at Fri Sep 11 21:26:51 2026, MaxMem=  6442450944 cpu:             210.0 elap:             209.6
 (Enter C:\G16W\l508.exe)
 QCSCF skips out because SCF is already converged.
 Leave Link  508 at Fri Sep 11 21:26:51 2026, MaxMem=  6442450944 cpu:               0.0 elap:               0.1
 (Enter C:\G16W\l601.exe)
 Copying SCF densities to generalized density rwf, IOpCl= 1 IROHF=0.

 **********************************************************************

            Population analysis using the SCF Density.

 **********************************************************************

 Alpha  occ. eigenvalues --  -14.45004 -14.38259 -10.31836 -10.29090 -10.29083
 Alpha  occ. eigenvalues --  -10.28563 -10.28084 -10.27977 -10.26957 -10.26842
 Alpha  occ. eigenvalues --  -10.26688  -3.74410  -2.32417  -2.32387  -2.32297
 Alpha  occ. eigenvalues --   -1.01212  -0.93302  -0.90956  -0.81920  -0.81303
 Alpha  occ. eigenvalues --   -0.77162  -0.73017  -0.66127  -0.64414  -0.60366
 Alpha  occ. eigenvalues --   -0.56050  -0.54289  -0.51683  -0.49734  -0.48049
 Alpha  occ. eigenvalues --   -0.47774  -0.45357  -0.45120  -0.44843  -0.43439
 Alpha  occ. eigenvalues --   -0.42233  -0.39125  -0.39089  -0.36796  -0.35311
 Alpha  occ. eigenvalues --   -0.34783  -0.34117  -0.31949  -0.31889  -0.31561
 Alpha  occ. eigenvalues --   -0.30165  -0.27852  -0.23449  -0.14413
 Alpha virt. eigenvalues --   -0.04741  -0.03926   0.01413   0.01631   0.04157
 Alpha virt. eigenvalues --    0.04765   0.06367   0.06930   0.08412   0.08670
 Alpha virt. eigenvalues --    0.09136   0.11013   0.11333   0.13000   0.13416
 Alpha virt. eigenvalues --    0.14014   0.14636   0.16853   0.17259   0.19175
 Alpha virt. eigenvalues --    0.19472   0.21748   0.26244   0.26980   0.27624
 Alpha virt. eigenvalues --    0.27879   0.29795   0.31570   0.31872   0.33949
 Alpha virt. eigenvalues --    0.37650   0.39578   0.39878   0.41070   0.41532
 Alpha virt. eigenvalues --    0.41987   0.43375   0.43736   0.46368   0.48579
 Alpha virt. eigenvalues --    0.48799   0.51318   0.51641   0.54413   0.54647
 Alpha virt. eigenvalues --    0.57527   0.57680   0.61101   0.61469   0.62487
 Alpha virt. eigenvalues --    0.62606   0.62930   0.64258   0.64882   0.65786
 Alpha virt. eigenvalues --    0.66013   0.67000   0.67066   0.67331   0.67651
 Alpha virt. eigenvalues --    0.69392   0.69947   0.69986   0.70328   0.71786
 Alpha virt. eigenvalues --    0.72276   0.74264   0.74629   0.75846   0.76705
 Alpha virt. eigenvalues --    0.78357   0.81042   0.82748   0.84354   0.88324
 Alpha virt. eigenvalues --    0.89247   0.92010   0.94186   0.94626   0.99829
 Alpha virt. eigenvalues --    1.03458   1.03888   1.07624   1.07964   1.09778
 Alpha virt. eigenvalues --    1.11050   1.17435   1.19133   1.20640   1.23987
 Alpha virt. eigenvalues --    1.26860   1.28619   1.29197   1.32043   1.32408
 Alpha virt. eigenvalues --    1.34605   1.36168   1.37772   1.48280   1.49450
 Alpha virt. eigenvalues --    1.50736   1.50938   1.51359   1.52051   1.59876
 Alpha virt. eigenvalues --    1.62809   1.66516   1.67006   1.68893   1.71930
 Alpha virt. eigenvalues --    1.72886   1.73283   1.76380   1.77360   1.77882
 Alpha virt. eigenvalues --    1.80271   1.80850   1.81182   1.81597   1.81944
 Alpha virt. eigenvalues --    1.85481   1.89609   1.89957   1.92313   1.93256
 Alpha virt. eigenvalues --    1.94361   1.94932   1.97144   1.97799   2.01064
 Alpha virt. eigenvalues --    2.07432   2.08422   2.10901   2.15643   2.16758
 Alpha virt. eigenvalues --    2.17943   2.18742   2.20689   2.21830   2.23902
 Alpha virt. eigenvalues --    2.26059   2.26090   2.29991   2.31234   2.32603
 Alpha virt. eigenvalues --    2.33941   2.36563   2.36895   2.37711   2.43827
 Alpha virt. eigenvalues --    2.44072   2.45461   2.57751   2.58813   2.60733
 Alpha virt. eigenvalues --    2.61213   2.62279   2.63261   2.63853   2.64242
 Alpha virt. eigenvalues --    2.64862   2.66783   2.68740   2.70159   2.70656
 Alpha virt. eigenvalues --    2.73319   2.75767   2.77001   2.80272   2.86650
 Alpha virt. eigenvalues --    2.88729   2.89310   2.91720   2.92092   2.93131
 Alpha virt. eigenvalues --    2.97198   3.02936   3.03606   3.05791   3.16318
 Alpha virt. eigenvalues --    3.20570   3.26710   3.43214   3.49703   3.72070
 Alpha virt. eigenvalues --   53.89947
  Beta  occ. eigenvalues --  -14.45004 -14.38262 -10.31814 -10.29088 -10.29082
  Beta  occ. eigenvalues --  -10.28551 -10.28065 -10.27964 -10.26927 -10.26819
  Beta  occ. eigenvalues --  -10.26686  -3.74297  -2.32364  -2.32341  -2.32285
  Beta  occ. eigenvalues --   -1.01192  -0.93270  -0.90919  -0.81870  -0.81241
  Beta  occ. eigenvalues --   -0.77151  -0.72997  -0.66083  -0.64383  -0.60334
  Beta  occ. eigenvalues --   -0.56033  -0.54266  -0.51629  -0.49710  -0.48028
  Beta  occ. eigenvalues --   -0.47744  -0.45186  -0.45009  -0.44836  -0.43416
  Beta  occ. eigenvalues --   -0.42225  -0.39098  -0.38973  -0.36799  -0.34982
  Beta  occ. eigenvalues --   -0.34769  -0.33902  -0.31427  -0.31352  -0.30904
  Beta  occ. eigenvalues --   -0.29779  -0.27418  -0.23268
  Beta virt. eigenvalues --   -0.05556  -0.04640  -0.03826   0.03162   0.03743
  Beta virt. eigenvalues --    0.04740   0.04773   0.06893   0.08306   0.09037
  Beta virt. eigenvalues --    0.09143   0.09634   0.11105   0.11972   0.13195
  Beta virt. eigenvalues --    0.13550   0.14057   0.14709   0.17038   0.17281
  Beta virt. eigenvalues --    0.19490   0.20237   0.21812   0.26335   0.27203
  Beta virt. eigenvalues --    0.28332   0.28556   0.30604   0.31636   0.33522
  Beta virt. eigenvalues --    0.35305   0.38001   0.40201   0.40920   0.41413
  Beta virt. eigenvalues --    0.42284   0.42323   0.44027   0.44712   0.46468
  Beta virt. eigenvalues --    0.49049   0.49185   0.51451   0.52110   0.55065
  Beta virt. eigenvalues --    0.55368   0.57953   0.58437   0.61297   0.61855
  Beta virt. eigenvalues --    0.62525   0.62672   0.63668   0.64519   0.65028
  Beta virt. eigenvalues --    0.65839   0.66262   0.67098   0.67291   0.67498
  Beta virt. eigenvalues --    0.68255   0.69564   0.69987   0.70100   0.70563
  Beta virt. eigenvalues --    0.72334   0.72583   0.74333   0.74992   0.76334
  Beta virt. eigenvalues --    0.77553   0.78837   0.81194   0.82916   0.84630
  Beta virt. eigenvalues --    0.88403   0.89355   0.92067   0.94215   0.94680
  Beta virt. eigenvalues --    1.00038   1.03475   1.04081   1.07654   1.08181
  Beta virt. eigenvalues --    1.09788   1.11111   1.17475   1.19220   1.20697
  Beta virt. eigenvalues --    1.24088   1.26917   1.28687   1.29311   1.32135
  Beta virt. eigenvalues --    1.32457   1.34813   1.36378   1.37960   1.48356
  Beta virt. eigenvalues --    1.49519   1.50795   1.50991   1.51365   1.52077
  Beta virt. eigenvalues --    1.59895   1.62827   1.66549   1.67021   1.68913
  Beta virt. eigenvalues --    1.71939   1.72904   1.73311   1.76414   1.77432
  Beta virt. eigenvalues --    1.77914   1.80367   1.80876   1.81280   1.81603
  Beta virt. eigenvalues --    1.81949   1.85513   1.89622   1.89982   1.92351
  Beta virt. eigenvalues --    1.93284   1.94407   1.94947   1.97172   1.97854
  Beta virt. eigenvalues --    2.01081   2.07468   2.08437   2.10942   2.15650
  Beta virt. eigenvalues --    2.16844   2.18035   2.18857   2.21187   2.21892
  Beta virt. eigenvalues --    2.24414   2.26088   2.26113   2.29993   2.31273
  Beta virt. eigenvalues --    2.32687   2.33976   2.36581   2.36928   2.37724
  Beta virt. eigenvalues --    2.43852   2.44117   2.45466   2.57769   2.58851
  Beta virt. eigenvalues --    2.60767   2.61258   2.62294   2.63248   2.63929
  Beta virt. eigenvalues --    2.64253   2.64882   2.66852   2.68814   2.70183
  Beta virt. eigenvalues --    2.70666   2.73358   2.75782   2.77024   2.80289
  Beta virt. eigenvalues --    2.86661   2.88771   2.89340   2.91726   2.92100
  Beta virt. eigenvalues --    2.93156   2.97206   3.02952   3.03619   3.05793
  Beta virt. eigenvalues --    3.16341   3.20585   3.26720   3.43230   3.49715
  Beta virt. eigenvalues --    3.72090  53.90097
          Condensed to atoms (all electrons):
               1          2          3          4          5          6
     1  N    6.139882   0.911877  -0.069050  -0.001508   0.000040   0.000040
     2  C    0.911877   5.129703   0.239718  -0.085259   0.015936   0.004173
     3  C   -0.069050   0.239718   5.731315   0.197579   0.110298  -0.192261
     4  C   -0.001508  -0.085259   0.197579   5.088010   0.234922   0.140209
     5  C    0.000040   0.015936   0.110298   0.234922   5.309134   0.138078
     6  C    0.000040   0.004173  -0.192261   0.140209   0.138078   5.335404
     7  N    0.000000   0.000057  -0.000425   0.008601  -0.097635   0.407072
     8  C    0.000000   0.000001   0.000061  -0.000190   0.008089  -0.063615
     9  C    0.000000   0.000001   0.000062   0.001320   0.004810  -0.063655
    10  C    0.000049   0.016397   0.114178  -0.151877   0.081561   0.124719
    11  C   -0.001604  -0.087398   0.186362   0.099361  -0.151845   0.144153
    12  H   -0.000481  -0.025337  -0.061468   0.470137  -0.068207   0.016264
    13  H   -0.000002  -0.000421   0.017728  -0.071119   0.476587  -0.083326
    14  H    0.000000   0.000000   0.000006   0.000009  -0.000166   0.008200
    15  H    0.000000   0.000001  -0.000099  -0.000010  -0.000180  -0.013133
    16  H    0.000000  -0.000001  -0.000083   0.000049  -0.000437  -0.012122
    17  H    0.000000   0.000001  -0.000100   0.000739   0.006090  -0.012917
    18  H    0.000000   0.000000   0.000006  -0.000087   0.000567   0.008208
    19  H    0.000000  -0.000001  -0.000081   0.001381   0.004849  -0.012332
    20  H   -0.000002  -0.000402   0.017901  -0.002614   0.015518  -0.083975
    21  H   -0.000480  -0.025230  -0.062303   0.014565  -0.002475   0.016452
    22  Ag  -0.004438  -0.043018   0.006097  -0.006808  -0.015539  -0.014773
               7          8          9         10         11         12
     1  N    0.000000   0.000000   0.000000   0.000049  -0.001604  -0.000481
     2  C    0.000057   0.000001   0.000001   0.016397  -0.087398  -0.025337
     3  C   -0.000425   0.000061   0.000062   0.114178   0.186362  -0.061468
     4  C    0.008601  -0.000190   0.001320  -0.151877   0.099361   0.470137
     5  C   -0.097635   0.008089   0.004810   0.081561  -0.151845  -0.068207
     6  C    0.407072  -0.063615  -0.063655   0.124719   0.144153   0.016264
     7  N    6.663683   0.351174   0.351140  -0.099058   0.008738  -0.000081
     8  C    0.351174   4.470159  -0.048394   0.004901   0.001346   0.000008
     9  C    0.351140  -0.048394   4.469669   0.008169  -0.000186  -0.000048
    10  C   -0.099058   0.004901   0.008169   5.348655   0.209783  -0.002421
    11  C    0.008738   0.001346  -0.000186   0.209783   5.124472   0.014592
    12  H   -0.000081   0.000008  -0.000048  -0.002421   0.014592   0.635169
    13  H   -0.016649   0.000050   0.012301   0.015565  -0.002558  -0.013288
    14  H   -0.019636   0.398818  -0.012735   0.000573  -0.000090   0.000000
    15  H   -0.029194   0.402080   0.003437   0.006353   0.000702   0.000000
    16  H   -0.028765   0.398322   0.003377   0.004543   0.001423   0.000000
    17  H   -0.029180   0.003442   0.402175  -0.000153  -0.000015   0.000006
    18  H   -0.019648  -0.012736   0.398846  -0.000173   0.000009   0.000000
    19  H   -0.028708   0.003380   0.398439  -0.000470   0.000052   0.000016
    20  H   -0.016590   0.012356   0.000053   0.479383  -0.072788   0.000027
    21  H   -0.000078  -0.000049   0.000008  -0.070121   0.473091  -0.000146
    22  Ag  -0.005831  -0.003838  -0.003567  -0.013778  -0.004279  -0.000509
              13         14         15         16         17         18
     1  N   -0.000002   0.000000   0.000000   0.000000   0.000000   0.000000
     2  C   -0.000421   0.000000   0.000001  -0.000001   0.000001   0.000000
     3  C    0.017728   0.000006  -0.000099  -0.000083  -0.000100   0.000006
     4  C   -0.071119   0.000009  -0.000010   0.000049   0.000739  -0.000087
     5  C    0.476587  -0.000166  -0.000180  -0.000437   0.006090   0.000567
     6  C   -0.083326   0.008200  -0.013133  -0.012122  -0.012917   0.008208
     7  N   -0.016649  -0.019636  -0.029194  -0.028765  -0.029180  -0.019648
     8  C    0.000050   0.398818   0.402080   0.398322   0.003442  -0.012736
     9  C    0.012301  -0.012735   0.003437   0.003377   0.402175   0.398846
    10  C    0.015565   0.000573   0.006353   0.004543  -0.000153  -0.000173
    11  C   -0.002558  -0.000090   0.000702   0.001423  -0.000015   0.000009
    12  H   -0.013288   0.000000   0.000000   0.000000   0.000006   0.000000
    13  H    0.654815  -0.000001  -0.000019  -0.000033  -0.001489   0.000077
    14  H   -0.000001   0.604457  -0.018753  -0.020590   0.000422   0.004943
    15  H   -0.000019  -0.018753   0.619298  -0.040199   0.001208   0.000424
    16  H   -0.000033  -0.020590  -0.040199   0.638094  -0.000873   0.000343
    17  H   -0.001489   0.000422   0.001208  -0.000873   0.619750  -0.018822
    18  H    0.000077   0.004943   0.000424   0.000343  -0.018822   0.604572
    19  H   -0.001710   0.000340  -0.000874   0.001326  -0.040241  -0.020592
    20  H   -0.000108   0.000075  -0.001599  -0.001601  -0.000020   0.000000
    21  H    0.000027   0.000000   0.000005   0.000018   0.000000   0.000000
    22  Ag  -0.004506  -0.000381   0.002537   0.001153   0.002209  -0.000374
              19         20         21         22
     1  N    0.000000  -0.000002  -0.000480  -0.004438
     2  C   -0.000001  -0.000402  -0.025230  -0.043018
     3  C   -0.000081   0.017901  -0.062303   0.006097
     4  C    0.001381  -0.002614   0.014565  -0.006808
     5  C    0.004849   0.015518  -0.002475  -0.015539
     6  C   -0.012332  -0.083975   0.016452  -0.014773
     7  N   -0.028708  -0.016590  -0.000078  -0.005831
     8  C    0.003380   0.012356  -0.000049  -0.003838
     9  C    0.398439   0.000053   0.000008  -0.003567
    10  C   -0.000470   0.479383  -0.070121  -0.013778
    11  C    0.000052  -0.072788   0.473091  -0.004279
    12  H    0.000016   0.000027  -0.000146  -0.000509
    13  H   -0.001710  -0.000108   0.000027  -0.004506
    14  H    0.000340   0.000075   0.000000  -0.000381
    15  H   -0.000874  -0.001599   0.000005   0.002537
    16  H    0.001326  -0.001601   0.000018   0.001153
    17  H   -0.040241  -0.000020   0.000000   0.002209
    18  H   -0.020592   0.000000   0.000000  -0.000374
    19  H    0.637945  -0.000031   0.000000   0.001127
    20  H   -0.000031   0.653253  -0.013247  -0.005231
    21  H    0.000000  -0.013247   0.633544  -0.000862
    22  Ag   0.001127  -0.005231  -0.000862  19.253861
          Atomic-Atomic Spin Densities.
               1          2          3          4          5          6
     1  N    0.018255  -0.003920  -0.012553   0.000261  -0.000001   0.000010
     2  C   -0.003920   0.055650  -0.033978   0.004357   0.000398   0.001081
     3  C   -0.012553  -0.033978   0.044449   0.001328   0.004302   0.000594
     4  C    0.000261   0.004357   0.001328   0.007023   0.004436   0.003742
     5  C   -0.000001   0.000398   0.004302   0.004436   0.016114   0.006018
     6  C    0.000010   0.001081   0.000594   0.003742   0.006018   0.018691
     7  N    0.000000   0.000009   0.000139  -0.000004   0.000283  -0.002180
     8  C    0.000000   0.000002   0.000028  -0.000005   0.000102  -0.000802
     9  C    0.000000   0.000002   0.000028   0.000015   0.000682  -0.000801
    10  C    0.000001   0.000542   0.004068  -0.001728   0.004463   0.007915
    11  C    0.000300   0.005044   0.002784   0.003125  -0.001708   0.003588
    12  H    0.000007   0.000228  -0.000237   0.000484  -0.000092   0.000061
    13  H    0.000001   0.000067   0.000158   0.000123   0.001206   0.000147
    14  H    0.000000   0.000000   0.000000   0.000000  -0.000001   0.000026
    15  H    0.000000   0.000000  -0.000002   0.000000  -0.000016  -0.000123
    16  H    0.000000  -0.000002  -0.000017   0.000006  -0.000006   0.000665
    17  H    0.000000   0.000000  -0.000001  -0.000007  -0.000189  -0.000129
    18  H    0.000000   0.000000   0.000000   0.000000  -0.000003   0.000026
    19  H    0.000000  -0.000002  -0.000016   0.000020  -0.000103   0.000659
    20  H    0.000001   0.000069   0.000165  -0.000015   0.000090   0.000153
    21  H    0.000007   0.000241  -0.000251   0.000049  -0.000005   0.000059
    22  Ag  -0.004792  -0.038896  -0.005032  -0.025819  -0.034914  -0.037674
               7          8          9         10         11         12
     1  N    0.000000   0.000000   0.000000   0.000001   0.000300   0.000007
     2  C    0.000009   0.000002   0.000002   0.000542   0.005044   0.000228
     3  C    0.000139   0.000028   0.000028   0.004068   0.002784  -0.000237
     4  C   -0.000004  -0.000005   0.000015  -0.001728   0.003125   0.000484
     5  C    0.000283   0.000102   0.000682   0.004463  -0.001708  -0.000092
     6  C   -0.002180  -0.000802  -0.000801   0.007915   0.003588   0.000061
     7  N    0.004760   0.001215   0.001204   0.000389   0.000003   0.000000
     8  C    0.001215   0.003924   0.000198   0.000754   0.000025   0.000000
     9  C    0.001204   0.000198   0.003660   0.000117  -0.000005   0.000000
    10  C    0.000389   0.000754   0.000117   0.019288   0.007926  -0.000006
    11  C    0.000003   0.000025  -0.000005   0.007926   0.008582   0.000049
    12  H    0.000000   0.000000   0.000000  -0.000006   0.000049   0.000119
    13  H    0.000175   0.000014   0.000339   0.000097  -0.000013   0.000035
    14  H   -0.000026  -0.000068  -0.000014  -0.000004   0.000000   0.000000
    15  H    0.000154   0.000291  -0.000006  -0.000216  -0.000008   0.000000
    16  H   -0.000882  -0.002451  -0.000109  -0.000095   0.000018   0.000000
    17  H    0.000153  -0.000004   0.000299  -0.000018  -0.000001   0.000000
    18  H   -0.000026  -0.000014  -0.000061  -0.000001   0.000000   0.000000
    19  H   -0.000863  -0.000104  -0.002338  -0.000006   0.000006  -0.000001
    20  H    0.000188   0.000365   0.000014   0.001415   0.000165   0.000000
    21  H    0.000000   0.000000   0.000000  -0.000095   0.000587   0.000000
    22  Ag  -0.005005  -0.003989  -0.003744  -0.041877  -0.032017  -0.000677
              13         14         15         16         17         18
     1  N    0.000001   0.000000   0.000000   0.000000   0.000000   0.000000
     2  C    0.000067   0.000000   0.000000  -0.000002   0.000000   0.000000
     3  C    0.000158   0.000000  -0.000002  -0.000017  -0.000001   0.000000
     4  C    0.000123   0.000000   0.000000   0.000006  -0.000007   0.000000
     5  C    0.001206  -0.000001  -0.000016  -0.000006  -0.000189  -0.000003
     6  C    0.000147   0.000026  -0.000123   0.000665  -0.000129   0.000026
     7  N    0.000175  -0.000026   0.000154  -0.000882   0.000153  -0.000026
     8  C    0.000014  -0.000068   0.000291  -0.002451  -0.000004  -0.000014
     9  C    0.000339  -0.000014  -0.000006  -0.000109   0.000299  -0.000061
    10  C    0.000097  -0.000004  -0.000216  -0.000095  -0.000018  -0.000001
    11  C   -0.000013   0.000000  -0.000008   0.000018  -0.000001   0.000000
    12  H    0.000035   0.000000   0.000000   0.000000   0.000000   0.000000
    13  H    0.000193   0.000000  -0.000001  -0.000006  -0.000037  -0.000002
    14  H    0.000000  -0.000040   0.000022   0.000042   0.000002   0.000001
    15  H   -0.000001   0.000022  -0.000909   0.000192  -0.000022   0.000002
    16  H   -0.000006   0.000042   0.000192   0.002521   0.000010   0.000008
    17  H   -0.000037   0.000002  -0.000022   0.000010  -0.000868   0.000021
    18  H   -0.000002   0.000001   0.000002   0.000008   0.000021  -0.000036
    19  H   -0.000222   0.000008   0.000010   0.000084   0.000179   0.000038
    20  H    0.000005  -0.000003  -0.000041  -0.000235  -0.000001   0.000000
    21  H    0.000000   0.000000   0.000000  -0.000001   0.000000   0.000000
    22  Ag  -0.003288   0.000047   0.000584   0.001472   0.000508   0.000044
              19         20         21         22
     1  N    0.000000   0.000001   0.000007  -0.004792
     2  C   -0.000002   0.000069   0.000241  -0.038896
     3  C   -0.000016   0.000165  -0.000251  -0.005032
     4  C    0.000020  -0.000015   0.000049  -0.025819
     5  C   -0.000103   0.000090  -0.000005  -0.034914
     6  C    0.000659   0.000153   0.000059  -0.037674
     7  N   -0.000863   0.000188   0.000000  -0.005005
     8  C   -0.000104   0.000365   0.000000  -0.003989
     9  C   -0.002338   0.000014   0.000000  -0.003744
    10  C   -0.000006   0.001415  -0.000095  -0.041877
    11  C    0.000006   0.000165   0.000587  -0.032017
    12  H   -0.000001   0.000000   0.000000  -0.000677
    13  H   -0.000222   0.000005   0.000000  -0.003288
    14  H    0.000008  -0.000003   0.000000   0.000047
    15  H    0.000010  -0.000041   0.000000   0.000584
    16  H    0.000084  -0.000235  -0.000001   0.001472
    17  H    0.000179  -0.000001   0.000000   0.000508
    18  H    0.000038   0.000000   0.000000   0.000044
    19  H    0.002434  -0.000006   0.000000   0.001380
    20  H   -0.000006   0.000073   0.000042  -0.003690
    21  H    0.000000   0.000042  -0.000007  -0.000763
    22  Ag   0.001380  -0.003690  -0.000763   1.243775
 Mulliken charges and spin densities:
               1          2
     1  N    0.025677  -0.002424
     2  C   -0.050799  -0.009106
     3  C   -0.235440   0.005956
     4  C    0.062592  -0.002610
     5  C   -0.069996   0.001057
     6  C    0.209136   0.001725
     7  N   -0.398984  -0.000316
     8  C    0.074634  -0.000518
     9  C    0.074781  -0.000518
    10  C   -0.076779   0.002928
    11  C    0.056679  -0.001551
    12  H    0.035769  -0.000028
    13  H    0.018080  -0.001010
    14  H    0.054511  -0.000007
    15  H    0.068014  -0.000087
    16  H    0.056056   0.001214
    17  H    0.067769  -0.000104
    18  H    0.054439  -0.000005
    19  H    0.056186   0.001157
    20  H    0.019644  -0.001245
    21  H    0.037282  -0.000137
    22  Ag  -0.139252   1.005631
 Sum of Mulliken charges =   0.00000   1.00000
 Mulliken charges and spin densities with hydrogens summed into heavy atoms:
               1          2
     1  N    0.025677  -0.002424
     2  C   -0.050799  -0.009106
     3  C   -0.235440   0.005956
     4  C    0.098361  -0.002638
     5  C   -0.051916   0.000047
     6  C    0.209136   0.001725
     7  N   -0.398984  -0.000316
     8  C    0.253216   0.000602
     9  C    0.253175   0.000530
    10  C   -0.057134   0.001683
    11  C    0.093961  -0.001688
    22  Ag  -0.139252   1.005631
 Electronic spatial extent (au):  <R**2>=           2787.0615
 Charge=              0.0000 electrons
 Dipole moment (field-independent basis, Debye):
    X=             -7.7921    Y=             -1.8460    Z=              2.1838  Tot=              8.3002
 Quadrupole moment (field-independent basis, Debye-Ang):
   XX=           -108.1241   YY=            -87.8934   ZZ=            -89.2988
   XY=             -1.6038   XZ=              2.6419   YZ=             11.7350
 Traceless Quadrupole moment (field-independent basis, Debye-Ang):
   XX=            -13.0186   YY=              7.2120   ZZ=              5.8066
   XY=             -1.6038   XZ=              2.6419   YZ=             11.7350
 Octapole moment (field-independent basis, Debye-Ang**2):
  XXX=           -442.0824  YYY=           -103.9226  ZZZ=            114.0194  XYY=            -85.0727
  XXY=            -20.1838  XXZ=             28.8003  XZZ=            -85.7988  YZZ=            -42.5882
  YYZ=             44.5674  XYZ=             11.8162
 Hexadecapole moment (field-independent basis, Debye-Ang**3):
 XXXX=          -3820.6222 YYYY=           -677.7650 ZZZZ=           -679.9555 XXXY=              3.6855
 XXXZ=             57.8776 YYYX=            -79.1437 YYYZ=            107.1499 ZZZX=            112.3145
 ZZZY=            107.2027 XXYY=           -576.2221 XXZZ=           -576.5061 YYZZ=           -231.8098
 XXYZ=             60.3992 YYXZ=             42.7654 ZZXY=            -33.6402
 N-N= 7.902189820366D+02 E-N=-2.957079017837D+03  KE= 5.094451475935D+02
                          Isotropic Fermi Contact Couplings
        Atom                 a.u.       MegaHertz       Gauss      10(-4) cm-1
     1  N(14)             -0.00011      -0.03431      -0.01224      -0.01144
     2  C(13)              0.00035       0.39546       0.14111       0.13191
     3  C(13)              0.00938      10.55022       3.76458       3.51917
     4  C(13)              0.00977      10.98429       3.91947       3.66396
     5  C(13)              0.01183      13.29767       4.74494       4.43562
     6  C(13)              0.00851       9.56171       3.41186       3.18944
     7  N(14)              0.00033       0.10716       0.03824       0.03574
     8  C(13)              0.00116       1.30933       0.46720       0.43675
     9  C(13)              0.00108       1.21382       0.43312       0.40489
    10  C(13)              0.01364      15.33503       5.47192       5.11522
    11  C(13)              0.01137      12.77875       4.55977       4.26253
    12  H(1)               0.00007       0.33076       0.11802       0.11033
    13  H(1)               0.00002       0.08445       0.03014       0.02817
    14  H(1)              -0.00001      -0.05377      -0.01919      -0.01794
    15  H(1)               0.00004       0.18228       0.06504       0.06080
    16  H(1)               0.00011       0.48588       0.17338       0.16207
    17  H(1)               0.00004       0.18582       0.06630       0.06198
    18  H(1)              -0.00001      -0.04937      -0.01762      -0.01647
    19  H(1)               0.00011       0.48974       0.17475       0.16336
    20  H(1)               0.00000      -0.01912      -0.00682      -0.00638
    21  H(1)               0.00006       0.25815       0.09211       0.08611
    22  Ag(107             0.00030      -0.05380      -0.01920      -0.01795
 --------------------------------------------------------
       Center         ----  Spin Dipole Couplings  ----
                      3XX-RR        3YY-RR        3ZZ-RR
 --------------------------------------------------------
     1   Atom        0.002433     -0.001121     -0.001312
     2   Atom       -0.000121      0.000019      0.000102
     3   Atom       -0.003729      0.001784      0.001945
     4   Atom       -0.004545      0.006327     -0.001783
     5   Atom       -0.007601      0.008416     -0.000815
     6   Atom       -0.004736      0.001688      0.003048
     7   Atom        0.000689     -0.000528     -0.000161
     8   Atom        0.001175     -0.000756     -0.000419
     9   Atom        0.001179     -0.000505     -0.000673
    10   Atom       -0.009527     -0.001711      0.011238
    11   Atom       -0.006000     -0.002042      0.008042
    12   Atom       -0.001926      0.004092     -0.002167
    13   Atom       -0.001776      0.003920     -0.002144
    14   Atom        0.001184     -0.000845     -0.000339
    15   Atom        0.001525     -0.001709      0.000184
    16   Atom        0.000414     -0.000897      0.000484
    17   Atom        0.001557      0.000080     -0.001637
    18   Atom        0.001184     -0.000397     -0.000787
    19   Atom        0.000423      0.000381     -0.000804
    20   Atom       -0.002055     -0.002211      0.004267
    21   Atom       -0.001869     -0.002356      0.004225
    22   Atom        0.018495     -0.006355     -0.012140
 --------------------------------------------------------
                        XY            XZ            YZ
 --------------------------------------------------------
     1   Atom       -0.001401      0.001346      0.000826
     2   Atom       -0.002211      0.002175     -0.002451
     3   Atom       -0.003164      0.003146     -0.006455
     4   Atom       -0.000926      0.000450     -0.006296
     5   Atom        0.003150     -0.002063     -0.010655
     6   Atom        0.007429     -0.007744     -0.010916
     7   Atom        0.001900     -0.002002     -0.002387
     8   Atom        0.000782     -0.001978     -0.000583
     9   Atom        0.001865     -0.000892     -0.000595
    10   Atom        0.002312     -0.003672     -0.013189
    11   Atom       -0.000516      0.001031     -0.008384
    12   Atom       -0.001986      0.000064     -0.000941
    13   Atom        0.002929     -0.000026     -0.000469
    14   Atom        0.000389     -0.001087     -0.000213
    15   Atom       -0.000075     -0.002855     -0.000087
    16   Atom        0.000240     -0.001446     -0.000401
    17   Atom        0.002744     -0.000142     -0.000210
    18   Atom        0.001023     -0.000484     -0.000248
    19   Atom        0.001392     -0.000355     -0.000481
    20   Atom       -0.000309     -0.003063      0.000025
    21   Atom        0.000147      0.002392     -0.000632
    22   Atom       -0.004325      0.004835      0.023639
 --------------------------------------------------------


 ---------------------------------------------------------------------------------
              Anisotropic Spin Dipole Couplings in Principal Axis System
 ---------------------------------------------------------------------------------

       Atom             a.u.   MegaHertz   Gauss  10(-4) cm-1        Axes

              Baa    -0.0028    -0.107    -0.038    -0.036 -0.3494 -0.6396  0.6847
     1 N(14)  Bbb    -0.0004    -0.015    -0.005    -0.005  0.0296  0.7229  0.6903
              Bcc     0.0032     0.122     0.043     0.041  0.9365 -0.2615  0.2337
 
              Baa    -0.0024    -0.322    -0.115    -0.107  0.1587  0.7706  0.6172
     2 C(13)  Bbb    -0.0022    -0.291    -0.104    -0.097  0.8186  0.2468 -0.5186
              Bcc     0.0046     0.613     0.219     0.204  0.5519 -0.5876  0.5917
 
              Baa    -0.0052    -0.698    -0.249    -0.233  0.9478  0.2645 -0.1782
     3 C(13)  Bbb    -0.0046    -0.616    -0.220    -0.205 -0.0595  0.6956  0.7159
              Bcc     0.0098     1.314     0.469     0.438  0.3134 -0.6679  0.6750
 
              Baa    -0.0052    -0.701    -0.250    -0.234  0.0790  0.4821  0.8726
     4 C(13)  Bbb    -0.0046    -0.619    -0.221    -0.207  0.9943  0.0245 -0.1036
              Bcc     0.0098     1.320     0.471     0.440 -0.0713  0.8758 -0.4774
 
              Baa    -0.0082    -1.101    -0.393    -0.367  0.9875 -0.1370  0.0782
     5 C(13)  Bbb    -0.0078    -1.048    -0.374    -0.350  0.0097  0.5475  0.8367
              Bcc     0.0160     2.149     0.767     0.717  0.1575  0.8255 -0.5420
 
              Baa    -0.0097    -1.307    -0.467    -0.436  0.9032 -0.3503  0.2479
     6 C(13)  Bbb    -0.0086    -1.149    -0.410    -0.383  0.0768  0.7003  0.7097
              Bcc     0.0183     2.456     0.876     0.819 -0.4222 -0.6220  0.6594
 
              Baa    -0.0027    -0.106    -0.038    -0.035 -0.0181  0.7406  0.6717
     7 N(14)  Bbb    -0.0015    -0.057    -0.020    -0.019  0.7870 -0.4038  0.4665
              Bcc     0.0042     0.162     0.058     0.054  0.6167  0.5371 -0.5755
 
              Baa    -0.0018    -0.236    -0.084    -0.079  0.5476  0.0585  0.8347
     8 C(13)  Bbb    -0.0010    -0.137    -0.049    -0.046 -0.2534  0.9623  0.0988
              Bcc     0.0028     0.373     0.133     0.124  0.7975  0.2656 -0.5418
 
              Baa    -0.0017    -0.229    -0.082    -0.077 -0.5376  0.8429  0.0215
     9 C(13)  Bbb    -0.0010    -0.136    -0.048    -0.045  0.2650  0.1447  0.9533
              Bcc     0.0027     0.365     0.130     0.122  0.8005  0.5182 -0.3012
 
              Baa    -0.0102    -1.364    -0.487    -0.455  0.9858 -0.1495  0.0770
    10 C(13)  Bbb    -0.0099    -1.332    -0.475    -0.444  0.0852  0.8389  0.5375
              Bcc     0.0201     2.696     0.962     0.899 -0.1450 -0.5233  0.8397
 
              Baa    -0.0068    -0.911    -0.325    -0.304 -0.0815  0.8652  0.4948
    11 C(13)  Bbb    -0.0061    -0.814    -0.290    -0.271  0.9948  0.1010 -0.0127
              Bcc     0.0129     1.725     0.615     0.575  0.0610 -0.4912  0.8689
 
              Baa    -0.0026    -1.410    -0.503    -0.470  0.8088  0.3084  0.5007
    12 H(1)   Bbb    -0.0022    -1.156    -0.412    -0.386 -0.5163 -0.0351  0.8557
              Bcc     0.0048     2.566     0.916     0.856 -0.2815  0.9506 -0.1308
 
              Baa    -0.0030    -1.623    -0.579    -0.541  0.9027 -0.3918 -0.1781
    13 H(1)   Bbb    -0.0021    -1.143    -0.408    -0.381  0.1875 -0.0145  0.9822
              Bcc     0.0052     2.766     0.987     0.923  0.3874  0.9200 -0.0603
 
              Baa    -0.0009    -0.493    -0.176    -0.164  0.0801  0.8791  0.4699
    14 H(1)   Bbb    -0.0009    -0.480    -0.171    -0.160  0.4777 -0.4476  0.7559
              Bcc     0.0018     0.973     0.347     0.324  0.8748  0.1639 -0.4558
 
              Baa    -0.0021    -1.126    -0.402    -0.376  0.5974  0.2744  0.7536
    15 H(1)   Bbb    -0.0017    -0.894    -0.319    -0.298 -0.1697  0.9616 -0.2155
              Bcc     0.0038     2.021     0.721     0.674  0.7838 -0.0009 -0.6210
 
              Baa    -0.0011    -0.582    -0.208    -0.194  0.4697  0.6506  0.5967
    16 H(1)   Bbb    -0.0009    -0.467    -0.167    -0.156 -0.5559  0.7430 -0.3726
              Bcc     0.0020     1.050     0.375     0.350 -0.6858 -0.1567  0.7107
 
              Baa    -0.0020    -1.088    -0.388    -0.363 -0.5893  0.7827  0.2002
    17 H(1)   Bbb    -0.0016    -0.870    -0.311    -0.290  0.1571 -0.1321  0.9787
              Bcc     0.0037     1.959     0.699     0.653  0.7925  0.6082 -0.0452
 
              Baa    -0.0009    -0.486    -0.173    -0.162 -0.1619  0.6729  0.7218
    18 H(1)   Bbb    -0.0009    -0.475    -0.170    -0.159  0.4502 -0.6005  0.6608
              Bcc     0.0018     0.961     0.343     0.321  0.8781  0.4320 -0.2057
 
              Baa    -0.0011    -0.564    -0.201    -0.188 -0.4822  0.6595  0.5767
    19 H(1)   Bbb    -0.0009    -0.461    -0.165    -0.154  0.5379 -0.2966  0.7891
              Bcc     0.0019     1.025     0.366     0.342  0.6915  0.6907 -0.2118
 
              Baa    -0.0034    -1.794    -0.640    -0.599  0.9024  0.2343  0.3616
    20 H(1)   Bbb    -0.0021    -1.146    -0.409    -0.382 -0.2106  0.9720 -0.1044
              Bcc     0.0055     2.940     1.049     0.981 -0.3759  0.0181  0.9265
 
              Baa    -0.0029    -1.559    -0.556    -0.520  0.7778 -0.5474 -0.3087
    21 H(1)   Bbb    -0.0022    -1.158    -0.413    -0.386  0.5393  0.8336 -0.1193
              Bcc     0.0051     2.717     0.969     0.906  0.3227 -0.0737  0.9436
 
              Baa    -0.0339     0.735     0.262     0.245 -0.1229 -0.6578  0.7431
    22 Ag(107 Bbb     0.0146    -0.316    -0.113    -0.105  0.0071  0.7482  0.6635
              Bcc     0.0193    -0.419    -0.149    -0.140  0.9924 -0.0868  0.0873
 

 ---------------------------------------------------------------------------------

 No NMR shielding tensors so no spin-rotation constants.
 Leave Link  601 at Fri Sep 11 21:26:53 2026, MaxMem=  6442450944 cpu:               2.0 elap:               1.7
 (Enter C:\G16W\l9999.exe)
 Unable to Open any file for archive entry.
 1|1|UNPC-DESKTOP-2JKEGCA|SP|UPBE1PBE|def2SVP|C9H10Ag1N2(2)|JHKIM|11-Se
 p-2026|0||#P PBE1PBE/Def2SVP EmpiricalDispersion=GD3BJ SP SCF=(XQC,Max
 Cycle=128) NoSymm Guess=Read||DMABN t=1.000 dz=+0.00 class=toface||0,2
 |N,0,5.143673,-0.350316,0.21822|C,0,3.998871,-0.272231,0.170326|C,0,2.
 596311,-0.177765,0.111532|C,0,1.861617,-1.009137,-0.736855|C,0,0.49137
 2,-0.916108,-0.795599|C,0,-0.21206,0.013916,-0.008461|N,0,-1.572327,0.
 10784,-0.067705|C,0,-2.276121,1.067277,0.747024|C,0,-2.327988,-0.75130
 9,-0.945467|C,0,0.541516,0.843475,0.842005|C,0,1.911725,0.749715,0.900
 076|H,0,2.379549,-1.731167,-1.351567|H,0,-0.036847,-1.576092,-1.463215
 |H,0,-3.344118,0.990693,0.558268|H,0,-1.962619,2.089882,0.51411|H,0,-2
 .105367,0.883166,1.812531|H,0,-2.039382,-0.601554,-1.990713|H,0,-3.387
 348,-0.525033,-0.852352|H,0,-2.182049,-1.805705,-0.689891|H,0,0.052874
 ,1.572236,1.466859|H,0,2.468717,1.398215,1.560873|Ag,0,1.39404887,1.50
 852002,-1.57236242||Version=EM64W-G16RevC.01|HF=-604.5281276|S2=0.7523
 16|S2-1=0.|S2A=0.750005|RMSD=9.044e-009|Dipole=-3.065649,-0.7262687,0.
 859171|Quadrupole=-9.6790429,5.361975,4.3170679,-1.1923898,1.9641749,8
 .7246672|PG=C01 [X(C9H10Ag1N2)]||@
 The archive entry for this job was punched.


 LIFE CAN ONLY BE UNDERSTOOD BACKWARD, BUT MUST
 BE LIVED FORWARD. -- KIRKEGAARD
 Job cpu time:       0 days  0 hours  3 minutes 46.0 seconds.
 Elapsed time:       0 days  0 hours  3 minutes 44.3 seconds.
 File lengths (MBytes):  RWF=     57 Int=      0 D2E=      0 Chk=      5 Scr=      1
 Normal termination of Gaussian 16 at Fri Sep 11 21:26:54 2026.
