 Entering Gaussian System, Link 0=C:\G16W\g16.exe
 Input=DMABN_t1_z0.gjf
 Output=DMABN_t1_z0.out
 Initial command:
 C:\G16W\l1.exe ".\Gau-148204.inp" "DMABN_t1_z0.out" /scrdir=".\"
 Entering Link 1 = C:\G16W\l1.exe PID=    108572.
  
 Copyright (c) 1988-2019, Gaussian, Inc.  All Rights Reserved.
  
 This is part of the Gaussian(R) 16 program.  It is based on
 the Gaussian(R) 09 system (copyright 2009, Gaussian, Inc.),
 the Gaussian(R) 03 system (copyright 2003, Gaussian, Inc.),
 the Gaussian(R) 98 system (copyright 1998, Gaussian, Inc.),
 the Gaussian(R) 94 system (copyright 1995, Gaussian, Inc.),
 the Gaussian 92(TM) system (copyright 1992, Gaussian, Inc.),
 the Gaussian 90(TM) system (copyright 1990, Gaussian, Inc.),
 the Gaussian 88(TM) system (copyright 1988, Gaussian, Inc.),
 the Gaussian 86(TM) system (copyright 1986, Carnegie Mellon
 University), and the Gaussian 82(TM) system (copyright 1983,
 Carnegie Mellon University). Gaussian is a federally registered
 trademark of Gaussian, Inc.
  
 This software contains proprietary and confidential information,
 including trade secrets, belonging to Gaussian, Inc.
  
 This software is provided under written license and may be
 used, copied, transmitted, or stored only in accord with that
 written license.
  
 The following legend is applicable only to US Government
 contracts under FAR:
  
                    RESTRICTED RIGHTS LEGEND
  
 Use, reproduction and disclosure by the US Government is
 subject to restrictions as set forth in subparagraphs (a)
 and (c) of the Commercial Computer Software - Restricted
 Rights clause in FAR 52.227-19.
  
 Gaussian, Inc.
 340 Quinnipiac St., Bldg. 40, Wallingford CT 06492
  
  
 ---------------------------------------------------------------
 Warning -- This program may not be used in any manner that
 competes with the business of Gaussian, Inc. or will provide
 assistance to any competitor of Gaussian, Inc.  The licensee
 of this program is prohibited from giving any competitor of
 Gaussian, Inc. access to this program.  By using this program,
 the user acknowledges that Gaussian, Inc. is engaged in the
 business of creating and licensing software in the field of
 computational chemistry and represents and warrants to the
 licensee that it is not a competitor of Gaussian, Inc. and that
 it will not use this program in any manner prohibited above.
 ---------------------------------------------------------------
  

 Cite this work as:
 Gaussian 16, Revision C.01,
 M. J. Frisch, G. W. Trucks, H. B. Schlegel, G. E. Scuseria, 
 M. A. Robb, J. R. Cheeseman, G. Scalmani, V. Barone, 
 G. A. Petersson, H. Nakatsuji, X. Li, M. Caricato, A. V. Marenich, 
 J. Bloino, B. G. Janesko, R. Gomperts, B. Mennucci, H. P. Hratchian, 
 J. V. Ortiz, A. F. Izmaylov, J. L. Sonnenberg, D. Williams-Young, 
 F. Ding, F. Lipparini, F. Egidi, J. Goings, B. Peng, A. Petrone, 
 T. Henderson, D. Ranasinghe, V. G. Zakrzewski, J. Gao, N. Rega, 
 G. Zheng, W. Liang, M. Hada, M. Ehara, K. Toyota, R. Fukuda, 
 J. Hasegawa, M. Ishida, T. Nakajima, Y. Honda, O. Kitao, H. Nakai, 
 T. Vreven, K. Throssell, J. A. Montgomery, Jr., J. E. Peralta, 
 F. Ogliaro, M. J. Bearpark, J. J. Heyd, E. N. Brothers, K. N. Kudin, 
 V. N. Staroverov, T. A. Keith, R. Kobayashi, J. Normand, 
 K. Raghavachari, A. P. Rendell, J. C. Burant, S. S. Iyengar, 
 J. Tomasi, M. Cossi, J. M. Millam, M. Klene, C. Adamo, R. Cammi, 
 J. W. Ochterski, R. L. Martin, K. Morokuma, O. Farkas, 
 J. B. Foresman, and D. J. Fox, Gaussian, Inc., Wallingford CT, 2019.
 
 ******************************************
 Gaussian 16:  EM64W-G16RevC.01 30-May-2019
                11-Sep-2026 
 ******************************************
 %Chk=DMABN.chk
 %NProcShared=8
 Will use up to    8 processors via shared memory.
 %Mem=48GB
 ----------------------------------------------------------------------
 #P PBE1PBE/Def2SVP EmpiricalDispersion=GD3BJ SP SCF=(XQC,MaxCycle=128)
  NoSymm Guess=Read
 ----------------------------------------------------------------------
 1/38=1,172=1/1;
 2/12=2,15=1,17=6,18=5,40=1/2;
 3/5=43,7=101,11=2,25=1,30=1,74=-13,116=-2,124=41/1,2,3;
 4/5=1/1;
 5/5=2,7=128,8=3,13=1,38=6/2,8;
 6/7=2,8=2,9=2,10=2,28=1/1;
 99/5=1,9=1/99;
 Leave Link    1 at Fri Sep 11 21:04:14 2026, MaxMem=  6442450944 cpu:               0.0 elap:               0.2
 (Enter C:\G16W\l101.exe)
 -----------------------------------
 DMABN t=0.250 dz=+0.00 class=toface
 -----------------------------------
 Symbolic Z-matrix:
 Charge =  0 Multiplicity = 2
 N                     5.14367  -0.35032   0.21822 
 C                     3.99887  -0.27223   0.17033 
 C                     2.59631  -0.17777   0.11153 
 C                     1.86162  -1.00914  -0.73686 
 C                     0.49137  -0.91611  -0.7956 
 C                    -0.21206   0.01392  -0.00846 
 N                    -1.57233   0.10784  -0.06771 
 C                    -2.27612   1.06728   0.74702 
 C                    -2.32799  -0.75131  -0.94547 
 C                     0.54152   0.84348   0.84201 
 C                     1.91173   0.74972   0.90008 
 H                     2.37955  -1.73117  -1.35157 
 H                    -0.03685  -1.57609  -1.46322 
 H                    -3.34412   0.99069   0.55827 
 H                    -1.96262   2.08988   0.51411 
 H                    -2.10537   0.88317   1.81253 
 H                    -2.03938  -0.60155  -1.99071 
 H                    -3.38735  -0.52503  -0.85235 
 H                    -2.18205  -1.80571  -0.68989 
 H                     0.05287   1.57224   1.46686 
 H                     2.46872   1.39822   1.56087 
 Ag                    7.20409   0.1889   -0.38783 
 
 ITRead=  0  0  0  0  0  0  0  0  0  0  0  0  0  0  0  0  0  0  0  0
 ITRead=  0  0
 MicOpt= -1 -1 -1 -1 -1 -1 -1 -1 -1 -1 -1 -1 -1 -1 -1 -1 -1 -1 -1 -1
 MicOpt= -1 -1
 NAtoms=     22 NQM=       22 NQMF=       0 NMMI=      0 NMMIF=      0
                NMic=       0 NMicF=      0.
                    Isotopes and Nuclear Properties:
 (Nuclear quadrupole moments (NQMom) in fm**2, nuclear magnetic moments (NMagM)
  in nuclear magnetons)

  Atom         1           2           3           4           5           6           7           8           9          10
 IAtWgt=          14          12          12          12          12          12          14          12          12          12
 AtmWgt=  14.0030740  12.0000000  12.0000000  12.0000000  12.0000000  12.0000000  14.0030740  12.0000000  12.0000000  12.0000000
 NucSpn=           2           0           0           0           0           0           2           0           0           0
 AtZEff=   0.0000000   0.0000000   0.0000000   0.0000000   0.0000000   0.0000000   0.0000000   0.0000000   0.0000000   0.0000000
 NQMom=    2.0440000   0.0000000   0.0000000   0.0000000   0.0000000   0.0000000   2.0440000   0.0000000   0.0000000   0.0000000
 NMagM=    0.4037610   0.0000000   0.0000000   0.0000000   0.0000000   0.0000000   0.4037610   0.0000000   0.0000000   0.0000000
 AtZNuc=   7.0000000   6.0000000   6.0000000   6.0000000   6.0000000   6.0000000   7.0000000   6.0000000   6.0000000   6.0000000

  Atom        11          12          13          14          15          16          17          18          19          20
 IAtWgt=          12           1           1           1           1           1           1           1           1           1
 AtmWgt=  12.0000000   1.0078250   1.0078250   1.0078250   1.0078250   1.0078250   1.0078250   1.0078250   1.0078250   1.0078250
 NucSpn=           0           1           1           1           1           1           1           1           1           1
 AtZEff=   0.0000000   0.0000000   0.0000000   0.0000000   0.0000000   0.0000000   0.0000000   0.0000000   0.0000000   0.0000000
 NQMom=    0.0000000   0.0000000   0.0000000   0.0000000   0.0000000   0.0000000   0.0000000   0.0000000   0.0000000   0.0000000
 NMagM=    0.0000000   2.7928460   2.7928460   2.7928460   2.7928460   2.7928460   2.7928460   2.7928460   2.7928460   2.7928460
 AtZNuc=   6.0000000   1.0000000   1.0000000   1.0000000   1.0000000   1.0000000   1.0000000   1.0000000   1.0000000   1.0000000

  Atom        21          22
 IAtWgt=           1         107
 AtmWgt=   1.0078250 106.9050900
 NucSpn=           1           1
 AtZEff=   0.0000000   0.0000000
 NQMom=    0.0000000   0.0000000
 NMagM=    2.7928460  -0.1135700
 AtZNuc=   1.0000000  47.0000000
 Leave Link  101 at Fri Sep 11 21:04:14 2026, MaxMem=  6442450944 cpu:               0.0 elap:               0.3
 (Enter C:\G16W\l202.exe)
                          Input orientation:                          
 ---------------------------------------------------------------------
 Center     Atomic      Atomic             Coordinates (Angstroms)
 Number     Number       Type             X           Y           Z
 ---------------------------------------------------------------------
      1          7           0        5.143673   -0.350316    0.218220
      2          6           0        3.998871   -0.272231    0.170326
      3          6           0        2.596311   -0.177765    0.111532
      4          6           0        1.861617   -1.009137   -0.736855
      5          6           0        0.491372   -0.916108   -0.795599
      6          6           0       -0.212060    0.013916   -0.008461
      7          7           0       -1.572327    0.107840   -0.067705
      8          6           0       -2.276121    1.067277    0.747024
      9          6           0       -2.327988   -0.751309   -0.945467
     10          6           0        0.541516    0.843475    0.842005
     11          6           0        1.911725    0.749715    0.900076
     12          1           0        2.379549   -1.731167   -1.351567
     13          1           0       -0.036847   -1.576092   -1.463215
     14          1           0       -3.344118    0.990693    0.558268
     15          1           0       -1.962619    2.089882    0.514110
     16          1           0       -2.105367    0.883166    1.812531
     17          1           0       -2.039382   -0.601554   -1.990713
     18          1           0       -3.387348   -0.525033   -0.852352
     19          1           0       -2.182049   -1.805705   -0.689891
     20          1           0        0.052874    1.572236    1.466859
     21          1           0        2.468717    1.398215    1.560873
     22         47           0        7.204091    0.188895   -0.387826
 ---------------------------------------------------------------------
                    Distance matrix (angstroms):
                    1          2          3          4          5
     1  N    0.000000
     2  C    1.148461   0.000000
     3  C    2.555427   1.406967   0.000000
     4  C    3.481107   2.435952   1.396680   0.000000
     5  C    4.794982   3.694609   2.408071   1.374655   0.000000
     6  C    5.372888   4.224427   2.817461   2.424321   1.406893
     7  N    6.737679   5.589218   4.182253   3.672516   2.416020
     8  C    7.572486   6.442235   5.068981   4.861509   3.737983
     9  C    7.572363   6.442333   5.069016   4.202712   2.828146
    10  C    4.795216   3.694490   2.408050   2.769050   2.404245
    11  C    3.481449   2.435793   1.396667   2.403251   2.769058
    12  H    3.465741   2.658356   2.144925   1.080487   2.130407
    13  H    5.582789   4.544835   3.371745   2.110261   1.077175
    14  H    8.599798   7.460896   6.070714   5.725062   4.492197
    15  H    7.519408   6.421614   5.107655   5.078741   4.095532
    16  H    7.524087   6.426002   5.111237   5.081057   4.096679
    17  H    7.519228   6.421763   5.107708   4.117776   2.816373
    18  H    8.599708   7.460966   6.070737   5.272507   3.898798
    19  H    7.523897   6.426141   5.111281   4.121645   2.819528
    20  H    5.583148   4.544662   3.371719   3.845958   3.391586
    21  H    3.466333   2.658079   2.144897   3.382820   3.849538
    22  Ag   2.214354   3.285971   4.649240   5.486268   6.815270
                    6          7          8          9         10
     6  C    0.000000
     7  N    1.364792   0.000000
     8  C    2.437350   1.442092   0.000000
     9  C    2.437355   1.442091   2.484848   0.000000
    10  C    1.406889   2.416002   2.828107   3.737973   0.000000
    11  C    2.424315   3.672495   4.202657   4.861509   1.374640
    12  H    3.400836   4.543960   5.823284   4.825551   3.849533
    13  H    2.162206   2.672223   4.109368   2.489509   3.391585
    14  H    3.329424   2.076178   1.087250   2.515613   3.898760
    15  H    2.765352   2.102220   1.094648   3.215000   2.816334
    16  H    2.766987   2.102510   1.094696   3.213662   2.819483
    17  H    2.765363   2.102223   3.215003   1.094650   4.095538
    18  H    3.329425   2.076174   2.515607   1.087251   4.492175
    19  H    2.766988   2.102506   3.213658   1.094700   4.096665
    20  H    2.162203   2.672194   2.489450   4.109341   1.077175
    21  H    3.400832   4.543938   4.825490   5.823278   2.130402
    22  Ag   7.427909   8.782629   9.588215   9.594555   6.806678
                   11         12         13         14         15
    11  C    0.000000
    12  H    3.382829   0.000000
    13  H    3.845966   2.423940   0.000000
    14  H    5.272456   6.619392   4.648959   0.000000
    15  H    4.117713   6.077466   4.588875   1.765986   0.000000
    16  H    4.121579   6.079533   4.588816   1.766138   1.778324
    17  H    5.078763   4.605593   2.288695   3.276414   3.677480
    18  H    5.725047   5.912789   3.564230   2.071025   3.276408
    19  H    5.081058   4.609940   2.291865   3.275385   4.083303
    20  H    2.110240   4.926400   4.301785   3.564167   2.288646
    21  H    1.080484   4.275896   4.926405   5.912727   4.605524
    22  Ag   5.475614   5.281254   7.530128  10.620861   9.405095
                   16         17         18         19         20
    16  H    0.000000
    17  H    4.083309   0.000000
    18  H    3.275378   1.765994   0.000000
    19  H    3.673966   1.778334   1.766143   0.000000
    20  H    2.291792   4.588867   4.648914   4.588784   0.000000
    21  H    4.609865   6.077483   6.619368   6.079528   2.423926
    22  Ag   9.591121   9.414662  10.625632   9.600484   7.516209
                   21         22
    21  H    0.000000
    22  Ag   5.261526   0.000000
 Symmetry turned off by external request.
 Stoichiometry    C9H10AgN2(2)
 Framework group  C1[X(C9H10AgN2)]
 Deg. of freedom    60
 Full point group                 C1      NOp   1
 Rotational constants (GHZ):           3.1861657           0.1487483           0.1435595
 Leave Link  202 at Fri Sep 11 21:04:15 2026, MaxMem=  6442450944 cpu:               1.0 elap:               0.1
 (Enter C:\G16W\l301.exe)
 Standard basis: def2SVP (5D, 7F)
 Ernie: Thresh=  0.10000D-02 Tol=  0.10000D-05 Strict=F.
   235 basis functions,   410 primitive gaussians,   251 cartesian basis functions
    49 alpha electrons       48 beta electrons
       nuclear repulsion energy       694.8904788209 Hartrees.
 IExCor= 1009 DFT=T Ex+Corr=PBE1PBE ExCW=0 ScaHFX=  0.250000
 ScaDFX=  0.750000  0.750000  1.000000  1.000000 ScalE2=  1.000000  1.000000
 IRadAn=      5 IRanWt=     -1 IRanGd=            0 ICorTp=0 IEmpDi=141
 NAtoms=   22 NActive=   22 NUniq=   22 SFac= 1.00D+00 NAtFMM=   60 NAOKFM=F Big=F
 Integral buffers will be    131072 words long.
 Raffenetti 2 integral format.
 Two-electron integral symmetry is turned off.
 R6Disp:  Grimme-D3(BJ) Dispersion energy=       -0.0219744939 Hartrees.
 Nuclear repulsion after empirical dispersion term =      694.8685043270 Hartrees.
 Leave Link  301 at Fri Sep 11 21:04:15 2026, MaxMem=  6442450944 cpu:               0.0 elap:               0.2
 (Enter C:\G16W\l302.exe)
 NPDir=0 NMtPBC=     1 NCelOv=     1 NCel=       1 NClECP=     1 NCelD=      1
         NCelK=      1 NCelE2=     1 NClLst=     1 CellRange=     0.0.
 One-electron integrals computed using PRISM.
   1 Symmetry operations used in ECPInt.
 ECPInt:  NShTT=    5778 NPrTT=   20489 LenC2=    5398 LenP2D=   14551.
 LDataN:  DoStor=T MaxTD1= 7 Len=  274
 NBasis=   235 RedAO= T EigKep=  2.44D-04  NBF=   235
 NBsUse=   235 1.00D-06 EigRej= -1.00D+00 NBFU=   235
 Precomputing XC quadrature grid using
 IXCGrd= 4 IRadAn=           5 IRanWt=          -1 IRanGd=           0 AccXCQ= 0.00D+00.
 Defaulting to unpruned grid for atomic number  47.
 Generated NRdTot=       0 NPtTot=           0 NUsed=           0 NTot=          32
 NSgBfM=   250   250   250   250   250 MxSgAt=    22 MxSgA2=    22.
 Leave Link  302 at Fri Sep 11 21:04:18 2026, MaxMem=  6442450944 cpu:               3.0 elap:               3.3
 (Enter C:\G16W\l303.exe)
 DipDrv:  MaxL=1.
 Leave Link  303 at Fri Sep 11 21:04:19 2026, MaxMem=  6442450944 cpu:               1.0 elap:               0.2
 (Enter C:\G16W\l401.exe)
 Initial guess from the checkpoint file:  "DMABN.chk"
 B after Tr=    -0.464171    0.016591   -0.003078
         Rot=    0.998463   -0.001195   -0.039576   -0.038789 Ang=  -6.35 deg.
 Guess basis will be translated and rotated to current coordinates.
 JPrj=2 DoOrth=T DoCkMO=T.
 Initial guess <Sx>= 0.0000 <Sy>= 0.0000 <Sz>= 0.5000 <S**2>= 0.7516 S= 0.5008
 Leave Link  401 at Fri Sep 11 21:04:25 2026, MaxMem=  6442450944 cpu:               6.0 elap:               6.0
 (Enter C:\G16W\l502.exe)
 Two-electron integral symmetry not used.
 UHF open shell SCF:
 Using DIIS extrapolation, IDIIS=  1040.
 NGot=  6442450944 LenX=  6442320325 LenY=  6442256883
 Requested convergence on RMS density matrix=1.00D-08 within 128 cycles.
 Requested convergence on MAX density matrix=1.00D-06.
 Requested convergence on             energy=1.00D-06.
 No special actions if energy rises.
 Fock matrices will be formed incrementally for  20 cycles.

 Cycle   1  Pass 1  IDiag  1:
 FoFJK:  IHMeth= 1 ICntrl=       0 DoSepK=F KAlg= 0 I1Cent=           0 FoldK=F
 IRaf= 890000000 NMat=       1 IRICut=       1 DoRegI=T DoRafI=F ISym2E= 0 IDoP0=0 IntGTp=1.
 FoFCou: FMM=F IPFlag=           0 FMFlag=      100000 FMFlg1=           0
         NFxFlg=           0 DoJE=F BraDBF=F KetDBF=F FulRan=T
         wScrn=  0.000000 ICntrl=         0 IOpCl=  1 I1Cent=           0 NGrid=           0
         NMat0=    1 NMatS0=      1 NMatT0=    0 NMatD0=    1 NMtDS0=    0 NMtDT0=    0
 Symmetry not used in FoFCou.
 Defaulting to unpruned grid for atomic number  47.
 Defaulting to unpruned grid for atomic number  47.
 Defaulting to unpruned grid for atomic number  47.
 Defaulting to unpruned grid for atomic number  47.
 Defaulting to unpruned grid for atomic number  47.
 Defaulting to unpruned grid for atomic number  47.
 Defaulting to unpruned grid for atomic number  47.
 Defaulting to unpruned grid for atomic number  47.
 E= -604.485937561158    
 DIIS: error= 1.57D-02 at cycle   1 NSaved=   1.
 NSaved= 1 IEnMin= 1 EnMin= -604.485937561158     IErMin= 1 ErrMin= 1.57D-02
 ErrMax= 1.57D-02  0.00D+00 EMaxC= 1.00D-01 BMatC= 2.69D-01 BMatP= 2.69D-01
 IDIUse=3 WtCom= 8.43D-01 WtEn= 1.57D-01
 Coeff-Com:  0.100D+01
 Coeff-En:   0.100D+01
 Coeff:      0.100D+01
 Gap=     0.228 Goal=   None    Shift=    0.000
 Gap=     0.223 Goal=   None    Shift=    0.000
 GapD=    0.223 DampG=1.000 DampE=0.250 DampFc=0.2500 IDamp=-1.
 Damping current iteration by 2.50D-01
 RMSDP=1.50D-03 MaxDP=8.03D-02              OVMax= 1.36D-01

 Cycle   2  Pass 1  IDiag  1:
 RMSU=  3.73D-04    CP:  9.99D-01
 E= -604.499635286955     Delta-E=       -0.013697725797 Rises=F Damp=T
 DIIS: error= 1.18D-02 at cycle   2 NSaved=   2.
 NSaved= 2 IEnMin= 2 EnMin= -604.499635286955     IErMin= 2 ErrMin= 1.18D-02
 ErrMax= 1.18D-02  0.00D+00 EMaxC= 1.00D-01 BMatC= 1.55D-01 BMatP= 2.69D-01
 IDIUse=3 WtCom= 8.82D-01 WtEn= 1.18D-01
 Coeff-Com: -0.302D+01 0.402D+01
 Coeff-En:   0.000D+00 0.100D+01
 Coeff:     -0.266D+01 0.366D+01
 Gap=     0.078 Goal=   None    Shift=    0.000
 Gap=     0.185 Goal=   None    Shift=    0.000
 RMSDP=1.29D-03 MaxDP=4.30D-02 DE=-1.37D-02 OVMax= 4.00D-02

 Cycle   3  Pass 1  IDiag  1:
 RMSU=  6.20D-04    CP:  9.97D-01  3.00D+00
 E= -604.544793125681     Delta-E=       -0.045157838726 Rises=F Damp=F
 DIIS: error= 4.54D-03 at cycle   3 NSaved=   3.
 NSaved= 3 IEnMin= 3 EnMin= -604.544793125681     IErMin= 3 ErrMin= 4.54D-03
 ErrMax= 4.54D-03  0.00D+00 EMaxC= 1.00D-01 BMatC= 8.15D-03 BMatP= 1.55D-01
 IDIUse=3 WtCom= 9.55D-01 WtEn= 4.54D-02
 Coeff-Com: -0.166D+01 0.218D+01 0.475D+00
 Coeff-En:   0.000D+00 0.000D+00 0.100D+01
 Coeff:     -0.158D+01 0.209D+01 0.499D+00
 Gap=     0.078 Goal=   None    Shift=    0.000
 Gap=     0.183 Goal=   None    Shift=    0.000
 RMSDP=2.11D-04 MaxDP=1.29D-02 DE=-4.52D-02 OVMax= 1.35D-02

 Cycle   4  Pass 1  IDiag  1:
 RMSU=  2.08D-04    CP:  9.96D-01  3.00D+00  9.81D-01
 E= -604.546357165663     Delta-E=       -0.001564039981 Rises=F Damp=F
 DIIS: error= 1.62D-03 at cycle   4 NSaved=   4.
 NSaved= 4 IEnMin= 4 EnMin= -604.546357165663     IErMin= 4 ErrMin= 1.62D-03
 ErrMax= 1.62D-03  0.00D+00 EMaxC= 1.00D-01 BMatC= 1.54D-03 BMatP= 8.15D-03
 IDIUse=3 WtCom= 9.84D-01 WtEn= 1.62D-02
 Coeff-Com: -0.680D+00 0.890D+00 0.324D+00 0.466D+00
 Coeff-En:   0.000D+00 0.000D+00 0.132D+00 0.868D+00
 Coeff:     -0.669D+00 0.876D+00 0.321D+00 0.472D+00
 Gap=     0.077 Goal=   None    Shift=    0.000
 Gap=     0.184 Goal=   None    Shift=    0.000
 RMSDP=9.44D-05 MaxDP=5.55D-03 DE=-1.56D-03 OVMax= 1.10D-02

 Cycle   5  Pass 1  IDiag  1:
 RMSU=  8.26D-05    CP:  9.95D-01  3.00D+00  1.05D+00  9.13D-01
 E= -604.546677040513     Delta-E=       -0.000319874851 Rises=F Damp=F
 DIIS: error= 9.51D-04 at cycle   5 NSaved=   5.
 NSaved= 5 IEnMin= 5 EnMin= -604.546677040513     IErMin= 5 ErrMin= 9.51D-04
 ErrMax= 9.51D-04  0.00D+00 EMaxC= 1.00D-01 BMatC= 2.16D-04 BMatP= 1.54D-03
 IDIUse=3 WtCom= 9.90D-01 WtEn= 9.51D-03
 Coeff-Com:  0.144D+00-0.193D+00 0.523D-01 0.313D+00 0.683D+00
 Coeff-En:   0.000D+00 0.000D+00 0.000D+00 0.893D-01 0.911D+00
 Coeff:      0.143D+00-0.191D+00 0.518D-01 0.311D+00 0.686D+00
 Gap=     0.078 Goal=   None    Shift=    0.000
 Gap=     0.184 Goal=   None    Shift=    0.000
 RMSDP=5.58D-05 MaxDP=3.81D-03 DE=-3.20D-04 OVMax= 6.69D-03

 Cycle   6  Pass 1  IDiag  1:
 RMSU=  4.58D-05    CP:  9.96D-01  3.00D+00  1.09D+00  9.71D-01  8.23D-01
 E= -604.546739623886     Delta-E=       -0.000062583373 Rises=F Damp=F
 DIIS: error= 2.02D-04 at cycle   6 NSaved=   6.
 NSaved= 6 IEnMin= 6 EnMin= -604.546739623886     IErMin= 6 ErrMin= 2.02D-04
 ErrMax= 2.02D-04  0.00D+00 EMaxC= 1.00D-01 BMatC= 1.80D-05 BMatP= 2.16D-04
 IDIUse=3 WtCom= 9.98D-01 WtEn= 2.02D-03
 Coeff-Com:  0.145D+00-0.192D+00 0.687D-03 0.127D+00 0.359D+00 0.561D+00
 Coeff-En:   0.000D+00 0.000D+00 0.000D+00 0.000D+00 0.000D+00 0.100D+01
 Coeff:      0.144D+00-0.191D+00 0.685D-03 0.126D+00 0.358D+00 0.561D+00
 Gap=     0.078 Goal=   None    Shift=    0.000
 Gap=     0.184 Goal=   None    Shift=    0.000
 RMSDP=2.02D-05 MaxDP=6.97D-04 DE=-6.26D-05 OVMax= 2.76D-03

 Cycle   7  Pass 1  IDiag  1:
 RMSU=  1.58D-05    CP:  9.96D-01  3.00D+00  1.10D+00  9.96D-01  9.04D-01
                    CP:  1.07D+00
 E= -604.546746054285     Delta-E=       -0.000006430399 Rises=F Damp=F
 DIIS: error= 1.01D-04 at cycle   7 NSaved=   7.
 NSaved= 7 IEnMin= 7 EnMin= -604.546746054285     IErMin= 7 ErrMin= 1.01D-04
 ErrMax= 1.01D-04  0.00D+00 EMaxC= 1.00D-01 BMatC= 3.67D-06 BMatP= 1.80D-05
 IDIUse=3 WtCom= 9.99D-01 WtEn= 1.01D-03
 Coeff-Com:  0.511D-01-0.674D-01-0.618D-02 0.142D-01 0.567D-01 0.284D+00
 Coeff-Com:  0.668D+00
 Coeff-En:   0.000D+00 0.000D+00 0.000D+00 0.000D+00 0.000D+00 0.000D+00
 Coeff-En:   0.100D+01
 Coeff:      0.511D-01-0.673D-01-0.618D-02 0.142D-01 0.566D-01 0.284D+00
 Coeff:      0.668D+00
 Gap=     0.078 Goal=   None    Shift=    0.000
 Gap=     0.184 Goal=   None    Shift=    0.000
 RMSDP=1.18D-05 MaxDP=4.52D-04 DE=-6.43D-06 OVMax= 1.79D-03

 Cycle   8  Pass 1  IDiag  1:
 RMSU=  6.24D-06    CP:  9.96D-01  3.00D+00  1.11D+00  1.01D+00  9.39D-01
                    CP:  1.23D+00  8.67D-01
 E= -604.546747930324     Delta-E=       -0.000001876039 Rises=F Damp=F
 DIIS: error= 5.69D-05 at cycle   8 NSaved=   8.
 NSaved= 8 IEnMin= 8 EnMin= -604.546747930324     IErMin= 8 ErrMin= 5.69D-05
 ErrMax= 5.69D-05  0.00D+00 EMaxC= 1.00D-01 BMatC= 1.19D-06 BMatP= 3.67D-06
 IDIUse=1 WtCom= 1.00D+00 WtEn= 0.00D+00
 Coeff-Com: -0.295D-01 0.392D-01-0.246D-02-0.427D-01-0.124D+00-0.899D-01
 Coeff-Com:  0.411D+00 0.839D+00
 Coeff:     -0.295D-01 0.392D-01-0.246D-02-0.427D-01-0.124D+00-0.899D-01
 Coeff:      0.411D+00 0.839D+00
 Gap=     0.078 Goal=   None    Shift=    0.000
 Gap=     0.184 Goal=   None    Shift=    0.000
 RMSDP=9.03D-06 MaxDP=4.47D-04 DE=-1.88D-06 OVMax= 1.49D-03

 Cycle   9  Pass 1  IDiag  1:
 RMSU=  3.17D-06    CP:  9.96D-01  3.00D+00  1.12D+00  1.02D+00  9.67D-01
                    CP:  1.35D+00  1.11D+00  1.05D+00
 E= -604.546748755029     Delta-E=       -0.000000824705 Rises=F Damp=F
 DIIS: error= 2.07D-05 at cycle   9 NSaved=   9.
 NSaved= 9 IEnMin= 9 EnMin= -604.546748755029     IErMin= 9 ErrMin= 2.07D-05
 ErrMax= 2.07D-05  0.00D+00 EMaxC= 1.00D-01 BMatC= 7.10D-08 BMatP= 1.19D-06
 IDIUse=1 WtCom= 1.00D+00 WtEn= 0.00D+00
 Coeff-Com: -0.699D-02 0.925D-02 0.189D-03-0.489D-02-0.179D-01-0.347D-01
 Coeff-Com: -0.943D-03 0.815D-01 0.975D+00
 Coeff:     -0.699D-02 0.925D-02 0.189D-03-0.489D-02-0.179D-01-0.347D-01
 Coeff:     -0.943D-03 0.815D-01 0.975D+00
 Gap=     0.078 Goal=   None    Shift=    0.000
 Gap=     0.184 Goal=   None    Shift=    0.000
 RMSDP=2.17D-06 MaxDP=5.75D-05 DE=-8.25D-07 OVMax= 2.41D-04

 Cycle  10  Pass 1  IDiag  1:
 RMSU=  1.14D-06    CP:  9.96D-01  3.00D+00  1.12D+00  1.02D+00  9.70D-01
                    CP:  1.37D+00  1.15D+00  1.21D+00  1.33D+00
 E= -604.546748854906     Delta-E=       -0.000000099877 Rises=F Damp=F
 DIIS: error= 1.70D-05 at cycle  10 NSaved=  10.
 NSaved=10 IEnMin=10 EnMin= -604.546748854906     IErMin=10 ErrMin= 1.70D-05
 ErrMax= 1.70D-05  0.00D+00 EMaxC= 1.00D-01 BMatC= 4.45D-08 BMatP= 7.10D-08
 IDIUse=1 WtCom= 1.00D+00 WtEn= 0.00D+00
 Coeff-Com:  0.552D-02-0.737D-02 0.823D-03 0.108D-01 0.304D-01 0.106D-01
 Coeff-Com: -0.132D+00-0.223D+00 0.493D+00 0.811D+00
 Coeff:      0.552D-02-0.737D-02 0.823D-03 0.108D-01 0.304D-01 0.106D-01
 Coeff:     -0.132D+00-0.223D+00 0.493D+00 0.811D+00
 Gap=     0.078 Goal=   None    Shift=    0.000
 Gap=     0.184 Goal=   None    Shift=    0.000
 RMSDP=1.51D-06 MaxDP=4.40D-05 DE=-9.99D-08 OVMax= 1.84D-04

 Cycle  11  Pass 1  IDiag  1:
 RMSU=  7.21D-07    CP:  9.96D-01  3.00D+00  1.12D+00  1.02D+00  9.72D-01
                    CP:  1.37D+00  1.17D+00  1.29D+00  1.65D+00  1.49D+00
 E= -604.546748907342     Delta-E=       -0.000000052436 Rises=F Damp=F
 DIIS: error= 1.03D-05 at cycle  11 NSaved=  11.
 NSaved=11 IEnMin=11 EnMin= -604.546748907342     IErMin=11 ErrMin= 1.03D-05
 ErrMax= 1.03D-05  0.00D+00 EMaxC= 1.00D-01 BMatC= 1.47D-08 BMatP= 4.45D-08
 IDIUse=1 WtCom= 1.00D+00 WtEn= 0.00D+00
 Coeff-Com:  0.575D-02-0.764D-02 0.270D-03 0.708D-02 0.232D-01 0.238D-01
 Coeff-Com: -0.604D-01-0.137D+00-0.256D+00 0.363D+00 0.104D+01
 Coeff:      0.575D-02-0.764D-02 0.270D-03 0.708D-02 0.232D-01 0.238D-01
 Coeff:     -0.604D-01-0.137D+00-0.256D+00 0.363D+00 0.104D+01
 Gap=     0.078 Goal=   None    Shift=    0.000
 Gap=     0.184 Goal=   None    Shift=    0.000
 RMSDP=1.35D-06 MaxDP=3.99D-05 DE=-5.24D-08 OVMax= 1.62D-04

 Cycle  12  Pass 1  IDiag  1:
 RMSU=  4.32D-07    CP:  9.96D-01  3.00D+00  1.12D+00  1.02D+00  9.72D-01
                    CP:  1.38D+00  1.17D+00  1.36D+00  1.91D+00  2.18D+00
                    CP:  1.48D+00
 E= -604.546748932099     Delta-E=       -0.000000024757 Rises=F Damp=F
 DIIS: error= 4.05D-06 at cycle  12 NSaved=  12.
 NSaved=12 IEnMin=12 EnMin= -604.546748932099     IErMin=12 ErrMin= 4.05D-06
 ErrMax= 4.05D-06  0.00D+00 EMaxC= 1.00D-01 BMatC= 3.70D-09 BMatP= 1.47D-08
 IDIUse=1 WtCom= 1.00D+00 WtEn= 0.00D+00
 Coeff-Com:  0.129D-02-0.171D-02-0.119D-03 0.274D-03 0.279D-02 0.976D-02
 Coeff-Com:  0.109D-01-0.338D-02-0.258D+00-0.549D-01 0.484D+00 0.810D+00
 Coeff:      0.129D-02-0.171D-02-0.119D-03 0.274D-03 0.279D-02 0.976D-02
 Coeff:      0.109D-01-0.338D-02-0.258D+00-0.549D-01 0.484D+00 0.810D+00
 Gap=     0.078 Goal=   None    Shift=    0.000
 Gap=     0.184 Goal=   None    Shift=    0.000
 RMSDP=5.71D-07 MaxDP=1.53D-05 DE=-2.48D-08 OVMax= 6.58D-05

 Cycle  13  Pass 1  IDiag  1:
 RMSU=  1.65D-07    CP:  9.96D-01  3.00D+00  1.12D+00  1.02D+00  9.72D-01
                    CP:  1.38D+00  1.18D+00  1.38D+00  2.00D+00  2.50D+00
                    CP:  1.83D+00  1.06D+00
 E= -604.546748936170     Delta-E=       -0.000000004071 Rises=F Damp=F
 DIIS: error= 1.19D-06 at cycle  13 NSaved=  13.
 NSaved=13 IEnMin=13 EnMin= -604.546748936170     IErMin=13 ErrMin= 1.19D-06
 ErrMax= 1.19D-06  0.00D+00 EMaxC= 1.00D-01 BMatC= 5.92D-10 BMatP= 3.70D-09
 IDIUse=1 WtCom= 1.00D+00 WtEn= 0.00D+00
 Coeff-Com: -0.922D-03 0.123D-02-0.136D-03-0.178D-02-0.506D-02-0.172D-02
 Coeff-Com:  0.192D-01 0.302D-01-0.548D-01-0.100D+00-0.229D-01 0.298D+00
 Coeff-Com:  0.839D+00
 Coeff:     -0.922D-03 0.123D-02-0.136D-03-0.178D-02-0.506D-02-0.172D-02
 Coeff:      0.192D-01 0.302D-01-0.548D-01-0.100D+00-0.229D-01 0.298D+00
 Coeff:      0.839D+00
 Gap=     0.078 Goal=   None    Shift=    0.000
 Gap=     0.184 Goal=   None    Shift=    0.000
 RMSDP=2.29D-07 MaxDP=6.59D-06 DE=-4.07D-09 OVMax= 2.37D-05

 Cycle  14  Pass 1  IDiag  1:
 RMSU=  8.34D-08    CP:  9.96D-01  3.00D+00  1.12D+00  1.02D+00  9.73D-01
                    CP:  1.38D+00  1.18D+00  1.39D+00  2.02D+00  2.60D+00
                    CP:  1.95D+00  1.26D+00  1.01D+00
 E= -604.546748936724     Delta-E=       -0.000000000554 Rises=F Damp=F
 DIIS: error= 3.72D-07 at cycle  14 NSaved=  14.
 NSaved=14 IEnMin=14 EnMin= -604.546748936724     IErMin=14 ErrMin= 3.72D-07
 ErrMax= 3.72D-07  0.00D+00 EMaxC= 1.00D-01 BMatC= 1.15D-10 BMatP= 5.92D-10
 IDIUse=1 WtCom= 1.00D+00 WtEn= 0.00D+00
 Coeff-Com: -0.483D-03 0.643D-03-0.306D-04-0.640D-03-0.225D-02-0.185D-02
 Coeff-Com:  0.525D-02 0.104D-01 0.142D-01-0.288D-01-0.729D-01-0.623D-02
 Coeff-Com:  0.348D+00 0.735D+00
 Coeff:     -0.483D-03 0.643D-03-0.306D-04-0.640D-03-0.225D-02-0.185D-02
 Coeff:      0.525D-02 0.104D-01 0.142D-01-0.288D-01-0.729D-01-0.623D-02
 Coeff:      0.348D+00 0.735D+00
 Gap=     0.078 Goal=   None    Shift=    0.000
 Gap=     0.184 Goal=   None    Shift=    0.000
 RMSDP=6.61D-08 MaxDP=2.46D-06 DE=-5.54D-10 OVMax= 6.13D-06

 Cycle  15  Pass 1  IDiag  1:
 RMSU=  2.76D-08    CP:  9.96D-01  3.00D+00  1.12D+00  1.02D+00  9.73D-01
                    CP:  1.38D+00  1.18D+00  1.39D+00  2.03D+00  2.62D+00
                    CP:  1.98D+00  1.29D+00  1.19D+00  1.01D+00
 E= -604.546748936790     Delta-E=       -0.000000000066 Rises=F Damp=F
 DIIS: error= 1.63D-07 at cycle  15 NSaved=  15.
 NSaved=15 IEnMin=15 EnMin= -604.546748936790     IErMin=15 ErrMin= 1.63D-07
 ErrMax= 1.63D-07  0.00D+00 EMaxC= 1.00D-01 BMatC= 1.42D-11 BMatP= 1.15D-10
 IDIUse=1 WtCom= 1.00D+00 WtEn= 0.00D+00
 Coeff-Com:  0.419D-04-0.562D-04 0.244D-04 0.177D-03 0.335D-03-0.223D-03
 Coeff-Com: -0.213D-02-0.256D-02 0.147D-01 0.112D-01-0.178D-01-0.621D-01
 Coeff-Com: -0.593D-01 0.228D+00 0.890D+00
 Coeff:      0.419D-04-0.562D-04 0.244D-04 0.177D-03 0.335D-03-0.223D-03
 Coeff:     -0.213D-02-0.256D-02 0.147D-01 0.112D-01-0.178D-01-0.621D-01
 Coeff:     -0.593D-01 0.228D+00 0.890D+00
 Gap=     0.078 Goal=   None    Shift=    0.000
 Gap=     0.184 Goal=   None    Shift=    0.000
 RMSDP=2.26D-08 MaxDP=8.37D-07 DE=-6.59D-11 OVMax= 2.33D-06

 Cycle  16  Pass 1  IDiag  1:
 RMSU=  1.19D-08    CP:  9.96D-01  3.00D+00  1.12D+00  1.02D+00  9.73D-01
                    CP:  1.38D+00  1.18D+00  1.39D+00  2.03D+00  2.63D+00
                    CP:  1.98D+00  1.30D+00  1.23D+00  1.14D+00  1.13D+00
 E= -604.546748936794     Delta-E=       -0.000000000004 Rises=F Damp=F
 DIIS: error= 7.22D-08 at cycle  16 NSaved=  16.
 NSaved=16 IEnMin=16 EnMin= -604.546748936794     IErMin=16 ErrMin= 7.22D-08
 ErrMax= 7.22D-08  0.00D+00 EMaxC= 1.00D-01 BMatC= 2.50D-12 BMatP= 1.42D-11
 IDIUse=1 WtCom= 1.00D+00 WtEn= 0.00D+00
 Coeff-Com:  0.721D-04-0.961D-04 0.136D-04 0.141D-03 0.399D-03 0.884D-04
 Coeff-Com: -0.150D-02-0.212D-02 0.419D-02 0.783D-02 0.162D-02-0.233D-01
 Coeff-Com: -0.661D-01 0.527D-03 0.334D+00 0.745D+00
 Coeff:      0.721D-04-0.961D-04 0.136D-04 0.141D-03 0.399D-03 0.884D-04
 Coeff:     -0.150D-02-0.212D-02 0.419D-02 0.783D-02 0.162D-02-0.233D-01
 Coeff:     -0.661D-01 0.527D-03 0.334D+00 0.745D+00
 Gap=     0.078 Goal=   None    Shift=    0.000
 Gap=     0.184 Goal=   None    Shift=    0.000
 RMSDP=7.81D-09 MaxDP=3.07D-07 DE=-4.09D-12 OVMax= 7.47D-07

 SCF Done:  E(UPBE1PBE) =  -604.546748937     A.U. after   16 cycles
            NFock= 16  Conv=0.78D-08     -V/T= 2.1870
 <Sx>= 0.0000 <Sy>= 0.0000 <Sz>= 0.5000 <S**2>= 0.7518 S= 0.5009
 <L.S>= 0.000000000000E+00
 KE= 5.093268958692D+02 PE=-2.766869855398D+03 EE= 9.581277062655D+02
 Annihilation of the first spin contaminant:
 S**2 before annihilation     0.7518,   after     0.7500
 Leave Link  502 at Fri Sep 11 21:07:02 2026, MaxMem=  6442450944 cpu:             157.0 elap:             156.6
 (Enter C:\G16W\l508.exe)
 QCSCF skips out because SCF is already converged.
 Leave Link  508 at Fri Sep 11 21:07:02 2026, MaxMem=  6442450944 cpu:               0.0 elap:               0.1
 (Enter C:\G16W\l601.exe)
 Copying SCF densities to generalized density rwf, IOpCl= 1 IROHF=0.

 **********************************************************************

            Population analysis using the SCF Density.

 **********************************************************************

 Alpha  occ. eigenvalues --  -14.44656 -14.41235 -10.30734 -10.29326 -10.29072
 Alpha  occ. eigenvalues --  -10.29066 -10.27686 -10.26966 -10.26964 -10.25602
 Alpha  occ. eigenvalues --  -10.25600  -3.72109  -2.30091  -2.30045  -2.29994
 Alpha  occ. eigenvalues --   -1.00754  -0.95048  -0.90290  -0.81234  -0.80073
 Alpha  occ. eigenvalues --   -0.76870  -0.72674  -0.65252  -0.63992  -0.59442
 Alpha  occ. eigenvalues --   -0.55834  -0.53710  -0.51335  -0.49013  -0.47566
 Alpha  occ. eigenvalues --   -0.46672  -0.46316  -0.44854  -0.44363  -0.43497
 Alpha  occ. eigenvalues --   -0.42304  -0.42061  -0.39205  -0.39178  -0.36806
 Alpha  occ. eigenvalues --   -0.32968  -0.29751  -0.29347  -0.29347  -0.29127
 Alpha  occ. eigenvalues --   -0.29111  -0.27407  -0.23476  -0.12560
 Alpha virt. eigenvalues --   -0.04790  -0.02768   0.00637   0.02313   0.04232
 Alpha virt. eigenvalues --    0.04358   0.05433   0.07332   0.07769   0.07795
 Alpha virt. eigenvalues --    0.09089   0.11125   0.12541   0.12923   0.12986
 Alpha virt. eigenvalues --    0.13777   0.13975   0.15541   0.17285   0.17399
 Alpha virt. eigenvalues --    0.20670   0.22154   0.23986   0.27071   0.28240
 Alpha virt. eigenvalues --    0.29513   0.30384   0.32159   0.35101   0.36088
 Alpha virt. eigenvalues --    0.36666   0.37838   0.39821   0.39997   0.41797
 Alpha virt. eigenvalues --    0.42696   0.44314   0.44779   0.45600   0.47424
 Alpha virt. eigenvalues --    0.48177   0.49017   0.49078   0.49215   0.49999
 Alpha virt. eigenvalues --    0.50016   0.52954   0.53969   0.54258   0.60282
 Alpha virt. eigenvalues --    0.61102   0.61502   0.62013   0.62261   0.62590
 Alpha virt. eigenvalues --    0.63229   0.63662   0.65254   0.65814   0.66200
 Alpha virt. eigenvalues --    0.66880   0.67736   0.68665   0.69014   0.69529
 Alpha virt. eigenvalues --    0.70247   0.71728   0.72110   0.73471   0.74441
 Alpha virt. eigenvalues --    0.75866   0.81310   0.82460   0.86257   0.87789
 Alpha virt. eigenvalues --    0.87976   0.93516   0.95239   0.96047   1.00452
 Alpha virt. eigenvalues --    1.02771   1.04784   1.09660   1.09915   1.10819
 Alpha virt. eigenvalues --    1.14128   1.16694   1.19373   1.21575   1.23146
 Alpha virt. eigenvalues --    1.23755   1.25507   1.27570   1.27996   1.28986
 Alpha virt. eigenvalues --    1.32165   1.33188   1.42136   1.47057   1.49285
 Alpha virt. eigenvalues --    1.50664   1.51194   1.52257   1.52417   1.57638
 Alpha virt. eigenvalues --    1.60350   1.66596   1.67140   1.69656   1.72077
 Alpha virt. eigenvalues --    1.72611   1.72727   1.72949   1.75579   1.76201
 Alpha virt. eigenvalues --    1.78033   1.79369   1.80064   1.81581   1.81854
 Alpha virt. eigenvalues --    1.85143   1.89452   1.89610   1.92005   1.92325
 Alpha virt. eigenvalues --    1.93852   1.95042   1.95963   1.97540   2.00658
 Alpha virt. eigenvalues --    2.05297   2.07036   2.08870   2.10167   2.15188
 Alpha virt. eigenvalues --    2.15738   2.16219   2.18891   2.20559   2.22766
 Alpha virt. eigenvalues --    2.24264   2.26164   2.28357   2.30008   2.30165
 Alpha virt. eigenvalues --    2.34860   2.36879   2.37142   2.37830   2.44091
 Alpha virt. eigenvalues --    2.44115   2.45479   2.57910   2.60312   2.62121
 Alpha virt. eigenvalues --    2.62870   2.65101   2.65318   2.65493   2.65494
 Alpha virt. eigenvalues --    2.65582   2.65584   2.66047   2.66810   2.70326
 Alpha virt. eigenvalues --    2.71194   2.75832   2.76597   2.80249   2.86244
 Alpha virt. eigenvalues --    2.88446   2.89419   2.91584   2.91692   2.92942
 Alpha virt. eigenvalues --    2.97274   3.01968   3.02997   3.04315   3.17273
 Alpha virt. eigenvalues --    3.20662   3.25996   3.43599   3.49538   3.72387
 Alpha virt. eigenvalues --   53.84474
  Beta  occ. eigenvalues --  -14.44649 -14.41050 -10.30721 -10.29282 -10.29073
  Beta  occ. eigenvalues --  -10.29066 -10.27691 -10.26953 -10.26951 -10.25609
  Beta  occ. eigenvalues --  -10.25608  -3.71954  -2.30005  -2.29940  -2.29899
  Beta  occ. eigenvalues --   -1.00739  -0.94915  -0.90267  -0.81212  -0.80066
  Beta  occ. eigenvalues --   -0.76864  -0.72656  -0.65246  -0.63955  -0.59425
  Beta  occ. eigenvalues --   -0.55807  -0.53707  -0.51315  -0.49005  -0.47560
  Beta  occ. eigenvalues --   -0.46670  -0.45758  -0.44852  -0.44270  -0.43382
  Beta  occ. eigenvalues --   -0.42215  -0.42059  -0.39111  -0.39040  -0.36716
  Beta  occ. eigenvalues --   -0.32845  -0.29717  -0.28881  -0.28880  -0.28551
  Beta  occ. eigenvalues --   -0.28549  -0.26600  -0.23408
  Beta virt. eigenvalues --   -0.05031  -0.03043  -0.02733   0.01758   0.04287
  Beta virt. eigenvalues --    0.04780   0.05949   0.06100   0.07485   0.07808
  Beta virt. eigenvalues --    0.08371   0.09717   0.11197   0.12882   0.12989
  Beta virt. eigenvalues --    0.13570   0.13979   0.14898   0.16073   0.17439
  Beta virt. eigenvalues --    0.17831   0.20893   0.22156   0.24135   0.27130
  Beta virt. eigenvalues --    0.28303   0.29544   0.30430   0.32237   0.35507
  Beta virt. eigenvalues --    0.37829   0.38265   0.38853   0.40059   0.41805
  Beta virt. eigenvalues --    0.41964   0.43341   0.44393   0.45251   0.45811
  Beta virt. eigenvalues --    0.47455   0.48764   0.49099   0.50007   0.50766
  Beta virt. eigenvalues --    0.51108   0.51173   0.53768   0.54257   0.54863
  Beta virt. eigenvalues --    0.60457   0.61125   0.61507   0.62081   0.62312
  Beta virt. eigenvalues --    0.62858   0.63675   0.63685   0.65270   0.66221
  Beta virt. eigenvalues --    0.66549   0.66970   0.67904   0.68803   0.69030
  Beta virt. eigenvalues --    0.69529   0.70853   0.71775   0.72131   0.73532
  Beta virt. eigenvalues --    0.74451   0.75904   0.81317   0.82473   0.86304
  Beta virt. eigenvalues --    0.87833   0.88012   0.93574   0.95298   0.96451
  Beta virt. eigenvalues --    1.00575   1.02986   1.04849   1.09666   1.10061
  Beta virt. eigenvalues --    1.10830   1.14230   1.16787   1.19433   1.21590
  Beta virt. eigenvalues --    1.23157   1.23896   1.25514   1.27577   1.28007
  Beta virt. eigenvalues --    1.29046   1.32169   1.33221   1.42394   1.47063
  Beta virt. eigenvalues --    1.49296   1.50667   1.51196   1.52277   1.52421
  Beta virt. eigenvalues --    1.57729   1.60481   1.66605   1.67176   1.69661
  Beta virt. eigenvalues --    1.72086   1.72627   1.72741   1.72969   1.75592
  Beta virt. eigenvalues --    1.76210   1.78063   1.79381   1.80147   1.81589
  Beta virt. eigenvalues --    1.81859   1.85177   1.89476   1.89624   1.92040
  Beta virt. eigenvalues --    1.92339   1.93859   1.95043   1.96090   1.97550
  Beta virt. eigenvalues --    2.00661   2.05327   2.08156   2.08874   2.10219
  Beta virt. eigenvalues --    2.15200   2.15744   2.16224   2.18930   2.20609
  Beta virt. eigenvalues --    2.22777   2.24377   2.26194   2.28580   2.30100
  Beta virt. eigenvalues --    2.30192   2.34882   2.36902   2.37166   2.37849
  Beta virt. eigenvalues --    2.44097   2.44156   2.45480   2.57947   2.60325
  Beta virt. eigenvalues --    2.62139   2.62884   2.65130   2.65400   2.65511
  Beta virt. eigenvalues --    2.65513   2.65581   2.65581   2.66211   2.66905
  Beta virt. eigenvalues --    2.70379   2.71455   2.75844   2.76601   2.80257
  Beta virt. eigenvalues --    2.86285   2.88481   2.89435   2.91609   2.91695
  Beta virt. eigenvalues --    2.92951   2.97283   3.02095   3.03031   3.04541
  Beta virt. eigenvalues --    3.17278   3.20699   3.26064   3.43615   3.49690
  Beta virt. eigenvalues --    3.72433  53.84621
          Condensed to atoms (all electrons):
               1          2          3          4          5          6
     1  N    6.266924   0.766034  -0.037873  -0.002008   0.000062   0.000028
     2  C    0.766034   5.061161   0.351074  -0.088446   0.014628   0.003248
     3  C   -0.037873   0.351074   5.411145   0.267024   0.088874  -0.171350
     4  C   -0.002008  -0.088446   0.267024   4.970616   0.324806   0.117479
     5  C    0.000062   0.014628   0.088874   0.324806   5.172465   0.216564
     6  C    0.000028   0.003248  -0.171350   0.117479   0.216564   5.144034
     7  N    0.000000   0.000024  -0.000289   0.007387  -0.095377   0.399553
     8  C    0.000000  -0.000001   0.000035  -0.000156   0.007923  -0.061285
     9  C    0.000000  -0.000001   0.000035   0.000989   0.003231  -0.061283
    10  C    0.000061   0.014607   0.088883  -0.142398   0.073835   0.216576
    11  C   -0.002019  -0.088338   0.266937   0.090133  -0.142377   0.117482
    12  H   -0.000487  -0.022424  -0.064826   0.458788  -0.061931   0.015737
    13  H   -0.000003  -0.000529   0.017195  -0.067246   0.462940  -0.081744
    14  H    0.000000   0.000000   0.000005   0.000010  -0.000153   0.007509
    15  H    0.000000   0.000001  -0.000080   0.000012  -0.000259  -0.011759
    16  H    0.000000   0.000001  -0.000080   0.000011  -0.000248  -0.011706
    17  H    0.000000   0.000001  -0.000080   0.001088   0.005836  -0.011759
    18  H    0.000000   0.000000   0.000005  -0.000077   0.000575   0.007508
    19  H    0.000000   0.000001  -0.000080   0.001063   0.005832  -0.011704
    20  H   -0.000003  -0.000530   0.017193  -0.001994   0.014999  -0.081743
    21  H   -0.000485  -0.022451  -0.064831   0.014008  -0.001918   0.015733
    22  Ag   0.051393  -0.016735  -0.000485  -0.000167   0.000091   0.000025
               7          8          9         10         11         12
     1  N    0.000000   0.000000   0.000000   0.000061  -0.002019  -0.000487
     2  C    0.000024  -0.000001  -0.000001   0.014607  -0.088338  -0.022424
     3  C   -0.000289   0.000035   0.000035   0.088883   0.266937  -0.064826
     4  C    0.007387  -0.000156   0.000989  -0.142398   0.090133   0.458788
     5  C   -0.095377   0.007923   0.003231   0.073835  -0.142377  -0.061931
     6  C    0.399553  -0.061285  -0.061283   0.216576   0.117482   0.015737
     7  N    6.670566   0.349784   0.349788  -0.095383   0.007388  -0.000092
     8  C    0.349784   4.465554  -0.049732   0.003234   0.000990   0.000008
     9  C    0.349788  -0.049732   4.465561   0.007924  -0.000156  -0.000045
    10  C   -0.095383   0.003234   0.007924   5.172400   0.324861  -0.001918
    11  C    0.007388   0.000990  -0.000156   0.324861   4.970588   0.014013
    12  H   -0.000092   0.000008  -0.000045  -0.001918   0.014013   0.652992
    13  H   -0.016326   0.000001   0.012402   0.015000  -0.001995  -0.013656
    14  H   -0.019529   0.399371  -0.012804   0.000576  -0.000077   0.000000
    15  H   -0.029378   0.400779   0.003483   0.005835   0.001088   0.000000
    16  H   -0.029558   0.400609   0.003458   0.005833   0.001064   0.000000
    17  H   -0.029379   0.003483   0.400773  -0.000259   0.000011   0.000008
    18  H   -0.019528  -0.012803   0.399373  -0.000153   0.000010   0.000000
    19  H   -0.029562   0.003459   0.400610  -0.000248   0.000011   0.000014
    20  H   -0.016327   0.012402   0.000001   0.462951  -0.067252   0.000023
    21  H   -0.000092  -0.000045   0.000008  -0.061933   0.458823  -0.000204
    22  Ag  -0.000001   0.000000   0.000000   0.000092  -0.000170   0.000047
              13         14         15         16         17         18
     1  N   -0.000003   0.000000   0.000000   0.000000   0.000000   0.000000
     2  C   -0.000529   0.000000   0.000001   0.000001   0.000001   0.000000
     3  C    0.017195   0.000005  -0.000080  -0.000080  -0.000080   0.000005
     4  C   -0.067246   0.000010   0.000012   0.000011   0.001088  -0.000077
     5  C    0.462940  -0.000153  -0.000259  -0.000248   0.005836   0.000575
     6  C   -0.081744   0.007509  -0.011759  -0.011706  -0.011759   0.007508
     7  N   -0.016326  -0.019529  -0.029378  -0.029558  -0.029379  -0.019528
     8  C    0.000001   0.399371   0.400779   0.400609   0.003483  -0.012803
     9  C    0.012402  -0.012804   0.003483   0.003458   0.400773   0.399373
    10  C    0.015000   0.000576   0.005835   0.005833  -0.000259  -0.000153
    11  C   -0.001995  -0.000077   0.001088   0.001064   0.000011   0.000010
    12  H   -0.013656   0.000000   0.000000   0.000000   0.000008   0.000000
    13  H    0.671620  -0.000004  -0.000022  -0.000021  -0.001778   0.000085
    14  H   -0.000004   0.608315  -0.020527  -0.020642   0.000345   0.004935
    15  H   -0.000022  -0.020527   0.635005  -0.041539   0.001300   0.000345
    16  H   -0.000021  -0.020642  -0.041539   0.635910  -0.000913   0.000332
    17  H   -0.001778   0.000345   0.001300  -0.000913   0.635021  -0.020525
    18  H    0.000085   0.004935   0.000345   0.000332  -0.020525   0.608308
    19  H   -0.001711   0.000333  -0.000913   0.001323  -0.041543  -0.020642
    20  H   -0.000180   0.000085  -0.001781  -0.001709  -0.000023  -0.000004
    21  H    0.000023   0.000000   0.000008   0.000014   0.000000   0.000000
    22  Ag  -0.000008   0.000000   0.000000   0.000000   0.000000   0.000000
              19         20         21         22
     1  N    0.000000  -0.000003  -0.000485   0.051393
     2  C    0.000001  -0.000530  -0.022451  -0.016735
     3  C   -0.000080   0.017193  -0.064831  -0.000485
     4  C    0.001063  -0.001994   0.014008  -0.000167
     5  C    0.005832   0.014999  -0.001918   0.000091
     6  C   -0.011704  -0.081743   0.015733   0.000025
     7  N   -0.029562  -0.016327  -0.000092  -0.000001
     8  C    0.003459   0.012402  -0.000045   0.000000
     9  C    0.400610   0.000001   0.000008   0.000000
    10  C   -0.000248   0.462951  -0.061933   0.000092
    11  C    0.000011  -0.067252   0.458823  -0.000170
    12  H    0.000014   0.000023  -0.000204   0.000047
    13  H   -0.001711  -0.000180   0.000023  -0.000008
    14  H    0.000333   0.000085   0.000000   0.000000
    15  H   -0.000913  -0.001781   0.000008   0.000000
    16  H    0.001323  -0.001709   0.000014   0.000000
    17  H   -0.041543  -0.000023   0.000000   0.000000
    18  H   -0.020642  -0.000004   0.000000   0.000000
    19  H    0.635923  -0.000021   0.000000   0.000000
    20  H   -0.000021   0.671597  -0.013650  -0.000009
    21  H    0.000000  -0.013650   0.652895   0.000058
    22  Ag   0.000000  -0.000009   0.000058  19.090681
          Atomic-Atomic Spin Densities.
               1          2          3          4          5          6
     1  N    0.143569  -0.025176   0.001294  -0.000024   0.000003   0.000000
     2  C   -0.025176   0.033752   0.001284  -0.001250  -0.000016   0.000002
     3  C    0.001294   0.001284  -0.003479  -0.001588   0.000471  -0.000009
     4  C   -0.000024  -0.001250  -0.001588   0.012545  -0.000587  -0.000485
     5  C    0.000003  -0.000016   0.000471  -0.000587  -0.006042   0.000545
     6  C    0.000000   0.000002  -0.000009  -0.000485   0.000545   0.010765
     7  N    0.000000   0.000000  -0.000004   0.000025   0.000017  -0.002286
     8  C    0.000000   0.000000   0.000000   0.000000  -0.000007  -0.000138
     9  C    0.000000   0.000000   0.000000   0.000003   0.000026  -0.000138
    10  C    0.000004  -0.000018   0.000487  -0.000157   0.000089   0.000549
    11  C   -0.000034  -0.001206  -0.001681   0.000802  -0.000158  -0.000485
    12  H   -0.000104   0.000219  -0.000303   0.000088  -0.000155  -0.000002
    13  H    0.000000   0.000003  -0.000005  -0.000034  -0.000026   0.000015
    14  H    0.000000   0.000000   0.000000   0.000000   0.000000   0.000003
    15  H    0.000000   0.000000   0.000001  -0.000002   0.000002   0.000118
    16  H    0.000000   0.000000   0.000000   0.000001  -0.000001   0.000099
    17  H    0.000000   0.000000   0.000001  -0.000010   0.000001   0.000118
    18  H    0.000000   0.000000   0.000000   0.000000  -0.000001   0.000003
    19  H    0.000000   0.000000   0.000000  -0.000005   0.000003   0.000100
    20  H    0.000000   0.000003  -0.000006   0.000002   0.000002   0.000014
    21  H   -0.000104   0.000197  -0.000309   0.000040  -0.000013  -0.000002
    22  Ag  -0.096139   0.007745  -0.001342   0.000115  -0.000003  -0.000002
               7          8          9         10         11         12
     1  N    0.000000   0.000000   0.000000   0.000004  -0.000034  -0.000104
     2  C    0.000000   0.000000   0.000000  -0.000018  -0.001206   0.000219
     3  C   -0.000004   0.000000   0.000000   0.000487  -0.001681  -0.000303
     4  C    0.000025   0.000000   0.000003  -0.000157   0.000802   0.000088
     5  C    0.000017  -0.000007   0.000026   0.000089  -0.000158  -0.000155
     6  C   -0.002286  -0.000138  -0.000138   0.000549  -0.000485  -0.000002
     7  N    0.004695   0.000284   0.000283   0.000015   0.000025   0.000000
     8  C    0.000284  -0.000207   0.000016   0.000026   0.000003   0.000000
     9  C    0.000283   0.000016  -0.000208  -0.000007   0.000000   0.000000
    10  C    0.000015   0.000026  -0.000007  -0.005993  -0.000633  -0.000014
    11  C    0.000025   0.000003   0.000000  -0.000633   0.012644   0.000046
    12  H    0.000000   0.000000   0.000000  -0.000014   0.000046  -0.000148
    13  H   -0.000003   0.000000   0.000007   0.000002   0.000002   0.000020
    14  H   -0.000005   0.000009   0.000002  -0.000001   0.000000   0.000000
    15  H   -0.000155  -0.000093  -0.000008   0.000001  -0.000011   0.000000
    16  H   -0.000151  -0.000165  -0.000012   0.000003  -0.000004   0.000000
    17  H   -0.000155  -0.000008  -0.000095   0.000002  -0.000002  -0.000003
    18  H   -0.000005   0.000002   0.000009   0.000000   0.000000   0.000000
    19  H   -0.000151  -0.000012  -0.000163  -0.000001   0.000001   0.000003
    20  H   -0.000003   0.000007   0.000000  -0.000031  -0.000033   0.000000
    21  H    0.000000   0.000000   0.000000  -0.000169   0.000116   0.000007
    22  Ag   0.000000   0.000000   0.000000  -0.000004   0.000121   0.000103
              13         14         15         16         17         18
     1  N    0.000000   0.000000   0.000000   0.000000   0.000000   0.000000
     2  C    0.000003   0.000000   0.000000   0.000000   0.000000   0.000000
     3  C   -0.000005   0.000000   0.000001   0.000000   0.000001   0.000000
     4  C   -0.000034   0.000000  -0.000002   0.000001  -0.000010   0.000000
     5  C   -0.000026   0.000000   0.000002  -0.000001   0.000001  -0.000001
     6  C    0.000015   0.000003   0.000118   0.000099   0.000118   0.000003
     7  N   -0.000003  -0.000005  -0.000155  -0.000151  -0.000155  -0.000005
     8  C    0.000000   0.000009  -0.000093  -0.000165  -0.000008   0.000002
     9  C    0.000007   0.000002  -0.000008  -0.000012  -0.000095   0.000009
    10  C    0.000002  -0.000001   0.000001   0.000003   0.000002   0.000000
    11  C    0.000002   0.000000  -0.000011  -0.000004  -0.000002   0.000000
    12  H    0.000020   0.000000   0.000000   0.000000  -0.000003   0.000000
    13  H    0.000247   0.000000   0.000000   0.000000  -0.000024   0.000001
    14  H    0.000000  -0.000002  -0.000017   0.000012  -0.000002   0.000000
    15  H    0.000000  -0.000017   0.000709  -0.000248   0.000018  -0.000002
    16  H    0.000000   0.000012  -0.000248   0.000723  -0.000009   0.000002
    17  H   -0.000024  -0.000002   0.000018  -0.000009   0.000709  -0.000016
    18  H    0.000001   0.000000  -0.000002   0.000002  -0.000016  -0.000003
    19  H    0.000017   0.000002  -0.000009   0.000020  -0.000248   0.000011
    20  H    0.000000   0.000001  -0.000027   0.000020  -0.000001   0.000000
    21  H    0.000000   0.000000  -0.000003   0.000003   0.000000   0.000000
    22  Ag   0.000000   0.000000   0.000000   0.000000   0.000000   0.000000
              19         20         21         22
     1  N    0.000000   0.000000  -0.000104  -0.096139
     2  C    0.000000   0.000003   0.000197   0.007745
     3  C    0.000000  -0.000006  -0.000309  -0.001342
     4  C   -0.000005   0.000002   0.000040   0.000115
     5  C    0.000003   0.000002  -0.000013  -0.000003
     6  C    0.000100   0.000014  -0.000002  -0.000002
     7  N   -0.000151  -0.000003   0.000000   0.000000
     8  C   -0.000012   0.000007   0.000000   0.000000
     9  C   -0.000163   0.000000   0.000000   0.000000
    10  C   -0.000001  -0.000031  -0.000169  -0.000004
    11  C    0.000001  -0.000033   0.000116   0.000121
    12  H    0.000003   0.000000   0.000007   0.000103
    13  H    0.000017   0.000000   0.000000   0.000000
    14  H    0.000002   0.000001   0.000000   0.000000
    15  H   -0.000009  -0.000027  -0.000003   0.000000
    16  H    0.000020   0.000020   0.000003   0.000000
    17  H   -0.000248  -0.000001   0.000000   0.000000
    18  H    0.000011   0.000000   0.000000   0.000000
    19  H    0.000723   0.000001   0.000000   0.000000
    20  H    0.000001   0.000253   0.000023   0.000000
    21  H    0.000000   0.000023  -0.000142   0.000111
    22  Ag   0.000000   0.000000   0.000111   1.036633
 Mulliken charges and spin densities:
               1          2
     1  N   -0.041625   0.023289
     2  C    0.028675   0.015539
     3  C   -0.168434  -0.005187
     4  C    0.049077   0.009477
     5  C   -0.090397  -0.005851
     6  C    0.242857   0.008785
     7  N   -0.403670   0.002426
     8  C    0.076390  -0.000284
     9  C    0.076384  -0.000284
    10  C   -0.090374  -0.005848
    11  C    0.048985   0.009511
    12  H    0.023952  -0.000245
    13  H    0.005960   0.000220
    14  H    0.052252   0.000001
    15  H    0.058402   0.000274
    16  H    0.057861   0.000293
    17  H    0.058392   0.000274
    18  H    0.052256   0.000001
    19  H    0.057856   0.000292
    20  H    0.005975   0.000223
    21  H    0.024040  -0.000247
    22  Ag  -0.124814   0.947339
 Sum of Mulliken charges =   0.00000   1.00000
 Mulliken charges and spin densities with hydrogens summed into heavy atoms:
               1          2
     1  N   -0.041625   0.023289
     2  C    0.028675   0.015539
     3  C   -0.168434  -0.005187
     4  C    0.073029   0.009232
     5  C   -0.084437  -0.005631
     6  C    0.242857   0.008785
     7  N   -0.403670   0.002426
     8  C    0.244905   0.000285
     9  C    0.244887   0.000284
    10  C   -0.084399  -0.005625
    11  C    0.073025   0.009264
    22  Ag  -0.124814   0.947339
 Electronic spatial extent (au):  <R**2>=           5895.8338
 Charge=              0.0000 electrons
 Dipole moment (field-independent basis, Debye):
    X=            -11.7113    Y=             -0.3393    Z=              0.6632  Tot=             11.7350
 Quadrupole moment (field-independent basis, Debye-Ang):
   XX=           -156.0040   YY=            -83.4574   ZZ=            -84.5915
   XY=             -4.9577   XZ=              7.2028   YZ=              6.0436
 Traceless Quadrupole moment (field-independent basis, Debye-Ang):
   XX=            -47.9864   YY=             24.5602   ZZ=             23.4262
   XY=             -4.9577   XZ=              7.2028   YZ=              6.0436
 Octapole moment (field-independent basis, Debye-Ang**2):
  XXX=          -1269.0002  YYY=             -5.1096  ZZZ=             22.1393  XYY=           -208.0894
  XXY=            -37.6677  XXZ=             61.9258  XZZ=           -211.2417  YZZ=             -1.6154
  YYZ=              6.8949  XYZ=              8.4497
 Hexadecapole moment (field-independent basis, Debye-Ang**3):
 XXXX=         -14432.2709 YYYY=           -342.7659 ZZZZ=           -327.9094 XXXY=           -346.1302
 XXXZ=            611.5653 YYYX=            -32.5272 YYYZ=            -78.4744 ZZZX=            155.1327
 ZZZY=            -80.3345 XXYY=          -1642.5526 XXZZ=          -1664.8147 YYZZ=           -103.8878
 XXYZ=             27.0832 YYXZ=             48.9846 ZZXY=            -10.3968
 N-N= 6.948685043270D+02 E-N=-2.766869859967D+03  KE= 5.093268958692D+02
                          Isotropic Fermi Contact Couplings
        Atom                 a.u.       MegaHertz       Gauss      10(-4) cm-1
     1  N(14)              0.20730      66.98033      23.90025      22.34223
     2  C(13)              0.01761      19.80125       7.06558       6.60498
     3  C(13)              0.00053       0.59342       0.21175       0.19794
     4  C(13)              0.00133       1.50047       0.53540       0.50050
     5  C(13)             -0.00134      -1.51087      -0.53912      -0.50397
     6  C(13)              0.00160       1.80142       0.64279       0.60089
     7  N(14)              0.00090       0.29151       0.10402       0.09724
     8  C(13)             -0.00019      -0.21605      -0.07709      -0.07207
     9  C(13)             -0.00019      -0.21636      -0.07720      -0.07217
    10  C(13)             -0.00133      -1.49965      -0.53511      -0.50023
    11  C(13)              0.00134       1.50452       0.53685       0.50185
    12  H(1)              -0.00014      -0.61575      -0.21972      -0.20539
    13  H(1)               0.00006       0.27665       0.09872       0.09228
    14  H(1)               0.00000       0.00062       0.00022       0.00021
    15  H(1)               0.00008       0.34364       0.12262       0.11463
    16  H(1)               0.00007       0.30239       0.10790       0.10087
    17  H(1)               0.00008       0.34177       0.12195       0.11400
    18  H(1)               0.00000       0.00045       0.00016       0.00015
    19  H(1)               0.00007       0.30454       0.10867       0.10158
    20  H(1)               0.00006       0.28116       0.10033       0.09379
    21  H(1)              -0.00014      -0.61657      -0.22001      -0.20567
    22  Ag(107             0.00026      -0.04640      -0.01656      -0.01548
 --------------------------------------------------------
       Center         ----  Spin Dipole Couplings  ----
                      3XX-RR        3YY-RR        3ZZ-RR
 --------------------------------------------------------
     1   Atom        0.057060     -0.027560     -0.029500
     2   Atom       -0.000548      0.000025      0.000523
     3   Atom        0.006964     -0.003301     -0.003663
     4   Atom       -0.003407      0.002423      0.000984
     5   Atom        0.002985     -0.001217     -0.001768
     6   Atom       -0.003621      0.001308      0.002313
     7   Atom       -0.003564      0.001317      0.002246
     8   Atom        0.000309     -0.000134     -0.000176
     9   Atom        0.000323     -0.000166     -0.000157
    10   Atom        0.002996     -0.001298     -0.001698
    11   Atom       -0.003424     -0.000202      0.003626
    12   Atom        0.000829     -0.000338     -0.000491
    13   Atom        0.000705     -0.000324     -0.000381
    14   Atom        0.000282     -0.000134     -0.000148
    15   Atom        0.000264     -0.000076     -0.000188
    16   Atom        0.000253     -0.000167     -0.000086
    17   Atom        0.000275     -0.000182     -0.000093
    18   Atom        0.000291     -0.000150     -0.000141
    19   Atom        0.000264     -0.000085     -0.000179
    20   Atom        0.000707     -0.000372     -0.000335
    21   Atom        0.000819     -0.000458     -0.000360
    22   Atom       -0.030523      0.015958      0.014565
 --------------------------------------------------------
                        XY            XZ            YZ
 --------------------------------------------------------
     1   Atom       -0.031084      0.029881      0.006158
     2   Atom       -0.012375      0.011968     -0.025347
     3   Atom        0.001484     -0.001798      0.003458
     4   Atom        0.001184     -0.000811     -0.006936
     5   Atom       -0.000311      0.000313      0.003186
     6   Atom        0.000934     -0.001036     -0.006726
     7   Atom        0.000752     -0.000829     -0.006102
     8   Atom       -0.000133     -0.000126      0.000116
     9   Atom        0.000126      0.000115      0.000111
    10   Atom       -0.000320      0.000299      0.003188
    11   Atom        0.000727     -0.001368     -0.006711
    12   Atom        0.000498      0.000040      0.000354
    13   Atom        0.000044     -0.000004      0.000070
    14   Atom       -0.000091     -0.000085      0.000018
    15   Atom       -0.000151     -0.000075      0.000061
    16   Atom       -0.000062     -0.000166      0.000071
    17   Atom        0.000075      0.000138      0.000062
    18   Atom        0.000080      0.000074      0.000014
    19   Atom        0.000163      0.000042      0.000058
    20   Atom       -0.000026     -0.000071      0.000074
    21   Atom       -0.000089     -0.000513      0.000373
    22   Atom       -0.018472      0.020303      0.007412
 --------------------------------------------------------


 ---------------------------------------------------------------------------------
              Anisotropic Spin Dipole Couplings in Principal Axis System
 ---------------------------------------------------------------------------------

       Atom             a.u.   MegaHertz   Gauss  10(-4) cm-1        Axes

              Baa    -0.0518    -1.997    -0.713    -0.666 -0.3680 -0.6432  0.6715
     1 N(14)  Bbb    -0.0224    -0.863    -0.308    -0.288  0.0184  0.7170  0.6969
              Bcc     0.0741     2.860     1.020     0.954  0.9296 -0.2688  0.2520
 
              Baa    -0.0251    -3.366    -1.201    -1.123  0.0199  0.7152  0.6987
     2 C(13)  Bbb    -0.0091    -1.218    -0.435    -0.406  0.8957  0.2978 -0.3304
              Bcc     0.0342     4.584     1.636     1.529  0.4443 -0.6323  0.6346
 
              Baa    -0.0073    -0.983    -0.351    -0.328  0.1607 -0.6768  0.7184
     3 C(13)  Bbb     0.0000    -0.003    -0.001    -0.001  0.0208  0.7300  0.6831
              Bcc     0.0073     0.986     0.352     0.329  0.9868  0.0948 -0.1314
 
              Baa    -0.0053    -0.710    -0.253    -0.237 -0.1090  0.6738  0.7308
     4 C(13)  Bbb    -0.0036    -0.477    -0.170    -0.159  0.9873 -0.0119  0.1583
              Bcc     0.0088     1.186     0.423     0.396  0.1154  0.7388 -0.6640
 
              Baa    -0.0047    -0.633    -0.226    -0.211 -0.0571 -0.6749  0.7357
     5 C(13)  Bbb     0.0017     0.229     0.082     0.076  0.0136  0.7363  0.6765
              Bcc     0.0030     0.404     0.144     0.135  0.9983 -0.0487  0.0329
 
              Baa    -0.0049    -0.662    -0.236    -0.221  0.0178  0.7316  0.6815
     6 C(13)  Bbb    -0.0038    -0.507    -0.181    -0.169  0.9935 -0.0895  0.0702
              Bcc     0.0087     1.169     0.417     0.390 -0.1124 -0.6758  0.7284
 
              Baa    -0.0043    -0.167    -0.060    -0.056  0.0180  0.7322  0.6808
     7 N(14)  Bbb    -0.0037    -0.142    -0.051    -0.047  0.9952 -0.0786  0.0583
              Bcc     0.0080     0.309     0.110     0.103 -0.0962 -0.6765  0.7301
 
              Baa    -0.0003    -0.037    -0.013    -0.012  0.0266 -0.6251  0.7801
     8 C(13)  Bbb    -0.0001    -0.015    -0.006    -0.005  0.3952  0.7234  0.5661
              Bcc     0.0004     0.052     0.019     0.017  0.9182 -0.2933 -0.2663
 
              Baa    -0.0003    -0.037    -0.013    -0.012 -0.0238  0.7328 -0.6800
     9 C(13)  Bbb    -0.0001    -0.016    -0.006    -0.005 -0.3614  0.6279  0.6893
              Bcc     0.0004     0.052     0.019     0.017  0.9321  0.2621  0.2499
 
              Baa    -0.0047    -0.633    -0.226    -0.211 -0.0566 -0.6837  0.7276
    10 C(13)  Bbb     0.0017     0.227     0.081     0.076  0.0212  0.7278  0.6855
              Bcc     0.0030     0.405     0.145     0.135  0.9982 -0.0542  0.0267
 
              Baa    -0.0053    -0.711    -0.254    -0.237  0.1409  0.7809  0.6086
    11 C(13)  Bbb    -0.0036    -0.480    -0.171    -0.160  0.9823 -0.1870  0.0124
              Bcc     0.0089     1.192     0.425     0.398 -0.1234 -0.5961  0.7934
 
              Baa    -0.0008    -0.444    -0.158    -0.148  0.1910 -0.6919  0.6962
    12 H(1)   Bbb    -0.0002    -0.106    -0.038    -0.035 -0.3293  0.6230  0.7095
              Bcc     0.0010     0.550     0.196     0.183  0.9247  0.3648  0.1089
 
              Baa    -0.0004    -0.229    -0.082    -0.076  0.0249 -0.5638  0.8255
    13 H(1)   Bbb    -0.0003    -0.148    -0.053    -0.049 -0.0347  0.8248  0.5644
              Bcc     0.0007     0.377     0.135     0.126  0.9991  0.0427 -0.0009
 
              Baa    -0.0002    -0.088    -0.031    -0.029  0.1706 -0.0825  0.9819
    14 H(1)   Bbb    -0.0002    -0.081    -0.029    -0.027  0.2125  0.9761  0.0451
              Bcc     0.0003     0.169     0.060     0.056  0.9622 -0.2009 -0.1841
 
              Baa    -0.0002    -0.115    -0.041    -0.038  0.0261 -0.3778  0.9255
    15 H(1)   Bbb    -0.0001    -0.065    -0.023    -0.022  0.3981  0.8532  0.3370
              Bcc     0.0003     0.180     0.064     0.060  0.9170 -0.3596 -0.1727
 
              Baa    -0.0002    -0.113    -0.040    -0.038 -0.1020  0.8027 -0.5877
    16 H(1)   Bbb    -0.0001    -0.066    -0.024    -0.022  0.4079  0.5725  0.7112
              Bcc     0.0003     0.179     0.064     0.060  0.9073 -0.1672 -0.3858
 
              Baa    -0.0002    -0.114    -0.041    -0.038 -0.0129  0.8962 -0.4435
    17 H(1)   Bbb    -0.0001    -0.066    -0.023    -0.022 -0.3676  0.4083  0.8356
              Bcc     0.0003     0.180     0.064     0.060  0.9299  0.1738  0.3242
 
              Baa    -0.0002    -0.088    -0.031    -0.029 -0.1515  0.9805 -0.1254
    18 H(1)   Bbb    -0.0002    -0.081    -0.029    -0.027 -0.1807  0.0972  0.9787
              Bcc     0.0003     0.169     0.060     0.056  0.9718  0.1709  0.1624
 
              Baa    -0.0002    -0.112    -0.040    -0.037  0.1078 -0.5301  0.8410
    19 H(1)   Bbb    -0.0001    -0.066    -0.024    -0.022 -0.3756  0.7615  0.5282
              Bcc     0.0003     0.179     0.064     0.060  0.9205  0.3728  0.1170
 
              Baa    -0.0004    -0.230    -0.082    -0.077 -0.0209  0.7813 -0.6238
    20 H(1)   Bbb    -0.0003    -0.150    -0.054    -0.050  0.0718  0.6235  0.7785
              Bcc     0.0007     0.380     0.136     0.127  0.9972 -0.0285 -0.0692
 
              Baa    -0.0008    -0.447    -0.159    -0.149  0.1881 -0.6657  0.7222
    21 H(1)   Bbb    -0.0002    -0.109    -0.039    -0.037  0.3554  0.7316  0.5818
              Bcc     0.0010     0.556     0.199     0.186  0.9156 -0.1472 -0.3741
 
              Baa    -0.0448     0.973     0.347     0.324  0.8867  0.3111 -0.3419
    22 Ag(107 Bbb     0.0221    -0.480    -0.171    -0.160  0.4623 -0.6024  0.6507
              Bcc     0.0227    -0.493    -0.176    -0.164  0.0035  0.7350  0.6780
 

 ---------------------------------------------------------------------------------

 No NMR shielding tensors so no spin-rotation constants.
 Leave Link  601 at Fri Sep 11 21:07:03 2026, MaxMem=  6442450944 cpu:               1.0 elap:               1.4
 (Enter C:\G16W\l9999.exe)
 Unable to Open any file for archive entry.
 1|1|UNPC-DESKTOP-2JKEGCA|SP|UPBE1PBE|def2SVP|C9H10Ag1N2(2)|JHKIM|11-Se
 p-2026|0||#P PBE1PBE/Def2SVP EmpiricalDispersion=GD3BJ SP SCF=(XQC,Max
 Cycle=128) NoSymm Guess=Read||DMABN t=0.250 dz=+0.00 class=toface||0,2
 |N,0,5.143673,-0.350316,0.21822|C,0,3.998871,-0.272231,0.170326|C,0,2.
 596311,-0.177765,0.111532|C,0,1.861617,-1.009137,-0.736855|C,0,0.49137
 2,-0.916108,-0.795599|C,0,-0.21206,0.013916,-0.008461|N,0,-1.572327,0.
 10784,-0.067705|C,0,-2.276121,1.067277,0.747024|C,0,-2.327988,-0.75130
 9,-0.945467|C,0,0.541516,0.843475,0.842005|C,0,1.911725,0.749715,0.900
 076|H,0,2.379549,-1.731167,-1.351567|H,0,-0.036847,-1.576092,-1.463215
 |H,0,-3.344118,0.990693,0.558268|H,0,-1.962619,2.089882,0.51411|H,0,-2
 .105367,0.883166,1.812531|H,0,-2.039382,-0.601554,-1.990713|H,0,-3.387
 348,-0.525033,-0.852352|H,0,-2.182049,-1.805705,-0.689891|H,0,0.052874
 ,1.572236,1.466859|H,0,2.468717,1.398215,1.560873|Ag,0,7.2040912,0.188
 89534,-0.38782648||Version=EM64W-G16RevC.01|HF=-604.5467489|S2=0.75181
 1|S2-1=0.|S2A=0.750003|RMSD=7.807e-009|Dipole=-4.6075831,-0.1334743,0.
 2609341|Quadrupole=-35.6767012,18.2599195,17.4167816,-3.6859589,5.3550
 874,4.4932574|PG=C01 [X(C9H10Ag1N2)]||@
 The archive entry for this job was punched.


 YOU CANNOT THROW TO THE GROUND THE LETTERS OF
 THE GREEK ALPHABET AND PICK UP THE ILIAD.
        - RUFUS CHOATE, 1799-1859
 Job cpu time:       0 days  0 hours  2 minutes 50.0 seconds.
 Elapsed time:       0 days  0 hours  2 minutes 48.7 seconds.
 File lengths (MBytes):  RWF=     57 Int=      0 D2E=      0 Chk=      5 Scr=      1
 Normal termination of Gaussian 16 at Fri Sep 11 21:07:04 2026.
