 Entering Gaussian System, Link 0=C:\G16W\g16.exe
 Input=DMABN_t0_z0.gjf
 Output=DMABN_t0_z0.out
 Initial command:
 C:\G16W\l1.exe ".\Gau-74032.inp" "DMABN_t0_z0.out" /scrdir=".\"
 Entering Link 1 = C:\G16W\l1.exe PID=    156180.
  
 Copyright (c) 1988-2019, Gaussian, Inc.  All Rights Reserved.
  
 This is part of the Gaussian(R) 16 program.  It is based on
 the Gaussian(R) 09 system (copyright 2009, Gaussian, Inc.),
 the Gaussian(R) 03 system (copyright 2003, Gaussian, Inc.),
 the Gaussian(R) 98 system (copyright 1998, Gaussian, Inc.),
 the Gaussian(R) 94 system (copyright 1995, Gaussian, Inc.),
 the Gaussian 92(TM) system (copyright 1992, Gaussian, Inc.),
 the Gaussian 90(TM) system (copyright 1990, Gaussian, Inc.),
 the Gaussian 88(TM) system (copyright 1988, Gaussian, Inc.),
 the Gaussian 86(TM) system (copyright 1986, Carnegie Mellon
 University), and the Gaussian 82(TM) system (copyright 1983,
 Carnegie Mellon University). Gaussian is a federally registered
 trademark of Gaussian, Inc.
  
 This software contains proprietary and confidential information,
 including trade secrets, belonging to Gaussian, Inc.
  
 This software is provided under written license and may be
 used, copied, transmitted, or stored only in accord with that
 written license.
  
 The following legend is applicable only to US Government
 contracts under FAR:
  
                    RESTRICTED RIGHTS LEGEND
  
 Use, reproduction and disclosure by the US Government is
 subject to restrictions as set forth in subparagraphs (a)
 and (c) of the Commercial Computer Software - Restricted
 Rights clause in FAR 52.227-19.
  
 Gaussian, Inc.
 340 Quinnipiac St., Bldg. 40, Wallingford CT 06492
  
  
 ---------------------------------------------------------------
 Warning -- This program may not be used in any manner that
 competes with the business of Gaussian, Inc. or will provide
 assistance to any competitor of Gaussian, Inc.  The licensee
 of this program is prohibited from giving any competitor of
 Gaussian, Inc. access to this program.  By using this program,
 the user acknowledges that Gaussian, Inc. is engaged in the
 business of creating and licensing software in the field of
 computational chemistry and represents and warrants to the
 licensee that it is not a competitor of Gaussian, Inc. and that
 it will not use this program in any manner prohibited above.
 ---------------------------------------------------------------
  

 Cite this work as:
 Gaussian 16, Revision C.01,
 M. J. Frisch, G. W. Trucks, H. B. Schlegel, G. E. Scuseria, 
 M. A. Robb, J. R. Cheeseman, G. Scalmani, V. Barone, 
 G. A. Petersson, H. Nakatsuji, X. Li, M. Caricato, A. V. Marenich, 
 J. Bloino, B. G. Janesko, R. Gomperts, B. Mennucci, H. P. Hratchian, 
 J. V. Ortiz, A. F. Izmaylov, J. L. Sonnenberg, D. Williams-Young, 
 F. Ding, F. Lipparini, F. Egidi, J. Goings, B. Peng, A. Petrone, 
 T. Henderson, D. Ranasinghe, V. G. Zakrzewski, J. Gao, N. Rega, 
 G. Zheng, W. Liang, M. Hada, M. Ehara, K. Toyota, R. Fukuda, 
 J. Hasegawa, M. Ishida, T. Nakajima, Y. Honda, O. Kitao, H. Nakai, 
 T. Vreven, K. Throssell, J. A. Montgomery, Jr., J. E. Peralta, 
 F. Ogliaro, M. J. Bearpark, J. J. Heyd, E. N. Brothers, K. N. Kudin, 
 V. N. Staroverov, T. A. Keith, R. Kobayashi, J. Normand, 
 K. Raghavachari, A. P. Rendell, J. C. Burant, S. S. Iyengar, 
 J. Tomasi, M. Cossi, J. M. Millam, M. Klene, C. Adamo, R. Cammi, 
 J. W. Ochterski, R. L. Martin, K. Morokuma, O. Farkas, 
 J. B. Foresman, and D. J. Fox, Gaussian, Inc., Wallingford CT, 2019.
 
 ******************************************
 Gaussian 16:  EM64W-G16RevC.01 30-May-2019
                11-Sep-2026 
 ******************************************
 %Chk=DMABN.chk
 %NProcShared=8
 Will use up to    8 processors via shared memory.
 %Mem=48GB
 ----------------------------------------------------------------------
 #P PBE1PBE/Def2SVP EmpiricalDispersion=GD3BJ SP SCF=(XQC,MaxCycle=128,
 VShift=300) NoSymm
 ----------------------------------------------------------------------
 1/38=1,172=1/1;
 2/12=2,15=1,17=6,18=5,40=1/2;
 3/5=43,7=101,11=2,25=1,30=1,74=-13,124=41/1,2,3;
 4//1;
 5/5=2,7=128,8=3,10=300,13=1,38=5/2,8;
 6/7=2,8=2,9=2,10=2,28=1/1;
 99/5=1,9=1/99;
 Leave Link    1 at Fri Sep 11 20:54:57 2026, MaxMem=  6442450944 cpu:               0.0 elap:               0.2
 (Enter C:\G16W\l101.exe)
 -----------------------------------
 DMABN t=0.000 dz=+0.00 class=toface
 -----------------------------------
 Symbolic Z-matrix:
 Charge =  0 Multiplicity = 2
 N                     5.14367  -0.35032   0.21822 
 C                     3.99887  -0.27223   0.17033 
 C                     2.59631  -0.17777   0.11153 
 C                     1.86162  -1.00914  -0.73686 
 C                     0.49137  -0.91611  -0.7956 
 C                    -0.21206   0.01392  -0.00846 
 N                    -1.57233   0.10784  -0.06771 
 C                    -2.27612   1.06728   0.74702 
 C                    -2.32799  -0.75131  -0.94547 
 C                     0.54152   0.84348   0.84201 
 C                     1.91173   0.74972   0.90008 
 H                     2.37955  -1.73117  -1.35157 
 H                    -0.03685  -1.57609  -1.46322 
 H                    -3.34412   0.99069   0.55827 
 H                    -1.96262   2.08988   0.51411 
 H                    -2.10537   0.88317   1.81253 
 H                    -2.03938  -0.60155  -1.99071 
 H                    -3.38735  -0.52503  -0.85235 
 H                    -2.18205  -1.80571  -0.68989 
 H                     0.05287   1.57224   1.46686 
 H                     2.46872   1.39822   1.56087 
 Ag                    7.43635  -0.5067    0.31414 
 
 ITRead=  0  0  0  0  0  0  0  0  0  0  0  0  0  0  0  0  0  0  0  0
 ITRead=  0  0
 MicOpt= -1 -1 -1 -1 -1 -1 -1 -1 -1 -1 -1 -1 -1 -1 -1 -1 -1 -1 -1 -1
 MicOpt= -1 -1
 NAtoms=     22 NQM=       22 NQMF=       0 NMMI=      0 NMMIF=      0
                NMic=       0 NMicF=      0.
                    Isotopes and Nuclear Properties:
 (Nuclear quadrupole moments (NQMom) in fm**2, nuclear magnetic moments (NMagM)
  in nuclear magnetons)

  Atom         1           2           3           4           5           6           7           8           9          10
 IAtWgt=          14          12          12          12          12          12          14          12          12          12
 AtmWgt=  14.0030740  12.0000000  12.0000000  12.0000000  12.0000000  12.0000000  14.0030740  12.0000000  12.0000000  12.0000000
 NucSpn=           2           0           0           0           0           0           2           0           0           0
 AtZEff=   0.0000000   0.0000000   0.0000000   0.0000000   0.0000000   0.0000000   0.0000000   0.0000000   0.0000000   0.0000000
 NQMom=    2.0440000   0.0000000   0.0000000   0.0000000   0.0000000   0.0000000   2.0440000   0.0000000   0.0000000   0.0000000
 NMagM=    0.4037610   0.0000000   0.0000000   0.0000000   0.0000000   0.0000000   0.4037610   0.0000000   0.0000000   0.0000000
 AtZNuc=   7.0000000   6.0000000   6.0000000   6.0000000   6.0000000   6.0000000   7.0000000   6.0000000   6.0000000   6.0000000

  Atom        11          12          13          14          15          16          17          18          19          20
 IAtWgt=          12           1           1           1           1           1           1           1           1           1
 AtmWgt=  12.0000000   1.0078250   1.0078250   1.0078250   1.0078250   1.0078250   1.0078250   1.0078250   1.0078250   1.0078250
 NucSpn=           0           1           1           1           1           1           1           1           1           1
 AtZEff=   0.0000000   0.0000000   0.0000000   0.0000000   0.0000000   0.0000000   0.0000000   0.0000000   0.0000000   0.0000000
 NQMom=    0.0000000   0.0000000   0.0000000   0.0000000   0.0000000   0.0000000   0.0000000   0.0000000   0.0000000   0.0000000
 NMagM=    0.0000000   2.7928460   2.7928460   2.7928460   2.7928460   2.7928460   2.7928460   2.7928460   2.7928460   2.7928460
 AtZNuc=   6.0000000   1.0000000   1.0000000   1.0000000   1.0000000   1.0000000   1.0000000   1.0000000   1.0000000   1.0000000

  Atom        21          22
 IAtWgt=           1         107
 AtmWgt=   1.0078250 106.9050900
 NucSpn=           1           1
 AtZEff=   0.0000000   0.0000000
 NQMom=    0.0000000   0.0000000
 NMagM=    2.7928460  -0.1135700
 AtZNuc=   1.0000000  47.0000000
 Leave Link  101 at Fri Sep 11 20:54:58 2026, MaxMem=  6442450944 cpu:               1.0 elap:               0.3
 (Enter C:\G16W\l202.exe)
                          Input orientation:                          
 ---------------------------------------------------------------------
 Center     Atomic      Atomic             Coordinates (Angstroms)
 Number     Number       Type             X           Y           Z
 ---------------------------------------------------------------------
      1          7           0        5.143673   -0.350316    0.218220
      2          6           0        3.998871   -0.272231    0.170326
      3          6           0        2.596311   -0.177765    0.111532
      4          6           0        1.861617   -1.009137   -0.736855
      5          6           0        0.491372   -0.916108   -0.795599
      6          6           0       -0.212060    0.013916   -0.008461
      7          7           0       -1.572327    0.107840   -0.067705
      8          6           0       -2.276121    1.067277    0.747024
      9          6           0       -2.327988   -0.751309   -0.945467
     10          6           0        0.541516    0.843475    0.842005
     11          6           0        1.911725    0.749715    0.900076
     12          1           0        2.379549   -1.731167   -1.351567
     13          1           0       -0.036847   -1.576092   -1.463215
     14          1           0       -3.344118    0.990693    0.558268
     15          1           0       -1.962619    2.089882    0.514110
     16          1           0       -2.105367    0.883166    1.812531
     17          1           0       -2.039382   -0.601554   -1.990713
     18          1           0       -3.387348   -0.525033   -0.852352
     19          1           0       -2.182049   -1.805705   -0.689891
     20          1           0        0.052874    1.572236    1.466859
     21          1           0        2.468717    1.398215    1.560873
     22         47           0        7.436345   -0.506695    0.314138
 ---------------------------------------------------------------------
                    Distance matrix (angstroms):
                    1          2          3          4          5
     1  N    0.000000
     2  C    1.148461   0.000000
     3  C    2.555427   1.406967   0.000000
     4  C    3.481107   2.435952   1.396680   0.000000
     5  C    4.794982   3.694609   2.408071   1.374655   0.000000
     6  C    5.372888   4.224427   2.817461   2.424321   1.406893
     7  N    6.737679   5.589218   4.182253   3.672516   2.416020
     8  C    7.572486   6.442235   5.068981   4.861509   3.737983
     9  C    7.572363   6.442333   5.069016   4.202712   2.828146
    10  C    4.795216   3.694490   2.408050   2.769050   2.404245
    11  C    3.481449   2.435793   1.396667   2.403251   2.769058
    12  H    3.465741   2.658356   2.144925   1.080487   2.130407
    13  H    5.582789   4.544835   3.371745   2.110261   1.077175
    14  H    8.599798   7.460896   6.070714   5.725062   4.492197
    15  H    7.519408   6.421614   5.107655   5.078741   4.095532
    16  H    7.524087   6.426002   5.111237   5.081057   4.096679
    17  H    7.519228   6.421763   5.107708   4.117776   2.816373
    18  H    8.599708   7.460966   6.070737   5.272507   3.898798
    19  H    7.523897   6.426141   5.111281   4.121645   2.819528
    20  H    5.583148   4.544662   3.371719   3.845958   3.391586
    21  H    3.466333   2.658079   2.144897   3.382820   3.849538
    22  Ag   2.300000   3.448461   4.855427   5.695141   7.044983
                    6          7          8          9         10
     6  C    0.000000
     7  N    1.364792   0.000000
     8  C    2.437350   1.442092   0.000000
     9  C    2.437355   1.442091   2.484848   0.000000
    10  C    1.406889   2.416002   2.828107   3.737973   0.000000
    11  C    2.424315   3.672495   4.202657   4.861509   1.374640
    12  H    3.400836   4.543960   5.823284   4.825551   3.849533
    13  H    2.162206   2.672223   4.109368   2.489509   3.391585
    14  H    3.329424   2.076178   1.087250   2.515613   3.898760
    15  H    2.765352   2.102220   1.094648   3.215000   2.816334
    16  H    2.766987   2.102510   1.094696   3.213662   2.819483
    17  H    2.765363   2.102223   3.215003   1.094650   4.095538
    18  H    3.329425   2.076174   2.515607   1.087251   4.492175
    19  H    2.766988   2.102506   3.213658   1.094700   4.096665
    20  H    2.162203   2.672194   2.489450   4.109341   1.077175
    21  H    3.400832   4.543938   4.825490   5.823278   2.130402
    22  Ag   7.672888   9.037678   9.848694   9.848281   7.045585
                   11         12         13         14         15
    11  C    0.000000
    12  H    3.382829   0.000000
    13  H    3.845966   2.423940   0.000000
    14  H    5.272456   6.619392   4.648959   0.000000
    15  H    4.117713   6.077466   4.588875   1.765986   0.000000
    16  H    4.121579   6.079533   4.588816   1.766138   1.778324
    17  H    5.078763   4.605593   2.288695   3.276414   3.677480
    18  H    5.725047   5.912789   3.564230   2.071025   3.276408
    19  H    5.081058   4.609940   2.291865   3.275385   4.083303
    20  H    2.110240   4.926400   4.301785   3.564167   2.288646
    21  H    1.080484   4.275896   4.926405   5.912727   4.605524
    22  Ag   5.695903   5.463066   7.755720  10.886696   9.753088
                   16         17         18         19         20
    16  H    0.000000
    17  H    4.083309   0.000000
    18  H    3.275378   1.765994   0.000000
    19  H    3.673966   1.778334   1.766143   0.000000
    20  H    2.291792   4.588867   4.648914   4.588784   0.000000
    21  H    4.609865   6.077483   6.619368   6.079528   2.423926
    22  Ag   9.758133   9.752473  10.886384   9.757510   7.756698
                   21         22
    21  H    0.000000
    22  Ag   5.464463   0.000000
 Symmetry turned off by external request.
 Stoichiometry    C9H10AgN2(2)
 Framework group  C1[X(C9H10AgN2)]
 Deg. of freedom    60
 Full point group                 C1      NOp   1
 Rotational constants (GHZ):           3.5123373           0.1408997           0.1356973
 Leave Link  202 at Fri Sep 11 20:54:58 2026, MaxMem=  6442450944 cpu:               0.0 elap:               0.1
 (Enter C:\G16W\l301.exe)
 Standard basis: def2SVP (5D, 7F)
 Ernie: Thresh=  0.10000D-02 Tol=  0.10000D-05 Strict=F.
   235 basis functions,   410 primitive gaussians,   251 cartesian basis functions
    49 alpha electrons       48 beta electrons
       nuclear repulsion energy       689.6881635745 Hartrees.
 IExCor= 1009 DFT=T Ex+Corr=PBE1PBE ExCW=0 ScaHFX=  0.250000
 ScaDFX=  0.750000  0.750000  1.000000  1.000000 ScalE2=  1.000000  1.000000
 IRadAn=      5 IRanWt=     -1 IRanGd=            0 ICorTp=0 IEmpDi=141
 NAtoms=   22 NActive=   22 NUniq=   22 SFac= 1.00D+00 NAtFMM=   60 NAOKFM=F Big=F
 Integral buffers will be    131072 words long.
 Raffenetti 2 integral format.
 Two-electron integral symmetry is turned off.
 R6Disp:  Grimme-D3(BJ) Dispersion energy=       -0.0218447222 Hartrees.
 Nuclear repulsion after empirical dispersion term =      689.6663188523 Hartrees.
 Leave Link  301 at Fri Sep 11 20:54:58 2026, MaxMem=  6442450944 cpu:               0.0 elap:               0.2
 (Enter C:\G16W\l302.exe)
 NPDir=0 NMtPBC=     1 NCelOv=     1 NCel=       1 NClECP=     1 NCelD=      1
         NCelK=      1 NCelE2=     1 NClLst=     1 CellRange=     0.0.
 One-electron integrals computed using PRISM.
   1 Symmetry operations used in ECPInt.
 ECPInt:  NShTT=    5778 NPrTT=   20489 LenC2=    5386 LenP2D=   14504.
 LDataN:  DoStor=T MaxTD1= 7 Len=  274
 NBasis=   235 RedAO= T EigKep=  2.44D-04  NBF=   235
 NBsUse=   235 1.00D-06 EigRej= -1.00D+00 NBFU=   235
 Precomputing XC quadrature grid using
 IXCGrd= 4 IRadAn=           5 IRanWt=          -1 IRanGd=           0 AccXCQ= 0.00D+00.
 Defaulting to unpruned grid for atomic number  47.
 Generated NRdTot=       0 NPtTot=           0 NUsed=           0 NTot=          32
 NSgBfM=   250   250   250   250   250 MxSgAt=    22 MxSgA2=    22.
 Leave Link  302 at Fri Sep 11 20:55:03 2026, MaxMem=  6442450944 cpu:               5.0 elap:               4.4
 (Enter C:\G16W\l303.exe)
 DipDrv:  MaxL=1.
 Leave Link  303 at Fri Sep 11 20:55:03 2026, MaxMem=  6442450944 cpu:               0.0 elap:               0.2
 (Enter C:\G16W\l401.exe)
 ExpMin= 3.75D-02 ExpMax= 1.71D+03 ExpMxC= 2.58D+02 IAcc=3 IRadAn=         5 AccDes= 0.00D+00
 Harris functional with IExCor= 1009 and IRadAn=       5 diagonalized for initial guess.
 HarFok:  IExCor= 1009 AccDes= 0.00D+00 IRadAn=         5 IDoV= 1 UseB2=F ITyADJ=14
 ICtDFT=  3500011 ScaDFX=  1.000000  1.000000  1.000000  1.000000
 Defaulting to unpruned grid for atomic number  47.
 FoFCou: FMM=F IPFlag=           0 FMFlag=      100000 FMFlg1=           0
         NFxFlg=           0 DoJE=T BraDBF=F KetDBF=T FulRan=T
         wScrn=  0.000000 ICntrl=       500 IOpCl=  0 I1Cent=   200000004 NGrid=           0
         NMat0=    1 NMatS0=      1 NMatT0=    0 NMatD0=    1 NMtDS0=    0 NMtDT0=    0
 Symmetry not used in FoFCou.
 Harris En= -605.000023696038    
 JPrj=0 DoOrth=F DoCkMO=F.
 Initial guess <Sx>= 0.0000 <Sy>= 0.0000 <Sz>= 0.5000 <S**2>= 0.7500 S= 0.5000
 Leave Link  401 at Fri Sep 11 20:55:08 2026, MaxMem=  6442450944 cpu:               5.0 elap:               4.5
 (Enter C:\G16W\l502.exe)
 Two-electron integral symmetry not used.
 UHF open shell SCF:
 Using DIIS extrapolation, IDIIS=  1040.
 NGot=  6442450944 LenX=  6442320325 LenY=  6442256883
 Requested convergence on RMS density matrix=1.00D-08 within 128 cycles.
 Requested convergence on MAX density matrix=1.00D-06.
 Requested convergence on             energy=1.00D-06.
 Virtual orbitals will be shifted by   0.300 hartree.
 No special actions if energy rises.
 Fock matrices will be formed incrementally for  20 cycles.

 Cycle   1  Pass 1  IDiag  1:
 FoFJK:  IHMeth= 1 ICntrl=       0 DoSepK=F KAlg= 0 I1Cent=           0 FoldK=F
 IRaf= 880000000 NMat=       1 IRICut=       1 DoRegI=T DoRafI=F ISym2E= 0 IDoP0=0 IntGTp=1.
 FoFCou: FMM=F IPFlag=           0 FMFlag=      100000 FMFlg1=           0
         NFxFlg=           0 DoJE=F BraDBF=F KetDBF=F FulRan=T
         wScrn=  0.000000 ICntrl=         0 IOpCl=  1 I1Cent=           0 NGrid=           0
         NMat0=    1 NMatS0=      1 NMatT0=    0 NMatD0=    1 NMtDS0=    0 NMtDT0=    0
 Symmetry not used in FoFCou.
 Defaulting to unpruned grid for atomic number  47.
 Defaulting to unpruned grid for atomic number  47.
 Defaulting to unpruned grid for atomic number  47.
 Defaulting to unpruned grid for atomic number  47.
 Defaulting to unpruned grid for atomic number  47.
 Defaulting to unpruned grid for atomic number  47.
 Defaulting to unpruned grid for atomic number  47.
 Defaulting to unpruned grid for atomic number  47.
 E= -604.044555672235    
 DIIS: error= 5.75D-02 at cycle   1 NSaved=   1.
 NSaved= 1 IEnMin= 1 EnMin= -604.044555672235     IErMin= 1 ErrMin= 5.75D-02
 ErrMax= 5.75D-02  0.00D+00 EMaxC= 1.00D-01 BMatC= 1.40D+00 BMatP= 1.40D+00
 IDIUse=3 WtCom= 4.25D-01 WtEn= 5.75D-01
 Coeff-Com:  0.100D+01
 Coeff-En:   0.100D+01
 Coeff:      0.100D+01
 Gap=     0.132 Goal=   None    Shift=    0.300
 Gap=     0.771 Goal=   None    Shift=    0.300
 GapD=    0.132 DampG=1.000 DampE=0.250 DampFc=0.2500 IDamp=-1.
 Damping current iteration by 2.50D-01
 RMSDP=7.45D-03 MaxDP=9.21D-01              OVMax= 9.92D-01

 Cycle   2  Pass 1  IDiag  1:
 RMSU=  1.81D-03    CP:  9.83D-01
 E= -604.258816044005     Delta-E=       -0.214260371770 Rises=F Damp=T
 DIIS: error= 3.02D-02 at cycle   2 NSaved=   2.
 NSaved= 2 IEnMin= 2 EnMin= -604.258816044005     IErMin= 2 ErrMin= 3.02D-02
 ErrMax= 3.02D-02  0.00D+00 EMaxC= 1.00D-01 BMatC= 4.69D-01 BMatP= 1.40D+00
 IDIUse=3 WtCom= 6.98D-01 WtEn= 3.02D-01
 Coeff-Com: -0.123D+01 0.223D+01
 Coeff-En:   0.000D+00 0.100D+01
 Coeff:     -0.859D+00 0.186D+01
 Gap=     0.111 Goal=   None    Shift=    0.300
 Gap=     0.089 Goal=   None    Shift=    0.300
 RMSDP=4.83D-03 MaxDP=5.43D-01 DE=-2.14D-01 OVMax= 7.27D-02

 Cycle   3  Pass 1  IDiag  1:
 RMSU=  1.46D-03    CP:  9.34D-01  3.00D+00
 E= -604.461058917791     Delta-E=       -0.202242873786 Rises=F Damp=F
 DIIS: error= 2.49D-02 at cycle   3 NSaved=   3.
 NSaved= 3 IEnMin= 3 EnMin= -604.461058917791     IErMin= 3 ErrMin= 2.49D-02
 ErrMax= 2.49D-02  0.00D+00 EMaxC= 1.00D-01 BMatC= 2.54D-01 BMatP= 4.69D-01
 IDIUse=3 WtCom= 7.51D-01 WtEn= 2.49D-01
 EnCoef did   100 forward-backward iterations
 Coeff-Com:  0.184D+00 0.152D+00 0.664D+00
 Coeff-En:   0.129D+00 0.345D-02 0.867D+00
 Coeff:      0.171D+00 0.115D+00 0.715D+00
 Gap=     0.058 Goal=   None    Shift=    0.300
 Gap=     0.184 Goal=   None    Shift=    0.300
 RMSDP=1.30D-03 MaxDP=1.53D-01 DE=-2.02D-01 OVMax= 6.12D-02

 Cycle   4  Pass 1  IDiag  1:
 RMSU=  1.27D-03    CP:  9.40D-01  2.99D+00  9.91D-01
 E= -604.535665136996     Delta-E=       -0.074606219204 Rises=F Damp=F
 DIIS: error= 5.33D-03 at cycle   4 NSaved=   4.
 NSaved= 4 IEnMin= 4 EnMin= -604.535665136996     IErMin= 4 ErrMin= 5.33D-03
 ErrMax= 5.33D-03  0.00D+00 EMaxC= 1.00D-01 BMatC= 1.89D-02 BMatP= 2.54D-01
 IDIUse=3 WtCom= 9.47D-01 WtEn= 5.33D-02
 Coeff-Com: -0.298D+00 0.456D+00-0.397D+00 0.124D+01
 Coeff-En:   0.000D+00 0.000D+00 0.000D+00 0.100D+01
 Coeff:     -0.282D+00 0.432D+00-0.376D+00 0.123D+01
 Gap=     0.054 Goal=   None    Shift=    0.300
 Gap=     0.213 Goal=   None    Shift=    0.300
 RMSDP=6.33D-04 MaxDP=9.86D-02 DE=-7.46D-02 OVMax= 3.94D-02

 Cycle   5  Pass 1  IDiag  1:
 RMSU=  4.38D-04    CP:  9.41D-01  2.81D+00  1.10D+00  1.23D+00
 E= -604.544752060503     Delta-E=       -0.009086923508 Rises=F Damp=F
 DIIS: error= 2.11D-03 at cycle   5 NSaved=   5.
 NSaved= 5 IEnMin= 5 EnMin= -604.544752060503     IErMin= 5 ErrMin= 2.11D-03
 ErrMax= 2.11D-03  0.00D+00 EMaxC= 1.00D-01 BMatC= 2.91D-03 BMatP= 1.89D-02
 IDIUse=3 WtCom= 9.79D-01 WtEn= 2.11D-02
 Coeff-Com: -0.140D+00 0.204D+00-0.161D+00 0.709D-01 0.103D+01
 Coeff-En:   0.000D+00 0.000D+00 0.000D+00 0.000D+00 0.100D+01
 Coeff:     -0.137D+00 0.200D+00-0.158D+00 0.695D-01 0.103D+01
 Gap=     0.068 Goal=   None    Shift=    0.300
 Gap=     0.188 Goal=   None    Shift=    0.300
 RMSDP=3.03D-04 MaxDP=5.02D-02 DE=-9.09D-03 OVMax= 2.16D-02

 Cycle   6  Pass 1  IDiag  1:
 RMSU=  1.12D-04    CP:  9.40D-01  2.74D+00  1.14D+00  1.32D+00  1.48D+00
 E= -604.546414826151     Delta-E=       -0.001662765648 Rises=F Damp=F
 DIIS: error= 1.35D-03 at cycle   6 NSaved=   6.
 NSaved= 6 IEnMin= 6 EnMin= -604.546414826151     IErMin= 6 ErrMin= 1.35D-03
 ErrMax= 1.35D-03  0.00D+00 EMaxC= 1.00D-01 BMatC= 6.30D-04 BMatP= 2.91D-03
 IDIUse=3 WtCom= 9.87D-01 WtEn= 1.35D-02
 Coeff-Com: -0.805D-02 0.489D-02-0.101D-01-0.216D+00 0.339D+00 0.890D+00
 Coeff-En:   0.000D+00 0.000D+00 0.000D+00 0.000D+00 0.000D+00 0.100D+01
 Coeff:     -0.794D-02 0.482D-02-0.993D-02-0.213D+00 0.334D+00 0.892D+00
 Gap=     0.072 Goal=   None    Shift=    0.300
 Gap=     0.188 Goal=   None    Shift=    0.300
 RMSDP=1.66D-04 MaxDP=2.72D-02 DE=-1.66D-03 OVMax= 1.32D-02

 Cycle   7  Pass 1  IDiag  1:
 RMSU=  6.49D-05    CP:  9.40D-01  2.70D+00  1.16D+00  1.36D+00  1.73D+00
                    CP:  1.40D+00
 E= -604.546887397455     Delta-E=       -0.000472571304 Rises=F Damp=F
 DIIS: error= 5.28D-04 at cycle   7 NSaved=   7.
 NSaved= 7 IEnMin= 7 EnMin= -604.546887397455     IErMin= 7 ErrMin= 5.28D-04
 ErrMax= 5.28D-04  0.00D+00 EMaxC= 1.00D-01 BMatC= 1.27D-04 BMatP= 6.30D-04
 IDIUse=3 WtCom= 9.95D-01 WtEn= 5.28D-03
 Coeff-Com:  0.222D-02-0.735D-02 0.152D-01-0.936D-01-0.103D+00 0.172D+00
 Coeff-Com:  0.101D+01
 Coeff-En:   0.000D+00 0.000D+00 0.000D+00 0.000D+00 0.000D+00 0.000D+00
 Coeff-En:   0.100D+01
 Coeff:      0.221D-02-0.731D-02 0.151D-01-0.931D-01-0.103D+00 0.171D+00
 Coeff:      0.101D+01
 Gap=     0.075 Goal=   None    Shift=    0.300
 Gap=     0.188 Goal=   None    Shift=    0.300
 RMSDP=9.14D-05 MaxDP=1.44D-02 DE=-4.73D-04 OVMax= 8.57D-03

 Cycle   8  Pass 1  IDiag  1:
 RMSU=  2.63D-05    CP:  9.40D-01  2.68D+00  1.17D+00  1.38D+00  1.86D+00
                    CP:  1.74D+00  1.50D+00
 E= -604.547021867864     Delta-E=       -0.000134470409 Rises=F Damp=F
 DIIS: error= 3.21D-04 at cycle   8 NSaved=   8.
 NSaved= 8 IEnMin= 8 EnMin= -604.547021867864     IErMin= 8 ErrMin= 3.21D-04
 ErrMax= 3.21D-04  0.00D+00 EMaxC= 1.00D-01 BMatC= 3.82D-05 BMatP= 1.27D-04
 IDIUse=3 WtCom= 9.97D-01 WtEn= 3.21D-03
 Coeff-Com: -0.868D-02 0.133D-01-0.292D-02 0.682D-01-0.160D+00-0.281D+00
 Coeff-Com:  0.656D-01 0.131D+01
 Coeff-En:   0.000D+00 0.000D+00 0.000D+00 0.000D+00 0.000D+00 0.000D+00
 Coeff-En:   0.000D+00 0.100D+01
 Coeff:     -0.865D-02 0.133D-01-0.291D-02 0.680D-01-0.159D+00-0.280D+00
 Coeff:      0.654D-01 0.130D+01
 Gap=     0.076 Goal=   None    Shift=    0.300
 Gap=     0.188 Goal=   None    Shift=    0.300
 RMSDP=5.78D-05 MaxDP=8.67D-03 DE=-1.34D-04 OVMax= 5.61D-03

 Cycle   9  Pass 1  IDiag  1:
 RMSU=  1.25D-05    CP:  9.40D-01  2.67D+00  1.18D+00  1.39D+00  1.93D+00
                    CP:  2.01D+00  1.93D+00  1.49D+00
 E= -604.547071945328     Delta-E=       -0.000050077464 Rises=F Damp=F
 DIIS: error= 2.33D-04 at cycle   9 NSaved=   9.
 NSaved= 9 IEnMin= 9 EnMin= -604.547071945328     IErMin= 9 ErrMin= 2.33D-04
 ErrMax= 2.33D-04  0.00D+00 EMaxC= 1.00D-01 BMatC= 1.31D-05 BMatP= 3.82D-05
 IDIUse=3 WtCom= 9.98D-01 WtEn= 2.33D-03
 Coeff-Com: -0.170D-02 0.258D-02-0.354D-02 0.250D-01-0.118D-01-0.132D+00
 Coeff-Com: -0.231D+00 0.284D-01 0.132D+01
 Coeff-En:   0.000D+00 0.000D+00 0.000D+00 0.000D+00 0.000D+00 0.000D+00
 Coeff-En:   0.000D+00 0.000D+00 0.100D+01
 Coeff:     -0.170D-02 0.258D-02-0.353D-02 0.250D-01-0.118D-01-0.132D+00
 Coeff:     -0.230D+00 0.283D-01 0.132D+01
 Gap=     0.076 Goal=   None    Shift=    0.300
 Gap=     0.188 Goal=   None    Shift=    0.300
 RMSDP=3.68D-05 MaxDP=5.13D-03 DE=-5.01D-05 OVMax= 3.83D-03

 Cycle  10  Pass 1  IDiag  1:
 RMSU=  6.84D-06    CP:  9.40D-01  2.66D+00  1.18D+00  1.40D+00  1.96D+00
                    CP:  2.16D+00  2.20D+00  1.93D+00  1.65D+00
 E= -604.547092658061     Delta-E=       -0.000020712733 Rises=F Damp=F
 DIIS: error= 1.53D-04 at cycle  10 NSaved=  10.
 NSaved=10 IEnMin=10 EnMin= -604.547092658061     IErMin=10 ErrMin= 1.53D-04
 ErrMax= 1.53D-04  0.00D+00 EMaxC= 1.00D-01 BMatC= 5.32D-06 BMatP= 1.31D-05
 IDIUse=3 WtCom= 9.98D-01 WtEn= 1.53D-03
 Coeff-Com:  0.253D-02-0.407D-02-0.537D-03-0.170D-01 0.643D-01 0.261D-01
 Coeff-Com: -0.196D+00-0.504D+00 0.270D+00 0.136D+01
 Coeff-En:   0.000D+00 0.000D+00 0.000D+00 0.000D+00 0.000D+00 0.000D+00
 Coeff-En:   0.000D+00 0.000D+00 0.000D+00 0.100D+01
 Coeff:      0.252D-02-0.406D-02-0.536D-03-0.170D-01 0.642D-01 0.260D-01
 Coeff:     -0.196D+00-0.503D+00 0.269D+00 0.136D+01
 Gap=     0.076 Goal=   None    Shift=    0.300
 Gap=     0.188 Goal=   None    Shift=    0.300
 RMSDP=2.45D-05 MaxDP=3.07D-03 DE=-2.07D-05 OVMax= 2.70D-03

 Cycle  11  Pass 1  IDiag  1:
 RMSU=  3.92D-06    CP:  9.40D-01  2.66D+00  1.18D+00  1.40D+00  1.99D+00
                    CP:  2.25D+00  2.39D+00  2.26D+00  2.24D+00  1.54D+00
 E= -604.547101644761     Delta-E=       -0.000008986700 Rises=F Damp=F
 DIIS: error= 9.95D-05 at cycle  11 NSaved=  11.
 NSaved=11 IEnMin=11 EnMin= -604.547101644761     IErMin=11 ErrMin= 9.95D-05
 ErrMax= 9.95D-05  0.00D+00 EMaxC= 1.00D-01 BMatC= 2.00D-06 BMatP= 5.32D-06
 IDIUse=1 WtCom= 1.00D+00 WtEn= 0.00D+00
 Coeff-Com:  0.114D-02-0.191D-02 0.740D-03-0.152D-01 0.374D-01 0.418D-01
 Coeff-Com: -0.598D-01-0.254D+00-0.303D+00 0.347D+00 0.121D+01
 Coeff:      0.114D-02-0.191D-02 0.740D-03-0.152D-01 0.374D-01 0.418D-01
 Coeff:     -0.598D-01-0.254D+00-0.303D+00 0.347D+00 0.121D+01
 Gap=     0.076 Goal=   None    Shift=    0.300
 Gap=     0.188 Goal=   None    Shift=    0.300
 RMSDP=1.54D-05 MaxDP=1.72D-03 DE=-8.99D-06 OVMax= 1.76D-03

 Cycle  12  Pass 1  IDiag  1:
 RMSU=  2.37D-06    CP:  9.40D-01  2.66D+00  1.18D+00  1.40D+00  2.00D+00
                    CP:  2.31D+00  2.50D+00  2.46D+00  2.65D+00  2.04D+00
                    CP:  1.60D+00
 E= -604.547105236905     Delta-E=       -0.000003592144 Rises=F Damp=F
 DIIS: error= 6.62D-05 at cycle  12 NSaved=  12.
 NSaved=12 IEnMin=12 EnMin= -604.547105236905     IErMin=12 ErrMin= 6.62D-05
 ErrMax= 6.62D-05  0.00D+00 EMaxC= 1.00D-01 BMatC= 7.78D-07 BMatP= 2.00D-06
 IDIUse=1 WtCom= 1.00D+00 WtEn= 0.00D+00
 Coeff-Com: -0.149D-03 0.200D-03 0.734D-03 0.201D-03-0.737D-02 0.778D-02
 Coeff-Com:  0.375D-01 0.892D-01-0.355D+00-0.381D+00 0.178D+00 0.143D+01
 Coeff:     -0.149D-03 0.200D-03 0.734D-03 0.201D-03-0.737D-02 0.778D-02
 Coeff:      0.375D-01 0.892D-01-0.355D+00-0.381D+00 0.178D+00 0.143D+01
 Gap=     0.076 Goal=   None    Shift=    0.300
 Gap=     0.188 Goal=   None    Shift=    0.300
 RMSDP=9.78D-06 MaxDP=9.78D-04 DE=-3.59D-06 OVMax= 1.14D-03

 Cycle  13  Pass 1  IDiag  1:
 RMSU=  1.27D-06    CP:  9.40D-01  2.66D+00  1.18D+00  1.40D+00  2.01D+00
                    CP:  2.34D+00  2.57D+00  2.60D+00  2.93D+00  2.45D+00
                    CP:  2.18D+00  1.63D+00
 E= -604.547106689973     Delta-E=       -0.000001453068 Rises=F Damp=F
 DIIS: error= 4.04D-05 at cycle  13 NSaved=  13.
 NSaved=13 IEnMin=13 EnMin= -604.547106689973     IErMin=13 ErrMin= 4.04D-05
 ErrMax= 4.04D-05  0.00D+00 EMaxC= 1.00D-01 BMatC= 3.48D-07 BMatP= 7.78D-07
 IDIUse=1 WtCom= 1.00D+00 WtEn= 0.00D+00
 Coeff-Com: -0.254D-03 0.399D-03-0.364D-04 0.685D-02-0.182D-01-0.132D-01
 Coeff-Com:  0.295D-01 0.161D+00-0.570D-01-0.325D+00-0.657D+00 0.349D+00
 Coeff-Com:  0.152D+01
 Coeff:     -0.254D-03 0.399D-03-0.364D-04 0.685D-02-0.182D-01-0.132D-01
 Coeff:      0.295D-01 0.161D+00-0.570D-01-0.325D+00-0.657D+00 0.349D+00
 Coeff:      0.152D+01
 Gap=     0.076 Goal=   None    Shift=    0.300
 Gap=     0.188 Goal=   None    Shift=    0.300
 RMSDP=6.43D-06 MaxDP=5.86D-04 DE=-1.45D-06 OVMax= 7.58D-04

 Cycle  14  Pass 1  IDiag  1:
 RMSU=  1.67D-06    CP:  9.40D-01  2.66D+00  1.18D+00  1.40D+00  2.01D+00
                    CP:  2.37D+00  2.62D+00  2.69D+00  3.00D+00  2.76D+00
                    CP:  2.67D+00  2.17D+00  1.48D+00
 E= -604.547107302456     Delta-E=       -0.000000612483 Rises=F Damp=F
 DIIS: error= 2.72D-05 at cycle  14 NSaved=  14.
 NSaved=14 IEnMin=14 EnMin= -604.547107302456     IErMin=14 ErrMin= 2.72D-05
 ErrMax= 2.72D-05  0.00D+00 EMaxC= 1.00D-01 BMatC= 1.47D-07 BMatP= 3.48D-07
 IDIUse=1 WtCom= 1.00D+00 WtEn= 0.00D+00
 Coeff-Com:  0.110D-03-0.167D-03-0.578D-05-0.237D-03 0.107D-02-0.119D-02
 Coeff-Com: -0.124D-01 0.906D-02 0.571D-01 0.583D-01-0.287D+00-0.222D+00
 Coeff-Com: -0.487D+00 0.188D+01
 Coeff:      0.110D-03-0.167D-03-0.578D-05-0.237D-03 0.107D-02-0.119D-02
 Coeff:     -0.124D-01 0.906D-02 0.571D-01 0.583D-01-0.287D+00-0.222D+00
 Coeff:     -0.487D+00 0.188D+01
 Gap=     0.076 Goal=   None    Shift=    0.300
 Gap=     0.188 Goal=   None    Shift=    0.300
 RMSDP=4.11D-06 MaxDP=3.56D-04 DE=-6.12D-07 OVMax= 4.95D-04

 Cycle  15  Pass 1  IDiag  1:
 RMSU=  4.21D-07    CP:  9.40D-01  2.66D+00  1.19D+00  1.40D+00  2.02D+00
                    CP:  2.38D+00  2.64D+00  2.74D+00  3.00D+00  2.96D+00
                    CP:  2.97D+00  2.62D+00  1.98D+00  1.96D+00
 E= -604.547107550510     Delta-E=       -0.000000248055 Rises=F Damp=F
 DIIS: error= 1.78D-05 at cycle  15 NSaved=  15.
 NSaved=15 IEnMin=15 EnMin= -604.547107550510     IErMin=15 ErrMin= 1.78D-05
 ErrMax= 1.78D-05  0.00D+00 EMaxC= 1.00D-01 BMatC= 5.94D-08 BMatP= 1.47D-07
 IDIUse=1 WtCom= 1.00D+00 WtEn= 0.00D+00
 Coeff-Com:  0.102D-03-0.143D-03 0.104D-03-0.140D-02 0.422D-02 0.485D-03
 Coeff-Com: -0.104D-01-0.256D-01 0.129D-01 0.776D-01 0.898D-01-0.123D+00
 Coeff-Com: -0.559D+00-0.397D+00 0.193D+01
 Coeff:      0.102D-03-0.143D-03 0.104D-03-0.140D-02 0.422D-02 0.485D-03
 Coeff:     -0.104D-01-0.256D-01 0.129D-01 0.776D-01 0.898D-01-0.123D+00
 Coeff:     -0.559D+00-0.397D+00 0.193D+01
 Gap=     0.076 Goal=   None    Shift=    0.300
 Gap=     0.188 Goal=   None    Shift=    0.300
 RMSDP=2.65D-06 MaxDP=2.21D-04 DE=-2.48D-07 OVMax= 3.16D-04

 Cycle  16  Pass 1  IDiag  1:
 RMSU=  9.37D-07    CP:  9.40D-01  2.66D+00  1.19D+00  1.40D+00  2.02D+00
                    CP:  2.39D+00  2.66D+00  2.78D+00  3.00D+00  3.00D+00
                    CP:  3.00D+00  2.94D+00  2.38D+00  2.58D+00  1.78D+00
 E= -604.547107651754     Delta-E=       -0.000000101243 Rises=F Damp=F
 DIIS: error= 1.18D-05 at cycle  16 NSaved=  16.
 NSaved=16 IEnMin=16 EnMin= -604.547107651754     IErMin=16 ErrMin= 1.18D-05
 ErrMax= 1.18D-05  0.00D+00 EMaxC= 1.00D-01 BMatC= 2.69D-08 BMatP= 5.94D-08
 IDIUse=1 WtCom= 1.00D+00 WtEn= 0.00D+00
 Coeff-Com:  0.975D-05-0.206D-05 0.106D-03-0.248D-03 0.286D-03 0.445D-03
 Coeff-Com:  0.402D-02-0.164D-02-0.330D-01-0.291D-01 0.112D+00 0.904D-01
 Coeff-Com:  0.156D+00-0.136D+01 0.430D+00 0.163D+01
 Coeff:      0.975D-05-0.206D-05 0.106D-03-0.248D-03 0.286D-03 0.445D-03
 Coeff:      0.402D-02-0.164D-02-0.330D-01-0.291D-01 0.112D+00 0.904D-01
 Coeff:      0.156D+00-0.136D+01 0.430D+00 0.163D+01
 Gap=     0.076 Goal=   None    Shift=    0.300
 Gap=     0.188 Goal=   None    Shift=    0.300
 RMSDP=1.73D-06 MaxDP=1.41D-04 DE=-1.01D-07 OVMax= 2.08D-04

 Cycle  17  Pass 1  IDiag  1:
 RMSU=  3.90D-07    CP:  9.40D-01  2.66D+00  1.19D+00  1.40D+00  2.02D+00
                    CP:  2.39D+00  2.67D+00  2.80D+00  3.00D+00  3.00D+00
                    CP:  3.00D+00  3.00D+00  2.68D+00  3.00D+00  2.56D+00
                    CP:  1.86D+00
 E= -604.547107694974     Delta-E=       -0.000000043220 Rises=F Damp=F
 DIIS: error= 7.41D-06 at cycle  17 NSaved=  17.
 NSaved=17 IEnMin=17 EnMin= -604.547107694974     IErMin=17 ErrMin= 7.41D-06
 ErrMax= 7.41D-06  0.00D+00 EMaxC= 1.00D-01 BMatC= 1.17D-08 BMatP= 2.69D-08
 IDIUse=1 WtCom= 1.00D+00 WtEn= 0.00D+00
 Coeff-Com:  0.220D-04-0.319D-04 0.509D-05 0.109D-02-0.321D-02-0.992D-03
 Coeff-Com:  0.638D-02 0.256D-01-0.227D-01-0.607D-01-0.649D-01 0.116D+00
 Coeff-Com:  0.332D+00-0.291D+00-0.621D+00-0.365D+00 0.195D+01
 Coeff:      0.220D-04-0.319D-04 0.509D-05 0.109D-02-0.321D-02-0.992D-03
 Coeff:      0.638D-02 0.256D-01-0.227D-01-0.607D-01-0.649D-01 0.116D+00
 Coeff:      0.332D+00-0.291D+00-0.621D+00-0.365D+00 0.195D+01
 Gap=     0.076 Goal=   None    Shift=    0.300
 Gap=     0.188 Goal=   None    Shift=    0.300
 RMSDP=1.14D-06 MaxDP=9.09D-05 DE=-4.32D-08 OVMax= 1.39D-04

 Cycle  18  Pass 1  IDiag  1:
 RMSU=  4.67D-07    CP:  9.40D-01  2.66D+00  1.19D+00  1.40D+00  2.02D+00
                    CP:  2.39D+00  2.68D+00  2.81D+00  3.00D+00  3.00D+00
                    CP:  3.00D+00  3.00D+00  2.85D+00  3.00D+00  3.00D+00
                    CP:  2.46D+00  2.00D+00
 E= -604.547107714307     Delta-E=       -0.000000019333 Rises=F Damp=F
 DIIS: error= 5.06D-06 at cycle  18 NSaved=  18.
 NSaved=18 IEnMin=18 EnMin= -604.547107714307     IErMin=18 ErrMin= 5.06D-06
 ErrMax= 5.06D-06  0.00D+00 EMaxC= 1.00D-01 BMatC= 5.11D-09 BMatP= 1.17D-08
 IDIUse=1 WtCom= 1.00D+00 WtEn= 0.00D+00
 Coeff-Com: -0.278D-05 0.368D-05-0.666D-05 0.634D-03-0.189D-02-0.693D-03
 Coeff-Com:  0.192D-02 0.163D-01-0.439D-02-0.228D-01-0.803D-01 0.464D-01
 Coeff-Com:  0.108D+00 0.266D+00-0.404D+00-0.864D+00 0.552D+00 0.139D+01
 Coeff:     -0.278D-05 0.368D-05-0.666D-05 0.634D-03-0.189D-02-0.693D-03
 Coeff:      0.192D-02 0.163D-01-0.439D-02-0.228D-01-0.803D-01 0.464D-01
 Coeff:      0.108D+00 0.266D+00-0.404D+00-0.864D+00 0.552D+00 0.139D+01
 Gap=     0.076 Goal=   None    Shift=    0.300
 Gap=     0.188 Goal=   None    Shift=    0.300
 RMSDP=7.46D-07 MaxDP=5.73D-05 DE=-1.93D-08 OVMax= 9.29D-05

 Cycle  19  Pass 1  IDiag  1:
 RMSU=  1.77D-07    CP:  9.40D-01  2.66D+00  1.19D+00  1.41D+00  2.02D+00
                    CP:  2.40D+00  2.68D+00  2.82D+00  3.00D+00  3.00D+00
                    CP:  3.00D+00  3.00D+00  2.98D+00  3.00D+00  3.00D+00
                    CP:  2.85D+00  2.71D+00  1.66D+00
 E= -604.547107722708     Delta-E=       -0.000000008401 Rises=F Damp=F
 DIIS: error= 3.16D-06 at cycle  19 NSaved=  19.
 NSaved=19 IEnMin=19 EnMin= -604.547107722708     IErMin=19 ErrMin= 3.16D-06
 ErrMax= 3.16D-06  0.00D+00 EMaxC= 1.00D-01 BMatC= 2.26D-09 BMatP= 5.11D-09
 IDIUse=1 WtCom= 1.00D+00 WtEn= 0.00D+00
 Coeff-Com: -0.226D-04 0.341D-04 0.330D-05-0.217D-03 0.562D-03 0.729D-04
 Coeff-Com: -0.189D-02-0.319D-02 0.881D-02 0.156D-01-0.159D-01-0.262D-01
 Coeff-Com: -0.113D+00 0.250D+00 0.127D+00-0.283D+00-0.850D+00 0.308D+00
 Coeff-Com:  0.158D+01
 Coeff:     -0.226D-04 0.341D-04 0.330D-05-0.217D-03 0.562D-03 0.729D-04
 Coeff:     -0.189D-02-0.319D-02 0.881D-02 0.156D-01-0.159D-01-0.262D-01
 Coeff:     -0.113D+00 0.250D+00 0.127D+00-0.283D+00-0.850D+00 0.308D+00
 Coeff:      0.158D+01
 Gap=     0.076 Goal=   None    Shift=    0.300
 Gap=     0.188 Goal=   None    Shift=    0.300
 RMSDP=5.01D-07 MaxDP=3.64D-05 DE=-8.40D-09 OVMax= 6.35D-05

 Cycle  20  Pass 1  IDiag  1:
 RMSU=  1.63D-07    CP:  9.40D-01  2.66D+00  1.19D+00  1.41D+00  2.02D+00
                    CP:  2.40D+00  2.69D+00  2.83D+00  3.00D+00  3.00D+00
                    CP:  3.00D+00  3.00D+00  3.00D+00  3.00D+00  3.00D+00
                    CP:  3.00D+00  3.00D+00  2.14D+00  1.65D+00
 E= -604.547107726555     Delta-E=       -0.000000003847 Rises=F Damp=F
 DIIS: error= 1.88D-06 at cycle  20 NSaved=  20.
 NSaved=20 IEnMin=20 EnMin= -604.547107726555     IErMin=20 ErrMin= 1.88D-06
 ErrMax= 1.88D-06  0.00D+00 EMaxC= 1.00D-01 BMatC= 9.97D-10 BMatP= 2.26D-09
 IDIUse=1 WtCom= 1.00D+00 WtEn= 0.00D+00
 Coeff-Com:  0.193D-04-0.275D-04 0.181D-04-0.222D-03 0.609D-03 0.767D-04
 Coeff-Com: -0.836D-03-0.441D-02 0.366D-02 0.811D-02 0.138D-01-0.189D-01
 Coeff-Com: -0.546D-01-0.325D-01 0.190D+00 0.161D+00-0.556D+00-0.358D+00
 Coeff-Com:  0.145D+00 0.150D+01
 Coeff:      0.193D-04-0.275D-04 0.181D-04-0.222D-03 0.609D-03 0.767D-04
 Coeff:     -0.836D-03-0.441D-02 0.366D-02 0.811D-02 0.138D-01-0.189D-01
 Coeff:     -0.546D-01-0.325D-01 0.190D+00 0.161D+00-0.556D+00-0.358D+00
 Coeff:      0.145D+00 0.150D+01
 Gap=     0.076 Goal=   None    Shift=    0.300
 Gap=     0.188 Goal=   None    Shift=    0.300
 RMSDP=3.34D-07 MaxDP=2.33D-05 DE=-3.85D-09 OVMax= 4.46D-05

 Cycle  21  Pass 1  IDiag  1:
 Restarting incremental Fock formation.
 E= -604.547107728275     Delta-E=       -0.000000001719 Rises=F Damp=F
 DIIS: error= 1.33D-06 at cycle  21 NSaved=  20.
 NSaved=20 IEnMin=20 EnMin= -604.547107728275     IErMin=20 ErrMin= 1.33D-06
 ErrMax= 1.33D-06  0.00D+00 EMaxC= 1.00D-01 BMatC= 4.78D-10 BMatP= 9.97D-10
 IDIUse=1 WtCom= 1.00D+00 WtEn= 0.00D+00
 Coeff-Com:  0.136D-05 0.174D-05 0.201D-03-0.545D-03-0.185D-03 0.137D-02
 Coeff-Com:  0.472D-02-0.814D-02-0.135D-01 0.361D-02 0.241D-01 0.821D-01
 Coeff-Com: -0.164D+00-0.564D-01 0.915D-01 0.477D+00-0.223D+00-0.887D+00
 Coeff-Com: -0.839D+00 0.251D+01
 Coeff:      0.136D-05 0.174D-05 0.201D-03-0.545D-03-0.185D-03 0.137D-02
 Coeff:      0.472D-02-0.814D-02-0.135D-01 0.361D-02 0.241D-01 0.821D-01
 Coeff:     -0.164D+00-0.564D-01 0.915D-01 0.477D+00-0.223D+00-0.887D+00
 Coeff:     -0.839D+00 0.251D+01
 Gap=     0.076 Goal=   None    Shift=    0.300
 Gap=     0.188 Goal=   None    Shift=    0.300
 RMSDP=2.28D-07 MaxDP=1.46D-05 DE=-1.72D-09 OVMax= 3.26D-05

 Cycle  22  Pass 1  IDiag  1:
 RMSU=  2.28D-07    CP:  1.00D+00
 E= -604.547107729139     Delta-E=       -0.000000000864 Rises=F Damp=F
 DIIS: error= 8.20D-07 at cycle  22 NSaved=  20.
 NSaved=20 IEnMin=20 EnMin= -604.547107729139     IErMin=20 ErrMin= 8.20D-07
 ErrMax= 8.20D-07  0.00D+00 EMaxC= 1.00D-01 BMatC= 2.62D-10 BMatP= 4.78D-10
 IDIUse=1 WtCom= 1.00D+00 WtEn= 0.00D+00
 Coeff-Com: -0.100D-05 0.168D-03-0.512D-03-0.195D-04 0.906D-03 0.430D-02
 Coeff-Com: -0.578D-02-0.936D-02-0.644D-02 0.220D-01 0.584D-01-0.681D-01
 Coeff-Com: -0.951D-01-0.545D-01 0.500D+00 0.641D-01-0.542D+00-0.132D+01
 Coeff-Com:  0.905D+00 0.154D+01
 Coeff:     -0.100D-05 0.168D-03-0.512D-03-0.195D-04 0.906D-03 0.430D-02
 Coeff:     -0.578D-02-0.936D-02-0.644D-02 0.220D-01 0.584D-01-0.681D-01
 Coeff:     -0.951D-01-0.545D-01 0.500D+00 0.641D-01-0.542D+00-0.132D+01
 Coeff:      0.905D+00 0.154D+01
 Gap=     0.076 Goal=   None    Shift=    0.300
 Gap=     0.188 Goal=   None    Shift=    0.300
 RMSDP=1.59D-07 MaxDP=9.35D-06 DE=-8.64D-10 OVMax= 2.47D-05

 Cycle  23  Pass 1  IDiag  1:
 RMSU=  2.76D-08    CP:  1.00D+00  1.69D+00
 E= -604.547107729600     Delta-E=       -0.000000000461 Rises=F Damp=F
 DIIS: error= 6.03D-07 at cycle  23 NSaved=  20.
 NSaved=20 IEnMin=20 EnMin= -604.547107729600     IErMin=20 ErrMin= 6.03D-07
 ErrMax= 6.03D-07  0.00D+00 EMaxC= 1.00D-01 BMatC= 1.31D-10 BMatP= 2.62D-10
 IDIUse=1 WtCom= 1.00D+00 WtEn= 0.00D+00
 Coeff-Com: -0.119D-04 0.250D-04 0.352D-04-0.202D-03-0.312D-03 0.137D-02
 Coeff-Com:  0.191D-02-0.532D-02 0.775D-04-0.179D-01 0.436D-01 0.353D-02
 Coeff-Com: -0.633D-01-0.537D-01 0.166D+00 0.216D+00-0.243D+00-0.879D+00
 Coeff-Com: -0.161D+00 0.199D+01
 Coeff:     -0.119D-04 0.250D-04 0.352D-04-0.202D-03-0.312D-03 0.137D-02
 Coeff:      0.191D-02-0.532D-02 0.775D-04-0.179D-01 0.436D-01 0.353D-02
 Coeff:     -0.633D-01-0.537D-01 0.166D+00 0.216D+00-0.243D+00-0.879D+00
 Coeff:     -0.161D+00 0.199D+01
 Gap=     0.076 Goal=   None    Shift=    0.300
 Gap=     0.188 Goal=   None    Shift=    0.300
 RMSDP=1.14D-07 MaxDP=5.86D-06 DE=-4.61D-10 OVMax= 1.93D-05

 Cycle  24  Pass 1  IDiag  1:
 RMSU=  1.82D-08    CP:  1.00D+00  2.16D+00  2.23D+00
 E= -604.547107729831     Delta-E=       -0.000000000231 Rises=F Damp=F
 DIIS: error= 5.13D-07 at cycle  24 NSaved=  20.
 NSaved=20 IEnMin=20 EnMin= -604.547107729831     IErMin=20 ErrMin= 5.13D-07
 ErrMax= 5.13D-07  0.00D+00 EMaxC= 1.00D-01 BMatC= 7.23D-11 BMatP= 1.31D-10
 IDIUse=1 WtCom= 1.00D+00 WtEn= 0.00D+00
 Coeff-Com:  0.221D-04-0.943D-04-0.261D-04-0.301D-03 0.128D-02 0.321D-03
 Coeff-Com: -0.530D-03-0.341D-02-0.591D-02 0.913D-02 0.163D-01 0.171D-01
 Coeff-Com: -0.113D+00-0.741D-02 0.108D+00 0.388D+00-0.336D+00-0.900D+00
 Coeff-Com: -0.241D+00 0.207D+01
 Coeff:      0.221D-04-0.943D-04-0.261D-04-0.301D-03 0.128D-02 0.321D-03
 Coeff:     -0.530D-03-0.341D-02-0.591D-02 0.913D-02 0.163D-01 0.171D-01
 Coeff:     -0.113D+00-0.741D-02 0.108D+00 0.388D+00-0.336D+00-0.900D+00
 Coeff:     -0.241D+00 0.207D+01
 Gap=     0.076 Goal=   None    Shift=    0.300
 Gap=     0.188 Goal=   None    Shift=    0.300
 RMSDP=8.49D-08 MaxDP=3.62D-06 DE=-2.31D-10 OVMax= 1.54D-05

 Cycle  25  Pass 1  IDiag  1:
 RMSU=  1.82D-08    CP:  1.00D+00  2.48D+00  3.00D+00  1.97D+00
 E= -604.547107730026     Delta-E=       -0.000000000195 Rises=F Damp=F
 DIIS: error= 4.37D-07 at cycle  25 NSaved=  20.
 NSaved=20 IEnMin=20 EnMin= -604.547107730026     IErMin=20 ErrMin= 4.37D-07
 ErrMax= 4.37D-07  0.00D+00 EMaxC= 1.00D-01 BMatC= 4.37D-11 BMatP= 7.23D-11
 IDIUse=1 WtCom= 1.00D+00 WtEn= 0.00D+00
 Coeff-Com:  0.181D-05 0.105D-03 0.167D-03-0.120D-02-0.112D-02 0.519D-02
 Coeff-Com:  0.475D-04 0.952D-02-0.394D-01 0.849D-02 0.471D-01 0.391D-01
 Coeff-Com: -0.105D+00-0.168D+00 0.110D+00 0.555D+00-0.164D+00-0.122D+01
 Coeff-Com: -0.389D+00 0.232D+01
 Coeff:      0.181D-05 0.105D-03 0.167D-03-0.120D-02-0.112D-02 0.519D-02
 Coeff:      0.475D-04 0.952D-02-0.394D-01 0.849D-02 0.471D-01 0.391D-01
 Coeff:     -0.105D+00-0.168D+00 0.110D+00 0.555D+00-0.164D+00-0.122D+01
 Coeff:     -0.389D+00 0.232D+01
 Gap=     0.076 Goal=   None    Shift=    0.300
 Gap=     0.188 Goal=   None    Shift=    0.300
 RMSDP=6.70D-08 MaxDP=2.37D-06 DE=-1.95D-10 OVMax= 1.29D-05

 Cycle  26  Pass 1  IDiag  1:
 RMSU=  1.42D-08    CP:  1.00D+00  2.72D+00  3.00D+00  2.97D+00  2.81D+00
 E= -604.547107730141     Delta-E=       -0.000000000115 Rises=F Damp=F
 DIIS: error= 3.71D-07 at cycle  26 NSaved=  20.
 NSaved=20 IEnMin=20 EnMin= -604.547107730141     IErMin=20 ErrMin= 3.71D-07
 ErrMax= 3.71D-07  0.00D+00 EMaxC= 1.00D-01 BMatC= 2.75D-11 BMatP= 4.37D-11
 IDIUse=1 WtCom= 1.00D+00 WtEn= 0.00D+00
 Coeff-Com: -0.330D-04 0.604D-04-0.439D-03 0.536D-04 0.168D-02 0.691D-03
 Coeff-Com:  0.292D-02-0.156D-01 0.456D-02 0.673D-02 0.419D-01-0.275D-01
 Coeff-Com: -0.878D-01-0.877D-01 0.228D+00 0.137D+00-0.163D+00-0.841D+00
 Coeff-Com: -0.133D+00 0.193D+01
 Coeff:     -0.330D-04 0.604D-04-0.439D-03 0.536D-04 0.168D-02 0.691D-03
 Coeff:      0.292D-02-0.156D-01 0.456D-02 0.673D-02 0.419D-01-0.275D-01
 Coeff:     -0.878D-01-0.877D-01 0.228D+00 0.137D+00-0.163D+00-0.841D+00
 Coeff:     -0.133D+00 0.193D+01
 Gap=     0.076 Goal=   None    Shift=    0.300
 Gap=     0.188 Goal=   None    Shift=    0.300
 RMSDP=5.30D-08 MaxDP=1.87D-06 DE=-1.15D-10 OVMax= 1.07D-05

 Cycle  27  Pass 1  IDiag  1:
 RMSU=  3.03D-08    CP:  1.00D+00  2.89D+00  3.00D+00  3.00D+00  3.00D+00
                    CP:  1.81D+00
 E= -604.547107730199     Delta-E=       -0.000000000058 Rises=F Damp=F
 DIIS: error= 3.15D-07 at cycle  27 NSaved=  20.
 NSaved=20 IEnMin=20 EnMin= -604.547107730199     IErMin=20 ErrMin= 3.15D-07
 ErrMax= 3.15D-07  0.00D+00 EMaxC= 1.00D-01 BMatC= 1.89D-11 BMatP= 2.75D-11
 IDIUse=1 WtCom= 1.00D+00 WtEn= 0.00D+00
 Coeff-Com: -0.210D-04 0.139D-03 0.291D-03-0.233D-02 0.208D-02-0.270D-02
 Coeff-Com:  0.151D-01-0.894D-02-0.316D-01 0.215D-01 0.700D-01 0.386D-01
 Coeff-Com: -0.206D+00-0.255D+00 0.219D+00 0.860D+00-0.313D+00-0.207D+01
 Coeff-Com:  0.641D+00 0.202D+01
 Coeff:     -0.210D-04 0.139D-03 0.291D-03-0.233D-02 0.208D-02-0.270D-02
 Coeff:      0.151D-01-0.894D-02-0.316D-01 0.215D-01 0.700D-01 0.386D-01
 Coeff:     -0.206D+00-0.255D+00 0.219D+00 0.860D+00-0.313D+00-0.207D+01
 Coeff:      0.641D+00 0.202D+01
 Gap=     0.076 Goal=   None    Shift=    0.300
 Gap=     0.188 Goal=   None    Shift=    0.300
 RMSDP=4.48D-08 MaxDP=1.54D-06 DE=-5.82D-11 OVMax= 9.34D-06

 Cycle  28  Pass 1  IDiag  1:
 RMSU=  9.15D-09    CP:  1.00D+00  3.00D+00  3.00D+00  3.00D+00  3.00D+00
                    CP:  2.62D+00  1.98D+00
 E= -604.547107730252     Delta-E=       -0.000000000053 Rises=F Damp=F
 DIIS: error= 2.68D-07 at cycle  28 NSaved=  20.
 NSaved=20 IEnMin=20 EnMin= -604.547107730252     IErMin=20 ErrMin= 2.68D-07
 ErrMax= 2.68D-07  0.00D+00 EMaxC= 1.00D-01 BMatC= 1.35D-11 BMatP= 1.89D-11
 IDIUse=1 WtCom= 1.00D+00 WtEn= 0.00D+00
 Coeff-Com:  0.345D-03 0.654D-04-0.269D-02 0.117D-02-0.469D-02 0.252D-01
 Coeff-Com: -0.139D-01-0.319D-01-0.483D-02 0.845D-01 0.808D-01-0.151D+00
 Coeff-Com: -0.291D+00 0.701D-01 0.635D+00 0.365D+00-0.128D+01-0.124D+01
 Coeff-Com:  0.947D+00 0.182D+01
 Coeff:      0.345D-03 0.654D-04-0.269D-02 0.117D-02-0.469D-02 0.252D-01
 Coeff:     -0.139D-01-0.319D-01-0.483D-02 0.845D-01 0.808D-01-0.151D+00
 Coeff:     -0.291D+00 0.701D-01 0.635D+00 0.365D+00-0.128D+01-0.124D+01
 Coeff:      0.947D+00 0.182D+01
 Gap=     0.076 Goal=   None    Shift=    0.300
 Gap=     0.188 Goal=   None    Shift=    0.300
 RMSDP=3.79D-08 MaxDP=1.27D-06 DE=-5.28D-11 OVMax= 8.09D-06

 Cycle  29  Pass 1  IDiag  1:
 RMSU=  1.70D-08    CP:  1.00D+00  3.00D+00  3.00D+00  3.00D+00  3.00D+00
                    CP:  3.00D+00  2.88D+00  2.99D+00
 E= -604.547107730297     Delta-E=       -0.000000000045 Rises=F Damp=F
 DIIS: error= 2.27D-07 at cycle  29 NSaved=  20.
 NSaved=20 IEnMin=20 EnMin= -604.547107730297     IErMin=20 ErrMin= 2.27D-07
 ErrMax= 2.27D-07  0.00D+00 EMaxC= 1.00D-01 BMatC= 9.81D-12 BMatP= 1.35D-11
 IDIUse=1 WtCom= 1.00D+00 WtEn= 0.00D+00
 Coeff-Com: -0.307D-03 0.149D-02-0.740D-03 0.147D-03-0.715D-02 0.305D-02
 Coeff-Com:  0.199D-01-0.161D-01-0.164D-01-0.102D-01 0.662D-01 0.681D-01
 Coeff-Com: -0.178D+00-0.204D+00 0.493D+00 0.378D+00-0.142D+01-0.282D+00
 Coeff-Com:  0.115D+00 0.199D+01
 Coeff:     -0.307D-03 0.149D-02-0.740D-03 0.147D-03-0.715D-02 0.305D-02
 Coeff:      0.199D-01-0.161D-01-0.164D-01-0.102D-01 0.662D-01 0.681D-01
 Coeff:     -0.178D+00-0.204D+00 0.493D+00 0.378D+00-0.142D+01-0.282D+00
 Coeff:      0.115D+00 0.199D+01
 Gap=     0.076 Goal=   None    Shift=    0.300
 Gap=     0.188 Goal=   None    Shift=    0.300
 RMSDP=3.13D-08 MaxDP=1.05D-06 DE=-4.55D-11 OVMax= 6.78D-06

 Cycle  30  Pass 1  IDiag  1:
 RMSU=  2.52D-08    CP:  1.00D+00  3.00D+00  3.00D+00  3.00D+00  3.00D+00
                    CP:  3.00D+00  3.00D+00  3.00D+00  1.82D+00
 E= -604.547107730316     Delta-E=       -0.000000000019 Rises=F Damp=F
 DIIS: error= 1.91D-07 at cycle  30 NSaved=  20.
 NSaved=20 IEnMin=20 EnMin= -604.547107730316     IErMin=20 ErrMin= 1.91D-07
 ErrMax= 1.91D-07  0.00D+00 EMaxC= 1.00D-01 BMatC= 7.05D-12 BMatP= 9.81D-12
 IDIUse=1 WtCom= 1.00D+00 WtEn= 0.00D+00
 Coeff-Com:  0.639D-03-0.685D-03 0.202D-02-0.686D-02 0.312D-02 0.669D-02
 Coeff-Com: -0.159D-02-0.295D-01-0.147D-01 0.714D-01 0.120D+00-0.156D+00
 Coeff-Com: -0.216D+00 0.725D-01 0.728D+00-0.153D+00-0.666D+00-0.147D+01
 Coeff-Com: -0.211D+00 0.292D+01
 Coeff:      0.639D-03-0.685D-03 0.202D-02-0.686D-02 0.312D-02 0.669D-02
 Coeff:     -0.159D-02-0.295D-01-0.147D-01 0.714D-01 0.120D+00-0.156D+00
 Coeff:     -0.216D+00 0.725D-01 0.728D+00-0.153D+00-0.666D+00-0.147D+01
 Coeff:     -0.211D+00 0.292D+01
 Gap=     0.076 Goal=   None    Shift=    0.300
 Gap=     0.188 Goal=   None    Shift=    0.300
 RMSDP=2.75D-08 MaxDP=9.21D-07 DE=-1.89D-11 OVMax= 5.99D-06

 Cycle  31  Pass 1  IDiag  1:
 RMSU=  4.16D-09    CP:  1.00D+00  3.00D+00  3.00D+00  3.00D+00  3.00D+00
                    CP:  3.00D+00  3.00D+00  3.00D+00  2.51D+00  1.97D+00
 E= -604.547107730334     Delta-E=       -0.000000000018 Rises=F Damp=F
 DIIS: error= 1.61D-07 at cycle  31 NSaved=  20.
 NSaved=20 IEnMin=20 EnMin= -604.547107730334     IErMin=20 ErrMin= 1.61D-07
 ErrMax= 1.61D-07  0.00D+00 EMaxC= 1.00D-01 BMatC= 5.32D-12 BMatP= 7.05D-12
 IDIUse=1 WtCom= 1.00D+00 WtEn= 0.00D+00
 Coeff-Com:  0.279D-03 0.268D-02-0.401D-02-0.178D-02-0.730D-02 0.306D-01
 Coeff-Com: -0.188D-01-0.370D-01-0.368D-01 0.132D+00 0.296D-01-0.151D-01
 Coeff-Com: -0.367D+00 0.179D+00 0.837D+00-0.175D+00-0.130D+01-0.170D+01
 Coeff-Com:  0.158D+01 0.187D+01
 Coeff:      0.279D-03 0.268D-02-0.401D-02-0.178D-02-0.730D-02 0.306D-01
 Coeff:     -0.188D-01-0.370D-01-0.368D-01 0.132D+00 0.296D-01-0.151D-01
 Coeff:     -0.367D+00 0.179D+00 0.837D+00-0.175D+00-0.130D+01-0.170D+01
 Coeff:      0.158D+01 0.187D+01
 Gap=     0.076 Goal=   None    Shift=    0.300
 Gap=     0.188 Goal=   None    Shift=    0.300
 RMSDP=2.33D-08 MaxDP=7.85D-07 DE=-1.82D-11 OVMax= 5.08D-06

 Cycle  32  Pass 1  IDiag  1:
 RMSU=  3.35D-09    CP:  1.00D+00  3.00D+00  3.00D+00  3.00D+00  3.00D+00
                    CP:  3.00D+00  3.00D+00  3.00D+00  3.00D+00  2.79D+00
                    CP:  1.92D+00
 E= -604.547107730333     Delta-E=        0.000000000002 Rises=F Damp=F
 DIIS: error= 1.34D-07 at cycle  32 NSaved=  20.
 NSaved=20 IEnMin=19 EnMin= -604.547107730334     IErMin=20 ErrMin= 1.34D-07
 ErrMax= 1.34D-07  0.00D+00 EMaxC= 1.00D-01 BMatC= 3.49D-12 BMatP= 5.32D-12
 IDIUse=1 WtCom= 1.00D+00 WtEn= 0.00D+00
 Coeff-Com:  0.286D-04 0.188D-02-0.282D-02 0.108D-02 0.368D-02-0.184D-02
 Coeff-Com: -0.128D-02-0.290D-01-0.300D-02 0.518D-01 0.426D-01-0.113D+00
 Coeff-Com: -0.172D+00 0.191D+00 0.196D+00-0.835D-01-0.246D+00-0.683D+00
 Coeff-Com: -0.117D+01 0.302D+01
 Coeff:      0.286D-04 0.188D-02-0.282D-02 0.108D-02 0.368D-02-0.184D-02
 Coeff:     -0.128D-02-0.290D-01-0.300D-02 0.518D-01 0.426D-01-0.113D+00
 Coeff:     -0.172D+00 0.191D+00 0.196D+00-0.835D-01-0.246D+00-0.683D+00
 Coeff:     -0.117D+01 0.302D+01
 Gap=     0.076 Goal=   None    Shift=    0.300
 Gap=     0.188 Goal=   None    Shift=    0.300
 RMSDP=1.99D-08 MaxDP=6.71D-07 DE= 1.59D-12 OVMax= 4.31D-06

 Cycle  33  Pass 1  IDiag  1:
 RMSU=  1.35D-08    CP:  1.00D+00  3.00D+00  3.00D+00  3.00D+00  3.00D+00
                    CP:  3.00D+00  3.00D+00  3.00D+00  3.00D+00  3.00D+00
                    CP:  2.88D+00  2.97D+00
 E= -604.547107730376     Delta-E=       -0.000000000043 Rises=F Damp=F
 DIIS: error= 1.11D-07 at cycle  33 NSaved=  20.
 NSaved=20 IEnMin=20 EnMin= -604.547107730376     IErMin=20 ErrMin= 1.11D-07
 ErrMax= 1.11D-07  0.00D+00 EMaxC= 1.00D-01 BMatC= 2.69D-12 BMatP= 3.49D-12
 IDIUse=1 WtCom= 1.00D+00 WtEn= 0.00D+00
 Coeff-Com:  0.687D-03-0.484D-03 0.383D-02-0.696D-02 0.129D-02 0.124D-01
 Coeff-Com: -0.685D-02-0.381D-01 0.162D-01 0.365D-01 0.378D-02-0.168D+00
 Coeff-Com: -0.735D-01 0.175D+00 0.508D-01 0.316D+00-0.510D+00-0.188D+01
 Coeff-Com:  0.192D+01 0.114D+01
 Coeff:      0.687D-03-0.484D-03 0.383D-02-0.696D-02 0.129D-02 0.124D-01
 Coeff:     -0.685D-02-0.381D-01 0.162D-01 0.365D-01 0.378D-02-0.168D+00
 Coeff:     -0.735D-01 0.175D+00 0.508D-01 0.316D+00-0.510D+00-0.188D+01
 Coeff:      0.192D+01 0.114D+01
 Gap=     0.076 Goal=   None    Shift=    0.300
 Gap=     0.188 Goal=   None    Shift=    0.300
 RMSDP=1.61D-08 MaxDP=5.57D-07 DE=-4.32D-11 OVMax= 3.51D-06

 Cycle  34  Pass 1  IDiag  1:
 RMSU=  5.91D-09    CP:  1.00D+00  3.00D+00  3.00D+00  3.00D+00  3.00D+00
                    CP:  3.00D+00  3.00D+00  3.00D+00  3.00D+00  3.00D+00
                    CP:  3.00D+00  3.00D+00  2.10D+00
 E= -604.547107730348     Delta-E=        0.000000000028 Rises=F Damp=F
 DIIS: error= 9.14D-08 at cycle  34 NSaved=  20.
 NSaved=20 IEnMin=19 EnMin= -604.547107730376     IErMin=20 ErrMin= 9.14D-08
 ErrMax= 9.14D-08  0.00D+00 EMaxC= 1.00D-01 BMatC= 1.75D-12 BMatP= 2.69D-12
 IDIUse=1 WtCom= 1.00D+00 WtEn= 0.00D+00
 Coeff-Com:  0.993D-03-0.121D-02 0.443D-04-0.393D-02-0.630D-03 0.161D-01
 Coeff-Com:  0.368D-01-0.433D-01-0.924D-01 0.478D-01 0.189D+00-0.268D+00
 Coeff-Com: -0.861D-01-0.120D+00 0.161D+00 0.785D+00-0.645D+00-0.802D+00
 Coeff-Com: -0.149D+01 0.332D+01
 Coeff:      0.993D-03-0.121D-02 0.443D-04-0.393D-02-0.630D-03 0.161D-01
 Coeff:      0.368D-01-0.433D-01-0.924D-01 0.478D-01 0.189D+00-0.268D+00
 Coeff:     -0.861D-01-0.120D+00 0.161D+00 0.785D+00-0.645D+00-0.802D+00
 Coeff:     -0.149D+01 0.332D+01
 Gap=     0.076 Goal=   None    Shift=    0.300
 Gap=     0.188 Goal=   None    Shift=    0.300
 RMSDP=1.37D-08 MaxDP=4.77D-07 DE= 2.82D-11 OVMax= 2.98D-06

 Cycle  35  Pass 1  IDiag  1:
 RMSU=  1.45D-09    CP:  1.00D+00  3.00D+00  3.00D+00  3.00D+00  3.00D+00
                    CP:  3.00D+00  3.00D+00  3.00D+00  3.00D+00  3.00D+00
                    CP:  3.00D+00  3.00D+00  3.00D+00  1.91D+00
 E= -604.547107730360     Delta-E=       -0.000000000012 Rises=F Damp=F
 DIIS: error= 7.46D-08 at cycle  35 NSaved=  20.
 NSaved=20 IEnMin=18 EnMin= -604.547107730376     IErMin=20 ErrMin= 7.46D-08
 ErrMax= 7.46D-08  0.00D+00 EMaxC= 1.00D-01 BMatC= 1.28D-12 BMatP= 1.75D-12
 IDIUse=1 WtCom= 1.00D+00 WtEn= 0.00D+00
 Coeff-Com: -0.167D-02 0.559D-02-0.354D-02-0.752D-02-0.517D-02 0.563D-01
 Coeff-Com: -0.177D-01-0.484D-01-0.419D-01 0.122D+00-0.762D-02-0.901D-01
 Coeff-Com: -0.298D+00-0.792D-01 0.693D+00 0.581D-01-0.368D+00-0.225D+01
 Coeff-Com:  0.171D+01 0.157D+01
 Coeff:     -0.167D-02 0.559D-02-0.354D-02-0.752D-02-0.517D-02 0.563D-01
 Coeff:     -0.177D-01-0.484D-01-0.419D-01 0.122D+00-0.762D-02-0.901D-01
 Coeff:     -0.298D+00-0.792D-01 0.693D+00 0.581D-01-0.368D+00-0.225D+01
 Coeff:      0.171D+01 0.157D+01
 Gap=     0.076 Goal=   None    Shift=    0.300
 Gap=     0.188 Goal=   None    Shift=    0.300
 RMSDP=1.10D-08 MaxDP=3.92D-07 DE=-1.23D-11 OVMax= 2.40D-06

 Cycle  36  Pass 1  IDiag  1:
 RMSU=  9.44D-09    CP:  1.00D+00  3.00D+00  3.00D+00  3.00D+00  3.00D+00
                    CP:  3.00D+00  3.00D+00  3.00D+00  3.00D+00  3.00D+00
                    CP:  3.00D+00  3.00D+00  3.00D+00  2.62D+00  3.00D+00
 E= -604.547107730374     Delta-E=       -0.000000000014 Rises=F Damp=F
 DIIS: error= 6.00D-08 at cycle  36 NSaved=  20.
 NSaved=20 IEnMin=17 EnMin= -604.547107730376     IErMin=20 ErrMin= 6.00D-08
 ErrMax= 6.00D-08  0.00D+00 EMaxC= 1.00D-01 BMatC= 8.40D-13 BMatP= 1.28D-12
 IDIUse=1 WtCom= 1.00D+00 WtEn= 0.00D+00
 Coeff-Com: -0.157D-03-0.166D-02-0.513D-03-0.224D-02 0.241D-01-0.608D-02
 Coeff-Com: -0.487D-02-0.280D-01 0.613D-02 0.807D-01-0.437D-01-0.225D+00
 Coeff-Com: -0.945D-01 0.220D+00 0.958D-01 0.445D+00-0.129D+01 0.120D+00
 Coeff-Com: -0.641D+00 0.235D+01
 Coeff:     -0.157D-03-0.166D-02-0.513D-03-0.224D-02 0.241D-01-0.608D-02
 Coeff:     -0.487D-02-0.280D-01 0.613D-02 0.807D-01-0.437D-01-0.225D+00
 Coeff:     -0.945D-01 0.220D+00 0.958D-01 0.445D+00-0.129D+01 0.120D+00
 Coeff:     -0.641D+00 0.235D+01
 Gap=     0.076 Goal=   None    Shift=    0.300
 Gap=     0.188 Goal=   None    Shift=    0.300
 RMSDP=8.88D-09 MaxDP=3.19D-07 DE=-1.41D-11 OVMax= 1.92D-06

 SCF Done:  E(UPBE1PBE) =  -604.547107730     A.U. after   36 cycles
            NFock= 36  Conv=0.89D-08     -V/T= 2.1870
 <Sx>= 0.0000 <Sy>= 0.0000 <Sz>= 0.5000 <S**2>= 0.7518 S= 0.5009
 <L.S>= 0.000000000000E+00
 KE= 5.093221046602D+02 PE=-2.756453689856D+03 EE= 9.529181586130D+02
 Annihilation of the first spin contaminant:
 S**2 before annihilation     0.7518,   after     0.7500
 Leave Link  502 at Fri Sep 11 21:01:14 2026, MaxMem=  6442450944 cpu:             366.0 elap:             366.1
 (Enter C:\G16W\l508.exe)
 QCSCF skips out because SCF is already converged.
 Leave Link  508 at Fri Sep 11 21:01:14 2026, MaxMem=  6442450944 cpu:               0.0 elap:               0.1
 (Enter C:\G16W\l601.exe)
 Copying SCF densities to generalized density rwf, IOpCl= 1 IROHF=0.

 **********************************************************************

            Population analysis using the SCF Density.

 **********************************************************************

 Alpha  occ. eigenvalues --  -14.44844 -14.41217 -10.30960 -10.29445 -10.29215
 Alpha  occ. eigenvalues --  -10.29209 -10.27869 -10.27178 -10.27176 -10.25788
 Alpha  occ. eigenvalues --  -10.25787  -3.71549  -2.29519  -2.29509  -2.29439
 Alpha  occ. eigenvalues --   -1.00928  -0.95026  -0.90459  -0.81409  -0.80258
 Alpha  occ. eigenvalues --   -0.77028  -0.72841  -0.65434  -0.64147  -0.59614
 Alpha  occ. eigenvalues --   -0.55983  -0.53884  -0.51482  -0.49185  -0.47734
 Alpha  occ. eigenvalues --   -0.46854  -0.45785  -0.44995  -0.44336  -0.43625
 Alpha  occ. eigenvalues --   -0.42405  -0.42209  -0.39221  -0.39164  -0.36785
 Alpha  occ. eigenvalues --   -0.32896  -0.29922  -0.28890  -0.28890  -0.28725
 Alpha  occ. eigenvalues --   -0.28707  -0.27225  -0.23639  -0.12503
 Alpha virt. eigenvalues --   -0.04906  -0.02932   0.00680   0.02396   0.04106
 Alpha virt. eigenvalues --    0.04398   0.05331   0.07207   0.07663   0.08315
 Alpha virt. eigenvalues --    0.08784   0.10969   0.12080   0.12756   0.12861
 Alpha virt. eigenvalues --    0.13601   0.13842   0.15358   0.16954   0.17243
 Alpha virt. eigenvalues --    0.20412   0.22009   0.23651   0.26925   0.28068
 Alpha virt. eigenvalues --    0.29356   0.30176   0.32015   0.34808   0.36659
 Alpha virt. eigenvalues --    0.36757   0.37708   0.38190   0.39848   0.41779
 Alpha virt. eigenvalues --    0.42790   0.44179   0.45203   0.45550   0.47225
 Alpha virt. eigenvalues --    0.48666   0.48876   0.49412   0.49426   0.49855
 Alpha virt. eigenvalues --    0.49916   0.53544   0.53681   0.54072   0.60715
 Alpha virt. eigenvalues --    0.60934   0.61316   0.61326   0.62133   0.62265
 Alpha virt. eigenvalues --    0.62796   0.63084   0.63487   0.65072   0.66015
 Alpha virt. eigenvalues --    0.66582   0.67541   0.68169   0.68337   0.68841
 Alpha virt. eigenvalues --    0.69393   0.71486   0.71940   0.73233   0.74285
 Alpha virt. eigenvalues --    0.75568   0.81132   0.82279   0.86084   0.87540
 Alpha virt. eigenvalues --    0.87756   0.93557   0.95143   0.98108   1.00586
 Alpha virt. eigenvalues --    1.02876   1.04751   1.09525   1.10308   1.10672
 Alpha virt. eigenvalues --    1.12699   1.17201   1.20260   1.21385   1.22965
 Alpha virt. eigenvalues --    1.25254   1.27412   1.27425   1.27813   1.28617
 Alpha virt. eigenvalues --    1.32026   1.34871   1.34904   1.46886   1.49122
 Alpha virt. eigenvalues --    1.50521   1.51060   1.52197   1.52259   1.57425
 Alpha virt. eigenvalues --    1.60162   1.66447   1.66769   1.69500   1.71906
 Alpha virt. eigenvalues --    1.72404   1.72530   1.72779   1.75397   1.76040
 Alpha virt. eigenvalues --    1.77781   1.79222   1.79953   1.81444   1.81712
 Alpha virt. eigenvalues --    1.84911   1.89253   1.89458   1.92098   1.92118
 Alpha virt. eigenvalues --    1.93730   1.94892   1.95521   1.97361   2.00515
 Alpha virt. eigenvalues --    2.05137   2.07972   2.08704   2.10170   2.15038
 Alpha virt. eigenvalues --    2.15576   2.16051   2.18518   2.20293   2.22618
 Alpha virt. eigenvalues --    2.23908   2.25816   2.27633   2.29712   2.29947
 Alpha virt. eigenvalues --    2.34666   2.36716   2.37015   2.37643   2.43906
 Alpha virt. eigenvalues --    2.43937   2.45335   2.57775   2.60151   2.61935
 Alpha virt. eigenvalues --    2.62723   2.64969   2.65363   2.66024   2.66025
 Alpha virt. eigenvalues --    2.66041   2.66045   2.66425   2.66941   2.70236
 Alpha virt. eigenvalues --    2.70935   2.75673   2.76418   2.80084   2.86117
 Alpha virt. eigenvalues --    2.88398   2.89245   2.91458   2.91548   2.92813
 Alpha virt. eigenvalues --    2.97120   3.02500   3.02895   3.03197   3.17087
 Alpha virt. eigenvalues --    3.20607   3.25877   3.43425   3.49636   3.72271
 Alpha virt. eigenvalues --   53.85390
  Beta  occ. eigenvalues --  -14.44846 -14.41008 -10.30962 -10.29445 -10.29215
  Beta  occ. eigenvalues --  -10.29208 -10.27862 -10.27181 -10.27180 -10.25787
  Beta  occ. eigenvalues --  -10.25786  -3.71394  -2.29416  -2.29407  -2.29369
  Beta  occ. eigenvalues --   -1.00932  -0.94897  -0.90442  -0.81398  -0.80260
  Beta  occ. eigenvalues --   -0.77029  -0.72834  -0.65437  -0.64143  -0.59607
  Beta  occ. eigenvalues --   -0.55975  -0.53885  -0.51486  -0.49185  -0.47735
  Beta  occ. eigenvalues --   -0.46855  -0.45368  -0.44995  -0.44095  -0.43607
  Beta  occ. eigenvalues --   -0.42263  -0.42209  -0.39171  -0.39101  -0.36687
  Beta  occ. eigenvalues --   -0.32834  -0.29927  -0.28402  -0.28402  -0.28146
  Beta  occ. eigenvalues --   -0.28105  -0.26399  -0.23601
  Beta virt. eigenvalues --   -0.04809  -0.03354  -0.02941   0.01752   0.04219
  Beta virt. eigenvalues --    0.04809   0.06011   0.06135   0.07379   0.07672
  Beta virt. eigenvalues --    0.08657   0.09579   0.11031   0.12756   0.12861
  Beta virt. eigenvalues --    0.13335   0.13845   0.14602   0.16211   0.16998
  Beta virt. eigenvalues --    0.17275   0.20637   0.22010   0.23795   0.26950
  Beta virt. eigenvalues --    0.28127   0.29381   0.30208   0.32075   0.35239
  Beta virt. eigenvalues --    0.37696   0.38977   0.39138   0.39921   0.40315
  Beta virt. eigenvalues --    0.41935   0.43073   0.44262   0.45405   0.45704
  Beta virt. eigenvalues --    0.47231   0.48889   0.49311   0.49860   0.50860
  Beta virt. eigenvalues --    0.51460   0.51463   0.54066   0.54577   0.54620
  Beta virt. eigenvalues --    0.60809   0.60951   0.61325   0.61615   0.62177
  Beta virt. eigenvalues --    0.62316   0.62961   0.63507   0.64754   0.65076
  Beta virt. eigenvalues --    0.66033   0.66650   0.67697   0.68275   0.68394
  Beta virt. eigenvalues --    0.68847   0.69393   0.71522   0.71942   0.73246
  Beta virt. eigenvalues --    0.74292   0.75577   0.81135   0.82280   0.86101
  Beta virt. eigenvalues --    0.87583   0.87764   0.93562   0.95175   0.98478
  Beta virt. eigenvalues --    1.00698   1.03099   1.04814   1.09525   1.10467
  Beta virt. eigenvalues --    1.10708   1.12814   1.17254   1.20275   1.21383
  Beta virt. eigenvalues --    1.22963   1.25266   1.27413   1.27433   1.27811
  Beta virt. eigenvalues --    1.28979   1.32028   1.34929   1.35110   1.46885
  Beta virt. eigenvalues --    1.49120   1.50521   1.51059   1.52205   1.52259
  Beta virt. eigenvalues --    1.57405   1.60131   1.66445   1.66781   1.69504
  Beta virt. eigenvalues --    1.71906   1.72409   1.72531   1.72794   1.75397
  Beta virt. eigenvalues --    1.76040   1.77788   1.79224   1.80020   1.81450
  Beta virt. eigenvalues --    1.81711   1.84917   1.89259   1.89464   1.92111
  Beta virt. eigenvalues --    1.92127   1.93737   1.94894   1.95584   1.97359
  Beta virt. eigenvalues --    2.00515   2.05148   2.08707   2.08973   2.10423
  Beta virt. eigenvalues --    2.15042   2.15580   2.16050   2.18544   2.20353
  Beta virt. eigenvalues --    2.22622   2.24037   2.25880   2.27823   2.29797
  Beta virt. eigenvalues --    2.29952   2.34672   2.36737   2.37036   2.37652
  Beta virt. eigenvalues --    2.43921   2.43945   2.45336   2.57811   2.60157
  Beta virt. eigenvalues --    2.61936   2.62725   2.64970   2.65413   2.66018
  Beta virt. eigenvalues --    2.66022   2.66063   2.66064   2.66587   2.67053
  Beta virt. eigenvalues --    2.70287   2.71191   2.75670   2.76420   2.80083
  Beta virt. eigenvalues --    2.86156   2.88418   2.89254   2.91482   2.91548
  Beta virt. eigenvalues --    2.92819   2.97120   3.02539   3.03079   3.03291
  Beta virt. eigenvalues --    3.17089   3.20640   3.25938   3.43436   3.49781
  Beta virt. eigenvalues --    3.72309  53.85541
          Condensed to atoms (all electrons):
               1          2          3          4          5          6
     1  N    6.228258   0.786165  -0.037963  -0.002064   0.000063   0.000027
     2  C    0.786165   5.064234   0.341317  -0.087449   0.014605   0.003192
     3  C   -0.037963   0.341317   5.417838   0.268652   0.088584  -0.171525
     4  C   -0.002064  -0.087449   0.268652   4.966555   0.324534   0.118005
     5  C    0.000063   0.014605   0.088584   0.324534   5.173484   0.216011
     6  C    0.000027   0.003192  -0.171525   0.118005   0.216011   5.142067
     7  N    0.000000   0.000025  -0.000287   0.007368  -0.095402   0.400610
     8  C    0.000000  -0.000001   0.000035  -0.000156   0.007909  -0.061234
     9  C    0.000000  -0.000001   0.000035   0.000992   0.003306  -0.061233
    10  C    0.000062   0.014585   0.088569  -0.142394   0.073980   0.216014
    11  C   -0.002057  -0.087358   0.268604   0.089586  -0.142381   0.118014
    12  H   -0.000472  -0.022289  -0.064636   0.458844  -0.061778   0.015710
    13  H   -0.000003  -0.000525   0.017173  -0.067148   0.463072  -0.081621
    14  H    0.000000   0.000000   0.000005   0.000010  -0.000153   0.007501
    15  H    0.000000   0.000001  -0.000081   0.000013  -0.000256  -0.011851
    16  H    0.000000   0.000001  -0.000079   0.000011  -0.000251  -0.011765
    17  H    0.000000   0.000001  -0.000081   0.001090   0.005842  -0.011851
    18  H    0.000000   0.000000   0.000005  -0.000077   0.000574   0.007500
    19  H    0.000000   0.000001  -0.000079   0.001072   0.005793  -0.011764
    20  H   -0.000003  -0.000525   0.017175  -0.001993   0.014966  -0.081623
    21  H   -0.000471  -0.022290  -0.064638   0.013955  -0.001912   0.015710
    22  Ag   0.037454  -0.006946   0.000580  -0.000245   0.000076   0.000016
               7          8          9         10         11         12
     1  N    0.000000   0.000000   0.000000   0.000062  -0.002057  -0.000472
     2  C    0.000025  -0.000001  -0.000001   0.014585  -0.087358  -0.022289
     3  C   -0.000287   0.000035   0.000035   0.088569   0.268604  -0.064636
     4  C    0.007368  -0.000156   0.000992  -0.142394   0.089586   0.458844
     5  C   -0.095402   0.007909   0.003306   0.073980  -0.142381  -0.061778
     6  C    0.400610  -0.061234  -0.061233   0.216014   0.118014   0.015710
     7  N    6.669927   0.349168   0.349166  -0.095405   0.007369  -0.000092
     8  C    0.349168   4.465884  -0.049657   0.003306   0.000993   0.000008
     9  C    0.349166  -0.049657   4.465896   0.007909  -0.000156  -0.000045
    10  C   -0.095405   0.003306   0.007909   5.173429   0.324570  -0.001911
    11  C    0.007369   0.000993  -0.000156   0.324570   4.966575   0.013952
    12  H   -0.000092   0.000008  -0.000045  -0.001911   0.013952   0.651494
    13  H   -0.016297   0.000002   0.012392   0.014966  -0.001993  -0.013621
    14  H   -0.019493   0.399461  -0.012763   0.000575  -0.000077   0.000000
    15  H   -0.029268   0.400857   0.003483   0.005842   0.001090   0.000000
    16  H   -0.029364   0.400913   0.003461   0.005794   0.001072   0.000000
    17  H   -0.029267   0.003482   0.400857  -0.000256   0.000013   0.000011
    18  H   -0.019492  -0.012764   0.399462  -0.000153   0.000010   0.000000
    19  H   -0.029367   0.003461   0.400914  -0.000251   0.000011   0.000011
    20  H   -0.016298   0.012393   0.000002   0.463079  -0.067156   0.000023
    21  H   -0.000092  -0.000045   0.000008  -0.061768   0.458824  -0.000205
    22  Ag   0.000000   0.000000   0.000000   0.000076  -0.000245   0.000011
              13         14         15         16         17         18
     1  N   -0.000003   0.000000   0.000000   0.000000   0.000000   0.000000
     2  C   -0.000525   0.000000   0.000001   0.000001   0.000001   0.000000
     3  C    0.017173   0.000005  -0.000081  -0.000079  -0.000081   0.000005
     4  C   -0.067148   0.000010   0.000013   0.000011   0.001090  -0.000077
     5  C    0.463072  -0.000153  -0.000256  -0.000251   0.005842   0.000574
     6  C   -0.081621   0.007501  -0.011851  -0.011765  -0.011851   0.007500
     7  N   -0.016297  -0.019493  -0.029268  -0.029364  -0.029267  -0.019492
     8  C    0.000002   0.399461   0.400857   0.400913   0.003482  -0.012764
     9  C    0.012392  -0.012763   0.003483   0.003461   0.400857   0.399462
    10  C    0.014966   0.000575   0.005842   0.005794  -0.000256  -0.000153
    11  C   -0.001993  -0.000077   0.001090   0.001072   0.000013   0.000010
    12  H   -0.013621   0.000000   0.000000   0.000000   0.000011   0.000000
    13  H    0.670526  -0.000004  -0.000022  -0.000022  -0.001754   0.000085
    14  H   -0.000004   0.607466  -0.020465  -0.020562   0.000345   0.004937
    15  H   -0.000022  -0.020465   0.634240  -0.041225   0.001281   0.000345
    16  H   -0.000022  -0.020562  -0.041225   0.634379  -0.000901   0.000329
    17  H   -0.001754   0.000345   0.001281  -0.000901   0.634235  -0.020464
    18  H    0.000085   0.004937   0.000345   0.000329  -0.020464   0.607463
    19  H   -0.001718   0.000329  -0.000901   0.001299  -0.041225  -0.020562
    20  H   -0.000179   0.000085  -0.001755  -0.001718  -0.000022  -0.000004
    21  H    0.000023   0.000000   0.000011   0.000011   0.000000   0.000000
    22  Ag  -0.000006   0.000000   0.000000   0.000000   0.000000   0.000000
              19         20         21         22
     1  N    0.000000  -0.000003  -0.000471   0.037454
     2  C    0.000001  -0.000525  -0.022290  -0.006946
     3  C   -0.000079   0.017175  -0.064638   0.000580
     4  C    0.001072  -0.001993   0.013955  -0.000245
     5  C    0.005793   0.014966  -0.001912   0.000076
     6  C   -0.011764  -0.081623   0.015710   0.000016
     7  N   -0.029367  -0.016298  -0.000092   0.000000
     8  C    0.003461   0.012393  -0.000045   0.000000
     9  C    0.400914   0.000002   0.000008   0.000000
    10  C   -0.000251   0.463079  -0.061768   0.000076
    11  C    0.000011  -0.067156   0.458824  -0.000245
    12  H    0.000011   0.000023  -0.000205   0.000011
    13  H   -0.001718  -0.000179   0.000023  -0.000006
    14  H    0.000329   0.000085   0.000000   0.000000
    15  H   -0.000901  -0.001755   0.000011   0.000000
    16  H    0.001299  -0.001718   0.000011   0.000000
    17  H   -0.041225  -0.000022   0.000000   0.000000
    18  H   -0.020562  -0.000004   0.000000   0.000000
    19  H    0.634378  -0.000022   0.000000   0.000000
    20  H   -0.000022   0.670535  -0.013622  -0.000006
    21  H    0.000000  -0.013622   0.651510   0.000011
    22  Ag   0.000000  -0.000006   0.000011  19.110604
          Atomic-Atomic Spin Densities.
               1          2          3          4          5          6
     1  N    0.155687  -0.027870   0.000867  -0.000028   0.000003   0.000000
     2  C   -0.027870   0.003945   0.000767   0.000305  -0.000030  -0.000004
     3  C    0.000867   0.000767   0.004641  -0.000781   0.000103   0.000052
     4  C   -0.000028   0.000305  -0.000781  -0.001627   0.000181   0.000042
     5  C    0.000003  -0.000030   0.000103   0.000181   0.000985  -0.000202
     6  C    0.000000  -0.000004   0.000052   0.000042  -0.000202  -0.001386
     7  N    0.000000   0.000000   0.000000  -0.000003   0.000011   0.000399
     8  C    0.000000   0.000000   0.000000   0.000000   0.000002   0.000012
     9  C    0.000000   0.000000   0.000000   0.000000  -0.000001   0.000012
    10  C    0.000003  -0.000030   0.000103  -0.000015  -0.000006  -0.000202
    11  C   -0.000028   0.000304  -0.000780   0.000054  -0.000015   0.000042
    12  H   -0.000098   0.000168  -0.000202  -0.000077  -0.000091   0.000001
    13  H    0.000000   0.000002  -0.000010  -0.000008  -0.000005   0.000009
    14  H    0.000000   0.000000   0.000000   0.000000   0.000000   0.000000
    15  H    0.000000   0.000000   0.000000   0.000000   0.000000  -0.000016
    16  H    0.000000   0.000000   0.000000   0.000000   0.000000  -0.000016
    17  H    0.000000   0.000000   0.000000   0.000001  -0.000003  -0.000016
    18  H    0.000000   0.000000   0.000000   0.000000   0.000000   0.000000
    19  H    0.000000   0.000000   0.000000   0.000001  -0.000003  -0.000016
    20  H    0.000000   0.000002  -0.000010   0.000003  -0.000001   0.000009
    21  H   -0.000098   0.000168  -0.000202   0.000034  -0.000007   0.000001
    22  Ag  -0.096287   0.012555  -0.000660   0.000004   0.000000   0.000001
               7          8          9         10         11         12
     1  N    0.000000   0.000000   0.000000   0.000003  -0.000028  -0.000098
     2  C    0.000000   0.000000   0.000000  -0.000030   0.000304   0.000168
     3  C    0.000000   0.000000   0.000000   0.000103  -0.000780  -0.000202
     4  C   -0.000003   0.000000   0.000000  -0.000015   0.000054  -0.000077
     5  C    0.000011   0.000002  -0.000001  -0.000006  -0.000015  -0.000091
     6  C    0.000399   0.000012   0.000012  -0.000202   0.000042   0.000001
     7  N   -0.001132  -0.000034  -0.000034   0.000011  -0.000003   0.000000
     8  C   -0.000034   0.000069  -0.000001  -0.000001   0.000000   0.000000
     9  C   -0.000034  -0.000001   0.000069   0.000002   0.000000   0.000000
    10  C    0.000011  -0.000001   0.000002   0.000985   0.000182  -0.000007
    11  C   -0.000003   0.000000   0.000000   0.000182  -0.001628   0.000034
    12  H    0.000000   0.000000   0.000000  -0.000007   0.000034   0.000427
    13  H    0.000001   0.000000  -0.000001  -0.000001   0.000003   0.000017
    14  H    0.000001  -0.000003  -0.000001   0.000000   0.000000   0.000000
    15  H    0.000028   0.000013   0.000001  -0.000003   0.000001   0.000000
    16  H    0.000028   0.000013   0.000001  -0.000003   0.000001   0.000000
    17  H    0.000028   0.000001   0.000013   0.000000   0.000000   0.000000
    18  H    0.000001  -0.000001  -0.000003   0.000000   0.000000   0.000000
    19  H    0.000028   0.000001   0.000013   0.000000   0.000000   0.000000
    20  H    0.000001  -0.000001   0.000000  -0.000005  -0.000008   0.000000
    21  H    0.000000   0.000000   0.000000  -0.000091  -0.000077   0.000005
    22  Ag   0.000000   0.000000   0.000000   0.000000   0.000004   0.000059
              13         14         15         16         17         18
     1  N    0.000000   0.000000   0.000000   0.000000   0.000000   0.000000
     2  C    0.000002   0.000000   0.000000   0.000000   0.000000   0.000000
     3  C   -0.000010   0.000000   0.000000   0.000000   0.000000   0.000000
     4  C   -0.000008   0.000000   0.000000   0.000000   0.000001   0.000000
     5  C   -0.000005   0.000000   0.000000   0.000000  -0.000003   0.000000
     6  C    0.000009   0.000000  -0.000016  -0.000016  -0.000016   0.000000
     7  N    0.000001   0.000001   0.000028   0.000028   0.000028   0.000001
     8  C    0.000000  -0.000003   0.000013   0.000013   0.000001  -0.000001
     9  C   -0.000001  -0.000001   0.000001   0.000001   0.000013  -0.000003
    10  C   -0.000001   0.000000  -0.000003  -0.000003   0.000000   0.000000
    11  C    0.000003   0.000000   0.000001   0.000001   0.000000   0.000000
    12  H    0.000017   0.000000   0.000000   0.000000   0.000000   0.000000
    13  H   -0.000041   0.000000   0.000000   0.000000   0.000001   0.000000
    14  H    0.000000   0.000001   0.000001   0.000001   0.000000   0.000001
    15  H    0.000000   0.000001  -0.000121   0.000038  -0.000003   0.000000
    16  H    0.000000   0.000001   0.000038  -0.000121   0.000001   0.000000
    17  H    0.000001   0.000000  -0.000003   0.000001  -0.000121   0.000001
    18  H    0.000000   0.000001   0.000000   0.000000   0.000001   0.000001
    19  H    0.000001   0.000000   0.000001  -0.000003   0.000038   0.000001
    20  H    0.000000   0.000000   0.000001   0.000001   0.000000   0.000000
    21  H    0.000000   0.000000   0.000000   0.000000   0.000000   0.000000
    22  Ag   0.000000   0.000000   0.000000   0.000000   0.000000   0.000000
              19         20         21         22
     1  N    0.000000   0.000000  -0.000098  -0.096287
     2  C    0.000000   0.000002   0.000168   0.012555
     3  C    0.000000  -0.000010  -0.000202  -0.000660
     4  C    0.000001   0.000003   0.000034   0.000004
     5  C   -0.000003  -0.000001  -0.000007   0.000000
     6  C   -0.000016   0.000009   0.000001   0.000001
     7  N    0.000028   0.000001   0.000000   0.000000
     8  C    0.000001  -0.000001   0.000000   0.000000
     9  C    0.000013   0.000000   0.000000   0.000000
    10  C    0.000000  -0.000005  -0.000091   0.000000
    11  C    0.000000  -0.000008  -0.000077   0.000004
    12  H    0.000000   0.000000   0.000005   0.000059
    13  H    0.000001   0.000000   0.000000   0.000000
    14  H    0.000000   0.000000   0.000000   0.000000
    15  H    0.000001   0.000001   0.000000   0.000000
    16  H   -0.000003   0.000001   0.000000   0.000000
    17  H    0.000038   0.000000   0.000000   0.000000
    18  H    0.000001   0.000000   0.000000   0.000000
    19  H   -0.000121   0.000000   0.000000   0.000000
    20  H    0.000000  -0.000041   0.000017   0.000000
    21  H    0.000000   0.000017   0.000427   0.000059
    22  Ag   0.000000   0.000000   0.000059   1.061572
 Mulliken charges and spin densities:
               1          2
     1  N   -0.008995   0.032151
     2  C    0.003259  -0.009717
     3  C   -0.169202   0.003888
     4  C    0.050840  -0.001914
     5  C   -0.090665   0.000917
     6  C    0.244090  -0.001278
     7  N   -0.403507  -0.000670
     8  C    0.075984   0.000069
     9  C    0.075972   0.000069
    10  C   -0.090617   0.000917
    11  C    0.050740  -0.001914
    12  H    0.024986   0.000237
    13  H    0.006674  -0.000032
    14  H    0.052803  -0.000001
    15  H    0.058661  -0.000058
    16  H    0.058618  -0.000058
    17  H    0.058664  -0.000058
    18  H    0.052804  -0.000001
    19  H    0.058620  -0.000058
    20  H    0.006669  -0.000032
    21  H    0.024981   0.000237
    22  Ag  -0.141378   0.977306
 Sum of Mulliken charges =   0.00000   1.00000
 Mulliken charges and spin densities with hydrogens summed into heavy atoms:
               1          2
     1  N   -0.008995   0.032151
     2  C    0.003259  -0.009717
     3  C   -0.169202   0.003888
     4  C    0.075826  -0.001677
     5  C   -0.083990   0.000885
     6  C    0.244090  -0.001278
     7  N   -0.403507  -0.000670
     8  C    0.246066  -0.000047
     9  C    0.246060  -0.000047
    10  C   -0.083948   0.000885
    11  C    0.075721  -0.001677
    22  Ag  -0.141378   0.977306
 Electronic spatial extent (au):  <R**2>=           6145.0652
 Charge=              0.0000 electrons
 Dipole moment (field-independent basis, Debye):
    X=            -12.5097    Y=              0.8539    Z=             -0.5299  Tot=             12.5500
 Quadrupole moment (field-independent basis, Debye-Ang):
   XX=           -166.2253   YY=            -83.3582   ZZ=            -83.9267
   XY=              5.4326   XZ=             -3.0939   YZ=              5.7169
 Traceless Quadrupole moment (field-independent basis, Debye-Ang):
   XX=            -55.0552   YY=             27.8118   ZZ=             27.2434
   XY=              5.4326   XZ=             -3.0939   YZ=              5.7169
 Octapole moment (field-independent basis, Debye-Ang**2):
  XXX=          -1401.5674  YYY=             43.2728  ZZZ=            -26.8634  XYY=           -213.8952
  XXY=             66.5589  XXZ=            -40.8883  XZZ=           -212.2438  YZZ=             14.8050
  YYZ=             -9.5857  XYZ=              5.9864
 Hexadecapole moment (field-independent basis, Debye-Ang**3):
 XXXX=         -16115.8221 YYYY=           -369.6920 ZZZZ=           -316.0119 XXXY=            752.6614
 XXXZ=           -468.0952 YYYX=            330.9138 YYYZ=            -74.4392 ZZZX=           -209.5537
 ZZZY=            -76.4559 XXYY=          -1734.0450 XXZZ=          -1710.0219 YYZZ=           -106.3311
 XXYZ=             11.9778 YYXZ=            -73.7447 ZZXY=            112.8999
 N-N= 6.896663188523D+02 E-N=-2.756453689675D+03  KE= 5.093221046602D+02
                          Isotropic Fermi Contact Couplings
        Atom                 a.u.       MegaHertz       Gauss      10(-4) cm-1
     1  N(14)              0.20609      66.58758      23.76011      22.21123
     2  C(13)              0.01584      17.80507       6.35329       5.93913
     3  C(13)              0.00316       3.55660       1.26908       1.18635
     4  C(13)             -0.00082      -0.91861      -0.32778      -0.30642
     5  C(13)              0.00017       0.19550       0.06976       0.06521
     6  C(13)             -0.00018      -0.20308      -0.07246      -0.06774
     7  N(14)             -0.00025      -0.08215      -0.02931      -0.02740
     8  C(13)              0.00005       0.05107       0.01822       0.01704
     9  C(13)              0.00005       0.05107       0.01822       0.01704
    10  C(13)              0.00017       0.19551       0.06976       0.06522
    11  C(13)             -0.00082      -0.91864      -0.32779      -0.30643
    12  H(1)               0.00003       0.13072       0.04665       0.04361
    13  H(1)              -0.00001      -0.04233      -0.01510      -0.01412
    14  H(1)               0.00000      -0.00125      -0.00045      -0.00042
    15  H(1)              -0.00002      -0.07440      -0.02655      -0.02482
    16  H(1)              -0.00002      -0.07468      -0.02665      -0.02491
    17  H(1)              -0.00002      -0.07440      -0.02655      -0.02482
    18  H(1)               0.00000      -0.00126      -0.00045      -0.00042
    19  H(1)              -0.00002      -0.07468      -0.02665      -0.02491
    20  H(1)              -0.00001      -0.04232      -0.01510      -0.01412
    21  H(1)               0.00003       0.13070       0.04664       0.04360
    22  Ag(107             0.00027      -0.04856      -0.01733      -0.01620
 --------------------------------------------------------
       Center         ----  Spin Dipole Couplings  ----
                      3XX-RR        3YY-RR        3ZZ-RR
 --------------------------------------------------------
     1   Atom        0.054240     -0.027077     -0.027162
     2   Atom        0.022140     -0.011081     -0.011060
     3   Atom        0.003189     -0.001681     -0.001509
     4   Atom        0.001845     -0.000848     -0.000997
     5   Atom        0.000293     -0.000195     -0.000098
     6   Atom        0.001135     -0.000495     -0.000640
     7   Atom        0.001304     -0.000540     -0.000764
     8   Atom        0.000252     -0.000125     -0.000127
     9   Atom        0.000254     -0.000130     -0.000124
    10   Atom        0.000278     -0.000158     -0.000119
    11   Atom        0.001825     -0.000803     -0.001023
    12   Atom        0.001212     -0.000659     -0.000553
    13   Atom        0.000454     -0.000243     -0.000211
    14   Atom        0.000180     -0.000089     -0.000091
    15   Atom        0.000252     -0.000123     -0.000129
    16   Atom        0.000261     -0.000124     -0.000137
    17   Atom        0.000257     -0.000130     -0.000127
    18   Atom        0.000181     -0.000091     -0.000090
    19   Atom        0.000266     -0.000140     -0.000126
    20   Atom        0.000434     -0.000197     -0.000237
    21   Atom        0.001144     -0.000499     -0.000644
    22   Atom       -0.045636      0.022742      0.022894
 --------------------------------------------------------
                        XY            XZ            YZ
 --------------------------------------------------------
     1   Atom       -0.005472      0.003341     -0.001211
     2   Atom       -0.002228      0.001338     -0.000881
     3   Atom       -0.000280      0.000113     -0.001277
     4   Atom       -0.000066      0.000358      0.001188
     5   Atom        0.000119      0.000105     -0.000476
     6   Atom       -0.000154      0.000142      0.000943
     7   Atom       -0.000193      0.000192      0.001479
     8   Atom       -0.000042     -0.000002     -0.000021
     9   Atom       -0.000008      0.000031     -0.000022
    10   Atom       -0.000141     -0.000138     -0.000470
    11   Atom       -0.000400      0.000046      0.001196
    12   Atom        0.000463      0.000629      0.000079
    13   Atom        0.000124      0.000188      0.000010
    14   Atom       -0.000025      0.000005     -0.000003
    15   Atom       -0.000090     -0.000002     -0.000009
    16   Atom       -0.000049     -0.000046     -0.000004
    17   Atom       -0.000003      0.000078     -0.000011
    18   Atom       -0.000012      0.000018     -0.000003
    19   Atom        0.000037      0.000034     -0.000006
    20   Atom       -0.000216     -0.000129      0.000018
    21   Atom       -0.000710     -0.000466      0.000104
    22   Atom        0.004678     -0.002850      0.000516
 --------------------------------------------------------


 ---------------------------------------------------------------------------------
              Anisotropic Spin Dipole Couplings in Principal Axis System
 ---------------------------------------------------------------------------------

       Atom             a.u.   MegaHertz   Gauss  10(-4) cm-1        Axes

              Baa    -0.0284    -1.094    -0.390    -0.365  0.0209  0.7319  0.6811
     1 N(14)  Bbb    -0.0264    -1.018    -0.363    -0.339 -0.0763 -0.6781  0.7310
              Bcc     0.0547     2.112     0.753     0.704  0.9969 -0.0673  0.0417
 
              Baa    -0.0120    -1.606    -0.573    -0.536  0.0211  0.7318  0.6811
     2 C(13)  Bbb    -0.0104    -1.393    -0.497    -0.465 -0.0765 -0.6781  0.7310
              Bcc     0.0223     2.999     1.070     1.000  0.9968 -0.0675  0.0417
 
              Baa    -0.0029    -0.386    -0.138    -0.129  0.0211  0.7318  0.6811
     3 C(13)  Bbb    -0.0003    -0.045    -0.016    -0.015 -0.0774 -0.6781  0.7309
              Bcc     0.0032     0.431     0.154     0.144  0.9968 -0.0681  0.0424
 
              Baa    -0.0021    -0.287    -0.102    -0.096 -0.0771 -0.6780  0.7310
     4 C(13)  Bbb     0.0002     0.033     0.012     0.011 -0.1192  0.7342  0.6684
              Bcc     0.0019     0.254     0.091     0.085  0.9899  0.0356  0.1374
 
              Baa    -0.0007    -0.087    -0.031    -0.029 -0.1662  0.7322  0.6605
     5 C(13)  Bbb     0.0003     0.043     0.015     0.014  0.9730  0.0132  0.2303
              Bcc     0.0003     0.045     0.016     0.015 -0.1599 -0.6810  0.7146
 
              Baa    -0.0015    -0.205    -0.073    -0.068 -0.0782 -0.6780  0.7309
     6 C(13)  Bbb     0.0004     0.051     0.018     0.017  0.0211  0.7318  0.6811
              Bcc     0.0012     0.155     0.055     0.052  0.9967 -0.0687  0.0429
 
              Baa    -0.0022    -0.083    -0.030    -0.028 -0.0784 -0.6780  0.7309
     7 N(14)  Bbb     0.0008     0.032     0.011     0.011  0.0211  0.7319  0.6811
              Bcc     0.0013     0.051     0.018     0.017  0.9967 -0.0688  0.0431
 
              Baa    -0.0001    -0.020    -0.007    -0.007  0.0793  0.7264  0.6826
     8 C(13)  Bbb    -0.0001    -0.014    -0.005    -0.005 -0.0772 -0.6783  0.7307
              Bcc     0.0003     0.034     0.012     0.011  0.9939 -0.1107  0.0023
 
              Baa    -0.0001    -0.020    -0.007    -0.007 -0.0373  0.7348  0.6773
     9 C(13)  Bbb    -0.0001    -0.014    -0.005    -0.005 -0.0772 -0.6779  0.7311
              Bcc     0.0003     0.034     0.012     0.011  0.9963 -0.0250  0.0820
 
              Baa    -0.0007    -0.087    -0.031    -0.029  0.2078  0.7055  0.6776
    10 C(13)  Bbb     0.0003     0.043     0.015     0.014  0.9656 -0.2585 -0.0269
              Bcc     0.0003     0.045     0.016     0.015 -0.1562 -0.6599  0.7350
 
              Baa    -0.0021    -0.287    -0.102    -0.096 -0.0771 -0.6781  0.7309
    11 C(13)  Bbb     0.0002     0.033     0.012     0.011  0.1613  0.7150  0.6803
              Bcc     0.0019     0.254     0.091     0.085  0.9839 -0.1703 -0.0543
 
              Baa    -0.0008    -0.438    -0.156    -0.146 -0.3511  0.7049  0.6163
    12 H(1)   Bbb    -0.0007    -0.370    -0.132    -0.123 -0.0769 -0.6776  0.7314
              Bcc     0.0015     0.807     0.288     0.269  0.9332  0.2094  0.2921
 
              Baa    -0.0003    -0.151    -0.054    -0.050 -0.2825  0.7189  0.6351
    13 H(1)   Bbb    -0.0002    -0.128    -0.046    -0.043 -0.0772 -0.6769  0.7320
              Bcc     0.0005     0.279     0.100     0.093  0.9562  0.1577  0.2468
 
              Baa    -0.0001    -0.050    -0.018    -0.017  0.0548  0.7331  0.6779
    14 H(1)   Bbb    -0.0001    -0.047    -0.017    -0.016 -0.0771 -0.6738  0.7349
              Bcc     0.0002     0.097     0.035     0.032  0.9955 -0.0926  0.0196
 
              Baa    -0.0001    -0.079    -0.028    -0.026  0.2003  0.8785  0.4338
    15 H(1)   Bbb    -0.0001    -0.066    -0.024    -0.022 -0.0952 -0.4232  0.9010
              Bcc     0.0003     0.145     0.052     0.048  0.9751 -0.2218 -0.0011
 
              Baa    -0.0001    -0.079    -0.028    -0.026  0.1546  0.4796  0.8638
    16 H(1)   Bbb    -0.0001    -0.066    -0.024    -0.022  0.0518  0.8692 -0.4918
              Bcc     0.0003     0.145     0.052     0.048  0.9866 -0.1208 -0.1095
 
              Baa    -0.0001    -0.079    -0.028    -0.026 -0.1606  0.5012  0.8503
    17 H(1)   Bbb    -0.0001    -0.066    -0.024    -0.022  0.1080  0.8652 -0.4896
              Bcc     0.0003     0.145     0.052     0.049  0.9811 -0.0132  0.1931
 
              Baa    -0.0001    -0.050    -0.018    -0.017 -0.0127  0.7298  0.6836
    18 H(1)   Bbb    -0.0001    -0.047    -0.017    -0.016 -0.0774 -0.6823  0.7270
              Bcc     0.0002     0.097     0.035     0.033  0.9969 -0.0436  0.0651
 
              Baa    -0.0001    -0.079    -0.028    -0.026 -0.1149  0.9001  0.4203
    19 H(1)   Bbb    -0.0001    -0.066    -0.024    -0.022 -0.0390 -0.4269  0.9035
              Bcc     0.0003     0.145     0.052     0.048  0.9926  0.0874  0.0842
 
              Baa    -0.0003    -0.151    -0.054    -0.050  0.3227  0.6756  0.6629
    20 H(1)   Bbb    -0.0002    -0.128    -0.046    -0.043 -0.0773 -0.6792  0.7299
              Bcc     0.0005     0.279     0.099     0.093  0.9433 -0.2868 -0.1670
 
              Baa    -0.0008    -0.437    -0.156    -0.146  0.3904  0.6537  0.6483
    21 H(1)   Bbb    -0.0007    -0.369    -0.132    -0.123 -0.0769 -0.6785  0.7305
              Bcc     0.0015     0.807     0.288     0.269  0.9174 -0.3350 -0.2146
 
              Baa    -0.0461     1.000     0.357     0.333  0.9968 -0.0681  0.0417
    22 Ag(107 Bbb     0.0227    -0.493    -0.176    -0.164 -0.0769 -0.6778  0.7312
              Bcc     0.0234    -0.507    -0.181    -0.169  0.0215  0.7321  0.6809
 

 ---------------------------------------------------------------------------------

 No NMR shielding tensors so no spin-rotation constants.
 Leave Link  601 at Fri Sep 11 21:01:17 2026, MaxMem=  6442450944 cpu:               3.0 elap:               2.8
 (Enter C:\G16W\l9999.exe)
 Unable to Open any file for archive entry.
 1|1|UNPC-DESKTOP-2JKEGCA|SP|UPBE1PBE|def2SVP|C9H10Ag1N2(2)|JHKIM|11-Se
 p-2026|0||#P PBE1PBE/Def2SVP EmpiricalDispersion=GD3BJ SP SCF=(XQC,Max
 Cycle=128,VShift=300) NoSymm||DMABN t=0.000 dz=+0.00 class=toface||0,2
 |N,0,5.143673,-0.350316,0.21822|C,0,3.998871,-0.272231,0.170326|C,0,2.
 596311,-0.177765,0.111532|C,0,1.861617,-1.009137,-0.736855|C,0,0.49137
 2,-0.916108,-0.795599|C,0,-0.21206,0.013916,-0.008461|N,0,-1.572327,0.
 10784,-0.067705|C,0,-2.276121,1.067277,0.747024|C,0,-2.327988,-0.75130
 9,-0.945467|C,0,0.541516,0.843475,0.842005|C,0,1.911725,0.749715,0.900
 076|H,0,2.379549,-1.731167,-1.351567|H,0,-0.036847,-1.576092,-1.463215
 |H,0,-3.344118,0.990693,0.558268|H,0,-1.962619,2.089882,0.51411|H,0,-2
 .105367,0.883166,1.812531|H,0,-2.039382,-0.601554,-1.990713|H,0,-3.387
 348,-0.525033,-0.852352|H,0,-2.182049,-1.805705,-0.689891|H,0,0.052874
 ,1.572236,1.466859|H,0,2.468717,1.398215,1.560873|Ag,0,7.436345,-0.506
 695,0.314138||Version=EM64W-G16RevC.01|HF=-604.5471077|S2=0.751819|S2-
 1=0.|S2A=0.750003|RMSD=8.880e-009|Dipole=-4.9217014,0.3359582,-0.20848
 71|Quadrupole=-40.9321943,20.6774284,20.2547659,4.0390293,-2.300259,4.
 2503526|PG=C01 [X(C9H10Ag1N2)]||@
 The archive entry for this job was punched.


 MANHOOD BEGINS BY TRYING TO SHAVE FACE,
 AND ENDS BY TRYING TO SAVE FACE.
 Job cpu time:       0 days  0 hours  6 minutes 20.0 seconds.
 Elapsed time:       0 days  0 hours  6 minutes 19.0 seconds.
 File lengths (MBytes):  RWF=     57 Int=      0 D2E=      0 Chk=      5 Scr=      1
 Normal termination of Gaussian 16 at Fri Sep 11 21:01:17 2026.
