 Entering Gaussian System, Link 0=C:\G16W\g16.exe
 Input=DMABN_t2_z0.gjf
 Output=DMABN_t2_z0.out
 Initial command:
 C:\G16W\l1.exe ".\Gau-67896.inp" "DMABN_t2_z0.out" /scrdir=".\"
 Entering Link 1 = C:\G16W\l1.exe PID=    118420.
  
 Copyright (c) 1988-2019, Gaussian, Inc.  All Rights Reserved.
  
 This is part of the Gaussian(R) 16 program.  It is based on
 the Gaussian(R) 09 system (copyright 2009, Gaussian, Inc.),
 the Gaussian(R) 03 system (copyright 2003, Gaussian, Inc.),
 the Gaussian(R) 98 system (copyright 1998, Gaussian, Inc.),
 the Gaussian(R) 94 system (copyright 1995, Gaussian, Inc.),
 the Gaussian 92(TM) system (copyright 1992, Gaussian, Inc.),
 the Gaussian 90(TM) system (copyright 1990, Gaussian, Inc.),
 the Gaussian 88(TM) system (copyright 1988, Gaussian, Inc.),
 the Gaussian 86(TM) system (copyright 1986, Carnegie Mellon
 University), and the Gaussian 82(TM) system (copyright 1983,
 Carnegie Mellon University). Gaussian is a federally registered
 trademark of Gaussian, Inc.
  
 This software contains proprietary and confidential information,
 including trade secrets, belonging to Gaussian, Inc.
  
 This software is provided under written license and may be
 used, copied, transmitted, or stored only in accord with that
 written license.
  
 The following legend is applicable only to US Government
 contracts under FAR:
  
                    RESTRICTED RIGHTS LEGEND
  
 Use, reproduction and disclosure by the US Government is
 subject to restrictions as set forth in subparagraphs (a)
 and (c) of the Commercial Computer Software - Restricted
 Rights clause in FAR 52.227-19.
  
 Gaussian, Inc.
 340 Quinnipiac St., Bldg. 40, Wallingford CT 06492
  
  
 ---------------------------------------------------------------
 Warning -- This program may not be used in any manner that
 competes with the business of Gaussian, Inc. or will provide
 assistance to any competitor of Gaussian, Inc.  The licensee
 of this program is prohibited from giving any competitor of
 Gaussian, Inc. access to this program.  By using this program,
 the user acknowledges that Gaussian, Inc. is engaged in the
 business of creating and licensing software in the field of
 computational chemistry and represents and warrants to the
 licensee that it is not a competitor of Gaussian, Inc. and that
 it will not use this program in any manner prohibited above.
 ---------------------------------------------------------------
  

 Cite this work as:
 Gaussian 16, Revision C.01,
 M. J. Frisch, G. W. Trucks, H. B. Schlegel, G. E. Scuseria, 
 M. A. Robb, J. R. Cheeseman, G. Scalmani, V. Barone, 
 G. A. Petersson, H. Nakatsuji, X. Li, M. Caricato, A. V. Marenich, 
 J. Bloino, B. G. Janesko, R. Gomperts, B. Mennucci, H. P. Hratchian, 
 J. V. Ortiz, A. F. Izmaylov, J. L. Sonnenberg, D. Williams-Young, 
 F. Ding, F. Lipparini, F. Egidi, J. Goings, B. Peng, A. Petrone, 
 T. Henderson, D. Ranasinghe, V. G. Zakrzewski, J. Gao, N. Rega, 
 G. Zheng, W. Liang, M. Hada, M. Ehara, K. Toyota, R. Fukuda, 
 J. Hasegawa, M. Ishida, T. Nakajima, Y. Honda, O. Kitao, H. Nakai, 
 T. Vreven, K. Throssell, J. A. Montgomery, Jr., J. E. Peralta, 
 F. Ogliaro, M. J. Bearpark, J. J. Heyd, E. N. Brothers, K. N. Kudin, 
 V. N. Staroverov, T. A. Keith, R. Kobayashi, J. Normand, 
 K. Raghavachari, A. P. Rendell, J. C. Burant, S. S. Iyengar, 
 J. Tomasi, M. Cossi, J. M. Millam, M. Klene, C. Adamo, R. Cammi, 
 J. W. Ochterski, R. L. Martin, K. Morokuma, O. Farkas, 
 J. B. Foresman, and D. J. Fox, Gaussian, Inc., Wallingford CT, 2019.
 
 ******************************************
 Gaussian 16:  EM64W-G16RevC.01 30-May-2019
                11-Sep-2026 
 ******************************************
 %Chk=DMABN.chk
 %NProcShared=8
 Will use up to    8 processors via shared memory.
 %Mem=48GB
 ----------------------------------------------------------------------
 #P PBE1PBE/Def2SVP EmpiricalDispersion=GD3BJ SP SCF=(XQC,MaxCycle=128)
  NoSymm Guess=Read
 ----------------------------------------------------------------------
 1/38=1,172=1/1;
 2/12=2,15=1,17=6,18=5,40=1/2;
 3/5=43,7=101,11=2,25=1,30=1,74=-13,116=-2,124=41/1,2,3;
 4/5=1/1;
 5/5=2,7=128,8=3,13=1,38=6/2,8;
 6/7=2,8=2,9=2,10=2,28=1/1;
 99/5=1,9=1/99;
 Leave Link    1 at Fri Sep 11 21:09:49 2026, MaxMem=  6442450944 cpu:               0.0 elap:               0.3
 (Enter C:\G16W\l101.exe)
 -----------------------------------
 DMABN t=0.500 dz=+0.00 class=toface
 -----------------------------------
 Symbolic Z-matrix:
 Charge =  0 Multiplicity = 2
 N                     5.14367  -0.35032   0.21822 
 C                     3.99887  -0.27223   0.17033 
 C                     2.59631  -0.17777   0.11153 
 C                     1.86162  -1.00914  -0.73686 
 C                     0.49137  -0.91611  -0.7956 
 C                    -0.21206   0.01392  -0.00846 
 N                    -1.57233   0.10784  -0.06771 
 C                    -2.27612   1.06728   0.74702 
 C                    -2.32799  -0.75131  -0.94547 
 C                     0.54152   0.84348   0.84201 
 C                     1.91173   0.74972   0.90008 
 H                     2.37955  -1.73117  -1.35157 
 H                    -0.03685  -1.57609  -1.46322 
 H                    -3.34412   0.99069   0.55827 
 H                    -1.96262   2.08988   0.51411 
 H                    -2.10537   0.88317   1.81253 
 H                    -2.03938  -0.60155  -1.99071 
 H                    -3.38735  -0.52503  -0.85235 
 H                    -2.18205  -1.80571  -0.68989 
 H                     0.05287   1.57224   1.46686 
 H                     2.46872   1.39822   1.56087 
 Ag                    5.67285   1.14503  -1.31906 
 
 ITRead=  0  0  0  0  0  0  0  0  0  0  0  0  0  0  0  0  0  0  0  0
 ITRead=  0  0
 MicOpt= -1 -1 -1 -1 -1 -1 -1 -1 -1 -1 -1 -1 -1 -1 -1 -1 -1 -1 -1 -1
 MicOpt= -1 -1
 NAtoms=     22 NQM=       22 NQMF=       0 NMMI=      0 NMMIF=      0
                NMic=       0 NMicF=      0.
                    Isotopes and Nuclear Properties:
 (Nuclear quadrupole moments (NQMom) in fm**2, nuclear magnetic moments (NMagM)
  in nuclear magnetons)

  Atom         1           2           3           4           5           6           7           8           9          10
 IAtWgt=          14          12          12          12          12          12          14          12          12          12
 AtmWgt=  14.0030740  12.0000000  12.0000000  12.0000000  12.0000000  12.0000000  14.0030740  12.0000000  12.0000000  12.0000000
 NucSpn=           2           0           0           0           0           0           2           0           0           0
 AtZEff=   0.0000000   0.0000000   0.0000000   0.0000000   0.0000000   0.0000000   0.0000000   0.0000000   0.0000000   0.0000000
 NQMom=    2.0440000   0.0000000   0.0000000   0.0000000   0.0000000   0.0000000   2.0440000   0.0000000   0.0000000   0.0000000
 NMagM=    0.4037610   0.0000000   0.0000000   0.0000000   0.0000000   0.0000000   0.4037610   0.0000000   0.0000000   0.0000000
 AtZNuc=   7.0000000   6.0000000   6.0000000   6.0000000   6.0000000   6.0000000   7.0000000   6.0000000   6.0000000   6.0000000

  Atom        11          12          13          14          15          16          17          18          19          20
 IAtWgt=          12           1           1           1           1           1           1           1           1           1
 AtmWgt=  12.0000000   1.0078250   1.0078250   1.0078250   1.0078250   1.0078250   1.0078250   1.0078250   1.0078250   1.0078250
 NucSpn=           0           1           1           1           1           1           1           1           1           1
 AtZEff=   0.0000000   0.0000000   0.0000000   0.0000000   0.0000000   0.0000000   0.0000000   0.0000000   0.0000000   0.0000000
 NQMom=    0.0000000   0.0000000   0.0000000   0.0000000   0.0000000   0.0000000   0.0000000   0.0000000   0.0000000   0.0000000
 NMagM=    0.0000000   2.7928460   2.7928460   2.7928460   2.7928460   2.7928460   2.7928460   2.7928460   2.7928460   2.7928460
 AtZNuc=   6.0000000   1.0000000   1.0000000   1.0000000   1.0000000   1.0000000   1.0000000   1.0000000   1.0000000   1.0000000

  Atom        21          22
 IAtWgt=           1         107
 AtmWgt=   1.0078250 106.9050900
 NucSpn=           1           1
 AtZEff=   0.0000000   0.0000000
 NQMom=    0.0000000   0.0000000
 NMagM=    2.7928460  -0.1135700
 AtZNuc=   1.0000000  47.0000000
 Leave Link  101 at Fri Sep 11 21:09:50 2026, MaxMem=  6442450944 cpu:               1.0 elap:               0.2
 (Enter C:\G16W\l202.exe)
                          Input orientation:                          
 ---------------------------------------------------------------------
 Center     Atomic      Atomic             Coordinates (Angstroms)
 Number     Number       Type             X           Y           Z
 ---------------------------------------------------------------------
      1          7           0        5.143673   -0.350316    0.218220
      2          6           0        3.998871   -0.272231    0.170326
      3          6           0        2.596311   -0.177765    0.111532
      4          6           0        1.861617   -1.009137   -0.736855
      5          6           0        0.491372   -0.916108   -0.795599
      6          6           0       -0.212060    0.013916   -0.008461
      7          7           0       -1.572327    0.107840   -0.067705
      8          6           0       -2.276121    1.067277    0.747024
      9          6           0       -2.327988   -0.751309   -0.945467
     10          6           0        0.541516    0.843475    0.842005
     11          6           0        1.911725    0.749715    0.900076
     12          1           0        2.379549   -1.731167   -1.351567
     13          1           0       -0.036847   -1.576092   -1.463215
     14          1           0       -3.344118    0.990693    0.558268
     15          1           0       -1.962619    2.089882    0.514110
     16          1           0       -2.105367    0.883166    1.812531
     17          1           0       -2.039382   -0.601554   -1.990713
     18          1           0       -3.387348   -0.525033   -0.852352
     19          1           0       -2.182049   -1.805705   -0.689891
     20          1           0        0.052874    1.572236    1.466859
     21          1           0        2.468717    1.398215    1.560873
     22         47           0        5.672852    1.145029   -1.319062
 ---------------------------------------------------------------------
                    Distance matrix (angstroms):
                    1          2          3          4          5
     1  N    0.000000
     2  C    1.148461   0.000000
     3  C    2.555427   1.406967   0.000000
     4  C    3.481107   2.435952   1.396680   0.000000
     5  C    4.794982   3.694609   2.408071   1.374655   0.000000
     6  C    5.372888   4.224427   2.817461   2.424321   1.406893
     7  N    6.737679   5.589218   4.182253   3.672516   2.416020
     8  C    7.572486   6.442235   5.068981   4.861509   3.737983
     9  C    7.572363   6.442333   5.069016   4.202712   2.828146
    10  C    4.795216   3.694490   2.408050   2.769050   2.404245
    11  C    3.481449   2.435793   1.396667   2.403251   2.769058
    12  H    3.465741   2.658356   2.144925   1.080487   2.130407
    13  H    5.582789   4.544835   3.371745   2.110261   1.077175
    14  H    8.599798   7.460896   6.070714   5.725062   4.492197
    15  H    7.519408   6.421614   5.107655   5.078741   4.095532
    16  H    7.524087   6.426002   5.111237   5.081057   4.096679
    17  H    7.519228   6.421763   5.107708   4.117776   2.816373
    18  H    8.599708   7.460966   6.070737   5.272507   3.898798
    19  H    7.523897   6.426141   5.111281   4.121645   2.819528
    20  H    5.583148   4.544662   3.371719   3.845958   3.391586
    21  H    3.466333   2.658079   2.144897   3.382820   3.849538
    22  Ag   2.208919   2.651248   3.641633   4.416436   5.600896
                    6          7          8          9         10
     6  C    0.000000
     7  N    1.364792   0.000000
     8  C    2.437350   1.442092   0.000000
     9  C    2.437355   1.442091   2.484848   0.000000
    10  C    1.406889   2.416002   2.828107   3.737973   0.000000
    11  C    2.424315   3.672495   4.202657   4.861509   1.374640
    12  H    3.400836   4.543960   5.823284   4.825551   3.849533
    13  H    2.162206   2.672223   4.109368   2.489509   3.391585
    14  H    3.329424   2.076178   1.087250   2.515613   3.898760
    15  H    2.765352   2.102220   1.094648   3.215000   2.816334
    16  H    2.766987   2.102510   1.094696   3.213662   2.819483
    17  H    2.765363   2.102223   3.215003   1.094650   4.095538
    18  H    3.329425   2.076174   2.515607   1.087251   4.492175
    19  H    2.766988   2.102506   3.213658   1.094700   4.096665
    20  H    2.162203   2.672194   2.489450   4.109341   1.077175
    21  H    3.400832   4.543938   4.825490   5.823278   2.130402
    22  Ag   6.134271   7.425246   8.213461   8.230985   5.575999
                   11         12         13         14         15
    11  C    0.000000
    12  H    3.382829   0.000000
    13  H    3.845966   2.423940   0.000000
    14  H    5.272456   6.619392   4.648959   0.000000
    15  H    4.117713   6.077466   4.588875   1.765986   0.000000
    16  H    4.121579   6.079533   4.588816   1.766138   1.778324
    17  H    5.078763   4.605593   2.288695   3.276414   3.677480
    18  H    5.725047   5.912789   3.564230   2.071025   3.276408
    19  H    5.081058   4.609940   2.291865   3.275385   4.083303
    20  H    2.110240   4.926400   4.301785   3.564167   2.288646
    21  H    1.080484   4.275896   4.926405   5.912727   4.605524
    22  Ag   4.384852   4.372574   6.326606   9.211620   7.909089
                   16         17         18         19         20
    16  H    0.000000
    17  H    4.083309   0.000000
    18  H    3.275378   1.765994   0.000000
    19  H    3.673966   1.778334   1.766143   0.000000
    20  H    2.291792   4.588867   4.648914   4.588784   0.000000
    21  H    4.609865   6.077483   6.619368   6.079528   2.423926
    22  Ag   8.389049   7.936008   9.224649   8.414402   6.287131
                   21         22
    21  H    0.000000
    22  Ag   4.315624   0.000000
 Symmetry turned off by external request.
 Stoichiometry    C9H10AgN2(2)
 Framework group  C1[X(C9H10AgN2)]
 Deg. of freedom    60
 Full point group                 C1      NOp   1
 Rotational constants (GHZ):           2.0372965           0.2004474           0.1977901
 Leave Link  202 at Fri Sep 11 21:09:50 2026, MaxMem=  6442450944 cpu:               0.0 elap:               0.1
 (Enter C:\G16W\l301.exe)
 Standard basis: def2SVP (5D, 7F)
 Ernie: Thresh=  0.10000D-02 Tol=  0.10000D-05 Strict=F.
   235 basis functions,   410 primitive gaussians,   251 cartesian basis functions
    49 alpha electrons       48 beta electrons
       nuclear repulsion energy       719.8235129825 Hartrees.
 IExCor= 1009 DFT=T Ex+Corr=PBE1PBE ExCW=0 ScaHFX=  0.250000
 ScaDFX=  0.750000  0.750000  1.000000  1.000000 ScalE2=  1.000000  1.000000
 IRadAn=      5 IRanWt=     -1 IRanGd=            0 ICorTp=0 IEmpDi=141
 NAtoms=   22 NActive=   22 NUniq=   22 SFac= 1.00D+00 NAtFMM=   60 NAOKFM=F Big=F
 Integral buffers will be    131072 words long.
 Raffenetti 2 integral format.
 Two-electron integral symmetry is turned off.
 R6Disp:  Grimme-D3(BJ) Dispersion energy=       -0.0229747029 Hartrees.
 Nuclear repulsion after empirical dispersion term =      719.8005382796 Hartrees.
 Leave Link  301 at Fri Sep 11 21:09:50 2026, MaxMem=  6442450944 cpu:               0.0 elap:               0.2
 (Enter C:\G16W\l302.exe)
 NPDir=0 NMtPBC=     1 NCelOv=     1 NCel=       1 NClECP=     1 NCelD=      1
         NCelK=      1 NCelE2=     1 NClLst=     1 CellRange=     0.0.
 One-electron integrals computed using PRISM.
   1 Symmetry operations used in ECPInt.
 ECPInt:  NShTT=    5778 NPrTT=   20489 LenC2=    5457 LenP2D=   14802.
 LDataN:  DoStor=T MaxTD1= 7 Len=  274
 NBasis=   235 RedAO= T EigKep=  2.42D-04  NBF=   235
 NBsUse=   235 1.00D-06 EigRej= -1.00D+00 NBFU=   235
 Precomputing XC quadrature grid using
 IXCGrd= 4 IRadAn=           5 IRanWt=          -1 IRanGd=           0 AccXCQ= 0.00D+00.
 Defaulting to unpruned grid for atomic number  47.
 Generated NRdTot=       0 NPtTot=           0 NUsed=           0 NTot=          32
 NSgBfM=   250   250   250   250   250 MxSgAt=    22 MxSgA2=    22.
 Leave Link  302 at Fri Sep 11 21:09:54 2026, MaxMem=  6442450944 cpu:               4.0 elap:               3.8
 (Enter C:\G16W\l303.exe)
 DipDrv:  MaxL=1.
 Leave Link  303 at Fri Sep 11 21:09:54 2026, MaxMem=  6442450944 cpu:               0.0 elap:               0.2
 (Enter C:\G16W\l401.exe)
 Initial guess from the checkpoint file:  "DMABN.chk"
 B after Tr=    -1.204009   -0.164825    0.202659
         Rot=    0.995689   -0.002234   -0.066263   -0.064862 Ang= -10.64 deg.
 Guess basis will be translated and rotated to current coordinates.
 JPrj=2 DoOrth=T DoCkMO=T.
 Initial guess <Sx>= 0.0000 <Sy>= 0.0000 <Sz>= 0.5000 <S**2>= 0.7516 S= 0.5008
 Leave Link  401 at Fri Sep 11 21:10:04 2026, MaxMem=  6442450944 cpu:               9.0 elap:               8.8
 (Enter C:\G16W\l502.exe)
 Two-electron integral symmetry not used.
 UHF open shell SCF:
 Using DIIS extrapolation, IDIIS=  1040.
 NGot=  6442450944 LenX=  6442320325 LenY=  6442256883
 Requested convergence on RMS density matrix=1.00D-08 within 128 cycles.
 Requested convergence on MAX density matrix=1.00D-06.
 Requested convergence on             energy=1.00D-06.
 No special actions if energy rises.
 Fock matrices will be formed incrementally for  20 cycles.

 Cycle   1  Pass 1  IDiag  1:
 FoFJK:  IHMeth= 1 ICntrl=       0 DoSepK=F KAlg= 0 I1Cent=           0 FoldK=F
 IRaf= 910000000 NMat=       1 IRICut=       1 DoRegI=T DoRafI=F ISym2E= 0 IDoP0=0 IntGTp=1.
 FoFCou: FMM=F IPFlag=           0 FMFlag=      100000 FMFlg1=           0
         NFxFlg=           0 DoJE=F BraDBF=F KetDBF=F FulRan=T
         wScrn=  0.000000 ICntrl=         0 IOpCl=  1 I1Cent=           0 NGrid=           0
         NMat0=    1 NMatS0=      1 NMatT0=    0 NMatD0=    1 NMtDS0=    0 NMtDT0=    0
 Symmetry not used in FoFCou.
 Defaulting to unpruned grid for atomic number  47.
 Defaulting to unpruned grid for atomic number  47.
 Defaulting to unpruned grid for atomic number  47.
 Defaulting to unpruned grid for atomic number  47.
 Defaulting to unpruned grid for atomic number  47.
 Defaulting to unpruned grid for atomic number  47.
 Defaulting to unpruned grid for atomic number  47.
 Defaulting to unpruned grid for atomic number  47.
 E= -604.380655971020    
 DIIS: error= 2.56D-02 at cycle   1 NSaved=   1.
 NSaved= 1 IEnMin= 1 EnMin= -604.380655971020     IErMin= 1 ErrMin= 2.56D-02
 ErrMax= 2.56D-02  0.00D+00 EMaxC= 1.00D-01 BMatC= 5.89D-01 BMatP= 5.89D-01
 IDIUse=3 WtCom= 7.44D-01 WtEn= 2.56D-01
 Coeff-Com:  0.100D+01
 Coeff-En:   0.100D+01
 Coeff:      0.100D+01
 Gap=     0.349 Goal=   None    Shift=    0.000
 Gap=     0.255 Goal=   None    Shift=    0.000
 GapD=    0.255 DampG=1.000 DampE=0.250 DampFc=0.2500 IDamp=-1.
 Damping current iteration by 2.50D-01
 RMSDP=2.30D-03 MaxDP=6.90D-02              OVMax= 1.49D-01

 Cycle   2  Pass 1  IDiag  1:
 RMSU=  5.72D-04    CP:  9.98D-01
 E= -604.416866083668     Delta-E=       -0.036210112648 Rises=F Damp=T
 DIIS: error= 1.95D-02 at cycle   2 NSaved=   2.
 NSaved= 2 IEnMin= 2 EnMin= -604.416866083668     IErMin= 2 ErrMin= 1.95D-02
 ErrMax= 1.95D-02  0.00D+00 EMaxC= 1.00D-01 BMatC= 3.39D-01 BMatP= 5.89D-01
 IDIUse=3 WtCom= 8.05D-01 WtEn= 1.95D-01
 Coeff-Com: -0.300D+01 0.400D+01
 Coeff-En:   0.000D+00 0.100D+01
 Coeff:     -0.242D+01 0.342D+01
 Gap=     0.094 Goal=   None    Shift=    0.000
 Gap=     0.178 Goal=   None    Shift=    0.000
 RMSDP=1.88D-03 MaxDP=3.94D-02 DE=-3.62D-02 OVMax= 2.88D-02

 Cycle   3  Pass 1  IDiag  1:
 RMSU=  9.00D-04    CP:  9.94D-01  3.00D+00
 E= -604.533210280680     Delta-E=       -0.116344197012 Rises=F Damp=F
 DIIS: error= 5.43D-03 at cycle   3 NSaved=   3.
 NSaved= 3 IEnMin= 3 EnMin= -604.533210280680     IErMin= 3 ErrMin= 5.43D-03
 ErrMax= 5.43D-03  0.00D+00 EMaxC= 1.00D-01 BMatC= 2.69D-02 BMatP= 3.39D-01
 IDIUse=3 WtCom= 9.46D-01 WtEn= 5.43D-02
 Coeff-Com: -0.174D+01 0.229D+01 0.453D+00
 Coeff-En:   0.000D+00 0.000D+00 0.100D+01
 Coeff:     -0.165D+01 0.216D+01 0.483D+00
 Gap=     0.088 Goal=   None    Shift=    0.000
 Gap=     0.176 Goal=   None    Shift=    0.000
 RMSDP=4.34D-04 MaxDP=2.30D-02 DE=-1.16D-01 OVMax= 3.49D-02

 Cycle   4  Pass 1  IDiag  1:
 RMSU=  4.20D-04    CP:  9.94D-01  3.00D+00  8.80D-01
 E= -604.538246998125     Delta-E=       -0.005036717446 Rises=F Damp=F
 DIIS: error= 2.48D-03 at cycle   4 NSaved=   4.
 NSaved= 4 IEnMin= 4 EnMin= -604.538246998125     IErMin= 4 ErrMin= 2.48D-03
 ErrMax= 2.48D-03  0.00D+00 EMaxC= 1.00D-01 BMatC= 5.54D-03 BMatP= 2.69D-02
 IDIUse=3 WtCom= 9.75D-01 WtEn= 2.48D-02
 Coeff-Com: -0.634D+00 0.825D+00 0.327D+00 0.482D+00
 Coeff-En:   0.000D+00 0.000D+00 0.196D+00 0.804D+00
 Coeff:     -0.618D+00 0.804D+00 0.324D+00 0.490D+00
 Gap=     0.089 Goal=   None    Shift=    0.000
 Gap=     0.176 Goal=   None    Shift=    0.000
 RMSDP=1.50D-04 MaxDP=6.83D-03 DE=-5.04D-03 OVMax= 9.47D-03

 Cycle   5  Pass 1  IDiag  1:
 RMSU=  1.16D-04    CP:  9.93D-01  3.00D+00  9.25D-01  7.97D-01
 E= -604.539473059013     Delta-E=       -0.001226060887 Rises=F Damp=F
 DIIS: error= 7.36D-04 at cycle   5 NSaved=   5.
 NSaved= 5 IEnMin= 5 EnMin= -604.539473059013     IErMin= 5 ErrMin= 7.36D-04
 ErrMax= 7.36D-04  0.00D+00 EMaxC= 1.00D-01 BMatC= 2.12D-04 BMatP= 5.54D-03
 IDIUse=3 WtCom= 9.93D-01 WtEn= 7.36D-03
 Coeff-Com:  0.339D-01-0.480D-01 0.684D-01 0.216D+00 0.730D+00
 Coeff-En:   0.000D+00 0.000D+00 0.000D+00 0.000D+00 0.100D+01
 Coeff:      0.336D-01-0.477D-01 0.679D-01 0.214D+00 0.732D+00
 Gap=     0.090 Goal=   None    Shift=    0.000
 Gap=     0.176 Goal=   None    Shift=    0.000
 RMSDP=5.37D-05 MaxDP=4.26D-03 DE=-1.23D-03 OVMax= 4.07D-03

 Cycle   6  Pass 1  IDiag  1:
 RMSU=  4.58D-05    CP:  9.93D-01  3.00D+00  9.44D-01  8.22D-01  8.42D-01
 E= -604.539526247411     Delta-E=       -0.000053188398 Rises=F Damp=F
 DIIS: error= 2.08D-04 at cycle   6 NSaved=   6.
 NSaved= 6 IEnMin= 6 EnMin= -604.539526247411     IErMin= 6 ErrMin= 2.08D-04
 ErrMax= 2.08D-04  0.00D+00 EMaxC= 1.00D-01 BMatC= 3.96D-05 BMatP= 2.12D-04
 IDIUse=3 WtCom= 9.98D-01 WtEn= 2.08D-03
 Coeff-Com:  0.938D-01-0.124D+00 0.109D-02 0.621D-01 0.392D+00 0.575D+00
 Coeff-En:   0.000D+00 0.000D+00 0.000D+00 0.000D+00 0.000D+00 0.100D+01
 Coeff:      0.936D-01-0.124D+00 0.109D-02 0.619D-01 0.392D+00 0.576D+00
 Gap=     0.089 Goal=   None    Shift=    0.000
 Gap=     0.176 Goal=   None    Shift=    0.000
 RMSDP=2.15D-05 MaxDP=1.26D-03 DE=-5.32D-05 OVMax= 1.82D-03

 Cycle   7  Pass 1  IDiag  1:
 RMSU=  1.89D-05    CP:  9.93D-01  3.00D+00  9.51D-01  8.34D-01  8.79D-01
                    CP:  9.04D-01
 E= -604.539537767818     Delta-E=       -0.000011520406 Rises=F Damp=F
 DIIS: error= 6.55D-05 at cycle   7 NSaved=   7.
 NSaved= 7 IEnMin= 7 EnMin= -604.539537767818     IErMin= 7 ErrMin= 6.55D-05
 ErrMax= 6.55D-05  0.00D+00 EMaxC= 1.00D-01 BMatC= 2.25D-06 BMatP= 3.96D-05
 IDIUse=1 WtCom= 1.00D+00 WtEn= 0.00D+00
 Coeff-Com:  0.195D-01-0.255D-01-0.269D-02-0.316D-03 0.243D-01 0.128D+00
 Coeff-Com:  0.857D+00
 Coeff:      0.195D-01-0.255D-01-0.269D-02-0.316D-03 0.243D-01 0.128D+00
 Coeff:      0.857D+00
 Gap=     0.089 Goal=   None    Shift=    0.000
 Gap=     0.176 Goal=   None    Shift=    0.000
 RMSDP=9.26D-06 MaxDP=6.33D-04 DE=-1.15D-05 OVMax= 1.01D-03

 Cycle   8  Pass 1  IDiag  1:
 RMSU=  6.32D-06    CP:  9.93D-01  3.00D+00  9.53D-01  8.39D-01  8.98D-01
                    CP:  1.01D+00  1.17D+00
 E= -604.539539518104     Delta-E=       -0.000001750286 Rises=F Damp=F
 DIIS: error= 5.67D-05 at cycle   8 NSaved=   8.
 NSaved= 8 IEnMin= 8 EnMin= -604.539539518104     IErMin= 8 ErrMin= 5.67D-05
 ErrMax= 5.67D-05  0.00D+00 EMaxC= 1.00D-01 BMatC= 1.41D-06 BMatP= 2.25D-06
 IDIUse=1 WtCom= 1.00D+00 WtEn= 0.00D+00
 Coeff-Com: -0.165D-01 0.220D-01-0.175D-02-0.199D-01-0.114D+00-0.113D+00
 Coeff-Com:  0.507D+00 0.735D+00
 Coeff:     -0.165D-01 0.220D-01-0.175D-02-0.199D-01-0.114D+00-0.113D+00
 Coeff:      0.507D+00 0.735D+00
 Gap=     0.089 Goal=   None    Shift=    0.000
 Gap=     0.176 Goal=   None    Shift=    0.000
 RMSDP=6.75D-06 MaxDP=4.36D-04 DE=-1.75D-06 OVMax= 6.20D-04

 Cycle   9  Pass 1  IDiag  1:
 RMSU=  3.91D-06    CP:  9.93D-01  3.00D+00  9.54D-01  8.41D-01  9.08D-01
                    CP:  1.08D+00  1.36D+00  1.16D+00
 E= -604.539540501902     Delta-E=       -0.000000983798 Rises=F Damp=F
 DIIS: error= 2.62D-05 at cycle   9 NSaved=   9.
 NSaved= 9 IEnMin= 9 EnMin= -604.539540501902     IErMin= 9 ErrMin= 2.62D-05
 ErrMax= 2.62D-05  0.00D+00 EMaxC= 1.00D-01 BMatC= 2.10D-07 BMatP= 1.41D-06
 IDIUse=1 WtCom= 1.00D+00 WtEn= 0.00D+00
 Coeff-Com: -0.970D-02 0.128D-01 0.201D-03-0.499D-02-0.352D-01-0.620D-01
 Coeff-Com: -0.123D+00 0.181D+00 0.104D+01
 Coeff:     -0.970D-02 0.128D-01 0.201D-03-0.499D-02-0.352D-01-0.620D-01
 Coeff:     -0.123D+00 0.181D+00 0.104D+01
 Gap=     0.089 Goal=   None    Shift=    0.000
 Gap=     0.176 Goal=   None    Shift=    0.000
 RMSDP=4.44D-06 MaxDP=1.77D-04 DE=-9.84D-07 OVMax= 4.12D-04

 Cycle  10  Pass 1  IDiag  1:
 RMSU=  2.14D-06    CP:  9.93D-01  3.00D+00  9.55D-01  8.43D-01  9.08D-01
                    CP:  1.12D+00  1.48D+00  1.50D+00  1.38D+00
 E= -604.539540825044     Delta-E=       -0.000000323143 Rises=F Damp=F
 DIIS: error= 1.41D-05 at cycle  10 NSaved=  10.
 NSaved=10 IEnMin=10 EnMin= -604.539540825044     IErMin=10 ErrMin= 1.41D-05
 ErrMax= 1.41D-05  0.00D+00 EMaxC= 1.00D-01 BMatC= 5.65D-08 BMatP= 2.10D-07
 IDIUse=1 WtCom= 1.00D+00 WtEn= 0.00D+00
 Coeff-Com:  0.308D-02-0.413D-02 0.496D-03 0.486D-02 0.299D-01 0.243D-01
 Coeff-Com: -0.171D+00-0.168D+00 0.199D+00 0.108D+01
 Coeff:      0.308D-02-0.413D-02 0.496D-03 0.486D-02 0.299D-01 0.243D-01
 Coeff:     -0.171D+00-0.168D+00 0.199D+00 0.108D+01
 Gap=     0.089 Goal=   None    Shift=    0.000
 Gap=     0.176 Goal=   None    Shift=    0.000
 RMSDP=2.56D-06 MaxDP=1.03D-04 DE=-3.23D-07 OVMax= 2.67D-04

 Cycle  11  Pass 1  IDiag  1:
 RMSU=  1.11D-06    CP:  9.93D-01  3.00D+00  9.55D-01  8.43D-01  9.11D-01
                    CP:  1.12D+00  1.50D+00  1.70D+00  1.80D+00  1.36D+00
 E= -604.539540920487     Delta-E=       -0.000000095442 Rises=F Damp=F
 DIIS: error= 9.02D-06 at cycle  11 NSaved=  11.
 NSaved=11 IEnMin=11 EnMin= -604.539540920487     IErMin=11 ErrMin= 9.02D-06
 ErrMax= 9.02D-06  0.00D+00 EMaxC= 1.00D-01 BMatC= 1.84D-08 BMatP= 5.65D-08
 IDIUse=1 WtCom= 1.00D+00 WtEn= 0.00D+00
 Coeff-Com:  0.387D-02-0.513D-02 0.866D-04 0.339D-02 0.235D-01 0.284D-01
 Coeff-Com: -0.455D-01-0.126D+00-0.179D+00 0.461D+00 0.835D+00
 Coeff:      0.387D-02-0.513D-02 0.866D-04 0.339D-02 0.235D-01 0.284D-01
 Coeff:     -0.455D-01-0.126D+00-0.179D+00 0.461D+00 0.835D+00
 Gap=     0.089 Goal=   None    Shift=    0.000
 Gap=     0.176 Goal=   None    Shift=    0.000
 RMSDP=1.29D-06 MaxDP=4.57D-05 DE=-9.54D-08 OVMax= 1.46D-04

 Cycle  12  Pass 1  IDiag  1:
 RMSU=  5.33D-07    CP:  9.93D-01  3.00D+00  9.55D-01  8.43D-01  9.10D-01
                    CP:  1.12D+00  1.50D+00  1.78D+00  1.96D+00  1.73D+00
                    CP:  1.30D+00
 E= -604.539540941378     Delta-E=       -0.000000020891 Rises=F Damp=F
 DIIS: error= 6.71D-06 at cycle  12 NSaved=  12.
 NSaved=12 IEnMin=12 EnMin= -604.539540941378     IErMin=12 ErrMin= 6.71D-06
 ErrMax= 6.71D-06  0.00D+00 EMaxC= 1.00D-01 BMatC= 9.34D-09 BMatP= 1.84D-08
 IDIUse=1 WtCom= 1.00D+00 WtEn= 0.00D+00
 Coeff-Com:  0.134D-02-0.177D-02-0.115D-03 0.520D-03 0.536D-02 0.101D-01
 Coeff-Com:  0.202D-01-0.311D-01-0.164D+00-0.828D-02 0.545D+00 0.623D+00
 Coeff:      0.134D-02-0.177D-02-0.115D-03 0.520D-03 0.536D-02 0.101D-01
 Coeff:      0.202D-01-0.311D-01-0.164D+00-0.828D-02 0.545D+00 0.623D+00
 Gap=     0.089 Goal=   None    Shift=    0.000
 Gap=     0.176 Goal=   None    Shift=    0.000
 RMSDP=5.86D-07 MaxDP=1.74D-05 DE=-2.09D-08 OVMax= 7.09D-05

 Cycle  13  Pass 1  IDiag  1:
 RMSU=  2.53D-07    CP:  9.93D-01  3.00D+00  9.55D-01  8.43D-01  9.10D-01
                    CP:  1.12D+00  1.51D+00  1.80D+00  2.02D+00  1.86D+00
                    CP:  1.57D+00  7.77D-01
 E= -604.539540947046     Delta-E=       -0.000000005668 Rises=F Damp=F
 DIIS: error= 2.69D-06 at cycle  13 NSaved=  13.
 NSaved=13 IEnMin=13 EnMin= -604.539540947046     IErMin=13 ErrMin= 2.69D-06
 ErrMax= 2.69D-06  0.00D+00 EMaxC= 1.00D-01 BMatC= 1.38D-09 BMatP= 9.34D-09
 IDIUse=1 WtCom= 1.00D+00 WtEn= 0.00D+00
 Coeff-Com: -0.421D-03 0.563D-03-0.104D-03-0.765D-03-0.409D-02-0.255D-02
 Coeff-Com:  0.223D-01 0.180D-01-0.283D-01-0.129D+00 0.244D-01 0.288D+00
 Coeff-Com:  0.813D+00
 Coeff:     -0.421D-03 0.563D-03-0.104D-03-0.765D-03-0.409D-02-0.255D-02
 Coeff:      0.223D-01 0.180D-01-0.283D-01-0.129D+00 0.244D-01 0.288D+00
 Coeff:      0.813D+00
 Gap=     0.089 Goal=   None    Shift=    0.000
 Gap=     0.176 Goal=   None    Shift=    0.000
 RMSDP=2.88D-07 MaxDP=1.09D-05 DE=-5.67D-09 OVMax= 3.41D-05

 Cycle  14  Pass 1  IDiag  1:
 RMSU=  1.28D-07    CP:  9.93D-01  3.00D+00  9.55D-01  8.43D-01  9.10D-01
                    CP:  1.13D+00  1.51D+00  1.81D+00  2.05D+00  1.92D+00
                    CP:  1.68D+00  9.57D-01  1.07D+00
 E= -604.539540948238     Delta-E=       -0.000000001192 Rises=F Damp=F
 DIIS: error= 1.16D-06 at cycle  14 NSaved=  14.
 NSaved=14 IEnMin=14 EnMin= -604.539540948238     IErMin=14 ErrMin= 1.16D-06
 ErrMax= 1.16D-06  0.00D+00 EMaxC= 1.00D-01 BMatC= 3.42D-10 BMatP= 1.38D-09
 IDIUse=1 WtCom= 1.00D+00 WtEn= 0.00D+00
 Coeff-Com: -0.473D-03 0.628D-03-0.154D-04-0.443D-03-0.297D-02-0.309D-02
 Coeff-Com:  0.618D-02 0.146D-01 0.214D-01-0.577D-01-0.111D+00-0.228D-02
 Coeff-Com:  0.379D+00 0.756D+00
 Coeff:     -0.473D-03 0.628D-03-0.154D-04-0.443D-03-0.297D-02-0.309D-02
 Coeff:      0.618D-02 0.146D-01 0.214D-01-0.577D-01-0.111D+00-0.228D-02
 Coeff:      0.379D+00 0.756D+00
 Gap=     0.089 Goal=   None    Shift=    0.000
 Gap=     0.176 Goal=   None    Shift=    0.000
 RMSDP=1.26D-07 MaxDP=3.94D-06 DE=-1.19D-09 OVMax= 1.35D-05

 Cycle  15  Pass 1  IDiag  1:
 RMSU=  6.15D-08    CP:  9.93D-01  3.00D+00  9.55D-01  8.43D-01  9.10D-01
                    CP:  1.13D+00  1.51D+00  1.81D+00  2.06D+00  1.94D+00
                    CP:  1.73D+00  1.03D+00  1.28D+00  1.13D+00
 E= -604.539540948541     Delta-E=       -0.000000000303 Rises=F Damp=F
 DIIS: error= 5.62D-07 at cycle  15 NSaved=  15.
 NSaved=15 IEnMin=15 EnMin= -604.539540948541     IErMin=15 ErrMin= 5.62D-07
 ErrMax= 5.62D-07  0.00D+00 EMaxC= 1.00D-01 BMatC= 7.03D-11 BMatP= 3.42D-10
 IDIUse=1 WtCom= 1.00D+00 WtEn= 0.00D+00
 Coeff-Com:  0.263D-04-0.361D-04 0.405D-04 0.165D-03 0.646D-03-0.431D-04
 Coeff-Com: -0.638D-02-0.231D-02 0.160D-01 0.298D-01-0.386D-01-0.101D+00
 Coeff-Com: -0.161D+00 0.199D+00 0.106D+01
 Coeff:      0.263D-04-0.361D-04 0.405D-04 0.165D-03 0.646D-03-0.431D-04
 Coeff:     -0.638D-02-0.231D-02 0.160D-01 0.298D-01-0.386D-01-0.101D+00
 Coeff:     -0.161D+00 0.199D+00 0.106D+01
 Gap=     0.089 Goal=   None    Shift=    0.000
 Gap=     0.176 Goal=   None    Shift=    0.000
 RMSDP=8.08D-08 MaxDP=2.67D-06 DE=-3.03D-10 OVMax= 1.04D-05

 Cycle  16  Pass 1  IDiag  1:
 RMSU=  3.18D-08    CP:  9.93D-01  3.00D+00  9.55D-01  8.43D-01  9.10D-01
                    CP:  1.13D+00  1.51D+00  1.82D+00  2.07D+00  1.95D+00
                    CP:  1.75D+00  1.05D+00  1.40D+00  1.48D+00  1.37D+00
 E= -604.539540948661     Delta-E=       -0.000000000121 Rises=F Damp=F
 DIIS: error= 2.30D-07 at cycle  16 NSaved=  16.
 NSaved=16 IEnMin=16 EnMin= -604.539540948661     IErMin=16 ErrMin= 2.30D-07
 ErrMax= 2.30D-07  0.00D+00 EMaxC= 1.00D-01 BMatC= 1.83D-11 BMatP= 7.03D-11
 IDIUse=1 WtCom= 1.00D+00 WtEn= 0.00D+00
 Coeff-Com:  0.902D-04-0.120D-03 0.211D-04 0.145D-03 0.748D-03 0.402D-03
 Coeff-Com: -0.378D-02-0.323D-02 0.334D-02 0.228D-01 0.201D-02-0.442D-01
 Coeff-Com: -0.131D+00-0.500D-01 0.434D+00 0.768D+00
 Coeff:      0.902D-04-0.120D-03 0.211D-04 0.145D-03 0.748D-03 0.402D-03
 Coeff:     -0.378D-02-0.323D-02 0.334D-02 0.228D-01 0.201D-02-0.442D-01
 Coeff:     -0.131D+00-0.500D-01 0.434D+00 0.768D+00
 Gap=     0.089 Goal=   None    Shift=    0.000
 Gap=     0.176 Goal=   None    Shift=    0.000
 RMSDP=3.11D-08 MaxDP=1.07D-06 DE=-1.21D-10 OVMax= 3.30D-06

 Cycle  17  Pass 1  IDiag  1:
 RMSU=  1.95D-08    CP:  9.93D-01  3.00D+00  9.55D-01  8.43D-01  9.10D-01
                    CP:  1.13D+00  1.51D+00  1.82D+00  2.07D+00  1.95D+00
                    CP:  1.75D+00  1.06D+00  1.43D+00  1.57D+00  1.60D+00
                    CP:  1.07D+00
 E= -604.539540948669     Delta-E=       -0.000000000007 Rises=F Damp=F
 DIIS: error= 9.96D-08 at cycle  17 NSaved=  17.
 NSaved=17 IEnMin=17 EnMin= -604.539540948669     IErMin=17 ErrMin= 9.96D-08
 ErrMax= 9.96D-08  0.00D+00 EMaxC= 1.00D-01 BMatC= 7.96D-12 BMatP= 1.83D-11
 IDIUse=1 WtCom= 1.00D+00 WtEn= 0.00D+00
 Coeff-Com:  0.458D-04-0.608D-04-0.223D-07 0.370D-04 0.242D-03 0.226D-03
 Coeff-Com: -0.281D-03-0.113D-02-0.282D-02 0.444D-02 0.122D-01 0.444D-02
 Coeff-Com: -0.275D-01-0.907D-01-0.723D-01 0.474D+00 0.699D+00
 Coeff:      0.458D-04-0.608D-04-0.223D-07 0.370D-04 0.242D-03 0.226D-03
 Coeff:     -0.281D-03-0.113D-02-0.282D-02 0.444D-02 0.122D-01 0.444D-02
 Coeff:     -0.275D-01-0.907D-01-0.723D-01 0.474D+00 0.699D+00
 Gap=     0.089 Goal=   None    Shift=    0.000
 Gap=     0.176 Goal=   None    Shift=    0.000
 RMSDP=1.58D-08 MaxDP=5.23D-07 DE=-7.28D-12 OVMax= 1.74D-06

 Cycle  18  Pass 1  IDiag  1:
 RMSU=  6.64D-09    CP:  9.93D-01  3.00D+00  9.55D-01  8.43D-01  9.10D-01
                    CP:  1.13D+00  1.51D+00  1.82D+00  2.07D+00  1.95D+00
                    CP:  1.75D+00  1.06D+00  1.44D+00  1.62D+00  1.69D+00
                    CP:  1.40D+00  9.25D-01
 E= -604.539540948669     Delta-E=        0.000000000000 Rises=F Damp=F
 DIIS: error= 3.13D-08 at cycle  18 NSaved=  18.
 NSaved=18 IEnMin=18 EnMin= -604.539540948669     IErMin=18 ErrMin= 3.13D-08
 ErrMax= 3.13D-08  0.00D+00 EMaxC= 1.00D-01 BMatC= 8.03D-13 BMatP= 7.96D-12
 IDIUse=1 WtCom= 1.00D+00 WtEn= 0.00D+00
 Coeff-Com: -0.568D-05 0.766D-05-0.469D-05-0.185D-04-0.830D-04-0.129D-04
 Coeff-Com:  0.716D-03 0.379D-03-0.146D-02-0.363D-02 0.283D-02 0.109D-01
 Coeff-Com:  0.197D-01-0.151D-01-0.108D+00-0.273D-01 0.181D+00 0.940D+00
 Coeff:     -0.568D-05 0.766D-05-0.469D-05-0.185D-04-0.830D-04-0.129D-04
 Coeff:      0.716D-03 0.379D-03-0.146D-02-0.363D-02 0.283D-02 0.109D-01
 Coeff:      0.197D-01-0.151D-01-0.108D+00-0.273D-01 0.181D+00 0.940D+00
 Gap=     0.089 Goal=   None    Shift=    0.000
 Gap=     0.176 Goal=   None    Shift=    0.000
 RMSDP=6.61D-09 MaxDP=2.21D-07 DE=-4.55D-13 OVMax= 5.61D-07

 SCF Done:  E(UPBE1PBE) =  -604.539540949     A.U. after   18 cycles
            NFock= 18  Conv=0.66D-08     -V/T= 2.1867
 <Sx>= 0.0000 <Sy>= 0.0000 <Sz>= 0.5000 <S**2>= 0.7521 S= 0.5011
 <L.S>= 0.000000000000E+00
 KE= 5.094084724179D+02 PE=-2.816761258606D+03 EE= 9.830127069597D+02
 Annihilation of the first spin contaminant:
 S**2 before annihilation     0.7521,   after     0.7500
 Leave Link  502 at Fri Sep 11 21:13:06 2026, MaxMem=  6442450944 cpu:             182.0 elap:             182.5
 (Enter C:\G16W\l508.exe)
 QCSCF skips out because SCF is already converged.
 Leave Link  508 at Fri Sep 11 21:13:07 2026, MaxMem=  6442450944 cpu:               1.0 elap:               0.1
 (Enter C:\G16W\l601.exe)
 Copying SCF densities to generalized density rwf, IOpCl= 1 IROHF=0.

 **********************************************************************

            Population analysis using the SCF Density.

 **********************************************************************

 Alpha  occ. eigenvalues --  -14.44401 -14.40907 -10.30443 -10.29127 -10.28843
 Alpha  occ. eigenvalues --  -10.28836 -10.27378 -10.26674 -10.26667 -10.25315
 Alpha  occ. eigenvalues --  -10.25311  -3.73266  -2.31324  -2.31178  -2.31131
 Alpha  occ. eigenvalues --   -1.00502  -0.95646  -0.90064  -0.80996  -0.79790
 Alpha  occ. eigenvalues --   -0.76624  -0.72440  -0.64975  -0.63757  -0.59165
 Alpha  occ. eigenvalues --   -0.55582  -0.53459  -0.51099  -0.48733  -0.47327
 Alpha  occ. eigenvalues --   -0.46388  -0.45224  -0.44625  -0.44409  -0.42981
 Alpha  occ. eigenvalues --   -0.41825  -0.41415  -0.39623  -0.39215  -0.36805
 Alpha  occ. eigenvalues --   -0.33342  -0.30481  -0.30479  -0.29980  -0.29978
 Alpha  occ. eigenvalues --   -0.29451  -0.28648  -0.23180  -0.13500
 Alpha virt. eigenvalues --   -0.04552  -0.02548   0.01365   0.01955   0.03368
 Alpha virt. eigenvalues --    0.04483   0.05545   0.07496   0.07968   0.08077
 Alpha virt. eigenvalues --    0.09383   0.11536   0.12280   0.13135   0.13212
 Alpha virt. eigenvalues --    0.14128   0.14216   0.16122   0.17741   0.17796
 Alpha virt. eigenvalues --    0.20874   0.22388   0.25834   0.26780   0.28210
 Alpha virt. eigenvalues --    0.29881   0.30973   0.32583   0.35492   0.35636
 Alpha virt. eigenvalues --    0.36295   0.37808   0.38080   0.40280   0.41967
 Alpha virt. eigenvalues --    0.43519   0.44274   0.45630   0.45707   0.47681
 Alpha virt. eigenvalues --    0.48408   0.48440   0.49566   0.49604   0.50303
 Alpha virt. eigenvalues --    0.53084   0.53544   0.55813   0.58124   0.59061
 Alpha virt. eigenvalues --    0.61342   0.62259   0.62403   0.62623   0.63294
 Alpha virt. eigenvalues --    0.63889   0.64147   0.65717   0.66535   0.66608
 Alpha virt. eigenvalues --    0.67370   0.68956   0.69209   0.69688   0.70031
 Alpha virt. eigenvalues --    0.71069   0.72569   0.72790   0.74781   0.75938
 Alpha virt. eigenvalues --    0.79852   0.81113   0.81665   0.83815   0.86998
 Alpha virt. eigenvalues --    0.87999   0.88745   0.94041   0.95185   0.95945
 Alpha virt. eigenvalues --    1.01242   1.03958   1.08059   1.09915   1.10538
 Alpha virt. eigenvalues --    1.11079   1.17612   1.19194   1.21834   1.21905
 Alpha virt. eigenvalues --    1.23444   1.25899   1.27913   1.28361   1.28683
 Alpha virt. eigenvalues --    1.32424   1.33292   1.37515   1.47562   1.49535
 Alpha virt. eigenvalues --    1.50885   1.51419   1.52509   1.52669   1.62127
 Alpha virt. eigenvalues --    1.63517   1.66886   1.67246   1.69874   1.72501
 Alpha virt. eigenvalues --    1.72789   1.73166   1.73289   1.76064   1.76717
 Alpha virt. eigenvalues --    1.78208   1.79805   1.80327   1.81769   1.82091
 Alpha virt. eigenvalues --    1.86008   1.89845   1.89864   1.92498   1.93616
 Alpha virt. eigenvalues --    1.93986   1.95283   1.95633   1.97840   2.00902
 Alpha virt. eigenvalues --    2.05588   2.08481   2.09149   2.10358   2.16031
 Alpha virt. eigenvalues --    2.16154   2.16513   2.19107   2.21080   2.23033
 Alpha virt. eigenvalues --    2.25074   2.26722   2.30499   2.30577   2.35131
 Alpha virt. eigenvalues --    2.35220   2.37124   2.37232   2.38074   2.44375
 Alpha virt. eigenvalues --    2.44555   2.45716   2.58238   2.60510   2.62392
 Alpha virt. eigenvalues --    2.63084   2.64271   2.64464   2.64468   2.64515
 Alpha virt. eigenvalues --    2.64588   2.65132   2.65425   2.66497   2.70787
 Alpha virt. eigenvalues --    2.71392   2.76075   2.76920   2.80601   2.86644
 Alpha virt. eigenvalues --    2.88722   2.89792   2.91910   2.91930   2.93242
 Alpha virt. eigenvalues --    2.97510   3.02009   3.03300   3.04492   3.17584
 Alpha virt. eigenvalues --    3.20738   3.26480   3.43913   3.49758   3.72817
 Alpha virt. eigenvalues --   53.84950
  Beta  occ. eigenvalues --  -14.44388 -14.40856 -10.30422 -10.29005 -10.28844
  Beta  occ. eigenvalues --  -10.28837 -10.27386 -10.26652 -10.26645 -10.25327
  Beta  occ. eigenvalues --  -10.25323  -3.73131  -2.31278  -2.31106  -2.31037
  Beta  occ. eigenvalues --   -1.00475  -0.95510  -0.90043  -0.80959  -0.79778
  Beta  occ. eigenvalues --   -0.76613  -0.72405  -0.64960  -0.63686  -0.59136
  Beta  occ. eigenvalues --   -0.55540  -0.53450  -0.51064  -0.48720  -0.47314
  Beta  occ. eigenvalues --   -0.46383  -0.44872  -0.44621  -0.44292  -0.42896
  Beta  occ. eigenvalues --   -0.41820  -0.41273  -0.39462  -0.39142  -0.36750
  Beta  occ. eigenvalues --   -0.33206  -0.29995  -0.29993  -0.29450  -0.29419
  Beta  occ. eigenvalues --   -0.29379  -0.27986  -0.23087
  Beta virt. eigenvalues --   -0.05511  -0.03415  -0.02459   0.02666   0.04051
  Beta virt. eigenvalues --    0.04625   0.04864   0.06568   0.07730   0.08111
  Beta virt. eigenvalues --    0.08460   0.10024   0.11655   0.13101   0.13218
  Beta virt. eigenvalues --    0.13775   0.14226   0.14727   0.16405   0.17858
  Beta virt. eigenvalues --    0.18235   0.21190   0.22392   0.26088   0.27226
  Beta virt. eigenvalues --    0.28330   0.29908   0.31098   0.32628   0.35837
  Beta virt. eigenvalues --    0.37895   0.37946   0.38110   0.40371   0.40499
  Beta virt. eigenvalues --    0.42218   0.43805   0.44363   0.45808   0.46705
  Beta virt. eigenvalues --    0.47707   0.49057   0.49718   0.49888   0.50376
  Beta virt. eigenvalues --    0.51128   0.53826   0.54070   0.56214   0.59169
  Beta virt. eigenvalues --    0.59603   0.61361   0.62365   0.62508   0.62663
  Beta virt. eigenvalues --    0.63325   0.63910   0.65007   0.65758   0.66556
  Beta virt. eigenvalues --    0.66660   0.67589   0.69229   0.69481   0.69713
  Beta virt. eigenvalues --    0.70199   0.71182   0.72654   0.72868   0.74799
  Beta virt. eigenvalues --    0.75968   0.80178   0.81445   0.81679   0.83925
  Beta virt. eigenvalues --    0.87076   0.88042   0.88810   0.94063   0.95269
  Beta virt. eigenvalues --    0.95992   1.01323   1.03991   1.08092   1.09919
  Beta virt. eigenvalues --    1.10752   1.11089   1.17713   1.19274   1.21903
  Beta virt. eigenvalues --    1.21935   1.23462   1.25915   1.27928   1.28386
  Beta virt. eigenvalues --    1.28739   1.32430   1.33340   1.37734   1.47575
  Beta virt. eigenvalues --    1.49554   1.50891   1.51423   1.52539   1.52675
  Beta virt. eigenvalues --    1.62575   1.63824   1.66909   1.67298   1.69880
  Beta virt. eigenvalues --    1.72518   1.72814   1.73216   1.73305   1.76097
  Beta virt. eigenvalues --    1.76736   1.78251   1.79829   1.80391   1.81776
  Beta virt. eigenvalues --    1.82099   1.86091   1.89860   1.89914   1.92521
  Beta virt. eigenvalues --    1.93731   1.93992   1.95284   1.95754   1.97857
  Beta virt. eigenvalues --    2.00907   2.05620   2.09152   2.09477   2.10389
  Beta virt. eigenvalues --    2.16037   2.16235   2.16523   2.19142   2.21091
  Beta virt. eigenvalues --    2.23051   2.25085   2.26756   2.30534   2.30612
  Beta virt. eigenvalues --    2.35174   2.35318   2.37136   2.37245   2.38094
  Beta virt. eigenvalues --    2.44398   2.44580   2.45717   2.58257   2.60530
  Beta virt. eigenvalues --    2.62421   2.63109   2.64304   2.64448   2.64451
  Beta virt. eigenvalues --    2.64552   2.64705   2.65256   2.65465   2.66515
  Beta virt. eigenvalues --    2.70813   2.71582   2.76098   2.76924   2.80617
  Beta virt. eigenvalues --    2.86666   2.88765   2.89810   2.91920   2.91939
  Beta virt. eigenvalues --    2.93255   2.97524   3.02092   3.03332   3.04694
  Beta virt. eigenvalues --    3.17591   3.20760   3.26527   3.43929   3.49849
  Beta virt. eigenvalues --    3.72860  53.85094
          Condensed to atoms (all electrons):
               1          2          3          4          5          6
     1  N    6.419208   0.659044  -0.048328  -0.001410   0.000038   0.000037
     2  C    0.659044   5.139625   0.358444  -0.089996   0.014725   0.003549
     3  C   -0.048328   0.358444   5.419345   0.261419   0.090528  -0.171914
     4  C   -0.001410  -0.089996   0.261419   4.968713   0.326279   0.117600
     5  C    0.000038   0.014725   0.090528   0.326279   5.170533   0.215924
     6  C    0.000037   0.003549  -0.171914   0.117600   0.215924   5.146458
     7  N    0.000000   0.000025  -0.000296   0.007404  -0.095307   0.398863
     8  C    0.000000  -0.000001   0.000037  -0.000159   0.007930  -0.061267
     9  C    0.000000  -0.000001   0.000037   0.000983   0.003206  -0.061265
    10  C    0.000040   0.014705   0.090572  -0.143299   0.074418   0.215980
    11  C   -0.001453  -0.090166   0.261069   0.092582  -0.143332   0.117608
    12  H   -0.000685  -0.024222  -0.064049   0.458701  -0.062368   0.015723
    13  H   -0.000004  -0.000556   0.017267  -0.067232   0.462894  -0.082070
    14  H    0.000000   0.000000   0.000005   0.000010  -0.000154   0.007516
    15  H    0.000000   0.000002  -0.000085   0.000018  -0.000301  -0.011628
    16  H    0.000000   0.000000  -0.000073   0.000005  -0.000209  -0.011753
    17  H    0.000000   0.000002  -0.000085   0.001115   0.005712  -0.011640
    18  H    0.000000   0.000000   0.000005  -0.000077   0.000579   0.007514
    19  H    0.000000   0.000000  -0.000073   0.001033   0.005943  -0.011739
    20  H   -0.000004  -0.000555   0.017265  -0.001981   0.015029  -0.082089
    21  H   -0.000692  -0.024279  -0.064079   0.014197  -0.001958   0.015709
    22  Ag   0.077200  -0.052700  -0.002717   0.001578  -0.000059  -0.000112
               7          8          9         10         11         12
     1  N    0.000000   0.000000   0.000000   0.000040  -0.001453  -0.000685
     2  C    0.000025  -0.000001  -0.000001   0.014705  -0.090166  -0.024222
     3  C   -0.000296   0.000037   0.000037   0.090572   0.261069  -0.064049
     4  C    0.007404  -0.000159   0.000983  -0.143299   0.092582   0.458701
     5  C   -0.095307   0.007930   0.003206   0.074418  -0.143332  -0.062368
     6  C    0.398863  -0.061267  -0.061265   0.215980   0.117608   0.015723
     7  N    6.670920   0.350069   0.350087  -0.095320   0.007407  -0.000092
     8  C    0.350069   4.465391  -0.049790   0.003213   0.000984   0.000008
     9  C    0.350087  -0.049790   4.465386   0.007930  -0.000159  -0.000046
    10  C   -0.095320   0.003213   0.007930   5.170272   0.326341  -0.001957
    11  C    0.007407   0.000984  -0.000159   0.326341   4.968895   0.014227
    12  H   -0.000092   0.000008  -0.000046  -0.001957   0.014227   0.653877
    13  H   -0.016347   0.000000   0.012413   0.015028  -0.001981  -0.013606
    14  H   -0.019567   0.399228  -0.012848   0.000579  -0.000077   0.000000
    15  H   -0.029262   0.400971   0.003487   0.005704   0.001112   0.000000
    16  H   -0.029754   0.400278   0.003458   0.005953   0.001037   0.000000
    17  H   -0.029266   0.003488   0.400945  -0.000303   0.000018   0.000010
    18  H   -0.019564  -0.012845   0.399234  -0.000154   0.000010   0.000000
    19  H   -0.029764   0.003458   0.400287  -0.000207   0.000005   0.000013
    20  H   -0.016350   0.012412   0.000000   0.462934  -0.067229   0.000023
    21  H   -0.000092  -0.000046   0.000008  -0.062309   0.458769  -0.000182
    22  Ag   0.000010   0.000002   0.000001  -0.000074   0.001733   0.001171
              13         14         15         16         17         18
     1  N   -0.000004   0.000000   0.000000   0.000000   0.000000   0.000000
     2  C   -0.000556   0.000000   0.000002   0.000000   0.000002   0.000000
     3  C    0.017267   0.000005  -0.000085  -0.000073  -0.000085   0.000005
     4  C   -0.067232   0.000010   0.000018   0.000005   0.001115  -0.000077
     5  C    0.462894  -0.000154  -0.000301  -0.000209   0.005712   0.000579
     6  C   -0.082070   0.007516  -0.011628  -0.011753  -0.011640   0.007514
     7  N   -0.016347  -0.019567  -0.029262  -0.029754  -0.029266  -0.019564
     8  C    0.000000   0.399228   0.400971   0.400278   0.003488  -0.012845
     9  C    0.012413  -0.012848   0.003487   0.003458   0.400945   0.399234
    10  C    0.015028   0.000579   0.005704   0.005953  -0.000303  -0.000154
    11  C   -0.001981  -0.000077   0.001112   0.001037   0.000018   0.000010
    12  H   -0.013606   0.000000   0.000000   0.000000   0.000010   0.000000
    13  H    0.672707  -0.000004  -0.000024  -0.000020  -0.001851   0.000087
    14  H   -0.000004   0.609302  -0.020540  -0.020762   0.000346   0.004931
    15  H   -0.000024  -0.020540   0.634431  -0.041634   0.001303   0.000345
    16  H   -0.000020  -0.020762  -0.041634   0.637281  -0.000918   0.000335
    17  H   -0.001851   0.000346   0.001303  -0.000918   0.634525  -0.020541
    18  H    0.000087   0.004931   0.000345   0.000335  -0.020541   0.609280
    19  H   -0.001663   0.000335  -0.000917   0.001337  -0.041647  -0.020760
    20  H   -0.000179   0.000087  -0.001860  -0.001655  -0.000024  -0.000004
    21  H    0.000023   0.000000   0.000010   0.000012   0.000000   0.000000
    22  Ag  -0.000026   0.000000  -0.000009   0.000004  -0.000009   0.000000
              19         20         21         22
     1  N    0.000000  -0.000004  -0.000692   0.077200
     2  C    0.000000  -0.000555  -0.024279  -0.052700
     3  C   -0.000073   0.017265  -0.064079  -0.002717
     4  C    0.001033  -0.001981   0.014197   0.001578
     5  C    0.005943   0.015029  -0.001958  -0.000059
     6  C   -0.011739  -0.082089   0.015709  -0.000112
     7  N   -0.029764  -0.016350  -0.000092   0.000010
     8  C    0.003458   0.012412  -0.000046   0.000002
     9  C    0.400287   0.000000   0.000008   0.000001
    10  C   -0.000207   0.462934  -0.062309  -0.000074
    11  C    0.000005  -0.067229   0.458769   0.001733
    12  H    0.000013   0.000023  -0.000182   0.001171
    13  H   -0.001663  -0.000179   0.000023  -0.000026
    14  H    0.000335   0.000087   0.000000   0.000000
    15  H   -0.000917  -0.001860   0.000010  -0.000009
    16  H    0.001337  -0.001655   0.000012   0.000004
    17  H   -0.041647  -0.000024   0.000000  -0.000009
    18  H   -0.020760  -0.000004   0.000000   0.000000
    19  H    0.637310  -0.000019   0.000000   0.000003
    20  H   -0.000019   0.672622  -0.013593  -0.000022
    21  H    0.000000  -0.013593   0.653373   0.001338
    22  Ag   0.000003  -0.000022   0.001338  19.107919
          Atomic-Atomic Spin Densities.
               1          2          3          4          5          6
     1  N    0.058293   0.000143  -0.000289  -0.000127   0.000007   0.000000
     2  C    0.000143   0.089943   0.005656  -0.003471   0.000183   0.000041
     3  C   -0.000289   0.005656  -0.011511  -0.001936   0.000850   0.000090
     4  C   -0.000127  -0.003471  -0.001936   0.020589  -0.001259  -0.000833
     5  C    0.000007   0.000183   0.000850  -0.001259  -0.010018   0.001257
     6  C    0.000000   0.000041   0.000090  -0.000833   0.001257   0.017122
     7  N    0.000000   0.000000  -0.000004   0.000039  -0.000001  -0.003883
     8  C    0.000000   0.000000   0.000001  -0.000001  -0.000011  -0.000204
     9  C    0.000000   0.000000   0.000001   0.000001   0.000040  -0.000202
    10  C    0.000007   0.000198   0.000842  -0.000436   0.000204   0.001405
    11  C   -0.000140  -0.003533  -0.001950   0.001613  -0.000443  -0.000859
    12  H   -0.000181  -0.000374  -0.000219   0.000008  -0.000322  -0.000029
    13  H    0.000000  -0.000002  -0.000015  -0.000049  -0.000066   0.000013
    14  H    0.000000   0.000000   0.000000   0.000000   0.000000   0.000005
    15  H    0.000000   0.000000   0.000004  -0.000005   0.000002   0.000175
    16  H    0.000000   0.000000  -0.000003   0.000003   0.000000   0.000172
    17  H    0.000000   0.000000   0.000004  -0.000020   0.000013   0.000168
    18  H    0.000000   0.000000   0.000000   0.000000  -0.000001   0.000005
    19  H    0.000000   0.000000  -0.000003  -0.000002   0.000004   0.000178
    20  H    0.000000  -0.000003  -0.000018   0.000011   0.000001   0.000008
    21  H   -0.000184  -0.000436  -0.000204   0.000109  -0.000024  -0.000034
    22  Ag  -0.078672  -0.037286  -0.001886   0.002476  -0.000340  -0.000254
               7          8          9         10         11         12
     1  N    0.000000   0.000000   0.000000   0.000007  -0.000140  -0.000181
     2  C    0.000000   0.000000   0.000000   0.000198  -0.003533  -0.000374
     3  C   -0.000004   0.000001   0.000001   0.000842  -0.001950  -0.000219
     4  C    0.000039  -0.000001   0.000001  -0.000436   0.001613   0.000008
     5  C   -0.000001  -0.000011   0.000040   0.000204  -0.000443  -0.000322
     6  C   -0.003883  -0.000204  -0.000202   0.001405  -0.000859  -0.000029
     7  N    0.008693   0.000436   0.000429  -0.000025   0.000040   0.000000
     8  C    0.000436  -0.000414   0.000024   0.000036   0.000002   0.000000
     9  C    0.000429   0.000024  -0.000421  -0.000012  -0.000001  -0.000001
    10  C   -0.000025   0.000036  -0.000012  -0.009846  -0.001446  -0.000024
    11  C    0.000040   0.000002  -0.000001  -0.001446   0.021086   0.000117
    12  H    0.000000   0.000000  -0.000001  -0.000024   0.000117  -0.000270
    13  H   -0.000008  -0.000001   0.000007   0.000002   0.000009   0.000045
    14  H   -0.000008   0.000014   0.000003  -0.000001   0.000000   0.000000
    15  H   -0.000248  -0.000086  -0.000006   0.000014  -0.000021   0.000000
    16  H   -0.000271  -0.000302  -0.000023   0.000014  -0.000002   0.000000
    17  H   -0.000246  -0.000006  -0.000086   0.000002  -0.000005  -0.000005
    18  H   -0.000008   0.000003   0.000014   0.000000   0.000000   0.000000
    19  H   -0.000271  -0.000023  -0.000293   0.000002   0.000003   0.000006
    20  H   -0.000008   0.000006  -0.000001  -0.000074  -0.000047   0.000001
    21  H    0.000000  -0.000001   0.000000  -0.000331   0.000031   0.000014
    22  Ag   0.000013   0.000000   0.000000  -0.000378   0.002661   0.001274
              13         14         15         16         17         18
     1  N    0.000000   0.000000   0.000000   0.000000   0.000000   0.000000
     2  C   -0.000002   0.000000   0.000000   0.000000   0.000000   0.000000
     3  C   -0.000015   0.000000   0.000004  -0.000003   0.000004   0.000000
     4  C   -0.000049   0.000000  -0.000005   0.000003  -0.000020   0.000000
     5  C   -0.000066   0.000000   0.000002   0.000000   0.000013  -0.000001
     6  C    0.000013   0.000005   0.000175   0.000172   0.000168   0.000005
     7  N   -0.000008  -0.000008  -0.000248  -0.000271  -0.000246  -0.000008
     8  C   -0.000001   0.000014  -0.000086  -0.000302  -0.000006   0.000003
     9  C    0.000007   0.000003  -0.000006  -0.000023  -0.000086   0.000014
    10  C    0.000002  -0.000001   0.000014   0.000014   0.000002   0.000000
    11  C    0.000009   0.000000  -0.000021  -0.000002  -0.000005   0.000000
    12  H    0.000045   0.000000   0.000000   0.000000  -0.000005   0.000000
    13  H    0.000437   0.000000  -0.000001   0.000001  -0.000045   0.000001
    14  H    0.000000   0.000000  -0.000026   0.000017  -0.000003  -0.000001
    15  H   -0.000001  -0.000026   0.001112  -0.000396   0.000027  -0.000003
    16  H    0.000001   0.000017  -0.000396   0.001239  -0.000014   0.000003
    17  H   -0.000045  -0.000003   0.000027  -0.000014   0.001105  -0.000024
    18  H    0.000001  -0.000001  -0.000003   0.000003  -0.000024  -0.000001
    19  H    0.000036   0.000003  -0.000014   0.000033  -0.000392   0.000016
    20  H    0.000000   0.000002  -0.000052   0.000044  -0.000001   0.000000
    21  H    0.000000   0.000000  -0.000005   0.000006   0.000000   0.000000
    22  Ag   0.000017   0.000000  -0.000011   0.000004  -0.000010   0.000000
              19         20         21         22
     1  N    0.000000   0.000000  -0.000184  -0.078672
     2  C    0.000000  -0.000003  -0.000436  -0.037286
     3  C   -0.000003  -0.000018  -0.000204  -0.001886
     4  C   -0.000002   0.000011   0.000109   0.002476
     5  C    0.000004   0.000001  -0.000024  -0.000340
     6  C    0.000178   0.000008  -0.000034  -0.000254
     7  N   -0.000271  -0.000008   0.000000   0.000013
     8  C   -0.000023   0.000006  -0.000001   0.000000
     9  C   -0.000293  -0.000001   0.000000   0.000000
    10  C    0.000002  -0.000074  -0.000331  -0.000378
    11  C    0.000003  -0.000047   0.000031   0.002661
    12  H    0.000006   0.000001   0.000014   0.001274
    13  H    0.000036   0.000000   0.000000   0.000017
    14  H    0.000003   0.000002   0.000000   0.000000
    15  H   -0.000014  -0.000052  -0.000005  -0.000011
    16  H    0.000033   0.000044   0.000006   0.000004
    17  H   -0.000392  -0.000001   0.000000  -0.000010
    18  H    0.000016   0.000000   0.000000   0.000000
    19  H    0.001233   0.000001   0.000000   0.000004
    20  H    0.000001   0.000445   0.000053   0.000022
    21  H    0.000000   0.000053  -0.000330   0.001385
    22  Ag   0.000004   0.000022   0.001385   1.056795
 Mulliken charges and spin densities:
               1          2
     1  N   -0.102992  -0.021145
     2  C    0.092354   0.051059
     3  C   -0.164292  -0.010590
     4  C    0.052515   0.016709
     5  C   -0.090050  -0.009922
     6  C    0.242995   0.014344
     7  N   -0.403802   0.004670
     8  C    0.076640  -0.000525
     9  C    0.076647  -0.000524
    10  C   -0.090048  -0.009847
    11  C    0.052598   0.017116
    12  H    0.023454   0.000040
    13  H    0.005143   0.000384
    14  H    0.051614   0.000006
    15  H    0.058878   0.000462
    16  H    0.057078   0.000525
    17  H    0.058821   0.000461
    18  H    0.051625   0.000006
    19  H    0.057067   0.000520
    20  H    0.005192   0.000388
    21  H    0.023792   0.000049
    22  Ag  -0.135231   0.945815
 Sum of Mulliken charges =   0.00000   1.00000
 Mulliken charges and spin densities with hydrogens summed into heavy atoms:
               1          2
     1  N   -0.102992  -0.021145
     2  C    0.092354   0.051059
     3  C   -0.164292  -0.010590
     4  C    0.075969   0.016749
     5  C   -0.084907  -0.009539
     6  C    0.242995   0.014344
     7  N   -0.403802   0.004670
     8  C    0.244210   0.000468
     9  C    0.244160   0.000463
    10  C   -0.084856  -0.009458
    11  C    0.076390   0.017165
    22  Ag  -0.135231   0.945815
 Electronic spatial extent (au):  <R**2>=           4732.6562
 Charge=              0.0000 electrons
 Dipole moment (field-independent basis, Debye):
    X=             -9.3452    Y=             -1.2972    Z=              1.5675  Tot=              9.5641
 Quadrupole moment (field-independent basis, Debye-Ang):
   XX=           -122.6450   YY=            -86.7338   ZZ=            -88.1573
   XY=             -8.9719   XZ=             10.3391   YZ=              9.4672
 Traceless Quadrupole moment (field-independent basis, Debye-Ang):
   XX=            -23.4663   YY=             12.4449   ZZ=             11.0214
   XY=             -8.9719   XZ=             10.3391   YZ=              9.4672
 Octapole moment (field-independent basis, Debye-Ang**2):
  XXX=           -804.2107  YYY=            -74.5417  ZZZ=             91.6299  XYY=           -191.1497
  XXY=            -69.1112  XXZ=             82.9454  XZZ=           -195.1355  YZZ=            -30.1170
  YYZ=             34.1856  XYZ=             27.2304
 Hexadecapole moment (field-independent basis, Debye-Ang**3):
 XXXX=          -8258.5072 YYYY=           -537.7562 ZZZZ=           -569.3294 XXXY=           -641.5201
 XXXZ=            779.8631 YYYX=           -402.6584 YYYZ=             35.7074 ZZZX=            503.7239
 ZZZY=             36.4090 XXYY=          -1317.6222 XXZZ=          -1344.9250 YYZZ=           -184.7552
 XXYZ=            161.5863 YYXZ=            188.6643 ZZXY=           -163.8719
 N-N= 7.198005382796D+02 E-N=-2.816761262606D+03  KE= 5.094084724179D+02
                          Isotropic Fermi Contact Couplings
        Atom                 a.u.       MegaHertz       Gauss      10(-4) cm-1
     1  N(14)              0.12931      41.78105      14.90852      13.93666
     2  C(13)              0.01106      12.43324       4.43649       4.14728
     3  C(13)              0.00212       2.38697       0.85173       0.79621
     4  C(13)              0.00295       3.31923       1.18438       1.10717
     5  C(13)             -0.00215      -2.42255      -0.86443      -0.80808
     6  C(13)              0.00264       2.97278       1.06076       0.99161
     7  N(14)              0.00175       0.56443       0.20140       0.18827
     8  C(13)             -0.00035      -0.39165      -0.13975      -0.13064
     9  C(13)             -0.00035      -0.39263      -0.14010      -0.13097
    10  C(13)             -0.00213      -2.39799      -0.85566      -0.79988
    11  C(13)              0.00292       3.28554       1.17236       1.09594
    12  H(1)              -0.00025      -1.11454      -0.39770      -0.37177
    13  H(1)               0.00010       0.46809       0.16703       0.15614
    14  H(1)               0.00000       0.00549       0.00196       0.00183
    15  H(1)               0.00014       0.61845       0.22068       0.20629
    16  H(1)               0.00013       0.55897       0.19945       0.18645
    17  H(1)               0.00014       0.61992       0.22120       0.20678
    18  H(1)               0.00000       0.00545       0.00195       0.00182
    19  H(1)               0.00013       0.56766       0.20256       0.18935
    20  H(1)               0.00011       0.46959       0.16756       0.15664
    21  H(1)              -0.00025      -1.13672      -0.40561      -0.37917
    22  Ag(107             0.00027      -0.04850      -0.01730      -0.01618
 --------------------------------------------------------
       Center         ----  Spin Dipole Couplings  ----
                      3XX-RR        3YY-RR        3ZZ-RR
 --------------------------------------------------------
     1   Atom        0.032758     -0.015819     -0.016939
     2   Atom       -0.045070      0.021077      0.023993
     3   Atom        0.010330     -0.004981     -0.005349
     4   Atom       -0.005821      0.004674      0.001147
     5   Atom        0.004749     -0.001790     -0.002959
     6   Atom       -0.005881      0.002143      0.003738
     7   Atom       -0.006652      0.002462      0.004191
     8   Atom        0.000479     -0.000223     -0.000255
     9   Atom        0.000497     -0.000241     -0.000256
    10   Atom        0.004715     -0.002191     -0.002525
    11   Atom       -0.005970     -0.000841      0.006811
    12   Atom        0.000114      0.000567     -0.000681
    13   Atom        0.000993     -0.000315     -0.000678
    14   Atom        0.000446     -0.000222     -0.000224
    15   Atom        0.000450     -0.000161     -0.000289
    16   Atom        0.000325     -0.000270     -0.000056
    17   Atom        0.000461     -0.000281     -0.000181
    18   Atom        0.000460     -0.000230     -0.000230
    19   Atom        0.000337     -0.000057     -0.000280
    20   Atom        0.001003     -0.000682     -0.000322
    21   Atom        0.000124     -0.000710      0.000586
    22   Atom        0.009704     -0.003948     -0.005756
 --------------------------------------------------------
                        XY            XZ            YZ
 --------------------------------------------------------
     1   Atom        0.002440     -0.002974      0.016880
     2   Atom        0.002051     -0.002075     -0.068074
     3   Atom        0.005253     -0.005858      0.004662
     4   Atom        0.002228     -0.000956     -0.011206
     5   Atom       -0.000059      0.000216      0.005107
     6   Atom        0.001997     -0.002173     -0.011057
     7   Atom        0.001682     -0.001831     -0.011286
     8   Atom       -0.000143     -0.000325      0.000188
     9   Atom        0.000325      0.000113      0.000178
    10   Atom       -0.000204      0.000007      0.005023
    11   Atom        0.000834     -0.002414     -0.010876
    12   Atom        0.001642     -0.000660      0.000269
    13   Atom        0.000366     -0.000206      0.000063
    14   Atom       -0.000101     -0.000213      0.000023
    15   Atom       -0.000184     -0.000260      0.000107
    16   Atom       -0.000028     -0.000365      0.000095
    17   Atom        0.000259      0.000158      0.000106
    18   Atom        0.000204      0.000073      0.000016
    19   Atom        0.000358     -0.000005      0.000071
    20   Atom        0.000151     -0.000424      0.000088
    21   Atom        0.000643     -0.001740      0.000316
    22   Atom       -0.011021      0.011514      0.030110
 --------------------------------------------------------


 ---------------------------------------------------------------------------------
              Anisotropic Spin Dipole Couplings in Principal Axis System
 ---------------------------------------------------------------------------------

       Atom             a.u.   MegaHertz   Gauss  10(-4) cm-1        Axes

              Baa    -0.0335    -1.292    -0.461    -0.431  0.0578 -0.6937  0.7179
     1 N(14)  Bbb     0.0005     0.020     0.007     0.007  0.0096  0.7195  0.6945
              Bcc     0.0330     1.272     0.454     0.424  0.9983  0.0332 -0.0482
 
              Baa    -0.0456    -6.113    -2.181    -2.039 -0.0341  0.7147  0.6986
     2 C(13)  Bbb    -0.0451    -6.056    -2.161    -2.020  0.9992  0.0093  0.0392
              Bcc     0.0907    12.169     4.342     4.059 -0.0215 -0.6993  0.7145
 
              Baa    -0.0125    -1.682    -0.600    -0.561  0.3253 -0.6500  0.6868
     3 C(13)  Bbb    -0.0005    -0.068    -0.024    -0.023  0.0156  0.7299  0.6834
              Bcc     0.0130     1.750     0.624     0.584  0.9455  0.2116 -0.2476
 
              Baa    -0.0086    -1.159    -0.413    -0.387 -0.2691  0.6463  0.7141
     4 C(13)  Bbb    -0.0059    -0.789    -0.282    -0.263  0.9565  0.0922  0.2770
              Bcc     0.0145     1.948     0.695     0.650  0.1132  0.7575 -0.6430
 
              Baa    -0.0075    -1.009    -0.360    -0.337 -0.0164 -0.6655  0.7462
     5 C(13)  Bbb     0.0028     0.370     0.132     0.124 -0.0500  0.7459  0.6641
              Bcc     0.0048     0.638     0.228     0.213  0.9986  0.0264  0.0455
 
              Baa    -0.0081    -1.093    -0.390    -0.365  0.0098  0.7312  0.6821
     6 C(13)  Bbb    -0.0063    -0.847    -0.302    -0.282  0.9896 -0.1051  0.0984
              Bcc     0.0145     1.940     0.692     0.647 -0.1436 -0.6740  0.7246
 
              Baa    -0.0080    -0.308    -0.110    -0.103  0.0098  0.7328  0.6803
     7 N(14)  Bbb    -0.0069    -0.268    -0.095    -0.089  0.9934 -0.0850  0.0772
              Bcc     0.0149     0.576     0.205     0.192 -0.1144 -0.6751  0.7288
 
              Baa    -0.0005    -0.061    -0.022    -0.021  0.2031 -0.5342  0.8206
     8 C(13)  Bbb    -0.0002    -0.026    -0.009    -0.009  0.3848  0.8142  0.4348
              Bcc     0.0006     0.087     0.031     0.029  0.9004 -0.2275 -0.3709
 
              Baa    -0.0005    -0.061    -0.022    -0.020 -0.1984  0.7855 -0.5862
     9 C(13)  Bbb    -0.0002    -0.026    -0.009    -0.009 -0.3617  0.4972  0.7887
              Bcc     0.0007     0.087     0.031     0.029  0.9110  0.3685  0.1854
 
              Baa    -0.0074    -0.991    -0.354    -0.331 -0.0121 -0.6953  0.7186
    10 C(13)  Bbb     0.0027     0.357     0.127     0.119  0.0690  0.7163  0.6943
              Bcc     0.0047     0.634     0.226     0.212  0.9975 -0.0580 -0.0393
 
              Baa    -0.0087    -1.174    -0.419    -0.392  0.2730  0.7681  0.5793
    11 C(13)  Bbb    -0.0061    -0.813    -0.290    -0.271  0.9548 -0.2898 -0.0658
              Bcc     0.0148     1.987     0.709     0.663 -0.1173 -0.5711  0.8125
 
              Baa    -0.0017    -0.933    -0.333    -0.311  0.6564 -0.5280  0.5388
    12 H(1)   Bbb    -0.0003    -0.144    -0.052    -0.048 -0.3507  0.4188  0.8376
              Bcc     0.0020     1.078     0.384     0.359  0.6679  0.7388 -0.0897
 
              Baa    -0.0007    -0.392    -0.140    -0.131  0.1736 -0.2911  0.9408
    13 H(1)   Bbb    -0.0004    -0.198    -0.071    -0.066 -0.1996  0.9251  0.3231
              Bcc     0.0011     0.591     0.211     0.197  0.9644  0.2439 -0.1025
 
              Baa    -0.0003    -0.153    -0.055    -0.051  0.2926  0.1212  0.9485
    14 H(1)   Bbb    -0.0002    -0.126    -0.045    -0.042  0.0975  0.9830 -0.1557
              Bcc     0.0005     0.279     0.100     0.093  0.9512 -0.1380 -0.2759
 
              Baa    -0.0004    -0.205    -0.073    -0.068  0.2353 -0.2557  0.9377
    15 H(1)   Bbb    -0.0002    -0.110    -0.039    -0.037  0.3286  0.9289  0.1709
              Bcc     0.0006     0.315     0.112     0.105  0.9147 -0.2679 -0.3026
 
              Baa    -0.0003    -0.183    -0.065    -0.061 -0.3173  0.7034 -0.6361
    16 H(1)   Bbb    -0.0002    -0.112    -0.040    -0.037  0.4243  0.7051  0.5681
              Bcc     0.0006     0.295     0.105     0.098  0.8481 -0.0897 -0.5222
 
              Baa    -0.0004    -0.203    -0.072    -0.068 -0.2249  0.9225 -0.3137
    17 H(1)   Bbb    -0.0002    -0.110    -0.039    -0.037 -0.3103  0.2373  0.9205
              Bcc     0.0006     0.313     0.112     0.104  0.9237  0.3043  0.2329
 
              Baa    -0.0003    -0.153    -0.054    -0.051 -0.2714  0.9585  0.0875
    18 H(1)   Bbb    -0.0002    -0.126    -0.045    -0.042 -0.0715 -0.1108  0.9913
              Bcc     0.0005     0.279     0.100     0.093  0.9598  0.2627  0.0986
 
              Baa    -0.0003    -0.181    -0.065    -0.060  0.3187 -0.5914  0.7407
    19 H(1)   Bbb    -0.0002    -0.113    -0.040    -0.038 -0.4021  0.6234  0.6707
              Bcc     0.0006     0.294     0.105     0.098  0.8584  0.5115  0.0391
 
              Baa    -0.0007    -0.397    -0.142    -0.132 -0.1667  0.9184 -0.3589
    20 H(1)   Bbb    -0.0004    -0.209    -0.075    -0.070  0.2287  0.3901  0.8919
              Bcc     0.0011     0.606     0.216     0.202  0.9591  0.0666 -0.2750
 
              Baa    -0.0018    -0.977    -0.349    -0.326  0.6548 -0.5282  0.5406
    21 H(1)   Bbb    -0.0003    -0.156    -0.056    -0.052  0.3545  0.8464  0.3975
              Bcc     0.0021     1.133     0.404     0.378 -0.6675 -0.0686  0.7415
 
              Baa    -0.0401     0.870     0.310     0.290 -0.3049 -0.6629  0.6838
    22 Ag(107 Bbb     0.0148    -0.321    -0.115    -0.107  0.9523 -0.2195  0.2118
              Bcc     0.0253    -0.548    -0.196    -0.183  0.0097  0.7158  0.6982
 

 ---------------------------------------------------------------------------------

 No NMR shielding tensors so no spin-rotation constants.
 Leave Link  601 at Fri Sep 11 21:13:08 2026, MaxMem=  6442450944 cpu:               1.0 elap:               1.4
 (Enter C:\G16W\l9999.exe)
 Unable to Open any file for archive entry.
 1|1|UNPC-DESKTOP-2JKEGCA|SP|UPBE1PBE|def2SVP|C9H10Ag1N2(2)|JHKIM|11-Se
 p-2026|0||#P PBE1PBE/Def2SVP EmpiricalDispersion=GD3BJ SP SCF=(XQC,Max
 Cycle=128) NoSymm Guess=Read||DMABN t=0.500 dz=+0.00 class=toface||0,2
 |N,0,5.143673,-0.350316,0.21822|C,0,3.998871,-0.272231,0.170326|C,0,2.
 596311,-0.177765,0.111532|C,0,1.861617,-1.009137,-0.736855|C,0,0.49137
 2,-0.916108,-0.795599|C,0,-0.21206,0.013916,-0.008461|N,0,-1.572327,0.
 10784,-0.067705|C,0,-2.276121,1.067277,0.747024|C,0,-2.327988,-0.75130
 9,-0.945467|C,0,0.541516,0.843475,0.842005|C,0,1.911725,0.749715,0.900
 076|H,0,2.379549,-1.731167,-1.351567|H,0,-0.036847,-1.576092,-1.463215
 |H,0,-3.344118,0.990693,0.558268|H,0,-1.962619,2.089882,0.51411|H,0,-2
 .105367,0.883166,1.812531|H,0,-2.039382,-0.601554,-1.990713|H,0,-3.387
 348,-0.525033,-0.852352|H,0,-2.182049,-1.805705,-0.689891|H,0,0.052874
 ,1.572236,1.466859|H,0,2.468717,1.398215,1.560873|Ag,0,5.67285241,1.14
 502888,-1.31906214||Version=EM64W-G16RevC.01|HF=-604.5395409|S2=0.7521
 22|S2-1=0.|S2A=0.750004|RMSD=6.610e-009|Dipole=-3.6766877,-0.5103529,0
 .6167068|Quadrupole=-17.4465956,9.2524414,8.1941542,-6.6703923,7.68689
 46,7.0386031|PG=C01 [X(C9H10Ag1N2)]||@
 The archive entry for this job was punched.


 HONESTY IN A LAWYER IS LIKE A HEN'S HIND LEGS.
  -- MAGNUS OLESON, LAKE WOBEGON PATRIARCH, C.1875
 Job cpu time:       0 days  0 hours  3 minutes 19.0 seconds.
 Elapsed time:       0 days  0 hours  3 minutes 17.8 seconds.
 File lengths (MBytes):  RWF=     57 Int=      0 D2E=      0 Chk=      5 Scr=      1
 Normal termination of Gaussian 16 at Fri Sep 11 21:13:08 2026.
