 Entering Gaussian System, Link 0=C:\G16W\g16.exe
 Input=DMABN_t4_z1.gjf
 Output=DMABN_t4_z1.out
 Initial command:
 C:\G16W\l1.exe ".\Gau-133680.inp" "DMABN_t4_z1.out" /scrdir=".\"
 Entering Link 1 = C:\G16W\l1.exe PID=     76040.
  
 Copyright (c) 1988-2019, Gaussian, Inc.  All Rights Reserved.
  
 This is part of the Gaussian(R) 16 program.  It is based on
 the Gaussian(R) 09 system (copyright 2009, Gaussian, Inc.),
 the Gaussian(R) 03 system (copyright 2003, Gaussian, Inc.),
 the Gaussian(R) 98 system (copyright 1998, Gaussian, Inc.),
 the Gaussian(R) 94 system (copyright 1995, Gaussian, Inc.),
 the Gaussian 92(TM) system (copyright 1992, Gaussian, Inc.),
 the Gaussian 90(TM) system (copyright 1990, Gaussian, Inc.),
 the Gaussian 88(TM) system (copyright 1988, Gaussian, Inc.),
 the Gaussian 86(TM) system (copyright 1986, Carnegie Mellon
 University), and the Gaussian 82(TM) system (copyright 1983,
 Carnegie Mellon University). Gaussian is a federally registered
 trademark of Gaussian, Inc.
  
 This software contains proprietary and confidential information,
 including trade secrets, belonging to Gaussian, Inc.
  
 This software is provided under written license and may be
 used, copied, transmitted, or stored only in accord with that
 written license.
  
 The following legend is applicable only to US Government
 contracts under FAR:
  
                    RESTRICTED RIGHTS LEGEND
  
 Use, reproduction and disclosure by the US Government is
 subject to restrictions as set forth in subparagraphs (a)
 and (c) of the Commercial Computer Software - Restricted
 Rights clause in FAR 52.227-19.
  
 Gaussian, Inc.
 340 Quinnipiac St., Bldg. 40, Wallingford CT 06492
  
  
 ---------------------------------------------------------------
 Warning -- This program may not be used in any manner that
 competes with the business of Gaussian, Inc. or will provide
 assistance to any competitor of Gaussian, Inc.  The licensee
 of this program is prohibited from giving any competitor of
 Gaussian, Inc. access to this program.  By using this program,
 the user acknowledges that Gaussian, Inc. is engaged in the
 business of creating and licensing software in the field of
 computational chemistry and represents and warrants to the
 licensee that it is not a competitor of Gaussian, Inc. and that
 it will not use this program in any manner prohibited above.
 ---------------------------------------------------------------
  

 Cite this work as:
 Gaussian 16, Revision C.01,
 M. J. Frisch, G. W. Trucks, H. B. Schlegel, G. E. Scuseria, 
 M. A. Robb, J. R. Cheeseman, G. Scalmani, V. Barone, 
 G. A. Petersson, H. Nakatsuji, X. Li, M. Caricato, A. V. Marenich, 
 J. Bloino, B. G. Janesko, R. Gomperts, B. Mennucci, H. P. Hratchian, 
 J. V. Ortiz, A. F. Izmaylov, J. L. Sonnenberg, D. Williams-Young, 
 F. Ding, F. Lipparini, F. Egidi, J. Goings, B. Peng, A. Petrone, 
 T. Henderson, D. Ranasinghe, V. G. Zakrzewski, J. Gao, N. Rega, 
 G. Zheng, W. Liang, M. Hada, M. Ehara, K. Toyota, R. Fukuda, 
 J. Hasegawa, M. Ishida, T. Nakajima, Y. Honda, O. Kitao, H. Nakai, 
 T. Vreven, K. Throssell, J. A. Montgomery, Jr., J. E. Peralta, 
 F. Ogliaro, M. J. Bearpark, J. J. Heyd, E. N. Brothers, K. N. Kudin, 
 V. N. Staroverov, T. A. Keith, R. Kobayashi, J. Normand, 
 K. Raghavachari, A. P. Rendell, J. C. Burant, S. S. Iyengar, 
 J. Tomasi, M. Cossi, J. M. Millam, M. Klene, C. Adamo, R. Cammi, 
 J. W. Ochterski, R. L. Martin, K. Morokuma, O. Farkas, 
 J. B. Foresman, and D. J. Fox, Gaussian, Inc., Wallingford CT, 2019.
 
 ******************************************
 Gaussian 16:  EM64W-G16RevC.01 30-May-2019
                11-Sep-2026 
 ******************************************
 %Chk=DMABN.chk
 %NProcShared=8
 Will use up to    8 processors via shared memory.
 %Mem=48GB
 ----------------------------------------------------------------------
 #P PBE1PBE/Def2SVP EmpiricalDispersion=GD3BJ SP SCF=(XQC,MaxCycle=128)
  NoSymm Guess=Read
 ----------------------------------------------------------------------
 1/38=1,172=1/1;
 2/12=2,15=1,17=6,18=5,40=1/2;
 3/5=43,7=101,11=2,25=1,30=1,74=-13,116=-2,124=41/1,2,3;
 4/5=1/1;
 5/5=2,7=128,8=3,13=1,38=6/2,8;
 6/7=2,8=2,9=2,10=2,28=1/1;
 99/5=1,9=1/99;
 Leave Link    1 at Fri Sep 11 21:26:54 2026, MaxMem=  6442450944 cpu:               0.0 elap:               0.3
 (Enter C:\G16W\l101.exe)
 -----------------------------------
 DMABN t=1.000 dz=+0.40 class=toface
 -----------------------------------
 Symbolic Z-matrix:
 Charge =  0 Multiplicity = 2
 N                     5.14367  -0.35032   0.21822 
 C                     3.99887  -0.27223   0.17033 
 C                     2.59631  -0.17777   0.11153 
 C                     1.86162  -1.00914  -0.73686 
 C                     0.49137  -0.91611  -0.7956 
 C                    -0.21206   0.01392  -0.00846 
 N                    -1.57233   0.10784  -0.06771 
 C                    -2.27612   1.06728   0.74702 
 C                    -2.32799  -0.75131  -0.94547 
 C                     0.54152   0.84348   0.84201 
 C                     1.91173   0.74972   0.90008 
 H                     2.37955  -1.73117  -1.35157 
 H                    -0.03685  -1.57609  -1.46322 
 H                    -3.34412   0.99069   0.55827 
 H                    -1.96262   2.08988   0.51411 
 H                    -2.10537   0.88317   1.81253 
 H                    -2.03938  -0.60155  -1.99071 
 H                    -3.38735  -0.52503  -0.85235 
 H                    -2.18205  -1.80571  -0.68989 
 H                     0.05287   1.57224   1.46686 
 H                     2.46872   1.39822   1.56087 
 Ag                    1.47591   1.78185  -1.8527 
 
 ITRead=  0  0  0  0  0  0  0  0  0  0  0  0  0  0  0  0  0  0  0  0
 ITRead=  0  0
 MicOpt= -1 -1 -1 -1 -1 -1 -1 -1 -1 -1 -1 -1 -1 -1 -1 -1 -1 -1 -1 -1
 MicOpt= -1 -1
 NAtoms=     22 NQM=       22 NQMF=       0 NMMI=      0 NMMIF=      0
                NMic=       0 NMicF=      0.
                    Isotopes and Nuclear Properties:
 (Nuclear quadrupole moments (NQMom) in fm**2, nuclear magnetic moments (NMagM)
  in nuclear magnetons)

  Atom         1           2           3           4           5           6           7           8           9          10
 IAtWgt=          14          12          12          12          12          12          14          12          12          12
 AtmWgt=  14.0030740  12.0000000  12.0000000  12.0000000  12.0000000  12.0000000  14.0030740  12.0000000  12.0000000  12.0000000
 NucSpn=           2           0           0           0           0           0           2           0           0           0
 AtZEff=   0.0000000   0.0000000   0.0000000   0.0000000   0.0000000   0.0000000   0.0000000   0.0000000   0.0000000   0.0000000
 NQMom=    2.0440000   0.0000000   0.0000000   0.0000000   0.0000000   0.0000000   2.0440000   0.0000000   0.0000000   0.0000000
 NMagM=    0.4037610   0.0000000   0.0000000   0.0000000   0.0000000   0.0000000   0.4037610   0.0000000   0.0000000   0.0000000
 AtZNuc=   7.0000000   6.0000000   6.0000000   6.0000000   6.0000000   6.0000000   7.0000000   6.0000000   6.0000000   6.0000000

  Atom        11          12          13          14          15          16          17          18          19          20
 IAtWgt=          12           1           1           1           1           1           1           1           1           1
 AtmWgt=  12.0000000   1.0078250   1.0078250   1.0078250   1.0078250   1.0078250   1.0078250   1.0078250   1.0078250   1.0078250
 NucSpn=           0           1           1           1           1           1           1           1           1           1
 AtZEff=   0.0000000   0.0000000   0.0000000   0.0000000   0.0000000   0.0000000   0.0000000   0.0000000   0.0000000   0.0000000
 NQMom=    0.0000000   0.0000000   0.0000000   0.0000000   0.0000000   0.0000000   0.0000000   0.0000000   0.0000000   0.0000000
 NMagM=    0.0000000   2.7928460   2.7928460   2.7928460   2.7928460   2.7928460   2.7928460   2.7928460   2.7928460   2.7928460
 AtZNuc=   6.0000000   1.0000000   1.0000000   1.0000000   1.0000000   1.0000000   1.0000000   1.0000000   1.0000000   1.0000000

  Atom        21          22
 IAtWgt=           1         107
 AtmWgt=   1.0078250 106.9050900
 NucSpn=           1           1
 AtZEff=   0.0000000   0.0000000
 NQMom=    0.0000000   0.0000000
 NMagM=    2.7928460  -0.1135700
 AtZNuc=   1.0000000  47.0000000
 Leave Link  101 at Fri Sep 11 21:26:55 2026, MaxMem=  6442450944 cpu:               1.0 elap:               0.2
 (Enter C:\G16W\l202.exe)
                          Input orientation:                          
 ---------------------------------------------------------------------
 Center     Atomic      Atomic             Coordinates (Angstroms)
 Number     Number       Type             X           Y           Z
 ---------------------------------------------------------------------
      1          7           0        5.143673   -0.350316    0.218220
      2          6           0        3.998871   -0.272231    0.170326
      3          6           0        2.596311   -0.177765    0.111532
      4          6           0        1.861617   -1.009137   -0.736855
      5          6           0        0.491372   -0.916108   -0.795599
      6          6           0       -0.212060    0.013916   -0.008461
      7          7           0       -1.572327    0.107840   -0.067705
      8          6           0       -2.276121    1.067277    0.747024
      9          6           0       -2.327988   -0.751309   -0.945467
     10          6           0        0.541516    0.843475    0.842005
     11          6           0        1.911725    0.749715    0.900076
     12          1           0        2.379549   -1.731167   -1.351567
     13          1           0       -0.036847   -1.576092   -1.463215
     14          1           0       -3.344118    0.990693    0.558268
     15          1           0       -1.962619    2.089882    0.514110
     16          1           0       -2.105367    0.883166    1.812531
     17          1           0       -2.039382   -0.601554   -1.990713
     18          1           0       -3.387348   -0.525033   -0.852352
     19          1           0       -2.182049   -1.805705   -0.689891
     20          1           0        0.052874    1.572236    1.466859
     21          1           0        2.468717    1.398215    1.560873
     22         47           0        1.475914    1.781854   -1.852696
 ---------------------------------------------------------------------
                    Distance matrix (angstroms):
                    1          2          3          4          5
     1  N    0.000000
     2  C    1.148461   0.000000
     3  C    2.555427   1.406967   0.000000
     4  C    3.481107   2.435952   1.396680   0.000000
     5  C    4.794982   3.694609   2.408071   1.374655   0.000000
     6  C    5.372888   4.224427   2.817461   2.424321   1.406893
     7  N    6.737679   5.589218   4.182253   3.672516   2.416020
     8  C    7.572486   6.442235   5.068981   4.861509   3.737983
     9  C    7.572363   6.442333   5.069016   4.202712   2.828146
    10  C    4.795216   3.694490   2.408050   2.769050   2.404245
    11  C    3.481449   2.435793   1.396667   2.403251   2.769058
    12  H    3.465741   2.658356   2.144925   1.080487   2.130407
    13  H    5.582789   4.544835   3.371745   2.110261   1.077175
    14  H    8.599798   7.460896   6.070714   5.725062   4.492197
    15  H    7.519408   6.421614   5.107655   5.078741   4.095532
    16  H    7.524087   6.426002   5.111237   5.081057   4.096679
    17  H    7.519228   6.421763   5.107708   4.117776   2.816373
    18  H    8.599708   7.460966   6.070737   5.272507   3.898798
    19  H    7.523897   6.426141   5.111281   4.121645   2.819528
    20  H    5.583148   4.544662   3.371719   3.845958   3.391586
    21  H    3.466333   2.658079   2.144897   3.382820   3.849538
    22  Ag   4.720943   3.831083   2.992254   3.030429   3.060355
                    6          7          8          9         10
     6  C    0.000000
     7  N    1.364792   0.000000
     8  C    2.437350   1.442092   0.000000
     9  C    2.437355   1.442091   2.484848   0.000000
    10  C    1.406889   2.416002   2.828107   3.737973   0.000000
    11  C    2.424315   3.672495   4.202657   4.861509   1.374640
    12  H    3.400836   4.543960   5.823284   4.825551   3.849533
    13  H    2.162206   2.672223   4.109368   2.489509   3.391585
    14  H    3.329424   2.076178   1.087250   2.515613   3.898760
    15  H    2.765352   2.102220   1.094648   3.215000   2.816334
    16  H    2.766987   2.102510   1.094696   3.213662   2.819483
    17  H    2.765363   2.102223   3.215003   1.094650   4.095538
    18  H    3.329425   2.076174   2.515607   1.087251   4.492175
    19  H    2.766988   2.102506   3.213658   1.094700   4.096665
    20  H    2.162203   2.672194   2.489450   4.109341   1.077175
    21  H    3.400832   4.543938   4.825490   5.823278   2.130402
    22  Ag   3.062035   3.909001   4.620273   4.659361   3.002510
                   11         12         13         14         15
    11  C    0.000000
    12  H    3.382829   0.000000
    13  H    3.845966   2.423940   0.000000
    14  H    5.272456   6.619392   4.648959   0.000000
    15  H    4.117713   6.077466   4.588875   1.765986   0.000000
    16  H    4.121579   6.079533   4.588816   1.766138   1.778324
    17  H    5.078763   4.605593   2.288695   3.276414   3.677480
    18  H    5.725047   5.912789   3.564230   2.071025   3.276408
    19  H    5.081058   4.609940   2.291865   3.275385   4.083303
    20  H    2.110240   4.926400   4.301785   3.564167   2.288646
    21  H    1.080484   4.275896   4.926405   5.912727   4.605524
    22  Ag   2.972035   3.661830   3.703504   5.447145   4.185709
                   16         17         18         19         20
    16  H    0.000000
    17  H    4.083309   0.000000
    18  H    3.275378   1.765994   0.000000
    19  H    3.673966   1.778334   1.766143   0.000000
    20  H    2.291792   4.588867   4.648914   4.588784   0.000000
    21  H    4.609865   6.077483   6.619368   6.079528   2.423926
    22  Ag   5.202605   4.249351   5.474827   5.253892   3.617793
                   21         22
    21  H    0.000000
    22  Ag   3.575652   0.000000
 Symmetry turned off by external request.
 Stoichiometry    C9H10AgN2(2)
 Framework group  C1[X(C9H10AgN2)]
 Deg. of freedom    60
 Full point group                 C1      NOp   1
 Rotational constants (GHZ):           0.8810041           0.4932390           0.3836905
 Leave Link  202 at Fri Sep 11 21:26:55 2026, MaxMem=  6442450944 cpu:               0.0 elap:               0.1
 (Enter C:\G16W\l301.exe)
 Standard basis: def2SVP (5D, 7F)
 Ernie: Thresh=  0.10000D-02 Tol=  0.10000D-05 Strict=F.
   235 basis functions,   410 primitive gaussians,   251 cartesian basis functions
    49 alpha electrons       48 beta electrons
       nuclear repulsion energy       768.6003114352 Hartrees.
 IExCor= 1009 DFT=T Ex+Corr=PBE1PBE ExCW=0 ScaHFX=  0.250000
 ScaDFX=  0.750000  0.750000  1.000000  1.000000 ScalE2=  1.000000  1.000000
 IRadAn=      5 IRanWt=     -1 IRanGd=            0 ICorTp=0 IEmpDi=141
 NAtoms=   22 NActive=   22 NUniq=   22 SFac= 1.00D+00 NAtFMM=   60 NAOKFM=F Big=F
 Integral buffers will be    131072 words long.
 Raffenetti 2 integral format.
 Two-electron integral symmetry is turned off.
 R6Disp:  Grimme-D3(BJ) Dispersion energy=       -0.0271014876 Hartrees.
 Nuclear repulsion after empirical dispersion term =      768.5732099476 Hartrees.
 Leave Link  301 at Fri Sep 11 21:26:55 2026, MaxMem=  6442450944 cpu:               0.0 elap:               0.2
 (Enter C:\G16W\l302.exe)
 NPDir=0 NMtPBC=     1 NCelOv=     1 NCel=       1 NClECP=     1 NCelD=      1
         NCelK=      1 NCelE2=     1 NClLst=     1 CellRange=     0.0.
 One-electron integrals computed using PRISM.
   1 Symmetry operations used in ECPInt.
 ECPInt:  NShTT=    5778 NPrTT=   20489 LenC2=    5606 LenP2D=   15419.
 LDataN:  DoStor=T MaxTD1= 7 Len=  274
 NBasis=   235 RedAO= T EigKep=  2.40D-04  NBF=   235
 NBsUse=   235 1.00D-06 EigRej= -1.00D+00 NBFU=   235
 Precomputing XC quadrature grid using
 IXCGrd= 4 IRadAn=           5 IRanWt=          -1 IRanGd=           0 AccXCQ= 0.00D+00.
 Defaulting to unpruned grid for atomic number  47.
 Generated NRdTot=       0 NPtTot=           0 NUsed=           0 NTot=          32
 NSgBfM=   250   250   250   250   250 MxSgAt=    22 MxSgA2=    22.
 Leave Link  302 at Fri Sep 11 21:27:02 2026, MaxMem=  6442450944 cpu:               7.0 elap:               6.5
 (Enter C:\G16W\l303.exe)
 DipDrv:  MaxL=1.
 Leave Link  303 at Fri Sep 11 21:27:04 2026, MaxMem=  6442450944 cpu:               2.0 elap:               2.1
 (Enter C:\G16W\l401.exe)
 Initial guess from the checkpoint file:  "DMABN.chk"
 B after Tr=     0.064157    0.189043   -0.194051
         Rot=    0.999998   -0.000039   -0.001442   -0.001405 Ang=  -0.23 deg.
 Guess basis will be translated and rotated to current coordinates.
 JPrj=2 DoOrth=T DoCkMO=T.
 Initial guess <Sx>= 0.0000 <Sy>= 0.0000 <Sz>= 0.5000 <S**2>= 0.7523 S= 0.5012
 Leave Link  401 at Fri Sep 11 21:27:08 2026, MaxMem=  6442450944 cpu:               4.0 elap:               3.9
 (Enter C:\G16W\l502.exe)
 Two-electron integral symmetry not used.
 UHF open shell SCF:
 Using DIIS extrapolation, IDIIS=  1040.
 NGot=  6442450944 LenX=  6442320325 LenY=  6442256883
 Requested convergence on RMS density matrix=1.00D-08 within 128 cycles.
 Requested convergence on MAX density matrix=1.00D-06.
 Requested convergence on             energy=1.00D-06.
 No special actions if energy rises.
 Fock matrices will be formed incrementally for  20 cycles.

 Cycle   1  Pass 1  IDiag  1:
 FoFJK:  IHMeth= 1 ICntrl=       0 DoSepK=F KAlg= 0 I1Cent=           0 FoldK=F
 IRaf= 940000000 NMat=       1 IRICut=       1 DoRegI=T DoRafI=F ISym2E= 0 IDoP0=0 IntGTp=1.
 FoFCou: FMM=F IPFlag=           0 FMFlag=      100000 FMFlg1=           0
         NFxFlg=           0 DoJE=F BraDBF=F KetDBF=F FulRan=T
         wScrn=  0.000000 ICntrl=         0 IOpCl=  1 I1Cent=           0 NGrid=           0
         NMat0=    1 NMatS0=      1 NMatT0=    0 NMatD0=    1 NMtDS0=    0 NMtDT0=    0
 Symmetry not used in FoFCou.
 Defaulting to unpruned grid for atomic number  47.
 Defaulting to unpruned grid for atomic number  47.
 Defaulting to unpruned grid for atomic number  47.
 Defaulting to unpruned grid for atomic number  47.
 Defaulting to unpruned grid for atomic number  47.
 Defaulting to unpruned grid for atomic number  47.
 Defaulting to unpruned grid for atomic number  47.
 Defaulting to unpruned grid for atomic number  47.
 E= -604.536541628960    
 DIIS: error= 2.02D-02 at cycle   1 NSaved=   1.
 NSaved= 1 IEnMin= 1 EnMin= -604.536541628960     IErMin= 1 ErrMin= 2.02D-02
 ErrMax= 2.02D-02  0.00D+00 EMaxC= 1.00D-01 BMatC= 1.03D-01 BMatP= 1.03D-01
 IDIUse=3 WtCom= 7.98D-01 WtEn= 2.02D-01
 Coeff-Com:  0.100D+01
 Coeff-En:   0.100D+01
 Coeff:      0.100D+01
 Gap=     0.126 Goal=   None    Shift=    0.000
 Gap=     0.206 Goal=   None    Shift=    0.000
 GapD=    0.126 DampG=1.000 DampE=0.250 DampFc=0.2500 IDamp=-1.
 Damping current iteration by 2.50D-01
 RMSDP=1.64D-03 MaxDP=6.82D-02              OVMax= 3.89D-02

 Cycle   2  Pass 1  IDiag  1:
 RMSU=  4.06D-04    CP:  9.97D-01
 E= -604.538279163670     Delta-E=       -0.001737534710 Rises=F Damp=T
 DIIS: error= 1.51D-02 at cycle   2 NSaved=   2.
 NSaved= 2 IEnMin= 2 EnMin= -604.538279163670     IErMin= 2 ErrMin= 1.51D-02
 ErrMax= 1.51D-02  0.00D+00 EMaxC= 1.00D-01 BMatC= 5.74D-02 BMatP= 1.03D-01
 IDIUse=3 WtCom= 8.49D-01 WtEn= 1.51D-01
 Coeff-Com: -0.285D+01 0.385D+01
 Coeff-En:   0.000D+00 0.100D+01
 Coeff:     -0.242D+01 0.342D+01
 Gap=     0.118 Goal=   None    Shift=    0.000
 Gap=     0.159 Goal=   None    Shift=    0.000
 RMSDP=1.17D-03 MaxDP=5.15D-02 DE=-1.74D-03 OVMax= 1.97D-02

 Cycle   3  Pass 1  IDiag  1:
 RMSU=  4.30D-04    CP:  9.91D-01  3.00D+00
 E= -604.543222350010     Delta-E=       -0.004943186340 Rises=F Damp=F
 DIIS: error= 1.70D-03 at cycle   3 NSaved=   3.
 NSaved= 3 IEnMin= 3 EnMin= -604.543222350010     IErMin= 3 ErrMin= 1.70D-03
 ErrMax= 1.70D-03  0.00D+00 EMaxC= 1.00D-01 BMatC= 2.73D-03 BMatP= 5.74D-02
 IDIUse=3 WtCom= 9.83D-01 WtEn= 1.70D-02
 Coeff-Com: -0.151D+01 0.202D+01 0.497D+00
 Coeff-En:   0.000D+00 0.000D+00 0.100D+01
 Coeff:     -0.149D+01 0.198D+01 0.505D+00
 Gap=     0.122 Goal=   None    Shift=    0.000
 Gap=     0.157 Goal=   None    Shift=    0.000
 RMSDP=1.78D-04 MaxDP=6.76D-03 DE=-4.94D-03 OVMax= 8.09D-03

 Cycle   4  Pass 1  IDiag  1:
 RMSU=  1.77D-04    CP:  9.90D-01  3.00D+00  9.90D-01
 E= -604.543752727756     Delta-E=       -0.000530377745 Rises=F Damp=F
 DIIS: error= 1.07D-03 at cycle   4 NSaved=   4.
 NSaved= 4 IEnMin= 4 EnMin= -604.543752727756     IErMin= 4 ErrMin= 1.07D-03
 ErrMax= 1.07D-03  0.00D+00 EMaxC= 1.00D-01 BMatC= 4.38D-04 BMatP= 2.73D-03
 IDIUse=3 WtCom= 9.89D-01 WtEn= 1.07D-02
 Coeff-Com: -0.891D+00 0.118D+01 0.346D+00 0.361D+00
 Coeff-En:   0.000D+00 0.000D+00 0.929D-01 0.907D+00
 Coeff:     -0.881D+00 0.117D+01 0.343D+00 0.367D+00
 Gap=     0.122 Goal=   None    Shift=    0.000
 Gap=     0.157 Goal=   None    Shift=    0.000
 RMSDP=4.42D-05 MaxDP=2.02D-03 DE=-5.30D-04 OVMax= 3.46D-03

 Cycle   5  Pass 1  IDiag  1:
 RMSU=  4.07D-05    CP:  9.90D-01  3.00D+00  1.02D+00  9.36D-01
 E= -604.543849703752     Delta-E=       -0.000096975997 Rises=F Damp=F
 DIIS: error= 1.47D-04 at cycle   5 NSaved=   5.
 NSaved= 5 IEnMin= 5 EnMin= -604.543849703752     IErMin= 5 ErrMin= 1.47D-04
 ErrMax= 1.47D-04  0.00D+00 EMaxC= 1.00D-01 BMatC= 1.41D-05 BMatP= 4.38D-04
 IDIUse=3 WtCom= 9.99D-01 WtEn= 1.47D-03
 Coeff-Com: -0.230D+00 0.305D+00 0.984D-01 0.172D+00 0.654D+00
 Coeff-En:   0.000D+00 0.000D+00 0.000D+00 0.000D+00 0.100D+01
 Coeff:     -0.230D+00 0.305D+00 0.983D-01 0.172D+00 0.655D+00
 Gap=     0.122 Goal=   None    Shift=    0.000
 Gap=     0.157 Goal=   None    Shift=    0.000
 RMSDP=1.83D-05 MaxDP=9.73D-04 DE=-9.70D-05 OVMax= 1.09D-03

 Cycle   6  Pass 1  IDiag  1:
 RMSU=  1.63D-05    CP:  9.90D-01  3.00D+00  1.04D+00  9.62D-01  1.00D+00
 E= -604.543853925135     Delta-E=       -0.000004221383 Rises=F Damp=F
 DIIS: error= 5.51D-05 at cycle   6 NSaved=   6.
 NSaved= 6 IEnMin= 6 EnMin= -604.543853925135     IErMin= 6 ErrMin= 5.51D-05
 ErrMax= 5.51D-05  0.00D+00 EMaxC= 1.00D-01 BMatC= 3.58D-06 BMatP= 1.41D-05
 IDIUse=1 WtCom= 1.00D+00 WtEn= 0.00D+00
 Coeff-Com:  0.132D+00-0.176D+00-0.506D-01-0.173D-01 0.362D+00 0.750D+00
 Coeff:      0.132D+00-0.176D+00-0.506D-01-0.173D-01 0.362D+00 0.750D+00
 Gap=     0.122 Goal=   None    Shift=    0.000
 Gap=     0.157 Goal=   None    Shift=    0.000
 RMSDP=1.14D-05 MaxDP=8.66D-04 DE=-4.22D-06 OVMax= 9.40D-04

 Cycle   7  Pass 1  IDiag  1:
 RMSU=  8.84D-06    CP:  9.90D-01  3.00D+00  1.05D+00  9.76D-01  1.08D+00
                    CP:  1.09D+00
 E= -604.543855374346     Delta-E=       -0.000001449211 Rises=F Damp=F
 DIIS: error= 1.93D-05 at cycle   7 NSaved=   7.
 NSaved= 7 IEnMin= 7 EnMin= -604.543855374346     IErMin= 7 ErrMin= 1.93D-05
 ErrMax= 1.93D-05  0.00D+00 EMaxC= 1.00D-01 BMatC= 5.14D-07 BMatP= 3.58D-06
 IDIUse=1 WtCom= 1.00D+00 WtEn= 0.00D+00
 Coeff-Com:  0.784D-01-0.104D+00-0.327D-01-0.237D-01 0.114D+00 0.380D+00
 Coeff-Com:  0.589D+00
 Coeff:      0.784D-01-0.104D+00-0.327D-01-0.237D-01 0.114D+00 0.380D+00
 Coeff:      0.589D+00
 Gap=     0.122 Goal=   None    Shift=    0.000
 Gap=     0.157 Goal=   None    Shift=    0.000
 RMSDP=2.95D-06 MaxDP=2.34D-04 DE=-1.45D-06 OVMax= 2.54D-04

 Cycle   8  Pass 1  IDiag  1:
 RMSU=  2.48D-06    CP:  9.90D-01  3.00D+00  1.05D+00  9.79D-01  1.08D+00
                    CP:  1.15D+00  1.10D+00
 E= -604.543855545894     Delta-E=       -0.000000171548 Rises=F Damp=F
 DIIS: error= 6.88D-06 at cycle   8 NSaved=   8.
 NSaved= 8 IEnMin= 8 EnMin= -604.543855545894     IErMin= 8 ErrMin= 6.88D-06
 ErrMax= 6.88D-06  0.00D+00 EMaxC= 1.00D-01 BMatC= 4.20D-08 BMatP= 5.14D-07
 IDIUse=1 WtCom= 1.00D+00 WtEn= 0.00D+00
 Coeff-Com: -0.118D-02 0.161D-02-0.119D-02-0.638D-02-0.403D-01-0.260D-01
 Coeff-Com:  0.182D+00 0.891D+00
 Coeff:     -0.118D-02 0.161D-02-0.119D-02-0.638D-02-0.403D-01-0.260D-01
 Coeff:      0.182D+00 0.891D+00
 Gap=     0.122 Goal=   None    Shift=    0.000
 Gap=     0.157 Goal=   None    Shift=    0.000
 RMSDP=1.66D-06 MaxDP=1.84D-04 DE=-1.72D-07 OVMax= 1.84D-04

 Cycle   9  Pass 1  IDiag  1:
 RMSU=  8.86D-07    CP:  9.90D-01  3.00D+00  1.05D+00  9.79D-01  1.09D+00
                    CP:  1.20D+00  1.20D+00  9.54D-01
 E= -604.543855570148     Delta-E=       -0.000000024254 Rises=F Damp=F
 DIIS: error= 2.64D-06 at cycle   9 NSaved=   9.
 NSaved= 9 IEnMin= 9 EnMin= -604.543855570148     IErMin= 9 ErrMin= 2.64D-06
 ErrMax= 2.64D-06  0.00D+00 EMaxC= 1.00D-01 BMatC= 5.20D-09 BMatP= 4.20D-08
 IDIUse=1 WtCom= 1.00D+00 WtEn= 0.00D+00
 Coeff-Com: -0.923D-02 0.123D-01 0.312D-02-0.371D-04-0.280D-01-0.488D-01
 Coeff-Com:  0.108D-01 0.344D+00 0.716D+00
 Coeff:     -0.923D-02 0.123D-01 0.312D-02-0.371D-04-0.280D-01-0.488D-01
 Coeff:      0.108D-01 0.344D+00 0.716D+00
 Gap=     0.122 Goal=   None    Shift=    0.000
 Gap=     0.157 Goal=   None    Shift=    0.000
 RMSDP=4.57D-07 MaxDP=4.44D-05 DE=-2.43D-08 OVMax= 4.40D-05

 Cycle  10  Pass 1  IDiag  1:
 RMSU=  3.61D-07    CP:  9.90D-01  3.00D+00  1.05D+00  9.79D-01  1.09D+00
                    CP:  1.21D+00  1.22D+00  1.01D+00  1.11D+00
 E= -604.543855571955     Delta-E=       -0.000000001808 Rises=F Damp=F
 DIIS: error= 1.51D-06 at cycle  10 NSaved=  10.
 NSaved=10 IEnMin=10 EnMin= -604.543855571955     IErMin=10 ErrMin= 1.51D-06
 ErrMax= 1.51D-06  0.00D+00 EMaxC= 1.00D-01 BMatC= 2.02D-09 BMatP= 5.20D-09
 IDIUse=1 WtCom= 1.00D+00 WtEn= 0.00D+00
 Coeff-Com: -0.577D-02 0.768D-02 0.213D-02 0.670D-03-0.136D-01-0.281D-01
 Coeff-Com: -0.113D-01 0.124D+00 0.444D+00 0.481D+00
 Coeff:     -0.577D-02 0.768D-02 0.213D-02 0.670D-03-0.136D-01-0.281D-01
 Coeff:     -0.113D-01 0.124D+00 0.444D+00 0.481D+00
 Gap=     0.122 Goal=   None    Shift=    0.000
 Gap=     0.157 Goal=   None    Shift=    0.000
 RMSDP=1.73D-07 MaxDP=9.60D-06 DE=-1.81D-09 OVMax= 1.29D-05

 Cycle  11  Pass 1  IDiag  1:
 RMSU=  1.27D-07    CP:  9.90D-01  3.00D+00  1.05D+00  9.79D-01  1.09D+00
                    CP:  1.21D+00  1.23D+00  1.01D+00  1.19D+00  8.72D-01
 E= -604.543855572553     Delta-E=       -0.000000000598 Rises=F Damp=F
 DIIS: error= 2.91D-07 at cycle  11 NSaved=  11.
 NSaved=11 IEnMin=11 EnMin= -604.543855572553     IErMin=11 ErrMin= 2.91D-07
 ErrMax= 2.91D-07  0.00D+00 EMaxC= 1.00D-01 BMatC= 1.22D-10 BMatP= 2.02D-09
 IDIUse=1 WtCom= 1.00D+00 WtEn= 0.00D+00
 Coeff-Com: -0.757D-03 0.101D-02 0.349D-03 0.341D-03-0.818D-03-0.344D-02
 Coeff-Com: -0.597D-02-0.799D-02 0.567D-01 0.193D+00 0.768D+00
 Coeff:     -0.757D-03 0.101D-02 0.349D-03 0.341D-03-0.818D-03-0.344D-02
 Coeff:     -0.597D-02-0.799D-02 0.567D-01 0.193D+00 0.768D+00
 Gap=     0.122 Goal=   None    Shift=    0.000
 Gap=     0.157 Goal=   None    Shift=    0.000
 RMSDP=6.55D-08 MaxDP=5.79D-06 DE=-5.98D-10 OVMax= 5.43D-06

 Cycle  12  Pass 1  IDiag  1:
 RMSU=  3.68D-08    CP:  9.90D-01  3.00D+00  1.05D+00  9.79D-01  1.09D+00
                    CP:  1.21D+00  1.23D+00  1.02D+00  1.24D+00  9.63D-01
                    CP:  9.52D-01
 E= -604.543855572594     Delta-E=       -0.000000000041 Rises=F Damp=F
 DIIS: error= 1.93D-07 at cycle  12 NSaved=  12.
 NSaved=12 IEnMin=12 EnMin= -604.543855572594     IErMin=12 ErrMin= 1.93D-07
 ErrMax= 1.93D-07  0.00D+00 EMaxC= 1.00D-01 BMatC= 3.33D-11 BMatP= 1.22D-10
 IDIUse=1 WtCom= 1.00D+00 WtEn= 0.00D+00
 Coeff-Com:  0.726D-03-0.967D-03-0.219D-03 0.631D-04 0.215D-02 0.338D-02
 Coeff-Com: -0.993D-03-0.275D-01-0.571D-01 0.474D-02 0.394D+00 0.682D+00
 Coeff:      0.726D-03-0.967D-03-0.219D-03 0.631D-04 0.215D-02 0.338D-02
 Coeff:     -0.993D-03-0.275D-01-0.571D-01 0.474D-02 0.394D+00 0.682D+00
 Gap=     0.122 Goal=   None    Shift=    0.000
 Gap=     0.157 Goal=   None    Shift=    0.000
 RMSDP=2.94D-08 MaxDP=2.33D-06 DE=-4.07D-11 OVMax= 2.32D-06

 Cycle  13  Pass 1  IDiag  1:
 RMSU=  2.13D-08    CP:  9.90D-01  3.00D+00  1.05D+00  9.79D-01  1.09D+00
                    CP:  1.21D+00  1.23D+00  1.02D+00  1.26D+00  9.80D-01
                    CP:  1.01D+00  1.09D+00
 E= -604.543855572617     Delta-E=       -0.000000000024 Rises=F Damp=F
 DIIS: error= 8.37D-08 at cycle  13 NSaved=  13.
 NSaved=13 IEnMin=13 EnMin= -604.543855572617     IErMin=13 ErrMin= 8.37D-08
 ErrMax= 8.37D-08  0.00D+00 EMaxC= 1.00D-01 BMatC= 4.63D-12 BMatP= 3.33D-11
 IDIUse=1 WtCom= 1.00D+00 WtEn= 0.00D+00
 Coeff-Com:  0.329D-03-0.438D-03-0.112D-03-0.221D-04 0.803D-03 0.148D-02
 Coeff-Com:  0.586D-03-0.661D-02-0.264D-01-0.313D-01-0.268D-02 0.226D+00
 Coeff-Com:  0.839D+00
 Coeff:      0.329D-03-0.438D-03-0.112D-03-0.221D-04 0.803D-03 0.148D-02
 Coeff:      0.586D-03-0.661D-02-0.264D-01-0.313D-01-0.268D-02 0.226D+00
 Coeff:      0.839D+00
 Gap=     0.122 Goal=   None    Shift=    0.000
 Gap=     0.157 Goal=   None    Shift=    0.000
 RMSDP=1.41D-08 MaxDP=5.09D-07 DE=-2.36D-11 OVMax= 1.09D-06

 Cycle  14  Pass 1  IDiag  1:
 RMSU=  9.82D-09    CP:  9.90D-01  3.00D+00  1.05D+00  9.79D-01  1.09D+00
                    CP:  1.21D+00  1.23D+00  1.02D+00  1.26D+00  9.82D-01
                    CP:  1.02D+00  1.31D+00  1.07D+00
 E= -604.543855572622     Delta-E=       -0.000000000005 Rises=F Damp=F
 DIIS: error= 6.67D-08 at cycle  14 NSaved=  14.
 NSaved=14 IEnMin=14 EnMin= -604.543855572622     IErMin=14 ErrMin= 6.67D-08
 ErrMax= 6.67D-08  0.00D+00 EMaxC= 1.00D-01 BMatC= 2.41D-12 BMatP= 4.63D-12
 IDIUse=1 WtCom= 1.00D+00 WtEn= 0.00D+00
 Coeff-Com:  0.883D-05-0.116D-04-0.114D-04-0.337D-04-0.875D-04 0.122D-04
 Coeff-Com:  0.662D-03 0.349D-02-0.729D-03-0.209D-01-0.108D+00-0.499D-01
 Coeff-Com:  0.503D+00 0.672D+00
 Coeff:      0.883D-05-0.116D-04-0.114D-04-0.337D-04-0.875D-04 0.122D-04
 Coeff:      0.662D-03 0.349D-02-0.729D-03-0.209D-01-0.108D+00-0.499D-01
 Coeff:      0.503D+00 0.672D+00
 Gap=     0.122 Goal=   None    Shift=    0.000
 Gap=     0.157 Goal=   None    Shift=    0.000
 RMSDP=8.12D-09 MaxDP=2.75D-07 DE=-4.55D-12 OVMax= 7.89D-07

 SCF Done:  E(UPBE1PBE) =  -604.543855573     A.U. after   14 cycles
            NFock= 14  Conv=0.81D-08     -V/T= 2.1868
 <Sx>= 0.0000 <Sy>= 0.0000 <Sz>= 0.5000 <S**2>= 0.7518 S= 0.5009
 <L.S>= 0.000000000000E+00
 KE= 5.094001670787D+02 PE=-2.914363817015D+03 EE= 1.031846584416D+03
 Annihilation of the first spin contaminant:
 S**2 before annihilation     0.7518,   after     0.7500
 Leave Link  502 at Fri Sep 11 21:29:47 2026, MaxMem=  6442450944 cpu:             159.0 elap:             158.7
 (Enter C:\G16W\l508.exe)
 QCSCF skips out because SCF is already converged.
 Leave Link  508 at Fri Sep 11 21:29:47 2026, MaxMem=  6442450944 cpu:               0.0 elap:               0.1
 (Enter C:\G16W\l601.exe)
 Copying SCF densities to generalized density rwf, IOpCl= 1 IROHF=0.

 **********************************************************************

            Population analysis using the SCF Density.

 **********************************************************************

 Alpha  occ. eigenvalues --  -14.44453 -14.37780 -10.30896 -10.28778 -10.28771
 Alpha  occ. eigenvalues --  -10.27620 -10.27101 -10.27041 -10.26218 -10.25963
 Alpha  occ. eigenvalues --  -10.25901  -3.74220  -2.32207  -2.32197  -2.32140
 Alpha  occ. eigenvalues --   -1.00605  -0.92516  -0.89983  -0.80991  -0.80246
 Alpha  occ. eigenvalues --   -0.76683  -0.72344  -0.65239  -0.63669  -0.59364
 Alpha  occ. eigenvalues --   -0.55450  -0.53579  -0.51160  -0.48952  -0.47389
 Alpha  occ. eigenvalues --   -0.46775  -0.44544  -0.44519  -0.43841  -0.42673
 Alpha  occ. eigenvalues --   -0.41816  -0.38375  -0.37949  -0.36374  -0.34270
 Alpha  occ. eigenvalues --   -0.33257  -0.32968  -0.31762  -0.31755  -0.31570
 Alpha  occ. eigenvalues --   -0.30588  -0.28755  -0.23152  -0.16202
 Alpha virt. eigenvalues --   -0.04007  -0.03077   0.00572   0.00708   0.03690
 Alpha virt. eigenvalues --    0.05101   0.05280   0.07119   0.08722   0.09104
 Alpha virt. eigenvalues --    0.09214   0.11118   0.11370   0.13256   0.13588
 Alpha virt. eigenvalues --    0.14257   0.14980   0.17458   0.17644   0.18804
 Alpha virt. eigenvalues --    0.19982   0.22233   0.26751   0.27366   0.27905
 Alpha virt. eigenvalues --    0.28272   0.28483   0.31237   0.32306   0.33826
 Alpha virt. eigenvalues --    0.37553   0.38951   0.39482   0.40859   0.41293
 Alpha virt. eigenvalues --    0.41544   0.43167   0.43565   0.46788   0.48080
 Alpha virt. eigenvalues --    0.48331   0.50670   0.51015   0.51936   0.53000
 Alpha virt. eigenvalues --    0.54725   0.57503   0.59257   0.61461   0.62116
 Alpha virt. eigenvalues --    0.62897   0.63125   0.63834   0.65228   0.65988
 Alpha virt. eigenvalues --    0.66142   0.66749   0.67182   0.67637   0.67735
 Alpha virt. eigenvalues --    0.69509   0.70114   0.70184   0.70373   0.70854
 Alpha virt. eigenvalues --    0.72210   0.74158   0.74633   0.75662   0.76220
 Alpha virt. eigenvalues --    0.79192   0.82028   0.83191   0.84044   0.88521
 Alpha virt. eigenvalues --    0.89832   0.92207   0.94721   0.95279   0.97028
 Alpha virt. eigenvalues --    1.00349   1.03994   1.06850   1.08069   1.10110
 Alpha virt. eigenvalues --    1.11421   1.17686   1.19426   1.21658   1.22499
 Alpha virt. eigenvalues --    1.27241   1.27629   1.28334   1.28705   1.29091
 Alpha virt. eigenvalues --    1.32696   1.33806   1.35614   1.48762   1.49538
 Alpha virt. eigenvalues --    1.51056   1.51552   1.51819   1.52651   1.60025
 Alpha virt. eigenvalues --    1.62903   1.67151   1.67270   1.69682   1.72464
 Alpha virt. eigenvalues --    1.73187   1.73969   1.75652   1.76974   1.78144
 Alpha virt. eigenvalues --    1.79522   1.81553   1.81897   1.82069   1.82216
 Alpha virt. eigenvalues --    1.85736   1.90076   1.90154   1.92902   1.93641
 Alpha virt. eigenvalues --    1.93894   1.95339   1.97832   1.98077   2.01180
 Alpha virt. eigenvalues --    2.07874   2.09089   2.11272   2.15235   2.16085
 Alpha virt. eigenvalues --    2.17535   2.18940   2.19620   2.21759   2.23727
 Alpha virt. eigenvalues --    2.26143   2.26774   2.30484   2.31588   2.32004
 Alpha virt. eigenvalues --    2.34908   2.37255   2.37577   2.38191   2.44530
 Alpha virt. eigenvalues --    2.44674   2.45807   2.58458   2.60065   2.61984
 Alpha virt. eigenvalues --    2.62121   2.62692   2.63261   2.63548   2.63618
 Alpha virt. eigenvalues --    2.64678   2.64897   2.65557   2.66366   2.69894
 Alpha virt. eigenvalues --    2.71181   2.76102   2.76982   2.80644   2.87082
 Alpha virt. eigenvalues --    2.89047   2.89713   2.92044   2.92394   2.93250
 Alpha virt. eigenvalues --    2.97565   3.03271   3.03798   3.06200   3.17234
 Alpha virt. eigenvalues --    3.21001   3.27349   3.43934   3.50189   3.72889
 Alpha virt. eigenvalues --   53.86721
  Beta  occ. eigenvalues --  -14.44453 -14.37781 -10.30882 -10.28777 -10.28770
  Beta  occ. eigenvalues --  -10.27610 -10.27086 -10.27030 -10.26217 -10.25941
  Beta  occ. eigenvalues --  -10.25884  -3.74104  -2.32163  -2.32158  -2.32133
  Beta  occ. eigenvalues --   -1.00593  -0.92500  -0.89947  -0.80956  -0.80203
  Beta  occ. eigenvalues --   -0.76673  -0.72329  -0.65207  -0.63648  -0.59342
  Beta  occ. eigenvalues --   -0.55438  -0.53563  -0.51128  -0.48936  -0.47374
  Beta  occ. eigenvalues --   -0.46754  -0.44539  -0.44506  -0.43617  -0.42655
  Beta  occ. eigenvalues --   -0.41811  -0.38359  -0.37862  -0.36376  -0.34265
  Beta  occ. eigenvalues --   -0.32794  -0.32660  -0.31154  -0.31143  -0.30931
  Beta  occ. eigenvalues --   -0.30186  -0.28451  -0.23046
  Beta virt. eigenvalues --   -0.07358  -0.03940  -0.02995   0.02680   0.03125
  Beta virt. eigenvalues --    0.04862   0.05282   0.06921   0.07512   0.08996
  Beta virt. eigenvalues --    0.09199   0.09488   0.11417   0.11845   0.13337
  Beta virt. eigenvalues --    0.13694   0.14271   0.15032   0.17658   0.17703
  Beta virt. eigenvalues --    0.19819   0.20059   0.22279   0.26888   0.27759
  Beta virt. eigenvalues --    0.28920   0.28995   0.29454   0.32174   0.32390
  Beta virt. eigenvalues --    0.35305   0.38133   0.39764   0.40279   0.41518
  Beta virt. eigenvalues --    0.42091   0.42386   0.43706   0.44036   0.46916
  Beta virt. eigenvalues --    0.48673   0.48843   0.51109   0.51371   0.52868
  Beta virt. eigenvalues --    0.53483   0.55184   0.57852   0.60534   0.61525
  Beta virt. eigenvalues --    0.62409   0.62981   0.63175   0.64128   0.65317
  Beta virt. eigenvalues --    0.66162   0.66322   0.66879   0.67443   0.67755
  Beta virt. eigenvalues --    0.67912   0.69743   0.70139   0.70255   0.70662
  Beta virt. eigenvalues --    0.71067   0.72380   0.74352   0.74657   0.76177
  Beta virt. eigenvalues --    0.76759   0.79621   0.82126   0.83340   0.84307
  Beta virt. eigenvalues --    0.88571   0.89981   0.92290   0.94739   0.95338
  Beta virt. eigenvalues --    0.97250   1.00695   1.04006   1.06919   1.08090
  Beta virt. eigenvalues --    1.10118   1.11468   1.17728   1.19490   1.21704
  Beta virt. eigenvalues --    1.22611   1.27320   1.27674   1.28435   1.28755
  Beta virt. eigenvalues --    1.29222   1.32735   1.33856   1.35657   1.48810
  Beta virt. eigenvalues --    1.49568   1.51062   1.51555   1.51914   1.52659
  Beta virt. eigenvalues --    1.60040   1.62913   1.67162   1.67290   1.69694
  Beta virt. eigenvalues --    1.72468   1.73201   1.73985   1.75697   1.77018
  Beta virt. eigenvalues --    1.78164   1.79578   1.81574   1.81971   1.82074
  Beta virt. eigenvalues --    1.82218   1.85760   1.90084   1.90173   1.92932
  Beta virt. eigenvalues --    1.93713   1.93912   1.95353   1.97871   1.98104
  Beta virt. eigenvalues --    2.01200   2.07907   2.09100   2.11328   2.16081
  Beta virt. eigenvalues --    2.16138   2.17704   2.18993   2.19667   2.21785
  Beta virt. eigenvalues --    2.23833   2.26157   2.26808   2.30487   2.31614
  Beta virt. eigenvalues --    2.32068   2.34940   2.37267   2.37602   2.38201
  Beta virt. eigenvalues --    2.44552   2.44702   2.45810   2.58470   2.60099
  Beta virt. eigenvalues --    2.62025   2.62157   2.62706   2.63264   2.63586
  Beta virt. eigenvalues --    2.63648   2.64730   2.64940   2.65587   2.66394
  Beta virt. eigenvalues --    2.69934   2.71189   2.76112   2.76995   2.80657
  Beta virt. eigenvalues --    2.87089   2.89073   2.89740   2.92048   2.92399
  Beta virt. eigenvalues --    2.93267   2.97571   3.03282   3.03808   3.06203
  Beta virt. eigenvalues --    3.17251   3.21012   3.27357   3.43946   3.50198
  Beta virt. eigenvalues --    3.72904  53.86880
          Condensed to atoms (all electrons):
               1          2          3          4          5          6
     1  N    6.132539   0.917201  -0.057086  -0.001568   0.000036   0.000036
     2  C    0.917201   5.102201   0.255106  -0.088546   0.015957   0.003811
     3  C   -0.057086   0.255106   5.598341   0.240920   0.100721  -0.184815
     4  C   -0.001568  -0.088546   0.240920   5.035682   0.273071   0.130388
     5  C    0.000036   0.015957   0.100721   0.273071   5.247546   0.183329
     6  C    0.000036   0.003811  -0.184815   0.130388   0.183329   5.230415
     7  N    0.000000   0.000041  -0.000317   0.008301  -0.097877   0.397920
     8  C    0.000000   0.000001   0.000050  -0.000171   0.008112  -0.062259
     9  C    0.000000   0.000001   0.000050   0.001165   0.003763  -0.062297
    10  C    0.000042   0.016336   0.101685  -0.155136   0.081650   0.177857
    11  C   -0.001651  -0.090220   0.236554   0.099113  -0.155205   0.131511
    12  H   -0.000386  -0.024309  -0.062024   0.464279  -0.066827   0.016142
    13  H   -0.000003  -0.000524   0.017623  -0.069687   0.468874  -0.082513
    14  H    0.000000   0.000000   0.000006   0.000009  -0.000157   0.007947
    15  H    0.000000   0.000002  -0.000093  -0.000007  -0.000207  -0.012467
    16  H    0.000000  -0.000001  -0.000083   0.000039  -0.000348  -0.011973
    17  H    0.000000   0.000002  -0.000093   0.000841   0.005935  -0.012308
    18  H    0.000000   0.000000   0.000005  -0.000083   0.000578   0.007944
    19  H    0.000000  -0.000001  -0.000082   0.001287   0.005431  -0.012118
    20  H   -0.000003  -0.000514   0.017754  -0.002250   0.015453  -0.082978
    21  H   -0.000386  -0.024282  -0.062565   0.014613  -0.002179   0.016270
    22  Ag  -0.002102  -0.024555   0.003970  -0.002254  -0.002622  -0.011703
               7          8          9         10         11         12
     1  N    0.000000   0.000000   0.000000   0.000042  -0.001651  -0.000386
     2  C    0.000041   0.000001   0.000001   0.016336  -0.090220  -0.024309
     3  C   -0.000317   0.000050   0.000050   0.101685   0.236554  -0.062024
     4  C    0.008301  -0.000171   0.001165  -0.155136   0.099113   0.464279
     5  C   -0.097877   0.008112   0.003763   0.081650  -0.155205  -0.066827
     6  C    0.397920  -0.062259  -0.062297   0.177857   0.131511   0.016142
     7  N    6.674465   0.351444   0.351413  -0.098861   0.008414  -0.000095
     8  C    0.351444   4.467421  -0.049281   0.003799   0.001185   0.000008
     9  C    0.351413  -0.049281   4.467085   0.008160  -0.000170  -0.000048
    10  C   -0.098861   0.003799   0.008160   5.267669   0.261548  -0.002139
    11  C    0.008414   0.001185  -0.000170   0.261548   5.055308   0.014652
    12  H   -0.000095   0.000008  -0.000048  -0.002139   0.014652   0.645516
    13  H   -0.016692   0.000018   0.012357   0.015483  -0.002204  -0.013553
    14  H   -0.019712   0.398717  -0.012842   0.000582  -0.000085   0.000000
    15  H   -0.029698   0.401394   0.003488   0.006084   0.000816   0.000000
    16  H   -0.029293   0.398981   0.003447   0.005241   0.001318   0.000000
    17  H   -0.029700   0.003490   0.401438  -0.000182  -0.000010   0.000008
    18  H   -0.019709  -0.012843   0.398752  -0.000161   0.000009   0.000000
    19  H   -0.029258   0.003448   0.399099  -0.000373   0.000041   0.000015
    20  H   -0.016663   0.012388   0.000020   0.470566  -0.070718   0.000026
    21  H   -0.000092  -0.000048   0.000008  -0.068041   0.466124  -0.000182
    22  Ag  -0.002019  -0.001908  -0.001762  -0.002346  -0.001524   0.000010
              13         14         15         16         17         18
     1  N   -0.000003   0.000000   0.000000   0.000000   0.000000   0.000000
     2  C   -0.000524   0.000000   0.000002  -0.000001   0.000002   0.000000
     3  C    0.017623   0.000006  -0.000093  -0.000083  -0.000093   0.000005
     4  C   -0.069687   0.000009  -0.000007   0.000039   0.000841  -0.000083
     5  C    0.468874  -0.000157  -0.000207  -0.000348   0.005935   0.000578
     6  C   -0.082513   0.007947  -0.012467  -0.011973  -0.012308   0.007944
     7  N   -0.016692  -0.019712  -0.029698  -0.029293  -0.029700  -0.019709
     8  C    0.000018   0.398717   0.401394   0.398981   0.003490  -0.012843
     9  C    0.012357  -0.012842   0.003488   0.003447   0.401438   0.398752
    10  C    0.015483   0.000582   0.006084   0.005241  -0.000182  -0.000161
    11  C   -0.002204  -0.000085   0.000816   0.001318  -0.000010   0.000009
    12  H   -0.013553   0.000000   0.000000   0.000000   0.000008   0.000000
    13  H    0.665421  -0.000003  -0.000018  -0.000027  -0.001658   0.000086
    14  H   -0.000003   0.607895  -0.019483  -0.020835   0.000410   0.004929
    15  H   -0.000018  -0.019483   0.626649  -0.040870   0.001247   0.000413
    16  H   -0.000027  -0.020835  -0.040870   0.638965  -0.000897   0.000334
    17  H   -0.001658   0.000410   0.001247  -0.000897   0.627092  -0.019533
    18  H    0.000086   0.004929   0.000413   0.000334  -0.019533   0.607930
    19  H   -0.001765   0.000332  -0.000898   0.001343  -0.040947  -0.020828
    20  H   -0.000147   0.000086  -0.001741  -0.001706  -0.000019  -0.000002
    21  H    0.000026   0.000000   0.000007   0.000017   0.000000   0.000000
    22  Ag  -0.002089  -0.000223   0.001980   0.000461   0.001699  -0.000219
              19         20         21         22
     1  N    0.000000  -0.000003  -0.000386  -0.002102
     2  C   -0.000001  -0.000514  -0.024282  -0.024555
     3  C   -0.000082   0.017754  -0.062565   0.003970
     4  C    0.001287  -0.002250   0.014613  -0.002254
     5  C    0.005431   0.015453  -0.002179  -0.002622
     6  C   -0.012118  -0.082978   0.016270  -0.011703
     7  N   -0.029258  -0.016663  -0.000092  -0.002019
     8  C    0.003448   0.012388  -0.000048  -0.001908
     9  C    0.399099   0.000020   0.000008  -0.001762
    10  C   -0.000373   0.470566  -0.068041  -0.002346
    11  C    0.000041  -0.070718   0.466124  -0.001524
    12  H    0.000015   0.000026  -0.000182   0.000010
    13  H   -0.001765  -0.000147   0.000026  -0.002089
    14  H    0.000332   0.000086   0.000000  -0.000223
    15  H   -0.000898  -0.001741   0.000007   0.001980
    16  H    0.001343  -0.001706   0.000017   0.000461
    17  H   -0.040947  -0.000019   0.000000   0.001699
    18  H   -0.020828  -0.000002   0.000000  -0.000219
    19  H    0.638882  -0.000027   0.000000   0.000459
    20  H   -0.000027   0.664395  -0.013581  -0.002335
    21  H    0.000000  -0.013581   0.644304  -0.000017
    22  Ag   0.000459  -0.002335  -0.000017  19.127016
          Atomic-Atomic Spin Densities.
               1          2          3          4          5          6
     1  N    0.012648  -0.002877  -0.008641   0.000161  -0.000010   0.000007
     2  C   -0.002877   0.037271  -0.024360   0.002718  -0.000293   0.000785
     3  C   -0.008641  -0.024360   0.033827  -0.000083   0.001849   0.000857
     4  C    0.000161   0.002718  -0.000083   0.005267   0.002170   0.001552
     5  C   -0.000010  -0.000293   0.001849   0.002170   0.009311   0.002218
     6  C    0.000007   0.000785   0.000857   0.001552   0.002218   0.012672
     7  N    0.000000   0.000007   0.000094  -0.000037   0.000090  -0.001969
     8  C    0.000000   0.000001   0.000016  -0.000003   0.000027  -0.000635
     9  C    0.000000   0.000001   0.000016   0.000007   0.000357  -0.000633
    10  C   -0.000009  -0.000242   0.001875  -0.000093   0.001451   0.002942
    11  C    0.000179   0.003057   0.000477   0.001176  -0.000094   0.001607
    12  H    0.000005   0.000172  -0.000183   0.000304  -0.000061   0.000028
    13  H    0.000000   0.000036   0.000064   0.000080   0.000542   0.000056
    14  H    0.000000   0.000000   0.000000   0.000000   0.000000   0.000013
    15  H    0.000000   0.000000  -0.000002   0.000001  -0.000014  -0.000081
    16  H    0.000000  -0.000001  -0.000009   0.000003   0.000012   0.000487
    17  H    0.000000   0.000000  -0.000002  -0.000002  -0.000161  -0.000091
    18  H    0.000000   0.000000   0.000000   0.000000  -0.000001   0.000013
    19  H    0.000000  -0.000001  -0.000009   0.000009  -0.000015   0.000486
    20  H    0.000000   0.000039   0.000069  -0.000013   0.000013   0.000063
    21  H    0.000007   0.000210  -0.000218   0.000015  -0.000009   0.000031
    22  Ag  -0.002984  -0.023056   0.000413  -0.014524  -0.015228  -0.019297
               7          8          9         10         11         12
     1  N    0.000000   0.000000   0.000000  -0.000009   0.000179   0.000005
     2  C    0.000007   0.000001   0.000001  -0.000242   0.003057   0.000172
     3  C    0.000094   0.000016   0.000016   0.001875   0.000477  -0.000183
     4  C   -0.000037  -0.000003   0.000007  -0.000093   0.001176   0.000304
     5  C    0.000090   0.000027   0.000357   0.001451  -0.000094  -0.000061
     6  C   -0.001969  -0.000635  -0.000633   0.002942   0.001607   0.000028
     7  N    0.003863   0.000731   0.000729   0.000113  -0.000035   0.000000
     8  C    0.000731   0.002385   0.000109   0.000395   0.000011   0.000000
     9  C    0.000729   0.000109   0.002170   0.000031  -0.000003   0.000000
    10  C    0.000113   0.000395   0.000031   0.012708   0.003553  -0.000009
    11  C   -0.000035   0.000011  -0.000003   0.003553   0.007392   0.000014
    12  H    0.000000   0.000000   0.000000  -0.000009   0.000014   0.000029
    13  H    0.000110   0.000007   0.000180   0.000016  -0.000012   0.000012
    14  H   -0.000013  -0.000027  -0.000005  -0.000001   0.000000   0.000000
    15  H    0.000146   0.000231  -0.000005  -0.000191  -0.000002   0.000000
    16  H   -0.000620  -0.001514  -0.000061   0.000007   0.000009   0.000000
    17  H    0.000142  -0.000003   0.000236  -0.000016   0.000000   0.000000
    18  H   -0.000013  -0.000005  -0.000022   0.000000   0.000000   0.000000
    19  H   -0.000604  -0.000058  -0.001422   0.000014   0.000003   0.000000
    20  H    0.000122   0.000202   0.000007   0.000675   0.000094   0.000000
    21  H    0.000000   0.000000   0.000000  -0.000073   0.000401   0.000000
    22  Ag  -0.002682  -0.002119  -0.001952  -0.019218  -0.018269  -0.000253
              13         14         15         16         17         18
     1  N    0.000000   0.000000   0.000000   0.000000   0.000000   0.000000
     2  C    0.000036   0.000000   0.000000  -0.000001   0.000000   0.000000
     3  C    0.000064   0.000000  -0.000002  -0.000009  -0.000002   0.000000
     4  C    0.000080   0.000000   0.000001   0.000003  -0.000002   0.000000
     5  C    0.000542   0.000000  -0.000014   0.000012  -0.000161  -0.000001
     6  C    0.000056   0.000013  -0.000081   0.000487  -0.000091   0.000013
     7  N    0.000110  -0.000013   0.000146  -0.000620   0.000142  -0.000013
     8  C    0.000007  -0.000027   0.000231  -0.001514  -0.000003  -0.000005
     9  C    0.000180  -0.000005  -0.000005  -0.000061   0.000236  -0.000022
    10  C    0.000016  -0.000001  -0.000191   0.000007  -0.000016   0.000000
    11  C   -0.000012   0.000000  -0.000002   0.000009   0.000000   0.000000
    12  H    0.000012   0.000000   0.000000   0.000000   0.000000   0.000000
    13  H    0.000011   0.000000  -0.000001  -0.000003  -0.000041  -0.000001
    14  H    0.000000  -0.000028   0.000022   0.000013   0.000001   0.000000
    15  H   -0.000001   0.000022  -0.000859   0.000203  -0.000019   0.000001
    16  H   -0.000003   0.000013   0.000203   0.001580   0.000009   0.000003
    17  H   -0.000041   0.000001  -0.000019   0.000009  -0.000803   0.000019
    18  H   -0.000001   0.000000   0.000001   0.000003   0.000019  -0.000025
    19  H   -0.000106   0.000003   0.000010   0.000050   0.000187   0.000011
    20  H    0.000002  -0.000001  -0.000048  -0.000115  -0.000001   0.000000
    21  H    0.000000   0.000000   0.000000   0.000000   0.000000   0.000000
    22  Ag  -0.001468   0.000012   0.000521   0.000707   0.000448   0.000010
              19         20         21         22
     1  N    0.000000   0.000000   0.000007  -0.002984
     2  C   -0.000001   0.000039   0.000210  -0.023056
     3  C   -0.000009   0.000069  -0.000218   0.000413
     4  C    0.000009  -0.000013   0.000015  -0.014524
     5  C   -0.000015   0.000013  -0.000009  -0.015228
     6  C    0.000486   0.000063   0.000031  -0.019297
     7  N   -0.000604   0.000122   0.000000  -0.002682
     8  C   -0.000058   0.000202   0.000000  -0.002119
     9  C   -0.001422   0.000007   0.000000  -0.001952
    10  C    0.000014   0.000675  -0.000073  -0.019218
    11  C    0.000003   0.000094   0.000401  -0.018269
    12  H    0.000000   0.000000   0.000000  -0.000253
    13  H   -0.000106   0.000002   0.000000  -0.001468
    14  H    0.000003  -0.000001   0.000000   0.000012
    15  H    0.000010  -0.000048   0.000000   0.000521
    16  H    0.000050  -0.000115   0.000000   0.000707
    17  H    0.000187  -0.000001   0.000000   0.000448
    18  H    0.000011   0.000000   0.000000   0.000010
    19  H    0.001510  -0.000003   0.000000   0.000650
    20  H   -0.000003  -0.000088   0.000017  -0.001724
    21  H    0.000000   0.000017  -0.000055  -0.000342
    22  Ag   0.000650  -0.001724  -0.000342   1.117116
 Mulliken charges and spin densities:
               1          2
     1  N    0.013330  -0.001513
     2  C   -0.057706  -0.006532
     3  C   -0.205625   0.006051
     4  C    0.049994  -0.001292
     5  C   -0.085032   0.002152
     6  C    0.231858   0.001110
     7  N   -0.402013   0.000177
     8  C    0.076054  -0.000249
     9  C    0.076154  -0.000260
    10  C   -0.089462   0.003928
    11  C    0.045192  -0.000443
    12  H    0.028907   0.000058
    13  H    0.010996  -0.000515
    14  H    0.052428  -0.000012
    15  H    0.063403  -0.000090
    16  H    0.055889   0.000759
    17  H    0.063187  -0.000096
    18  H    0.052398  -0.000010
    19  H    0.055959   0.000716
    20  H    0.011996  -0.000687
    21  H    0.030008  -0.000015
    22  Ag  -0.077917   0.996761
 Sum of Mulliken charges =   0.00000   1.00000
 Mulliken charges and spin densities with hydrogens summed into heavy atoms:
               1          2
     1  N    0.013330  -0.001513
     2  C   -0.057706  -0.006532
     3  C   -0.205625   0.006051
     4  C    0.078902  -0.001234
     5  C   -0.074035   0.001637
     6  C    0.231858   0.001110
     7  N   -0.402013   0.000177
     8  C    0.247774   0.000409
     9  C    0.247698   0.000350
    10  C   -0.077467   0.003241
    11  C    0.075200  -0.000458
    22  Ag  -0.077917   0.996761
 Electronic spatial extent (au):  <R**2>=           2927.4289
 Charge=              0.0000 electrons
 Dipole moment (field-independent basis, Debye):
    X=             -7.7005    Y=             -1.0628    Z=              1.3391  Tot=              7.8880
 Quadrupole moment (field-independent basis, Debye-Ang):
   XX=           -108.9502   YY=            -86.4359   ZZ=            -87.5852
   XY=             -0.4612   XZ=              1.4333   YZ=              9.8991
 Traceless Quadrupole moment (field-independent basis, Debye-Ang):
   XX=            -14.6264   YY=              7.8879   ZZ=              6.7385
   XY=             -0.4612   XZ=              1.4333   YZ=              9.8991
 Octapole moment (field-independent basis, Debye-Ang**2):
  XXX=           -449.3645  YYY=           -114.5075  ZZZ=            124.2354  XYY=            -84.5299
  XXY=            -22.8662  XXZ=             31.5165  XZZ=            -84.9742  YZZ=            -44.7784
  YYZ=             46.9452  XYZ=              9.7424
 Hexadecapole moment (field-independent basis, Debye-Ang**3):
 XXXX=          -3875.3051 YYYY=           -771.1060 ZZZZ=           -777.5455 XXXY=            -19.1433
 XXXZ=             81.7057 YYYX=           -102.9345 YYYZ=            154.2670 ZZZX=            136.1791
 ZZZY=            154.1833 XXYY=           -594.9365 XXZZ=           -595.5533 YYZZ=           -264.0227
 XXYZ=             72.9707 YYXZ=             49.9208 ZZXY=            -40.4556
 N-N= 7.685732099476D+02 E-N=-2.914363811802D+03  KE= 5.094001670787D+02
                          Isotropic Fermi Contact Couplings
        Atom                 a.u.       MegaHertz       Gauss      10(-4) cm-1
     1  N(14)             -0.00008      -0.02603      -0.00929      -0.00868
     2  C(13)              0.00026       0.29783       0.10627       0.09935
     3  C(13)              0.00662       7.44666       2.65715       2.48394
     4  C(13)              0.00665       7.47852       2.66852       2.49457
     5  C(13)              0.00753       8.46101       3.01910       2.82229
     6  C(13)              0.00528       5.93897       2.11917       1.98103
     7  N(14)              0.00018       0.05873       0.02096       0.01959
     8  C(13)              0.00061       0.68791       0.24546       0.22946
     9  C(13)              0.00055       0.62140       0.22173       0.20728
    10  C(13)              0.00894      10.05218       3.58687       3.35305
    11  C(13)              0.00792       8.90145       3.17626       2.96920
    12  H(1)               0.00006       0.28811       0.10281       0.09610
    13  H(1)               0.00002       0.09734       0.03473       0.03247
    14  H(1)              -0.00001      -0.03308      -0.01180      -0.01103
    15  H(1)               0.00004       0.19869       0.07090       0.06628
    16  H(1)               0.00008       0.37752       0.13471       0.12593
    17  H(1)               0.00004       0.19471       0.06948       0.06495
    18  H(1)              -0.00001      -0.02995      -0.01069      -0.00999
    19  H(1)               0.00008       0.37968       0.13548       0.12665
    20  H(1)               0.00001       0.03648       0.01302       0.01217
    21  H(1)               0.00006       0.27705       0.09886       0.09241
    22  Ag(107             0.00033      -0.05939      -0.02119      -0.01981
 --------------------------------------------------------
       Center         ----  Spin Dipole Couplings  ----
                      3XX-RR        3YY-RR        3ZZ-RR
 --------------------------------------------------------
     1   Atom        0.001714     -0.000787     -0.000927
     2   Atom       -0.000043      0.000003      0.000040
     3   Atom       -0.004048      0.001936      0.002111
     4   Atom       -0.004607      0.005928     -0.001321
     5   Atom       -0.006157      0.006845     -0.000688
     6   Atom       -0.003406      0.001249      0.002157
     7   Atom        0.000588     -0.000450     -0.000138
     8   Atom        0.001024     -0.000777     -0.000247
     9   Atom        0.001019     -0.000327     -0.000692
    10   Atom       -0.007881     -0.001259      0.009140
    11   Atom       -0.005816     -0.001534      0.007349
    12   Atom       -0.001915      0.003920     -0.002005
    13   Atom       -0.001511      0.003489     -0.001978
    14   Atom        0.001061     -0.000768     -0.000293
    15   Atom        0.001424     -0.001626      0.000202
    16   Atom        0.000353     -0.000819      0.000466
    17   Atom        0.001426      0.000119     -0.001545
    18   Atom        0.001057     -0.000343     -0.000713
    19   Atom        0.000356      0.000374     -0.000730
    20   Atom       -0.001763     -0.002089      0.003852
    21   Atom       -0.001889     -0.002207      0.004096
    22   Atom        0.011918     -0.003965     -0.007953
 --------------------------------------------------------
                        XY            XZ            YZ
 --------------------------------------------------------
     1   Atom       -0.001326      0.001275      0.000152
     2   Atom       -0.002132      0.002089     -0.002289
     3   Atom       -0.002659      0.002621     -0.006836
     4   Atom       -0.000610      0.000216     -0.006225
     5   Atom        0.002942     -0.001773     -0.008757
     6   Atom        0.005730     -0.005924     -0.008295
     7   Atom        0.001740     -0.001819     -0.002223
     8   Atom        0.000728     -0.001830     -0.000605
     9   Atom        0.001726     -0.000819     -0.000618
    10   Atom        0.001998     -0.003400     -0.011104
    11   Atom       -0.000254      0.000676     -0.008001
    12   Atom       -0.001730      0.000086     -0.000990
    13   Atom        0.002645     -0.000114     -0.000617
    14   Atom        0.000390     -0.001021     -0.000224
    15   Atom        0.000001     -0.002626     -0.000108
    16   Atom        0.000282     -0.001322     -0.000395
    17   Atom        0.002509     -0.000181     -0.000212
    18   Atom        0.000964     -0.000470     -0.000254
    19   Atom        0.001265     -0.000375     -0.000461
    20   Atom       -0.000169     -0.002810     -0.000215
    21   Atom        0.000071      0.002119     -0.000746
    22   Atom       -0.002484      0.002871      0.015806
 --------------------------------------------------------


 ---------------------------------------------------------------------------------
              Anisotropic Spin Dipole Couplings in Principal Axis System
 ---------------------------------------------------------------------------------

       Atom             a.u.   MegaHertz   Gauss  10(-4) cm-1        Axes

              Baa    -0.0019    -0.075    -0.027    -0.025 -0.4492 -0.6045  0.6579
     1 N(14)  Bbb    -0.0007    -0.027    -0.010    -0.009  0.0338  0.7243  0.6887
              Bcc     0.0026     0.102     0.036     0.034  0.8928 -0.3316  0.3049
 
              Baa    -0.0023    -0.305    -0.109    -0.102  0.1452  0.7658  0.6264
     2 C(13)  Bbb    -0.0021    -0.277    -0.099    -0.093  0.8138  0.2676 -0.5158
              Bcc     0.0043     0.583     0.208     0.194 -0.5627  0.5847 -0.5844
 
              Baa    -0.0051    -0.679    -0.242    -0.226  0.9473  0.3173 -0.0438
     3 C(13)  Bbb    -0.0048    -0.645    -0.230    -0.215 -0.1881  0.6618  0.7257
              Bcc     0.0099     1.323     0.472     0.441  0.2592 -0.6792  0.6867
 
              Baa    -0.0049    -0.663    -0.237    -0.221  0.3536  0.4797  0.8031
     4 C(13)  Bbb    -0.0046    -0.616    -0.220    -0.206  0.9343 -0.1398 -0.3279
              Bcc     0.0095     1.280     0.457     0.427 -0.0450  0.8662 -0.4976
 
              Baa    -0.0068    -0.915    -0.326    -0.305  0.9225 -0.3286 -0.2026
     5 C(13)  Bbb    -0.0064    -0.859    -0.307    -0.287  0.3443  0.4632  0.8166
              Bcc     0.0132     1.774     0.633     0.592  0.1745  0.8231 -0.5405
 
              Baa    -0.0073    -0.984    -0.351    -0.328  0.8979 -0.3722  0.2351
     6 C(13)  Bbb    -0.0066    -0.885    -0.316    -0.295  0.0973  0.6887  0.7185
              Bcc     0.0139     1.869     0.667     0.623 -0.4294 -0.6223  0.6546
 
              Baa    -0.0025    -0.097    -0.035    -0.032 -0.0191  0.7386  0.6739
     7 N(14)  Bbb    -0.0013    -0.052    -0.018    -0.017  0.7930 -0.3993  0.4602
              Bcc     0.0039     0.149     0.053     0.050  0.6090  0.5432 -0.5780
 
              Baa    -0.0016    -0.209    -0.075    -0.070  0.5493  0.1276  0.8258
     8 C(13)  Bbb    -0.0010    -0.139    -0.049    -0.046 -0.2946  0.9544  0.0485
              Bcc     0.0026     0.348     0.124     0.116  0.7819  0.2699 -0.5619
 
              Baa    -0.0015    -0.203    -0.072    -0.068 -0.5413  0.8360  0.0899
     9 C(13)  Bbb    -0.0010    -0.136    -0.049    -0.045  0.3024  0.0938  0.9486
              Bcc     0.0025     0.339     0.121     0.113  0.7846  0.5406 -0.3036
 
              Baa    -0.0086    -1.152    -0.411    -0.384  0.8746  0.3173  0.3666
    10 C(13)  Bbb    -0.0082    -1.107    -0.395    -0.369 -0.4586  0.7869  0.4128
              Bcc     0.0168     2.258     0.806     0.753 -0.1575 -0.5292  0.8338
 
              Baa    -0.0063    -0.843    -0.301    -0.281 -0.2745  0.8232  0.4969
    11 C(13)  Bbb    -0.0058    -0.779    -0.278    -0.260  0.9608  0.2562  0.1064
              Bcc     0.0121     1.622     0.579     0.541  0.0397 -0.5066  0.8612
 
              Baa    -0.0025    -1.325    -0.473    -0.442  0.8344  0.2971  0.4642
    12 H(1)   Bbb    -0.0021    -1.098    -0.392    -0.366 -0.4872  0.0037  0.8733
              Bcc     0.0045     2.423     0.864     0.808 -0.2578  0.9548 -0.1478
 
              Baa    -0.0027    -1.430    -0.510    -0.477  0.8910 -0.4029 -0.2095
    13 H(1)   Bbb    -0.0020    -1.069    -0.382    -0.357  0.2285 -0.0008  0.9735
              Bcc     0.0047     2.500     0.892     0.834  0.3924  0.9152 -0.0914
 
              Baa    -0.0009    -0.459    -0.164    -0.153  0.1439  0.8038  0.5772
    14 H(1)   Bbb    -0.0008    -0.444    -0.158    -0.148  0.4785 -0.5671  0.6704
              Bcc     0.0017     0.903     0.322     0.301  0.8662  0.1797 -0.4662
 
              Baa    -0.0019    -1.018    -0.363    -0.340  0.5930  0.2861  0.7527
    15 H(1)   Bbb    -0.0016    -0.855    -0.305    -0.285 -0.1880  0.9581 -0.2162
              Bcc     0.0035     1.873     0.668     0.625  0.7830  0.0133 -0.6219
 
              Baa    -0.0010    -0.522    -0.186    -0.174  0.4415  0.6768  0.5891
    16 H(1)   Bbb    -0.0008    -0.449    -0.160    -0.150 -0.5883  0.7141 -0.3794
              Bcc     0.0018     0.971     0.347     0.324 -0.6774 -0.1791  0.7134
 
              Baa    -0.0018    -0.977    -0.349    -0.326 -0.5901  0.7811  0.2040
    17 H(1)   Bbb    -0.0015    -0.826    -0.295    -0.276  0.1679 -0.1284  0.9774
              Bcc     0.0034     1.803     0.644     0.602  0.7897  0.6110 -0.0554
 
              Baa    -0.0008    -0.451    -0.161    -0.151 -0.1992  0.7182  0.6667
    18 H(1)   Bbb    -0.0008    -0.438    -0.156    -0.146  0.4532 -0.5357  0.7125
              Bcc     0.0017     0.890     0.317     0.297  0.8689  0.4440 -0.2188
 
              Baa    -0.0009    -0.504    -0.180    -0.168 -0.4650  0.6547  0.5959
    19 H(1)   Bbb    -0.0008    -0.441    -0.157    -0.147  0.5645 -0.2992  0.7693
              Bcc     0.0018     0.945     0.337     0.315  0.6819  0.6942 -0.2305
 
              Baa    -0.0030    -1.596    -0.569    -0.532  0.8913  0.2562  0.3741
    20 H(1)   Bbb    -0.0020    -1.082    -0.386    -0.361 -0.2438  0.9664 -0.0811
              Bcc     0.0050     2.678     0.956     0.893 -0.3823 -0.0189  0.9238
 
              Baa    -0.0027    -1.465    -0.523    -0.489  0.7946 -0.5258 -0.3035
    21 H(1)   Bbb    -0.0021    -1.117    -0.398    -0.373  0.5288  0.8450 -0.0792
              Bcc     0.0048     2.581     0.921     0.861  0.2981 -0.0975  0.9495
 
              Baa    -0.0223     0.484     0.173     0.161 -0.1102 -0.6572  0.7456
    22 Ag(107 Bbb     0.0100    -0.216    -0.077    -0.072 -0.0149  0.7512  0.6600
              Bcc     0.0123    -0.268    -0.096    -0.089  0.9938 -0.0616  0.0926
 

 ---------------------------------------------------------------------------------

 No NMR shielding tensors so no spin-rotation constants.
 Leave Link  601 at Fri Sep 11 21:29:52 2026, MaxMem=  6442450944 cpu:               5.0 elap:               4.8
 (Enter C:\G16W\l9999.exe)
 Unable to Open any file for archive entry.
 1|1|UNPC-DESKTOP-2JKEGCA|SP|UPBE1PBE|def2SVP|C9H10Ag1N2(2)|JHKIM|11-Se
 p-2026|0||#P PBE1PBE/Def2SVP EmpiricalDispersion=GD3BJ SP SCF=(XQC,Max
 Cycle=128) NoSymm Guess=Read||DMABN t=1.000 dz=+0.40 class=toface||0,2
 |N,0,5.143673,-0.350316,0.21822|C,0,3.998871,-0.272231,0.170326|C,0,2.
 596311,-0.177765,0.111532|C,0,1.861617,-1.009137,-0.736855|C,0,0.49137
 2,-0.916108,-0.795599|C,0,-0.21206,0.013916,-0.008461|N,0,-1.572327,0.
 10784,-0.067705|C,0,-2.276121,1.067277,0.747024|C,0,-2.327988,-0.75130
 9,-0.945467|C,0,0.541516,0.843475,0.842005|C,0,1.911725,0.749715,0.900
 076|H,0,2.379549,-1.731167,-1.351567|H,0,-0.036847,-1.576092,-1.463215
 |H,0,-3.344118,0.990693,0.558268|H,0,-1.962619,2.089882,0.51411|H,0,-2
 .105367,0.883166,1.812531|H,0,-2.039382,-0.601554,-1.990713|H,0,-3.387
 348,-0.525033,-0.852352|H,0,-2.182049,-1.805705,-0.689891|H,0,0.052874
 ,1.572236,1.466859|H,0,2.468717,1.398215,1.560873|Ag,0,1.47591368,1.78
 185384,-1.85269575||Version=EM64W-G16RevC.01|HF=-604.5438556|S2=0.7517
 79|S2-1=0.|S2A=0.750003|RMSD=8.124e-009|Dipole=-3.0296084,-0.4181518,0
 .5268498|Quadrupole=-10.8743854,5.8644403,5.0099452,-0.3428826,1.06559
 39,7.3597618|PG=C01 [X(C9H10Ag1N2)]||@
 The archive entry for this job was punched.


 WOMEN HOLD UP HALF THE SKY. -- MAO TSE TUNG
 Job cpu time:       0 days  0 hours  2 minutes 59.0 seconds.
 Elapsed time:       0 days  0 hours  2 minutes 57.9 seconds.
 File lengths (MBytes):  RWF=     57 Int=      0 D2E=      0 Chk=      5 Scr=      1
 Normal termination of Gaussian 16 at Fri Sep 11 21:29:53 2026.
