 Entering Gaussian System, Link 0=C:\G16W\g16.exe
 Input=DMABN_t1_z1.gjf
 Output=DMABN_t1_z1.out
 Initial command:
 C:\G16W\l1.exe ".\Gau-67068.inp" "DMABN_t1_z1.out" /scrdir=".\"
 Entering Link 1 = C:\G16W\l1.exe PID=     46884.
  
 Copyright (c) 1988-2019, Gaussian, Inc.  All Rights Reserved.
  
 This is part of the Gaussian(R) 16 program.  It is based on
 the Gaussian(R) 09 system (copyright 2009, Gaussian, Inc.),
 the Gaussian(R) 03 system (copyright 2003, Gaussian, Inc.),
 the Gaussian(R) 98 system (copyright 1998, Gaussian, Inc.),
 the Gaussian(R) 94 system (copyright 1995, Gaussian, Inc.),
 the Gaussian 92(TM) system (copyright 1992, Gaussian, Inc.),
 the Gaussian 90(TM) system (copyright 1990, Gaussian, Inc.),
 the Gaussian 88(TM) system (copyright 1988, Gaussian, Inc.),
 the Gaussian 86(TM) system (copyright 1986, Carnegie Mellon
 University), and the Gaussian 82(TM) system (copyright 1983,
 Carnegie Mellon University). Gaussian is a federally registered
 trademark of Gaussian, Inc.
  
 This software contains proprietary and confidential information,
 including trade secrets, belonging to Gaussian, Inc.
  
 This software is provided under written license and may be
 used, copied, transmitted, or stored only in accord with that
 written license.
  
 The following legend is applicable only to US Government
 contracts under FAR:
  
                    RESTRICTED RIGHTS LEGEND
  
 Use, reproduction and disclosure by the US Government is
 subject to restrictions as set forth in subparagraphs (a)
 and (c) of the Commercial Computer Software - Restricted
 Rights clause in FAR 52.227-19.
  
 Gaussian, Inc.
 340 Quinnipiac St., Bldg. 40, Wallingford CT 06492
  
  
 ---------------------------------------------------------------
 Warning -- This program may not be used in any manner that
 competes with the business of Gaussian, Inc. or will provide
 assistance to any competitor of Gaussian, Inc.  The licensee
 of this program is prohibited from giving any competitor of
 Gaussian, Inc. access to this program.  By using this program,
 the user acknowledges that Gaussian, Inc. is engaged in the
 business of creating and licensing software in the field of
 computational chemistry and represents and warrants to the
 licensee that it is not a competitor of Gaussian, Inc. and that
 it will not use this program in any manner prohibited above.
 ---------------------------------------------------------------
  

 Cite this work as:
 Gaussian 16, Revision C.01,
 M. J. Frisch, G. W. Trucks, H. B. Schlegel, G. E. Scuseria, 
 M. A. Robb, J. R. Cheeseman, G. Scalmani, V. Barone, 
 G. A. Petersson, H. Nakatsuji, X. Li, M. Caricato, A. V. Marenich, 
 J. Bloino, B. G. Janesko, R. Gomperts, B. Mennucci, H. P. Hratchian, 
 J. V. Ortiz, A. F. Izmaylov, J. L. Sonnenberg, D. Williams-Young, 
 F. Ding, F. Lipparini, F. Egidi, J. Goings, B. Peng, A. Petrone, 
 T. Henderson, D. Ranasinghe, V. G. Zakrzewski, J. Gao, N. Rega, 
 G. Zheng, W. Liang, M. Hada, M. Ehara, K. Toyota, R. Fukuda, 
 J. Hasegawa, M. Ishida, T. Nakajima, Y. Honda, O. Kitao, H. Nakai, 
 T. Vreven, K. Throssell, J. A. Montgomery, Jr., J. E. Peralta, 
 F. Ogliaro, M. J. Bearpark, J. J. Heyd, E. N. Brothers, K. N. Kudin, 
 V. N. Staroverov, T. A. Keith, R. Kobayashi, J. Normand, 
 K. Raghavachari, A. P. Rendell, J. C. Burant, S. S. Iyengar, 
 J. Tomasi, M. Cossi, J. M. Millam, M. Klene, C. Adamo, R. Cammi, 
 J. W. Ochterski, R. L. Martin, K. Morokuma, O. Farkas, 
 J. B. Foresman, and D. J. Fox, Gaussian, Inc., Wallingford CT, 2019.
 
 ******************************************
 Gaussian 16:  EM64W-G16RevC.01 30-May-2019
                11-Sep-2026 
 ******************************************
 %Chk=DMABN.chk
 %NProcShared=8
 Will use up to    8 processors via shared memory.
 %Mem=48GB
 ----------------------------------------------------------------------
 #P PBE1PBE/Def2SVP EmpiricalDispersion=GD3BJ SP SCF=(XQC,MaxCycle=128)
  NoSymm Guess=Read
 ----------------------------------------------------------------------
 1/38=1,172=1/1;
 2/12=2,15=1,17=6,18=5,40=1/2;
 3/5=43,7=101,11=2,25=1,30=1,74=-13,116=-2,124=41/1,2,3;
 4/5=1/1;
 5/5=2,7=128,8=3,13=1,38=6/2,8;
 6/7=2,8=2,9=2,10=2,28=1/1;
 99/5=1,9=1/99;
 Leave Link    1 at Fri Sep 11 21:07:04 2026, MaxMem=  6442450944 cpu:               0.0 elap:               0.2
 (Enter C:\G16W\l101.exe)
 -----------------------------------
 DMABN t=0.250 dz=+0.40 class=toface
 -----------------------------------
 Symbolic Z-matrix:
 Charge =  0 Multiplicity = 2
 N                     5.14367  -0.35032   0.21822 
 C                     3.99887  -0.27223   0.17033 
 C                     2.59631  -0.17777   0.11153 
 C                     1.86162  -1.00914  -0.73686 
 C                     0.49137  -0.91611  -0.7956 
 C                    -0.21206   0.01392  -0.00846 
 N                    -1.57233   0.10784  -0.06771 
 C                    -2.27612   1.06728   0.74702 
 C                    -2.32799  -0.75131  -0.94547 
 C                     0.54152   0.84348   0.84201 
 C                     1.91173   0.74972   0.90008 
 H                     2.37955  -1.73117  -1.35157 
 H                    -0.03685  -1.57609  -1.46322 
 H                    -3.34412   0.99069   0.55827 
 H                    -1.96262   2.08988   0.51411 
 H                    -2.10537   0.88317   1.81253 
 H                    -2.03938  -0.60155  -1.99071 
 H                    -3.38735  -0.52503  -0.85235 
 H                    -2.18205  -1.80571  -0.68989 
 H                     0.05287   1.57224   1.46686 
 H                     2.46872   1.39822   1.56087 
 Ag                    7.59353   0.24732  -0.458 
 
 ITRead=  0  0  0  0  0  0  0  0  0  0  0  0  0  0  0  0  0  0  0  0
 ITRead=  0  0
 MicOpt= -1 -1 -1 -1 -1 -1 -1 -1 -1 -1 -1 -1 -1 -1 -1 -1 -1 -1 -1 -1
 MicOpt= -1 -1
 NAtoms=     22 NQM=       22 NQMF=       0 NMMI=      0 NMMIF=      0
                NMic=       0 NMicF=      0.
                    Isotopes and Nuclear Properties:
 (Nuclear quadrupole moments (NQMom) in fm**2, nuclear magnetic moments (NMagM)
  in nuclear magnetons)

  Atom         1           2           3           4           5           6           7           8           9          10
 IAtWgt=          14          12          12          12          12          12          14          12          12          12
 AtmWgt=  14.0030740  12.0000000  12.0000000  12.0000000  12.0000000  12.0000000  14.0030740  12.0000000  12.0000000  12.0000000
 NucSpn=           2           0           0           0           0           0           2           0           0           0
 AtZEff=   0.0000000   0.0000000   0.0000000   0.0000000   0.0000000   0.0000000   0.0000000   0.0000000   0.0000000   0.0000000
 NQMom=    2.0440000   0.0000000   0.0000000   0.0000000   0.0000000   0.0000000   2.0440000   0.0000000   0.0000000   0.0000000
 NMagM=    0.4037610   0.0000000   0.0000000   0.0000000   0.0000000   0.0000000   0.4037610   0.0000000   0.0000000   0.0000000
 AtZNuc=   7.0000000   6.0000000   6.0000000   6.0000000   6.0000000   6.0000000   7.0000000   6.0000000   6.0000000   6.0000000

  Atom        11          12          13          14          15          16          17          18          19          20
 IAtWgt=          12           1           1           1           1           1           1           1           1           1
 AtmWgt=  12.0000000   1.0078250   1.0078250   1.0078250   1.0078250   1.0078250   1.0078250   1.0078250   1.0078250   1.0078250
 NucSpn=           0           1           1           1           1           1           1           1           1           1
 AtZEff=   0.0000000   0.0000000   0.0000000   0.0000000   0.0000000   0.0000000   0.0000000   0.0000000   0.0000000   0.0000000
 NQMom=    0.0000000   0.0000000   0.0000000   0.0000000   0.0000000   0.0000000   0.0000000   0.0000000   0.0000000   0.0000000
 NMagM=    0.0000000   2.7928460   2.7928460   2.7928460   2.7928460   2.7928460   2.7928460   2.7928460   2.7928460   2.7928460
 AtZNuc=   6.0000000   1.0000000   1.0000000   1.0000000   1.0000000   1.0000000   1.0000000   1.0000000   1.0000000   1.0000000

  Atom        21          22
 IAtWgt=           1         107
 AtmWgt=   1.0078250 106.9050900
 NucSpn=           1           1
 AtZEff=   0.0000000   0.0000000
 NQMom=    0.0000000   0.0000000
 NMagM=    2.7928460  -0.1135700
 AtZNuc=   1.0000000  47.0000000
 Leave Link  101 at Fri Sep 11 21:07:05 2026, MaxMem=  6442450944 cpu:               0.0 elap:               0.3
 (Enter C:\G16W\l202.exe)
                          Input orientation:                          
 ---------------------------------------------------------------------
 Center     Atomic      Atomic             Coordinates (Angstroms)
 Number     Number       Type             X           Y           Z
 ---------------------------------------------------------------------
      1          7           0        5.143673   -0.350316    0.218220
      2          6           0        3.998871   -0.272231    0.170326
      3          6           0        2.596311   -0.177765    0.111532
      4          6           0        1.861617   -1.009137   -0.736855
      5          6           0        0.491372   -0.916108   -0.795599
      6          6           0       -0.212060    0.013916   -0.008461
      7          7           0       -1.572327    0.107840   -0.067705
      8          6           0       -2.276121    1.067277    0.747024
      9          6           0       -2.327988   -0.751309   -0.945467
     10          6           0        0.541516    0.843475    0.842005
     11          6           0        1.911725    0.749715    0.900076
     12          1           0        2.379549   -1.731167   -1.351567
     13          1           0       -0.036847   -1.576092   -1.463215
     14          1           0       -3.344118    0.990693    0.558268
     15          1           0       -1.962619    2.089882    0.514110
     16          1           0       -2.105367    0.883166    1.812531
     17          1           0       -2.039382   -0.601554   -1.990713
     18          1           0       -3.387348   -0.525033   -0.852352
     19          1           0       -2.182049   -1.805705   -0.689891
     20          1           0        0.052874    1.572236    1.466859
     21          1           0        2.468717    1.398215    1.560873
     22         47           0        7.593529    0.247323   -0.457999
 ---------------------------------------------------------------------
                    Distance matrix (angstroms):
                    1          2          3          4          5
     1  N    0.000000
     2  C    1.148461   0.000000
     3  C    2.555427   1.406967   0.000000
     4  C    3.481107   2.435952   1.396680   0.000000
     5  C    4.794982   3.694609   2.408071   1.374655   0.000000
     6  C    5.372888   4.224427   2.817461   2.424321   1.406893
     7  N    6.737679   5.589218   4.182253   3.672516   2.416020
     8  C    7.572486   6.442235   5.068981   4.861509   3.737983
     9  C    7.572363   6.442333   5.069016   4.202712   2.828146
    10  C    4.795216   3.694490   2.408050   2.769050   2.404245
    11  C    3.481449   2.435793   1.396667   2.403251   2.769058
    12  H    3.465741   2.658356   2.144925   1.080487   2.130407
    13  H    5.582789   4.544835   3.371745   2.110261   1.077175
    14  H    8.599798   7.460896   6.070714   5.725062   4.492197
    15  H    7.519408   6.421614   5.107655   5.078741   4.095532
    16  H    7.524087   6.426002   5.111237   5.081057   4.096679
    17  H    7.519228   6.421763   5.107708   4.117776   2.816373
    18  H    8.599708   7.460966   6.070737   5.272507   3.898798
    19  H    7.523897   6.426141   5.111281   4.121645   2.819528
    20  H    5.583148   4.544662   3.371719   3.845958   3.391586
    21  H    3.466333   2.658079   2.144897   3.382820   3.849538
    22  Ag   2.610793   3.685959   5.047500   5.874629   7.204733
                    6          7          8          9         10
     6  C    0.000000
     7  N    1.364792   0.000000
     8  C    2.437350   1.442092   0.000000
     9  C    2.437355   1.442091   2.484848   0.000000
    10  C    1.406889   2.416002   2.828107   3.737973   0.000000
    11  C    2.424315   3.672495   4.202657   4.861509   1.374640
    12  H    3.400836   4.543960   5.823284   4.825551   3.849533
    13  H    2.162206   2.672223   4.109368   2.489509   3.391585
    14  H    3.329424   2.076178   1.087250   2.515613   3.898760
    15  H    2.765352   2.102220   1.094648   3.215000   2.816334
    16  H    2.766987   2.102510   1.094696   3.213662   2.819483
    17  H    2.765363   2.102223   3.215003   1.094650   4.095538
    18  H    3.329425   2.076174   2.515607   1.087251   4.492175
    19  H    2.766988   2.102506   3.213658   1.094700   4.096665
    20  H    2.162203   2.672194   2.489450   4.109341   1.077175
    21  H    3.400832   4.543938   4.825490   5.823278   2.130402
    22  Ag   7.822007   9.175222   9.976693   9.983556   7.195575
                   11         12         13         14         15
    11  C    0.000000
    12  H    3.382829   0.000000
    13  H    3.845966   2.423940   0.000000
    14  H    5.272456   6.619392   4.648959   0.000000
    15  H    4.117713   6.077466   4.588875   1.765986   0.000000
    16  H    4.121579   6.079533   4.588816   1.766138   1.778324
    17  H    5.078763   4.605593   2.288695   3.276414   3.677480
    18  H    5.725047   5.912789   3.564230   2.071025   3.276408
    19  H    5.081058   4.609940   2.291865   3.275385   4.083303
    20  H    2.110240   4.926400   4.301785   3.564167   2.288646
    21  H    1.080484   4.275896   4.926405   5.912727   4.605524
    22  Ag   5.863418   5.647874   7.909358  11.009883   9.780593
                   16         17         18         19         20
    16  H    0.000000
    17  H    4.083309   0.000000
    18  H    3.275378   1.765994   0.000000
    19  H    3.673966   1.778334   1.766143   0.000000
    20  H    2.291792   4.588867   4.648914   4.588784   0.000000
    21  H    4.609865   6.077483   6.619368   6.079528   2.423926
    22  Ag   9.981392   9.790954  11.015068   9.991528   7.894426
                   21         22
    21  H    0.000000
    22  Ag   5.627086   0.000000
 Symmetry turned off by external request.
 Stoichiometry    C9H10AgN2(2)
 Framework group  C1[X(C9H10AgN2)]
 Deg. of freedom    60
 Full point group                 C1      NOp   1
 Rotational constants (GHZ):           3.1407868           0.1358502           0.1315874
 Leave Link  202 at Fri Sep 11 21:07:05 2026, MaxMem=  6442450944 cpu:               0.0 elap:               0.1
 (Enter C:\G16W\l301.exe)
 Standard basis: def2SVP (5D, 7F)
 Ernie: Thresh=  0.10000D-02 Tol=  0.10000D-05 Strict=F.
   235 basis functions,   410 primitive gaussians,   251 cartesian basis functions
    49 alpha electrons       48 beta electrons
       nuclear repulsion energy       682.7862693411 Hartrees.
 IExCor= 1009 DFT=T Ex+Corr=PBE1PBE ExCW=0 ScaHFX=  0.250000
 ScaDFX=  0.750000  0.750000  1.000000  1.000000 ScalE2=  1.000000  1.000000
 IRadAn=      5 IRanWt=     -1 IRanGd=            0 ICorTp=0 IEmpDi=141
 NAtoms=   22 NActive=   22 NUniq=   22 SFac= 1.00D+00 NAtFMM=   60 NAOKFM=F Big=F
 Integral buffers will be    131072 words long.
 Raffenetti 2 integral format.
 Two-electron integral symmetry is turned off.
 R6Disp:  Grimme-D3(BJ) Dispersion energy=       -0.0219928749 Hartrees.
 Nuclear repulsion after empirical dispersion term =      682.7642764662 Hartrees.
 Leave Link  301 at Fri Sep 11 21:07:05 2026, MaxMem=  6442450944 cpu:               0.0 elap:               0.2
 (Enter C:\G16W\l302.exe)
 NPDir=0 NMtPBC=     1 NCelOv=     1 NCel=       1 NClECP=     1 NCelD=      1
         NCelK=      1 NCelE2=     1 NClLst=     1 CellRange=     0.0.
 One-electron integrals computed using PRISM.
   1 Symmetry operations used in ECPInt.
 ECPInt:  NShTT=    5778 NPrTT=   20489 LenC2=    5373 LenP2D=   14451.
 LDataN:  DoStor=T MaxTD1= 7 Len=  274
 NBasis=   235 RedAO= T EigKep=  2.44D-04  NBF=   235
 NBsUse=   235 1.00D-06 EigRej= -1.00D+00 NBFU=   235
 Precomputing XC quadrature grid using
 IXCGrd= 4 IRadAn=           5 IRanWt=          -1 IRanGd=           0 AccXCQ= 0.00D+00.
 Defaulting to unpruned grid for atomic number  47.
 Generated NRdTot=       0 NPtTot=           0 NUsed=           0 NTot=          32
 NSgBfM=   250   250   250   250   250 MxSgAt=    22 MxSgA2=    22.
 Leave Link  302 at Fri Sep 11 21:07:10 2026, MaxMem=  6442450944 cpu:               5.0 elap:               4.7
 (Enter C:\G16W\l303.exe)
 DipDrv:  MaxL=1.
 Leave Link  303 at Fri Sep 11 21:07:11 2026, MaxMem=  6442450944 cpu:               1.0 elap:               0.1
 (Enter C:\G16W\l401.exe)
 Initial guess from the checkpoint file:  "DMABN.chk"
 B after Tr=     0.278370    0.013523   -0.021276
         Rot=    0.999994   -0.000073   -0.002407   -0.002353 Ang=  -0.39 deg.
 Guess basis will be translated and rotated to current coordinates.
 JPrj=2 DoOrth=T DoCkMO=T.
 Initial guess <Sx>= 0.0000 <Sy>= 0.0000 <Sz>= 0.5000 <S**2>= 0.7518 S= 0.5009
 Leave Link  401 at Fri Sep 11 21:07:19 2026, MaxMem=  6442450944 cpu:               8.0 elap:               8.4
 (Enter C:\G16W\l502.exe)
 Two-electron integral symmetry not used.
 UHF open shell SCF:
 Using DIIS extrapolation, IDIIS=  1040.
 NGot=  6442450944 LenX=  6442320325 LenY=  6442256883
 Requested convergence on RMS density matrix=1.00D-08 within 128 cycles.
 Requested convergence on MAX density matrix=1.00D-06.
 Requested convergence on             energy=1.00D-06.
 No special actions if energy rises.
 Fock matrices will be formed incrementally for  20 cycles.

 Cycle   1  Pass 1  IDiag  1:
 FoFJK:  IHMeth= 1 ICntrl=       0 DoSepK=F KAlg= 0 I1Cent=           0 FoldK=F
 IRaf= 880000000 NMat=       1 IRICut=       1 DoRegI=T DoRafI=F ISym2E= 0 IDoP0=0 IntGTp=1.
 FoFCou: FMM=F IPFlag=           0 FMFlag=      100000 FMFlg1=           0
         NFxFlg=           0 DoJE=F BraDBF=F KetDBF=F FulRan=T
         wScrn=  0.000000 ICntrl=         0 IOpCl=  1 I1Cent=           0 NGrid=           0
         NMat0=    1 NMatS0=      1 NMatT0=    0 NMatD0=    1 NMtDS0=    0 NMtDT0=    0
 Symmetry not used in FoFCou.
 Defaulting to unpruned grid for atomic number  47.
 Defaulting to unpruned grid for atomic number  47.
 Defaulting to unpruned grid for atomic number  47.
 Defaulting to unpruned grid for atomic number  47.
 Defaulting to unpruned grid for atomic number  47.
 Defaulting to unpruned grid for atomic number  47.
 Defaulting to unpruned grid for atomic number  47.
 Defaulting to unpruned grid for atomic number  47.
 E= -604.539964303886    
 DIIS: error= 2.23D-02 at cycle   1 NSaved=   1.
 NSaved= 1 IEnMin= 1 EnMin= -604.539964303886     IErMin= 1 ErrMin= 2.23D-02
 ErrMax= 2.23D-02  0.00D+00 EMaxC= 1.00D-01 BMatC= 9.91D-02 BMatP= 9.91D-02
 IDIUse=3 WtCom= 7.77D-01 WtEn= 2.23D-01
 Coeff-Com:  0.100D+01
 Coeff-En:   0.100D+01
 Coeff:      0.100D+01
 Gap=     0.100 Goal=   None    Shift=    0.000
 Gap=     0.191 Goal=   None    Shift=    0.000
 GapD=    0.100 DampG=1.000 DampE=0.250 DampFc=0.2500 IDamp=-1.
 Damping current iteration by 2.50D-01
 RMSDP=7.20D-04 MaxDP=5.47D-02              OVMax= 6.63D-02

 Cycle   2  Pass 1  IDiag  1:
 RMSU=  1.80D-04    CP:  1.00D+00
 E= -604.541827335999     Delta-E=       -0.001863032113 Rises=F Damp=T
 DIIS: error= 1.66D-02 at cycle   2 NSaved=   2.
 NSaved= 2 IEnMin= 2 EnMin= -604.541827335999     IErMin= 2 ErrMin= 1.66D-02
 ErrMax= 1.66D-02  0.00D+00 EMaxC= 1.00D-01 BMatC= 5.55D-02 BMatP= 9.91D-02
 IDIUse=3 WtCom= 8.34D-01 WtEn= 1.66D-01
 Coeff-Com: -0.269D+01 0.369D+01
 Coeff-En:   0.000D+00 0.100D+01
 Coeff:     -0.225D+01 0.325D+01
 Gap=     0.098 Goal=   None    Shift=    0.000
 Gap=     0.177 Goal=   None    Shift=    0.000
 RMSDP=6.38D-04 MaxDP=3.72D-02 DE=-1.86D-03 OVMax= 2.47D-02

 Cycle   3  Pass 1  IDiag  1:
 RMSU=  3.78D-04    CP:  9.99D-01  3.00D+00
 E= -604.544565214891     Delta-E=       -0.002737878892 Rises=F Damp=F
 DIIS: error= 5.12D-03 at cycle   3 NSaved=   3.
 NSaved= 3 IEnMin= 3 EnMin= -604.544565214891     IErMin= 3 ErrMin= 5.12D-03
 ErrMax= 5.12D-03  0.00D+00 EMaxC= 1.00D-01 BMatC= 1.62D-02 BMatP= 5.55D-02
 IDIUse=3 WtCom= 9.49D-01 WtEn= 5.12D-02
 Coeff-Com: -0.185D+01 0.246D+01 0.386D+00
 Coeff-En:   0.000D+00 0.000D+00 0.100D+01
 Coeff:     -0.176D+01 0.234D+01 0.418D+00
 Gap=     0.097 Goal=   None    Shift=    0.000
 Gap=     0.179 Goal=   None    Shift=    0.000
 RMSDP=2.26D-04 MaxDP=1.47D-02 DE=-2.74D-03 OVMax= 2.22D-02

 Cycle   4  Pass 1  IDiag  1:
 RMSU=  1.83D-04    CP:  9.99D-01  3.00D+00  6.52D-01
 E= -604.547949195761     Delta-E=       -0.003383980870 Rises=F Damp=F
 DIIS: error= 1.09D-03 at cycle   4 NSaved=   4.
 NSaved= 4 IEnMin= 4 EnMin= -604.547949195761     IErMin= 4 ErrMin= 1.09D-03
 ErrMax= 1.09D-03  0.00D+00 EMaxC= 1.00D-01 BMatC= 8.63D-04 BMatP= 1.62D-02
 IDIUse=3 WtCom= 9.89D-01 WtEn= 1.09D-02
 Coeff-Com: -0.876D+00 0.116D+01 0.260D+00 0.452D+00
 Coeff-En:   0.000D+00 0.000D+00 0.237D-01 0.976D+00
 Coeff:     -0.866D+00 0.115D+01 0.257D+00 0.458D+00
 Gap=     0.099 Goal=   None    Shift=    0.000
 Gap=     0.178 Goal=   None    Shift=    0.000
 RMSDP=6.73D-05 MaxDP=6.20D-03 DE=-3.38D-03 OVMax= 4.78D-03

 Cycle   5  Pass 1  IDiag  1:
 RMSU=  5.27D-05    CP:  1.00D+00  3.00D+00  7.48D-01  8.87D-01
 E= -604.548152035047     Delta-E=       -0.000202839287 Rises=F Damp=F
 DIIS: error= 3.33D-04 at cycle   5 NSaved=   5.
 NSaved= 5 IEnMin= 5 EnMin= -604.548152035047     IErMin= 5 ErrMin= 3.33D-04
 ErrMax= 3.33D-04  0.00D+00 EMaxC= 1.00D-01 BMatC= 2.58D-05 BMatP= 8.63D-04
 IDIUse=3 WtCom= 9.97D-01 WtEn= 3.33D-03
 Coeff-Com:  0.780D-01-0.105D+00 0.666D-02 0.163D+00 0.857D+00
 Coeff-En:   0.000D+00 0.000D+00 0.000D+00 0.000D+00 0.100D+01
 Coeff:      0.777D-01-0.104D+00 0.664D-02 0.163D+00 0.857D+00
 Gap=     0.099 Goal=   None    Shift=    0.000
 Gap=     0.178 Goal=   None    Shift=    0.000
 RMSDP=3.16D-05 MaxDP=2.12D-03 DE=-2.03D-04 OVMax= 3.86D-03

 Cycle   6  Pass 1  IDiag  1:
 RMSU=  2.24D-05    CP:  9.99D-01  3.00D+00  7.82D-01  9.84D-01  9.42D-01
 E= -604.548163020534     Delta-E=       -0.000010985486 Rises=F Damp=F
 DIIS: error= 1.90D-04 at cycle   6 NSaved=   6.
 NSaved= 6 IEnMin= 6 EnMin= -604.548163020534     IErMin= 6 ErrMin= 1.90D-04
 ErrMax= 1.90D-04  0.00D+00 EMaxC= 1.00D-01 BMatC= 1.27D-05 BMatP= 2.58D-05
 IDIUse=3 WtCom= 9.98D-01 WtEn= 1.90D-03
 Coeff-Com:  0.246D+00-0.327D+00-0.503D-01 0.240D-01 0.590D+00 0.518D+00
 Coeff-En:   0.000D+00 0.000D+00 0.000D+00 0.000D+00 0.000D+00 0.100D+01
 Coeff:      0.245D+00-0.327D+00-0.503D-01 0.239D-01 0.589D+00 0.519D+00
 Gap=     0.099 Goal=   None    Shift=    0.000
 Gap=     0.178 Goal=   None    Shift=    0.000
 RMSDP=1.48D-05 MaxDP=9.09D-04 DE=-1.10D-05 OVMax= 1.58D-03

 Cycle   7  Pass 1  IDiag  1:
 RMSU=  1.17D-05    CP:  9.99D-01  3.00D+00  7.96D-01  1.01D+00  1.04D+00
                    CP:  9.34D-01
 E= -604.548167646221     Delta-E=       -0.000004625687 Rises=F Damp=F
 DIIS: error= 3.96D-05 at cycle   7 NSaved=   7.
 NSaved= 7 IEnMin= 7 EnMin= -604.548167646221     IErMin= 7 ErrMin= 3.96D-05
 ErrMax= 3.96D-05  0.00D+00 EMaxC= 1.00D-01 BMatC= 6.03D-07 BMatP= 1.27D-05
 IDIUse=1 WtCom= 1.00D+00 WtEn= 0.00D+00
 Coeff-Com:  0.578D-01-0.769D-01-0.153D-01-0.182D-01 0.292D-01 0.174D+00
 Coeff-Com:  0.850D+00
 Coeff:      0.578D-01-0.769D-01-0.153D-01-0.182D-01 0.292D-01 0.174D+00
 Coeff:      0.850D+00
 Gap=     0.099 Goal=   None    Shift=    0.000
 Gap=     0.178 Goal=   None    Shift=    0.000
 RMSDP=5.30D-06 MaxDP=4.63D-04 DE=-4.63D-06 OVMax= 8.06D-04

 Cycle   8  Pass 1  IDiag  1:
 RMSU=  2.03D-06    CP:  9.99D-01  3.00D+00  8.01D-01  1.02D+00  1.06D+00
                    CP:  1.10D+00  1.09D+00
 E= -604.548168033158     Delta-E=       -0.000000386937 Rises=F Damp=F
 DIIS: error= 1.42D-05 at cycle   8 NSaved=   8.
 NSaved= 8 IEnMin= 8 EnMin= -604.548168033158     IErMin= 8 ErrMin= 1.42D-05
 ErrMax= 1.42D-05  0.00D+00 EMaxC= 1.00D-01 BMatC= 9.24D-08 BMatP= 6.03D-07
 IDIUse=1 WtCom= 1.00D+00 WtEn= 0.00D+00
 Coeff-Com: -0.122D-01 0.163D-01 0.134D-02-0.933D-02-0.633D-01-0.718D-02
 Coeff-Com:  0.294D+00 0.780D+00
 Coeff:     -0.122D-01 0.163D-01 0.134D-02-0.933D-02-0.633D-01-0.718D-02
 Coeff:      0.294D+00 0.780D+00
 Gap=     0.099 Goal=   None    Shift=    0.000
 Gap=     0.178 Goal=   None    Shift=    0.000
 RMSDP=1.76D-06 MaxDP=1.34D-04 DE=-3.87D-07 OVMax= 2.25D-04

 Cycle   9  Pass 1  IDiag  1:
 RMSU=  1.17D-06    CP:  9.99D-01  3.00D+00  8.02D-01  1.02D+00  1.06D+00
                    CP:  1.14D+00  1.16D+00  1.16D+00
 E= -604.548168087677     Delta-E=       -0.000000054519 Rises=F Damp=F
 DIIS: error= 1.09D-05 at cycle   9 NSaved=   9.
 NSaved= 9 IEnMin= 9 EnMin= -604.548168087677     IErMin= 9 ErrMin= 1.09D-05
 ErrMax= 1.09D-05  0.00D+00 EMaxC= 1.00D-01 BMatC= 2.83D-08 BMatP= 9.24D-08
 IDIUse=1 WtCom= 1.00D+00 WtEn= 0.00D+00
 Coeff-Com: -0.136D-01 0.181D-01 0.261D-02-0.222D-02-0.338D-01-0.295D-01
 Coeff-Com:  0.163D-01 0.365D+00 0.677D+00
 Coeff:     -0.136D-01 0.181D-01 0.261D-02-0.222D-02-0.338D-01-0.295D-01
 Coeff:      0.163D-01 0.365D+00 0.677D+00
 Gap=     0.099 Goal=   None    Shift=    0.000
 Gap=     0.178 Goal=   None    Shift=    0.000
 RMSDP=8.35D-07 MaxDP=3.75D-05 DE=-5.45D-08 OVMax= 8.72D-05

 Cycle  10  Pass 1  IDiag  1:
 RMSU=  5.59D-07    CP:  9.99D-01  3.00D+00  8.02D-01  1.02D+00  1.07D+00
                    CP:  1.15D+00  1.19D+00  1.39D+00  1.08D+00
 E= -604.548168106013     Delta-E=       -0.000000018336 Rises=F Damp=F
 DIIS: error= 7.28D-06 at cycle  10 NSaved=  10.
 NSaved=10 IEnMin=10 EnMin= -604.548168106013     IErMin=10 ErrMin= 7.28D-06
 ErrMax= 7.28D-06  0.00D+00 EMaxC= 1.00D-01 BMatC= 8.88D-09 BMatP= 2.83D-08
 IDIUse=1 WtCom= 1.00D+00 WtEn= 0.00D+00
 Coeff-Com: -0.303D-02 0.403D-02 0.882D-03 0.175D-02 0.261D-02-0.121D-01
 Coeff-Com: -0.796D-01-0.572D-01 0.321D+00 0.822D+00
 Coeff:     -0.303D-02 0.403D-02 0.882D-03 0.175D-02 0.261D-02-0.121D-01
 Coeff:     -0.796D-01-0.572D-01 0.321D+00 0.822D+00
 Gap=     0.099 Goal=   None    Shift=    0.000
 Gap=     0.178 Goal=   None    Shift=    0.000
 RMSDP=6.09D-07 MaxDP=1.68D-05 DE=-1.83D-08 OVMax= 7.38D-05

 Cycle  11  Pass 1  IDiag  1:
 RMSU=  3.03D-07    CP:  9.99D-01  3.00D+00  8.02D-01  1.02D+00  1.07D+00
                    CP:  1.15D+00  1.20D+00  1.53D+00  1.40D+00  1.30D+00
 E= -604.548168116201     Delta-E=       -0.000000010188 Rises=F Damp=F
 DIIS: error= 4.21D-06 at cycle  11 NSaved=  11.
 NSaved=11 IEnMin=11 EnMin= -604.548168116201     IErMin=11 ErrMin= 4.21D-06
 ErrMax= 4.21D-06  0.00D+00 EMaxC= 1.00D-01 BMatC= 2.36D-09 BMatP= 8.88D-09
 IDIUse=1 WtCom= 1.00D+00 WtEn= 0.00D+00
 Coeff-Com:  0.589D-02-0.785D-02-0.106D-02 0.136D-02 0.159D-01 0.122D-01
 Coeff-Com: -0.172D-01-0.172D+00-0.265D+00 0.794D-01 0.135D+01
 Coeff:      0.589D-02-0.785D-02-0.106D-02 0.136D-02 0.159D-01 0.122D-01
 Coeff:     -0.172D-01-0.172D+00-0.265D+00 0.794D-01 0.135D+01
 Gap=     0.099 Goal=   None    Shift=    0.000
 Gap=     0.178 Goal=   None    Shift=    0.000
 RMSDP=6.89D-07 MaxDP=2.01D-05 DE=-1.02D-08 OVMax= 8.16D-05

 Cycle  12  Pass 1  IDiag  1:
 RMSU=  1.97D-07    CP:  9.99D-01  3.00D+00  8.02D-01  1.02D+00  1.07D+00
                    CP:  1.15D+00  1.20D+00  1.67D+00  1.71D+00  1.92D+00
                    CP:  2.08D+00
 E= -604.548168122140     Delta-E=       -0.000000005940 Rises=F Damp=F
 DIIS: error= 1.80D-06 at cycle  12 NSaved=  12.
 NSaved=12 IEnMin=12 EnMin= -604.548168122140     IErMin=12 ErrMin= 1.80D-06
 ErrMax= 1.80D-06  0.00D+00 EMaxC= 1.00D-01 BMatC= 7.22D-10 BMatP= 2.36D-09
 IDIUse=1 WtCom= 1.00D+00 WtEn= 0.00D+00
 Coeff-Com:  0.340D-02-0.453D-02-0.700D-03 0.135D-03 0.621D-02 0.860D-02
 Coeff-Com:  0.137D-01-0.633D-01-0.207D+00-0.175D+00 0.615D+00 0.803D+00
 Coeff:      0.340D-02-0.453D-02-0.700D-03 0.135D-03 0.621D-02 0.860D-02
 Coeff:      0.137D-01-0.633D-01-0.207D+00-0.175D+00 0.615D+00 0.803D+00
 Gap=     0.099 Goal=   None    Shift=    0.000
 Gap=     0.178 Goal=   None    Shift=    0.000
 RMSDP=2.81D-07 MaxDP=9.00D-06 DE=-5.94D-09 OVMax= 3.33D-05

 Cycle  13  Pass 1  IDiag  1:
 RMSU=  6.60D-08    CP:  9.99D-01  3.00D+00  8.02D-01  1.02D+00  1.07D+00
                    CP:  1.15D+00  1.20D+00  1.72D+00  1.80D+00  2.21D+00
                    CP:  2.64D+00  1.13D+00
 E= -604.548168123113     Delta-E=       -0.000000000972 Rises=F Damp=F
 DIIS: error= 6.29D-07 at cycle  13 NSaved=  13.
 NSaved=13 IEnMin=13 EnMin= -604.548168123113     IErMin=13 ErrMin= 6.29D-07
 ErrMax= 6.29D-07  0.00D+00 EMaxC= 1.00D-01 BMatC= 1.36D-10 BMatP= 7.22D-10
 IDIUse=1 WtCom= 1.00D+00 WtEn= 0.00D+00
 Coeff-Com: -0.386D-03 0.517D-03 0.330D-04-0.379D-03-0.231D-02 0.135D-03
 Coeff-Com:  0.117D-01 0.227D-01-0.157D-01-0.989D-01-0.110D+00 0.338D+00
 Coeff-Com:  0.855D+00
 Coeff:     -0.386D-03 0.517D-03 0.330D-04-0.379D-03-0.231D-02 0.135D-03
 Coeff:      0.117D-01 0.227D-01-0.157D-01-0.989D-01-0.110D+00 0.338D+00
 Coeff:      0.855D+00
 Gap=     0.099 Goal=   None    Shift=    0.000
 Gap=     0.178 Goal=   None    Shift=    0.000
 RMSDP=1.15D-07 MaxDP=3.47D-06 DE=-9.72D-10 OVMax= 1.30D-05

 Cycle  14  Pass 1  IDiag  1:
 RMSU=  2.90D-08    CP:  9.99D-01  3.00D+00  8.02D-01  1.02D+00  1.07D+00
                    CP:  1.15D+00  1.20D+00  1.73D+00  1.83D+00  2.31D+00
                    CP:  2.89D+00  1.33D+00  1.02D+00
 E= -604.548168123233     Delta-E=       -0.000000000120 Rises=F Damp=F
 DIIS: error= 1.16D-07 at cycle  14 NSaved=  14.
 NSaved=14 IEnMin=14 EnMin= -604.548168123233     IErMin=14 ErrMin= 1.16D-07
 ErrMax= 1.16D-07  0.00D+00 EMaxC= 1.00D-01 BMatC= 7.69D-12 BMatP= 1.36D-10
 IDIUse=1 WtCom= 1.00D+00 WtEn= 0.00D+00
 Coeff-Com: -0.339D-03 0.451D-03 0.584D-04-0.894D-04-0.879D-03-0.589D-03
 Coeff-Com:  0.738D-03 0.934D-02 0.145D-01-0.179D-02-0.718D-01-0.113D-01
 Coeff-Com:  0.146D+00 0.915D+00
 Coeff:     -0.339D-03 0.451D-03 0.584D-04-0.894D-04-0.879D-03-0.589D-03
 Coeff:      0.738D-03 0.934D-02 0.145D-01-0.179D-02-0.718D-01-0.113D-01
 Coeff:      0.146D+00 0.915D+00
 Gap=     0.099 Goal=   None    Shift=    0.000
 Gap=     0.178 Goal=   None    Shift=    0.000
 RMSDP=2.16D-08 MaxDP=6.98D-07 DE=-1.20D-10 OVMax= 1.91D-06

 Cycle  15  Pass 1  IDiag  1:
 RMSU=  1.19D-08    CP:  9.99D-01  3.00D+00  8.02D-01  1.02D+00  1.07D+00
                    CP:  1.15D+00  1.20D+00  1.73D+00  1.83D+00  2.32D+00
                    CP:  2.93D+00  1.37D+00  1.12D+00  1.05D+00
 E= -604.548168123221     Delta-E=        0.000000000012 Rises=F Damp=F
 DIIS: error= 6.69D-08 at cycle  15 NSaved=  15.
 NSaved=15 IEnMin=14 EnMin= -604.548168123233     IErMin=15 ErrMin= 6.69D-08
 ErrMax= 6.69D-08  0.00D+00 EMaxC= 1.00D-01 BMatC= 2.50D-12 BMatP= 7.69D-12
 IDIUse=1 WtCom= 1.00D+00 WtEn= 0.00D+00
 Coeff-Com: -0.643D-04 0.855D-04 0.165D-04 0.296D-04 0.556D-04-0.251D-03
 Coeff-Com: -0.176D-02-0.180D-03 0.816D-02 0.158D-01-0.801D-02-0.595D-01
 Coeff-Com: -0.914D-01 0.325D+00 0.812D+00
 Coeff:     -0.643D-04 0.855D-04 0.165D-04 0.296D-04 0.556D-04-0.251D-03
 Coeff:     -0.176D-02-0.180D-03 0.816D-02 0.158D-01-0.801D-02-0.595D-01
 Coeff:     -0.914D-01 0.325D+00 0.812D+00
 Gap=     0.099 Goal=   None    Shift=    0.000
 Gap=     0.178 Goal=   None    Shift=    0.000
 RMSDP=7.55D-09 MaxDP=3.41D-07 DE= 1.16D-11 OVMax= 9.09D-07

 SCF Done:  E(UPBE1PBE) =  -604.548168123     A.U. after   15 cycles
            NFock= 15  Conv=0.75D-08     -V/T= 2.1869
 <Sx>= 0.0000 <Sy>= 0.0000 <Sz>= 0.5000 <S**2>= 0.7516 S= 0.5008
 <L.S>= 0.000000000000E+00
 KE= 5.093581897362D+02 PE=-2.743139964595D+03 EE= 9.464693302691D+02
 Annihilation of the first spin contaminant:
 S**2 before annihilation     0.7516,   after     0.7500
 Leave Link  502 at Fri Sep 11 21:09:44 2026, MaxMem=  6442450944 cpu:             145.0 elap:             144.5
 (Enter C:\G16W\l508.exe)
 QCSCF skips out because SCF is already converged.
 Leave Link  508 at Fri Sep 11 21:09:44 2026, MaxMem=  6442450944 cpu:               0.0 elap:               0.1
 (Enter C:\G16W\l601.exe)
 Copying SCF densities to generalized density rwf, IOpCl= 1 IROHF=0.

 **********************************************************************

            Population analysis using the SCF Density.

 **********************************************************************

 Alpha  occ. eigenvalues --  -14.44350 -14.39718 -10.30414 -10.28854 -10.28848
 Alpha  occ. eigenvalues --  -10.28048 -10.27222 -10.26578 -10.26577 -10.25272
 Alpha  occ. eigenvalues --  -10.25271  -3.71794  -2.29815  -2.29810  -2.29647
 Alpha  occ. eigenvalues --   -1.00468  -0.93735  -0.89800  -0.80793  -0.79748
 Alpha  occ. eigenvalues --   -0.76607  -0.72289  -0.64890  -0.63582  -0.59030
 Alpha  occ. eigenvalues --   -0.55453  -0.53385  -0.51084  -0.48693  -0.47224
 Alpha  occ. eigenvalues --   -0.46344  -0.44637  -0.44487  -0.42939  -0.42724
 Alpha  occ. eigenvalues --   -0.41820  -0.40471  -0.38401  -0.38217  -0.35595
 Alpha  occ. eigenvalues --   -0.32129  -0.29401  -0.29347  -0.29346  -0.29169
 Alpha  occ. eigenvalues --   -0.29156  -0.28394  -0.23123  -0.14030
 Alpha virt. eigenvalues --   -0.04114  -0.02425   0.01190   0.01999   0.04385
 Alpha virt. eigenvalues --    0.04670   0.05205   0.07327   0.08006   0.08233
 Alpha virt. eigenvalues --    0.09056   0.11310   0.11883   0.13100   0.13179
 Alpha virt. eigenvalues --    0.13881   0.14175   0.15516   0.17605   0.17766
 Alpha virt. eigenvalues --    0.20702   0.22393   0.24090   0.27525   0.28467
 Alpha virt. eigenvalues --    0.29861   0.30665   0.32566   0.34819   0.36001
 Alpha virt. eigenvalues --    0.36204   0.37465   0.38052   0.40354   0.42443
 Alpha virt. eigenvalues --    0.42933   0.44564   0.45443   0.45807   0.47657
 Alpha virt. eigenvalues --    0.48105   0.48908   0.48928   0.49104   0.49377
 Alpha virt. eigenvalues --    0.50237   0.52186   0.53352   0.54552   0.57781
 Alpha virt. eigenvalues --    0.60454   0.61400   0.61797   0.62187   0.62562
 Alpha virt. eigenvalues --    0.63143   0.63825   0.63845   0.65525   0.66409
 Alpha virt. eigenvalues --    0.66988   0.67884   0.68443   0.69176   0.69266
 Alpha virt. eigenvalues --    0.69735   0.71984   0.72438   0.73728   0.74653
 Alpha virt. eigenvalues --    0.76115   0.81608   0.82802   0.86638   0.88004
 Alpha virt. eigenvalues --    0.88097   0.92263   0.94339   0.95696   0.98871
 Alpha virt. eigenvalues --    1.02824   1.04459   1.08879   1.09901   1.11132
 Alpha virt. eigenvalues --    1.11696   1.16371   1.19463   1.21949   1.22033
 Alpha virt. eigenvalues --    1.23481   1.25789   1.27846   1.28245   1.28346
 Alpha virt. eigenvalues --    1.32373   1.33445   1.36472   1.47313   1.49536
 Alpha virt. eigenvalues --    1.50872   1.51402   1.52422   1.52677   1.58302
 Alpha virt. eigenvalues --    1.61272   1.66844   1.67343   1.69992   1.72363
 Alpha virt. eigenvalues --    1.72840   1.72994   1.73353   1.75918   1.76417
 Alpha virt. eigenvalues --    1.78319   1.79578   1.80933   1.81821   1.82078
 Alpha virt. eigenvalues --    1.85529   1.89776   1.89890   1.92451   1.92568
 Alpha virt. eigenvalues --    1.94059   1.95276   1.96236   1.97872   2.00881
 Alpha virt. eigenvalues --    2.05691   2.07882   2.09177   2.10420   2.15490
 Alpha virt. eigenvalues --    2.16031   2.16514   2.19236   2.20971   2.23041
 Alpha virt. eigenvalues --    2.24881   2.26498   2.29136   2.30557   2.30632
 Alpha virt. eigenvalues --    2.35246   2.37271   2.37520   2.38116   2.44361
 Alpha virt. eigenvalues --    2.44556   2.45702   2.58384   2.60626   2.62491
 Alpha virt. eigenvalues --    2.63143   2.65438   2.65589   2.65611   2.65614
 Alpha virt. eigenvalues --    2.65661   2.65662   2.65791   2.66524   2.67037
 Alpha virt. eigenvalues --    2.70908   2.76098   2.76919   2.80530   2.86776
 Alpha virt. eigenvalues --    2.88864   2.89824   2.91913   2.92009   2.93248
 Alpha virt. eigenvalues --    2.97513   3.02856   3.03659   3.04681   3.17630
 Alpha virt. eigenvalues --    3.21102   3.26846   3.44026   3.50878   3.73117
 Alpha virt. eigenvalues --   53.84200
  Beta  occ. eigenvalues --  -14.44347 -14.39590 -10.30410 -10.28854 -10.28848
  Beta  occ. eigenvalues --  -10.28029 -10.27222 -10.26575 -10.26573 -10.25275
  Beta  occ. eigenvalues --  -10.25273  -3.71677  -2.29759  -2.29755  -2.29641
  Beta  occ. eigenvalues --   -1.00464  -0.93653  -0.89784  -0.80783  -0.79746
  Beta  occ. eigenvalues --   -0.76606  -0.72282  -0.64889  -0.63569  -0.59023
  Beta  occ. eigenvalues --   -0.55443  -0.53384  -0.51078  -0.48691  -0.47223
  Beta  occ. eigenvalues --   -0.46343  -0.44636  -0.44457  -0.42885  -0.42638
  Beta  occ. eigenvalues --   -0.41820  -0.40014  -0.38381  -0.38138  -0.35520
  Beta  occ. eigenvalues --   -0.32065  -0.29391  -0.28783  -0.28782  -0.28544
  Beta  occ. eigenvalues --   -0.28538  -0.27703  -0.23091
  Beta virt. eigenvalues --   -0.05302  -0.03754  -0.02414   0.02889   0.04512
  Beta virt. eigenvalues --    0.04825   0.05948   0.06411   0.07653   0.08011
  Beta virt. eigenvalues --    0.08786   0.09472   0.11351   0.13046   0.13180
  Beta virt. eigenvalues --    0.13234   0.14178   0.14458   0.16099   0.17629
  Beta virt. eigenvalues --    0.18001   0.20946   0.22394   0.24196   0.27553
  Beta virt. eigenvalues --    0.28523   0.29882   0.30698   0.32620   0.35594
  Beta virt. eigenvalues --    0.38041   0.38481   0.38793   0.39585   0.40404
  Beta virt. eigenvalues --    0.42612   0.43067   0.44614   0.45818   0.45933
  Beta virt. eigenvalues --    0.47669   0.49040   0.49389   0.50236   0.50599
  Beta virt. eigenvalues --    0.51160   0.51172   0.52850   0.53764   0.54563
  Beta virt. eigenvalues --    0.59306   0.60551   0.61412   0.61799   0.62273
  Beta virt. eigenvalues --    0.62566   0.63186   0.63846   0.64291   0.65532
  Beta virt. eigenvalues --    0.66423   0.67041   0.67907   0.68520   0.69270
  Beta virt. eigenvalues --    0.69319   0.69735   0.72000   0.72442   0.73738
  Beta virt. eigenvalues --    0.74659   0.76132   0.81612   0.82807   0.86675
  Beta virt. eigenvalues --    0.88041   0.88127   0.92571   0.94396   0.95728
  Beta virt. eigenvalues --    0.99023   1.02996   1.04494   1.08935   1.09901
  Beta virt. eigenvalues --    1.11136   1.11957   1.16460   1.19511   1.21953
  Beta virt. eigenvalues --    1.22155   1.23484   1.25793   1.27848   1.28277
  Beta virt. eigenvalues --    1.28349   1.32375   1.33460   1.36573   1.47315
  Beta virt. eigenvalues --    1.49539   1.50873   1.51403   1.52428   1.52679
  Beta virt. eigenvalues --    1.58333   1.61318   1.66847   1.67359   1.69994
  Beta virt. eigenvalues --    1.72366   1.72848   1.72998   1.73364   1.75922
  Beta virt. eigenvalues --    1.76420   1.78331   1.79583   1.80981   1.81829
  Beta virt. eigenvalues --    1.82080   1.85543   1.89786   1.89897   1.92466
  Beta virt. eigenvalues --    1.92575   1.94063   1.95277   1.96312   1.97874
  Beta virt. eigenvalues --    2.00882   2.05705   2.09112   2.09183   2.10433
  Beta virt. eigenvalues --    2.15496   2.16035   2.16515   2.19266   2.20996
  Beta virt. eigenvalues --    2.23045   2.24954   2.26514   2.29284   2.30568
  Beta virt. eigenvalues --    2.30696   2.35257   2.37285   2.37536   2.38126
  Beta virt. eigenvalues --    2.44363   2.44579   2.45702   2.58407   2.60633
  Beta virt. eigenvalues --    2.62496   2.63149   2.65451   2.65600   2.65602
  Beta virt. eigenvalues --    2.65657   2.65692   2.65693   2.65871   2.66543
  Beta virt. eigenvalues --    2.67143   2.70942   2.76102   2.76921   2.80532
  Beta virt. eigenvalues --    2.86803   2.88881   2.89832   2.91914   2.92028
  Beta virt. eigenvalues --    2.93254   2.97516   3.02884   3.03730   3.04826
  Beta virt. eigenvalues --    3.17632   3.21126   3.26893   3.44036   3.50982
  Beta virt. eigenvalues --    3.73150  53.84352
          Condensed to atoms (all electrons):
               1          2          3          4          5          6
     1  N    6.231410   0.795196  -0.038116  -0.001834   0.000051   0.000028
     2  C    0.795196   5.066120   0.334735  -0.087262   0.014780   0.003102
     3  C   -0.038116   0.334735   5.412320   0.272409   0.088584  -0.171724
     4  C   -0.001834  -0.087262   0.272409   4.967205   0.322321   0.118069
     5  C    0.000051   0.014780   0.088584   0.322321   5.177478   0.217154
     6  C    0.000028   0.003102  -0.171724   0.118069   0.217154   5.142944
     7  N    0.000000   0.000024  -0.000287   0.007381  -0.095538   0.398805
     8  C    0.000000  -0.000001   0.000037  -0.000156   0.007947  -0.061224
     9  C    0.000000  -0.000001   0.000037   0.000973   0.003076  -0.061222
    10  C    0.000050   0.014760   0.088589  -0.143317   0.074273   0.217160
    11  C   -0.001839  -0.087166   0.272330   0.090577  -0.143302   0.118075
    12  H   -0.000385  -0.022535  -0.064249   0.458795  -0.063025   0.015822
    13  H   -0.000003  -0.000529   0.017249  -0.067521   0.462822  -0.082100
    14  H    0.000000   0.000000   0.000005   0.000010  -0.000154   0.007520
    15  H    0.000000   0.000001  -0.000082   0.000012  -0.000256  -0.011735
    16  H    0.000000   0.000001  -0.000080   0.000011  -0.000246  -0.011664
    17  H    0.000000   0.000001  -0.000082   0.001089   0.005905  -0.011735
    18  H    0.000000   0.000000   0.000005  -0.000077   0.000581   0.007519
    19  H    0.000000   0.000001  -0.000080   0.001063   0.005884  -0.011662
    20  H   -0.000003  -0.000530   0.017249  -0.001995   0.015050  -0.082099
    21  H   -0.000384  -0.022542  -0.064260   0.014088  -0.001917   0.015820
    22  Ag   0.043136  -0.007989   0.000507  -0.000168   0.000058   0.000011
               7          8          9         10         11         12
     1  N    0.000000   0.000000   0.000000   0.000050  -0.001839  -0.000385
     2  C    0.000024  -0.000001  -0.000001   0.014760  -0.087166  -0.022535
     3  C   -0.000287   0.000037   0.000037   0.088589   0.272330  -0.064249
     4  C    0.007381  -0.000156   0.000973  -0.143317   0.090577   0.458795
     5  C   -0.095538   0.007947   0.003076   0.074273  -0.143302  -0.063025
     6  C    0.398805  -0.061224  -0.061222   0.217160   0.118075   0.015822
     7  N    6.671805   0.350562   0.350564  -0.095543   0.007381  -0.000094
     8  C    0.350562   4.464802  -0.049913   0.003079   0.000974   0.000008
     9  C    0.350564  -0.049913   4.464811   0.007948  -0.000156  -0.000046
    10  C   -0.095543   0.003079   0.007948   5.177430   0.322355  -0.001916
    11  C    0.007381   0.000974  -0.000156   0.322355   4.967216   0.014088
    12  H   -0.000094   0.000008  -0.000046  -0.001916   0.014088   0.655021
    13  H   -0.016395  -0.000001   0.012406   0.015050  -0.001995  -0.013741
    14  H   -0.019595   0.399224  -0.012870   0.000581  -0.000077   0.000000
    15  H   -0.029578   0.400569   0.003494   0.005905   0.001089   0.000000
    16  H   -0.029733   0.400506   0.003472   0.005884   0.001064   0.000000
    17  H   -0.029579   0.003493   0.400566  -0.000255   0.000012   0.000011
    18  H   -0.019594  -0.012869   0.399225  -0.000154   0.000010   0.000000
    19  H   -0.029737   0.003472   0.400506  -0.000246   0.000011   0.000013
    20  H   -0.016396   0.012406  -0.000001   0.462832  -0.067528   0.000023
    21  H   -0.000094  -0.000046   0.000008  -0.063023   0.458808  -0.000213
    22  Ag   0.000000   0.000000   0.000000   0.000058  -0.000170   0.000016
              13         14         15         16         17         18
     1  N   -0.000003   0.000000   0.000000   0.000000   0.000000   0.000000
     2  C   -0.000529   0.000000   0.000001   0.000001   0.000001   0.000000
     3  C    0.017249   0.000005  -0.000082  -0.000080  -0.000082   0.000005
     4  C   -0.067521   0.000010   0.000012   0.000011   0.001089  -0.000077
     5  C    0.462822  -0.000154  -0.000256  -0.000246   0.005905   0.000581
     6  C   -0.082100   0.007520  -0.011735  -0.011664  -0.011735   0.007519
     7  N   -0.016395  -0.019595  -0.029578  -0.029733  -0.029579  -0.019594
     8  C   -0.000001   0.399224   0.400569   0.400506   0.003493  -0.012869
     9  C    0.012406  -0.012870   0.003494   0.003472   0.400566   0.399225
    10  C    0.015050   0.000581   0.005905   0.005884  -0.000255  -0.000154
    11  C   -0.001995  -0.000077   0.001089   0.001064   0.000012   0.000010
    12  H   -0.013741   0.000000   0.000000   0.000000   0.000011   0.000000
    13  H    0.673926  -0.000004  -0.000022  -0.000021  -0.001792   0.000089
    14  H   -0.000004   0.609758  -0.020654  -0.020772   0.000349   0.004931
    15  H   -0.000022  -0.020654   0.636663  -0.041865   0.001321   0.000349
    16  H   -0.000021  -0.020772  -0.041865   0.637285  -0.000924   0.000333
    17  H   -0.001792   0.000349   0.001321  -0.000924   0.636672  -0.020653
    18  H    0.000089   0.004931   0.000349   0.000333  -0.020653   0.609752
    19  H   -0.001746   0.000334  -0.000924   0.001342  -0.041868  -0.020772
    20  H   -0.000183   0.000089  -0.001793  -0.001746  -0.000022  -0.000004
    21  H    0.000023   0.000000   0.000011   0.000013   0.000000   0.000000
    22  Ag  -0.000004   0.000000   0.000000   0.000000   0.000000   0.000000
              19         20         21         22
     1  N    0.000000  -0.000003  -0.000384   0.043136
     2  C    0.000001  -0.000530  -0.022542  -0.007989
     3  C   -0.000080   0.017249  -0.064260   0.000507
     4  C    0.001063  -0.001995   0.014088  -0.000168
     5  C    0.005884   0.015050  -0.001917   0.000058
     6  C   -0.011662  -0.082099   0.015820   0.000011
     7  N   -0.029737  -0.016396  -0.000094   0.000000
     8  C    0.003472   0.012406  -0.000046   0.000000
     9  C    0.400506  -0.000001   0.000008   0.000000
    10  C   -0.000246   0.462832  -0.063023   0.000058
    11  C    0.000011  -0.067528   0.458808  -0.000170
    12  H    0.000013   0.000023  -0.000213   0.000016
    13  H   -0.001746  -0.000183   0.000023  -0.000004
    14  H    0.000334   0.000089   0.000000   0.000000
    15  H   -0.000924  -0.001793   0.000011   0.000000
    16  H    0.001342  -0.001746   0.000013   0.000000
    17  H   -0.041868  -0.000022   0.000000   0.000000
    18  H   -0.020772  -0.000004   0.000000   0.000000
    19  H    0.637294  -0.000021   0.000000   0.000000
    20  H   -0.000021   0.673912  -0.013738  -0.000004
    21  H    0.000000  -0.013738   0.654969   0.000021
    22  Ag   0.000000  -0.000004   0.000021  19.064308
          Atomic-Atomic Spin Densities.
               1          2          3          4          5          6
     1  N    0.082298  -0.013658   0.000568  -0.000015   0.000002   0.000000
     2  C   -0.013658   0.013354   0.000573  -0.000357  -0.000004  -0.000002
     3  C    0.000568   0.000573  -0.000796  -0.000464   0.000183  -0.000009
     4  C   -0.000015  -0.000357  -0.000464   0.003522  -0.000220  -0.000124
     5  C    0.000002  -0.000004   0.000183  -0.000220  -0.001660   0.000185
     6  C    0.000000  -0.000002  -0.000009  -0.000124   0.000185   0.002865
     7  N    0.000000   0.000000  -0.000001   0.000007   0.000000  -0.000639
     8  C    0.000000   0.000000   0.000000   0.000000  -0.000002  -0.000035
     9  C    0.000000   0.000000   0.000000   0.000001   0.000007  -0.000035
    10  C    0.000002  -0.000004   0.000191  -0.000074   0.000037   0.000186
    11  C   -0.000020  -0.000341  -0.000509   0.000274  -0.000075  -0.000124
    12  H   -0.000041   0.000070  -0.000115   0.000036  -0.000073  -0.000001
    13  H    0.000000   0.000001  -0.000004  -0.000014  -0.000008   0.000005
    14  H    0.000000   0.000000   0.000000   0.000000   0.000000   0.000001
    15  H    0.000000   0.000000   0.000000  -0.000001   0.000001   0.000035
    16  H    0.000000   0.000000   0.000000   0.000000   0.000000   0.000023
    17  H    0.000000   0.000000   0.000000  -0.000004   0.000001   0.000035
    18  H    0.000000   0.000000   0.000000   0.000000   0.000000   0.000001
    19  H    0.000000   0.000000   0.000000   0.000000   0.000003   0.000023
    20  H    0.000000   0.000001  -0.000004   0.000002   0.000000   0.000005
    21  H   -0.000041   0.000062  -0.000119   0.000017  -0.000005  -0.000001
    22  Ag  -0.052442   0.003733  -0.000679   0.000043  -0.000006  -0.000001
               7          8          9         10         11         12
     1  N    0.000000   0.000000   0.000000   0.000002  -0.000020  -0.000041
     2  C    0.000000   0.000000   0.000000  -0.000004  -0.000341   0.000070
     3  C   -0.000001   0.000000   0.000000   0.000191  -0.000509  -0.000115
     4  C    0.000007   0.000000   0.000001  -0.000074   0.000274   0.000036
     5  C    0.000000  -0.000002   0.000007   0.000037  -0.000075  -0.000073
     6  C   -0.000639  -0.000035  -0.000035   0.000186  -0.000124  -0.000001
     7  N    0.001397   0.000075   0.000075   0.000000   0.000007   0.000000
     8  C    0.000075  -0.000066   0.000004   0.000007   0.000001   0.000000
     9  C    0.000075   0.000004  -0.000066  -0.000002   0.000000   0.000000
    10  C    0.000000   0.000007  -0.000002  -0.001634  -0.000244  -0.000006
    11  C    0.000007   0.000001   0.000000  -0.000244   0.003573   0.000019
    12  H    0.000000   0.000000   0.000000  -0.000006   0.000019   0.000007
    13  H   -0.000001   0.000000   0.000002   0.000000   0.000002   0.000010
    14  H   -0.000001   0.000002   0.000001   0.000000   0.000000   0.000000
    15  H   -0.000044  -0.000021  -0.000002   0.000002  -0.000004   0.000000
    16  H   -0.000042  -0.000047  -0.000003   0.000002   0.000000   0.000000
    17  H   -0.000044  -0.000002  -0.000022   0.000001  -0.000001  -0.000001
    18  H   -0.000001   0.000001   0.000003   0.000000   0.000000   0.000000
    19  H   -0.000042  -0.000003  -0.000046   0.000000   0.000000   0.000001
    20  H   -0.000001   0.000002   0.000000  -0.000011  -0.000012   0.000000
    21  H    0.000000   0.000000   0.000000  -0.000078   0.000049   0.000002
    22  Ag   0.000000   0.000000   0.000000  -0.000006   0.000048   0.000055
              13         14         15         16         17         18
     1  N    0.000000   0.000000   0.000000   0.000000   0.000000   0.000000
     2  C    0.000001   0.000000   0.000000   0.000000   0.000000   0.000000
     3  C   -0.000004   0.000000   0.000000   0.000000   0.000000   0.000000
     4  C   -0.000014   0.000000  -0.000001   0.000000  -0.000004   0.000000
     5  C   -0.000008   0.000000   0.000001   0.000000   0.000001   0.000000
     6  C    0.000005   0.000001   0.000035   0.000023   0.000035   0.000001
     7  N   -0.000001  -0.000001  -0.000044  -0.000042  -0.000044  -0.000001
     8  C    0.000000   0.000002  -0.000021  -0.000047  -0.000002   0.000001
     9  C    0.000002   0.000001  -0.000002  -0.000003  -0.000022   0.000003
    10  C    0.000000   0.000000   0.000002   0.000002   0.000001   0.000000
    11  C    0.000002   0.000000  -0.000004   0.000000  -0.000001   0.000000
    12  H    0.000010   0.000000   0.000000   0.000000  -0.000001   0.000000
    13  H    0.000069   0.000000   0.000000   0.000000  -0.000011   0.000000
    14  H    0.000000   0.000000  -0.000006   0.000005  -0.000001   0.000000
    15  H    0.000000  -0.000006   0.000200  -0.000068   0.000005  -0.000001
    16  H    0.000000   0.000005  -0.000068   0.000200  -0.000003   0.000001
    17  H   -0.000011  -0.000001   0.000005  -0.000003   0.000199  -0.000006
    18  H    0.000000   0.000000  -0.000001   0.000001  -0.000006   0.000000
    19  H    0.000010   0.000001  -0.000003   0.000005  -0.000068   0.000004
    20  H    0.000000   0.000000  -0.000012   0.000011   0.000000   0.000000
    21  H    0.000000   0.000000  -0.000001   0.000001   0.000000   0.000000
    22  Ag   0.000000   0.000000   0.000000   0.000000   0.000000   0.000000
              19         20         21         22
     1  N    0.000000   0.000000  -0.000041  -0.052442
     2  C    0.000000   0.000001   0.000062   0.003733
     3  C    0.000000  -0.000004  -0.000119  -0.000679
     4  C    0.000000   0.000002   0.000017   0.000043
     5  C    0.000003   0.000000  -0.000005  -0.000006
     6  C    0.000023   0.000005  -0.000001  -0.000001
     7  N   -0.000042  -0.000001   0.000000   0.000000
     8  C   -0.000003   0.000002   0.000000   0.000000
     9  C   -0.000046   0.000000   0.000000   0.000000
    10  C    0.000000  -0.000011  -0.000078  -0.000006
    11  C    0.000000  -0.000012   0.000049   0.000048
    12  H    0.000001   0.000000   0.000002   0.000055
    13  H    0.000010   0.000000   0.000000   0.000000
    14  H    0.000001   0.000000   0.000000   0.000000
    15  H   -0.000003  -0.000012  -0.000001   0.000000
    16  H    0.000005   0.000011   0.000001   0.000000
    17  H   -0.000068   0.000000   0.000000   0.000000
    18  H    0.000004   0.000000   0.000000   0.000000
    19  H    0.000200   0.000000   0.000000   0.000000
    20  H    0.000000   0.000072   0.000011   0.000000
    21  H    0.000000   0.000011   0.000010   0.000058
    22  Ag   0.000000   0.000000   0.000058   1.024940
 Mulliken charges and spin densities:
               1          2
     1  N   -0.027307   0.016653
     2  C   -0.000167   0.003429
     3  C   -0.165098  -0.001184
     4  C    0.048328   0.002630
     5  C   -0.091528  -0.001636
     6  C    0.243136   0.002394
     7  N   -0.404361   0.000746
     8  C    0.077130  -0.000085
     9  C    0.077122  -0.000085
    10  C   -0.091499  -0.001633
    11  C    0.048243   0.002644
    12  H    0.022406  -0.000036
    13  H    0.004493   0.000062
    14  H    0.051327   0.000001
    15  H    0.057496   0.000079
    16  H    0.057142   0.000085
    17  H    0.057491   0.000079
    18  H    0.051329   0.000001
    19  H    0.057138   0.000085
    20  H    0.004502   0.000063
    21  H    0.022457  -0.000036
    22  Ag  -0.099780   0.975743
 Sum of Mulliken charges =   0.00000   1.00000
 Mulliken charges and spin densities with hydrogens summed into heavy atoms:
               1          2
     1  N   -0.027307   0.016653
     2  C   -0.000167   0.003429
     3  C   -0.165098  -0.001184
     4  C    0.070735   0.002594
     5  C   -0.087035  -0.001574
     6  C    0.243136   0.002394
     7  N   -0.404361   0.000746
     8  C    0.243095   0.000080
     9  C    0.243081   0.000080
    10  C   -0.086997  -0.001570
    11  C    0.070699   0.002608
    22  Ag  -0.099780   0.975743
 Electronic spatial extent (au):  <R**2>=           6285.5625
 Charge=              0.0000 electrons
 Dipole moment (field-independent basis, Debye):
    X=            -10.8223    Y=             -0.0812    Z=              0.3751  Tot=             10.8291
 Quadrupole moment (field-independent basis, Debye-Ang):
   XX=           -147.4524   YY=            -83.0638   ZZ=            -84.0782
   XY=             -3.1781   XZ=              5.1565   YZ=              5.8319
 Traceless Quadrupole moment (field-independent basis, Debye-Ang):
   XX=            -42.5876   YY=             21.8010   ZZ=             20.7866
   XY=             -3.1781   XZ=              5.1565   YZ=              5.8319
 Octapole moment (field-independent basis, Debye-Ang**2):
  XXX=          -1215.5779  YYY=             -7.4761  ZZZ=             24.8266  XYY=           -211.8458
  XXY=            -26.8776  XXZ=             49.1955  XZZ=           -214.2749  YZZ=             -2.3598
  YYZ=              7.7966  XYZ=              7.5433
 Hexadecapole moment (field-independent basis, Debye-Ang**3):
 XXXX=         -14512.1984 YYYY=           -343.2150 ZZZZ=           -331.2873 XXXY=           -296.2520
 XXXZ=            555.2681 YYYX=            -55.5818 YYYZ=            -76.9751 ZZZX=            185.4451
 ZZZY=            -78.8286 XXYY=          -1728.4061 XXZZ=          -1746.5654 YYZZ=           -104.5840
 XXYZ=             22.0507 YYXZ=             59.1703 ZZXY=            -17.8637
 N-N= 6.827642764662D+02 E-N=-2.743139974109D+03  KE= 5.093581897362D+02
                          Isotropic Fermi Contact Couplings
        Atom                 a.u.       MegaHertz       Gauss      10(-4) cm-1
     1  N(14)              0.13709      44.29591      15.80588      14.77553
     2  C(13)              0.01088      12.22703       4.36291       4.07850
     3  C(13)              0.00091       1.01827       0.36334       0.33966
     4  C(13)              0.00022       0.24878       0.08877       0.08298
     5  C(13)             -0.00038      -0.42834      -0.15284      -0.14288
     6  C(13)              0.00044       0.48935       0.17461       0.16323
     7  N(14)              0.00028       0.08995       0.03210       0.03000
     8  C(13)             -0.00006      -0.06384      -0.02278      -0.02129
     9  C(13)             -0.00006      -0.06397      -0.02283      -0.02134
    10  C(13)             -0.00038      -0.42231      -0.15069      -0.14087
    11  C(13)              0.00023       0.25368       0.09052       0.08462
    12  H(1)              -0.00004      -0.16761      -0.05981      -0.05591
    13  H(1)               0.00002       0.07657       0.02732       0.02554
    14  H(1)               0.00000       0.00057       0.00020       0.00019
    15  H(1)               0.00002       0.10479       0.03739       0.03495
    16  H(1)               0.00002       0.08630       0.03079       0.02879
    17  H(1)               0.00002       0.10406       0.03713       0.03471
    18  H(1)               0.00000       0.00049       0.00017       0.00016
    19  H(1)               0.00002       0.08709       0.03108       0.02905
    20  H(1)               0.00002       0.07887       0.02814       0.02631
    21  H(1)              -0.00004      -0.16782      -0.05988      -0.05598
    22  Ag(107             0.00030      -0.05533      -0.01974      -0.01846
 --------------------------------------------------------
       Center         ----  Spin Dipole Couplings  ----
                      3XX-RR        3YY-RR        3ZZ-RR
 --------------------------------------------------------
     1   Atom        0.042841     -0.021064     -0.021777
     2   Atom        0.005729     -0.002901     -0.002828
     3   Atom        0.004073     -0.001976     -0.002097
     4   Atom       -0.000188      0.000494     -0.000305
     5   Atom        0.001288     -0.000558     -0.000729
     6   Atom       -0.000584      0.000156      0.000429
     7   Atom       -0.000832      0.000277      0.000555
     8   Atom        0.000270     -0.000129     -0.000140
     9   Atom        0.000275     -0.000138     -0.000137
    10   Atom        0.001287     -0.000599     -0.000688
    11   Atom       -0.000203     -0.000654      0.000857
    12   Atom        0.000992     -0.000417     -0.000575
    13   Atom        0.000530     -0.000248     -0.000282
    14   Atom        0.000219     -0.000108     -0.000111
    15   Atom        0.000262     -0.000112     -0.000150
    16   Atom        0.000245     -0.000141     -0.000104
    17   Atom        0.000269     -0.000149     -0.000119
    18   Atom        0.000223     -0.000112     -0.000111
    19   Atom        0.000251     -0.000106     -0.000145
    20   Atom        0.000522     -0.000274     -0.000248
    21   Atom        0.000963     -0.000548     -0.000415
    22   Atom       -0.024664      0.012783      0.011881
 --------------------------------------------------------
                        XY            XZ            YZ
 --------------------------------------------------------
     1   Atom       -0.010964      0.009554      0.003477
     2   Atom       -0.006922      0.006520     -0.010670
     3   Atom        0.000451     -0.000626      0.001112
     4   Atom        0.000625     -0.000248     -0.001955
     5   Atom        0.000042      0.000098      0.000890
     6   Atom        0.000302     -0.000348     -0.001821
     7   Atom        0.000236     -0.000269     -0.001822
     8   Atom       -0.000058     -0.000071      0.000036
     9   Atom        0.000065      0.000044      0.000033
    10   Atom       -0.000124     -0.000062      0.000895
    11   Atom        0.000178     -0.000713     -0.001849
    12   Atom        0.000602      0.000210      0.000171
    13   Atom        0.000136      0.000058      0.000034
    14   Atom       -0.000038     -0.000045      0.000007
    15   Atom       -0.000093     -0.000052      0.000023
    16   Atom       -0.000032     -0.000110      0.000024
    17   Atom        0.000049      0.000081      0.000021
    18   Atom        0.000039      0.000027      0.000005
    19   Atom        0.000103      0.000015      0.000018
    20   Atom       -0.000087     -0.000150      0.000042
    21   Atom       -0.000282     -0.000617      0.000201
    22   Atom       -0.012391      0.013750      0.004358
 --------------------------------------------------------


 ---------------------------------------------------------------------------------
              Anisotropic Spin Dipole Couplings in Principal Axis System
 ---------------------------------------------------------------------------------

       Atom             a.u.   MegaHertz   Gauss  10(-4) cm-1        Axes

              Baa    -0.0279    -1.075    -0.384    -0.359 -0.2007 -0.6820  0.7033
     1 N(14)  Bbb    -0.0180    -0.693    -0.247    -0.231  0.0191  0.7150  0.6989
              Bcc     0.0458     1.768     0.631     0.590  0.9795 -0.1537  0.1305
 
              Baa    -0.0135    -1.817    -0.648    -0.606  0.0200  0.7144  0.6994
     2 C(13)  Bbb    -0.0028    -0.374    -0.134    -0.125  0.7442  0.4565 -0.4876
              Bcc     0.0163     2.191     0.782     0.731  0.6676 -0.5303  0.5226
 
              Baa    -0.0032    -0.433    -0.155    -0.145  0.1042 -0.6806  0.7252
     3 C(13)  Bbb    -0.0009    -0.124    -0.044    -0.041  0.0195  0.7305  0.6827
              Bcc     0.0042     0.558     0.199     0.186  0.9944  0.0570 -0.0894
 
              Baa    -0.0019    -0.259    -0.092    -0.086 -0.1232  0.6427  0.7562
     4 C(13)  Bbb    -0.0003    -0.044    -0.016    -0.015  0.9592 -0.1182  0.2567
              Bcc     0.0023     0.303     0.108     0.101  0.2544  0.7570 -0.6019
 
              Baa    -0.0015    -0.206    -0.074    -0.069 -0.0159 -0.6717  0.7406
     5 C(13)  Bbb     0.0002     0.032     0.012     0.011 -0.0923  0.7386  0.6678
              Bcc     0.0013     0.174     0.062     0.058  0.9956  0.0578  0.0737
 
              Baa    -0.0015    -0.206    -0.073    -0.069  0.0173  0.7315  0.6817
     6 C(13)  Bbb    -0.0007    -0.089    -0.032    -0.030  0.9864 -0.1239  0.1079
              Bcc     0.0022     0.295     0.105     0.098 -0.1634 -0.6705  0.7237
 
              Baa    -0.0014    -0.054    -0.019    -0.018  0.0176  0.7323  0.6808
     7 N(14)  Bbb    -0.0009    -0.034    -0.012    -0.011  0.9933 -0.0905  0.0716
              Bcc     0.0023     0.088     0.031     0.029 -0.1140 -0.6750  0.7290
 
              Baa    -0.0002    -0.023    -0.008    -0.008  0.0473 -0.6066  0.7936
     8 C(13)  Bbb    -0.0001    -0.016    -0.006    -0.005  0.2232  0.7808  0.5835
              Bcc     0.0003     0.039     0.014     0.013  0.9736 -0.1495 -0.1723
 
              Baa    -0.0002    -0.023    -0.008    -0.008 -0.0435  0.7477 -0.6626
     9 C(13)  Bbb    -0.0001    -0.016    -0.006    -0.005 -0.1887  0.6451  0.7404
              Bcc     0.0003     0.039     0.014     0.013  0.9811  0.1573  0.1130
 
              Baa    -0.0015    -0.207    -0.074    -0.069 -0.0145 -0.6901  0.7236
    10 C(13)  Bbb     0.0002     0.032     0.011     0.011  0.1253  0.7167  0.6860
              Bcc     0.0013     0.175     0.062     0.058  0.9920 -0.1006 -0.0761
 
              Baa    -0.0019    -0.260    -0.093    -0.087  0.1531  0.8055  0.5725
    11 C(13)  Bbb    -0.0004    -0.048    -0.017    -0.016  0.9511 -0.2774  0.1360
              Bcc     0.0023     0.307     0.110     0.103 -0.2684 -0.5237  0.8085
 
              Baa    -0.0007    -0.380    -0.136    -0.127 -0.1844  0.7453 -0.6407
    12 H(1)   Bbb    -0.0005    -0.287    -0.102    -0.096 -0.3276  0.5680  0.7550
              Bcc     0.0013     0.667     0.238     0.222  0.9266  0.3491  0.1394
 
              Baa    -0.0003    -0.162    -0.058    -0.054  0.0403 -0.5918  0.8051
    13 H(1)   Bbb    -0.0003    -0.135    -0.048    -0.045 -0.1801  0.7882  0.5885
              Bcc     0.0006     0.297     0.106     0.099  0.9828  0.1688  0.0748
 
              Baa    -0.0001    -0.063    -0.022    -0.021  0.0973 -0.2738  0.9569
    14 H(1)   Bbb    -0.0001    -0.060    -0.021    -0.020  0.1451  0.9550  0.2585
              Bcc     0.0002     0.123     0.044     0.041  0.9846 -0.1137 -0.1326
 
              Baa    -0.0002    -0.086    -0.031    -0.029  0.0367 -0.3577  0.9331
    15 H(1)   Bbb    -0.0001    -0.070    -0.025    -0.023  0.2601  0.9050  0.3367
              Bcc     0.0003     0.156     0.056     0.052  0.9649 -0.2304 -0.1263
 
              Baa    -0.0002    -0.082    -0.029    -0.028 -0.0952  0.8058 -0.5845
    16 H(1)   Bbb    -0.0001    -0.067    -0.024    -0.022  0.2770  0.5854  0.7619
              Bcc     0.0003     0.149     0.053     0.050  0.9561 -0.0894 -0.2789
 
              Baa    -0.0002    -0.086    -0.031    -0.029 -0.0230  0.9053 -0.4241
    17 H(1)   Bbb    -0.0001    -0.070    -0.025    -0.023 -0.2286  0.4082  0.8838
              Bcc     0.0003     0.155     0.055     0.052  0.9733  0.1173  0.1975
 
              Baa    -0.0001    -0.063    -0.022    -0.021 -0.0821  0.9417 -0.3262
    18 H(1)   Bbb    -0.0001    -0.060    -0.021    -0.020 -0.1118  0.3165  0.9420
              Bcc     0.0002     0.123     0.044     0.041  0.9903  0.1138  0.0794
 
              Baa    -0.0002    -0.082    -0.029    -0.027  0.1013 -0.5261  0.8443
    19 H(1)   Bbb    -0.0001    -0.067    -0.024    -0.022 -0.2434  0.8098  0.5338
              Bcc     0.0003     0.149     0.053     0.050  0.9646  0.2596  0.0461
 
              Baa    -0.0003    -0.163    -0.058    -0.054 -0.0388  0.7562 -0.6532
    20 H(1)   Bbb    -0.0003    -0.136    -0.049    -0.045  0.2143  0.6448  0.7337
              Bcc     0.0006     0.299     0.107     0.100  0.9760 -0.1115 -0.1871
 
              Baa    -0.0007    -0.383    -0.137    -0.128  0.1801 -0.6113  0.7706
    21 H(1)   Bbb    -0.0005    -0.290    -0.103    -0.097  0.3601  0.7700  0.5267
              Bcc     0.0013     0.673     0.240     0.225  0.9154 -0.1826 -0.3588
 
              Baa    -0.0330     0.717     0.256     0.239  0.9113  0.2756 -0.3058
    22 Ag(107 Bbb     0.0163    -0.354    -0.126    -0.118  0.4117 -0.6164  0.6712
              Bcc     0.0167    -0.363    -0.129    -0.121  0.0035  0.7376  0.6752
 

 ---------------------------------------------------------------------------------

 No NMR shielding tensors so no spin-rotation constants.
 Leave Link  601 at Fri Sep 11 21:09:48 2026, MaxMem=  6442450944 cpu:               4.0 elap:               3.8
 (Enter C:\G16W\l9999.exe)
 Unable to Open any file for archive entry.
 1|1|UNPC-DESKTOP-2JKEGCA|SP|UPBE1PBE|def2SVP|C9H10Ag1N2(2)|JHKIM|11-Se
 p-2026|0||#P PBE1PBE/Def2SVP EmpiricalDispersion=GD3BJ SP SCF=(XQC,Max
 Cycle=128) NoSymm Guess=Read||DMABN t=0.250 dz=+0.40 class=toface||0,2
 |N,0,5.143673,-0.350316,0.21822|C,0,3.998871,-0.272231,0.170326|C,0,2.
 596311,-0.177765,0.111532|C,0,1.861617,-1.009137,-0.736855|C,0,0.49137
 2,-0.916108,-0.795599|C,0,-0.21206,0.013916,-0.008461|N,0,-1.572327,0.
 10784,-0.067705|C,0,-2.276121,1.067277,0.747024|C,0,-2.327988,-0.75130
 9,-0.945467|C,0,0.541516,0.843475,0.842005|C,0,1.911725,0.749715,0.900
 076|H,0,2.379549,-1.731167,-1.351567|H,0,-0.036847,-1.576092,-1.463215
 |H,0,-3.344118,0.990693,0.558268|H,0,-1.962619,2.089882,0.51411|H,0,-2
 .105367,0.883166,1.812531|H,0,-2.039382,-0.601554,-1.990713|H,0,-3.387
 348,-0.525033,-0.852352|H,0,-2.182049,-1.805705,-0.689891|H,0,0.052874
 ,1.572236,1.466859|H,0,2.468717,1.398215,1.560873|Ag,0,7.59352933,0.24
 73228,-0.45799898||Version=EM64W-G16RevC.01|HF=-604.5481681|S2=0.75157
 9|S2-1=0.|S2A=0.750002|RMSD=7.546e-009|Dipole=-4.2578053,-0.0319361,0.
 1475779|Quadrupole=-31.6628215,16.2085236,15.4542979,-2.3628147,3.8337
 384,4.335886|PG=C01 [X(C9H10Ag1N2)]||@
 The archive entry for this job was punched.


 THE 2ND LAW OF THERMODYNAMICS HAS THE SAME
 DEGREE OF TRUTH AS THE STATEMENT THAT IF YOU THROW
 A TUMBLERFULL OF WATER INTO THE SEA, YOU CANNOT GET
 THE SAME TUMBLERFULL OF WATER OUT AGAIN.
          - J.C. MAXWELL, LETTER TO LORD RAYLEIGH, DECEMBER 6,1870
 Job cpu time:       0 days  0 hours  2 minutes 45.0 seconds.
 Elapsed time:       0 days  0 hours  2 minutes 42.8 seconds.
 File lengths (MBytes):  RWF=     57 Int=      0 D2E=      0 Chk=      5 Scr=      1
 Normal termination of Gaussian 16 at Fri Sep 11 21:09:49 2026.
