 Entering Gaussian System, Link 0=C:\G16W\g16.exe
 Input=DMABN_t3_z1.gjf
 Output=DMABN_t3_z1.out
 Initial command:
 C:\G16W\l1.exe ".\Gau-43608.inp" "DMABN_t3_z1.out" /scrdir=".\"
 Entering Link 1 = C:\G16W\l1.exe PID=     28588.
  
 Copyright (c) 1988-2019, Gaussian, Inc.  All Rights Reserved.
  
 This is part of the Gaussian(R) 16 program.  It is based on
 the Gaussian(R) 09 system (copyright 2009, Gaussian, Inc.),
 the Gaussian(R) 03 system (copyright 2003, Gaussian, Inc.),
 the Gaussian(R) 98 system (copyright 1998, Gaussian, Inc.),
 the Gaussian(R) 94 system (copyright 1995, Gaussian, Inc.),
 the Gaussian 92(TM) system (copyright 1992, Gaussian, Inc.),
 the Gaussian 90(TM) system (copyright 1990, Gaussian, Inc.),
 the Gaussian 88(TM) system (copyright 1988, Gaussian, Inc.),
 the Gaussian 86(TM) system (copyright 1986, Carnegie Mellon
 University), and the Gaussian 82(TM) system (copyright 1983,
 Carnegie Mellon University). Gaussian is a federally registered
 trademark of Gaussian, Inc.
  
 This software contains proprietary and confidential information,
 including trade secrets, belonging to Gaussian, Inc.
  
 This software is provided under written license and may be
 used, copied, transmitted, or stored only in accord with that
 written license.
  
 The following legend is applicable only to US Government
 contracts under FAR:
  
                    RESTRICTED RIGHTS LEGEND
  
 Use, reproduction and disclosure by the US Government is
 subject to restrictions as set forth in subparagraphs (a)
 and (c) of the Commercial Computer Software - Restricted
 Rights clause in FAR 52.227-19.
  
 Gaussian, Inc.
 340 Quinnipiac St., Bldg. 40, Wallingford CT 06492
  
  
 ---------------------------------------------------------------
 Warning -- This program may not be used in any manner that
 competes with the business of Gaussian, Inc. or will provide
 assistance to any competitor of Gaussian, Inc.  The licensee
 of this program is prohibited from giving any competitor of
 Gaussian, Inc. access to this program.  By using this program,
 the user acknowledges that Gaussian, Inc. is engaged in the
 business of creating and licensing software in the field of
 computational chemistry and represents and warrants to the
 licensee that it is not a competitor of Gaussian, Inc. and that
 it will not use this program in any manner prohibited above.
 ---------------------------------------------------------------
  

 Cite this work as:
 Gaussian 16, Revision C.01,
 M. J. Frisch, G. W. Trucks, H. B. Schlegel, G. E. Scuseria, 
 M. A. Robb, J. R. Cheeseman, G. Scalmani, V. Barone, 
 G. A. Petersson, H. Nakatsuji, X. Li, M. Caricato, A. V. Marenich, 
 J. Bloino, B. G. Janesko, R. Gomperts, B. Mennucci, H. P. Hratchian, 
 J. V. Ortiz, A. F. Izmaylov, J. L. Sonnenberg, D. Williams-Young, 
 F. Ding, F. Lipparini, F. Egidi, J. Goings, B. Peng, A. Petrone, 
 T. Henderson, D. Ranasinghe, V. G. Zakrzewski, J. Gao, N. Rega, 
 G. Zheng, W. Liang, M. Hada, M. Ehara, K. Toyota, R. Fukuda, 
 J. Hasegawa, M. Ishida, T. Nakajima, Y. Honda, O. Kitao, H. Nakai, 
 T. Vreven, K. Throssell, J. A. Montgomery, Jr., J. E. Peralta, 
 F. Ogliaro, M. J. Bearpark, J. J. Heyd, E. N. Brothers, K. N. Kudin, 
 V. N. Staroverov, T. A. Keith, R. Kobayashi, J. Normand, 
 K. Raghavachari, A. P. Rendell, J. C. Burant, S. S. Iyengar, 
 J. Tomasi, M. Cossi, J. M. Millam, M. Klene, C. Adamo, R. Cammi, 
 J. W. Ochterski, R. L. Martin, K. Morokuma, O. Farkas, 
 J. B. Foresman, and D. J. Fox, Gaussian, Inc., Wallingford CT, 2019.
 
 ******************************************
 Gaussian 16:  EM64W-G16RevC.01 30-May-2019
                11-Sep-2026 
 ******************************************
 %Chk=DMABN.chk
 %NProcShared=8
 Will use up to    8 processors via shared memory.
 %Mem=48GB
 ----------------------------------------------------------------------
 #P PBE1PBE/Def2SVP EmpiricalDispersion=GD3BJ SP SCF=(XQC,MaxCycle=128)
  NoSymm Guess=Read
 ----------------------------------------------------------------------
 1/38=1,172=1/1;
 2/12=2,15=1,17=6,18=5,40=1/2;
 3/5=43,7=101,11=2,25=1,30=1,74=-13,116=-2,124=41/1,2,3;
 4/5=1/1;
 5/5=2,7=128,8=3,13=1,38=6/2,8;
 6/7=2,8=2,9=2,10=2,28=1/1;
 99/5=1,9=1/99;
 Leave Link    1 at Fri Sep 11 21:19:47 2026, MaxMem=  6442450944 cpu:               1.0 elap:               0.3
 (Enter C:\G16W\l101.exe)
 -----------------------------------
 DMABN t=0.750 dz=+0.40 class=toface
 -----------------------------------
 Symbolic Z-matrix:
 Charge =  0 Multiplicity = 2
 N                     5.14367  -0.35032   0.21822 
 C                     3.99887  -0.27223   0.17033 
 C                     2.59631  -0.17777   0.11153 
 C                     1.86162  -1.00914  -0.73686 
 C                     0.49137  -0.91611  -0.7956 
 C                    -0.21206   0.01392  -0.00846 
 N                    -1.57233   0.10784  -0.06771 
 C                    -2.27612   1.06728   0.74702 
 C                    -2.32799  -0.75131  -0.94547 
 C                     0.54152   0.84348   0.84201 
 C                     1.91173   0.74972   0.90008 
 H                     2.37955  -1.73117  -1.35157 
 H                    -0.03685  -1.57609  -1.46322 
 H                    -3.34412   0.99069   0.55827 
 H                    -1.96262   2.08988   0.51411 
 H                    -2.10537   0.88317   1.81253 
 H                    -2.03938  -0.60155  -1.99071 
 H                    -3.38735  -0.52503  -0.85235 
 H                    -2.18205  -1.80571  -0.68989 
 H                     0.05287   1.57224   1.46686 
 H                     2.46872   1.39822   1.56087 
 Ag                    3.35275   1.55611  -1.67405 
 
 ITRead=  0  0  0  0  0  0  0  0  0  0  0  0  0  0  0  0  0  0  0  0
 ITRead=  0  0
 MicOpt= -1 -1 -1 -1 -1 -1 -1 -1 -1 -1 -1 -1 -1 -1 -1 -1 -1 -1 -1 -1
 MicOpt= -1 -1
 NAtoms=     22 NQM=       22 NQMF=       0 NMMI=      0 NMMIF=      0
                NMic=       0 NMicF=      0.
                    Isotopes and Nuclear Properties:
 (Nuclear quadrupole moments (NQMom) in fm**2, nuclear magnetic moments (NMagM)
  in nuclear magnetons)

  Atom         1           2           3           4           5           6           7           8           9          10
 IAtWgt=          14          12          12          12          12          12          14          12          12          12
 AtmWgt=  14.0030740  12.0000000  12.0000000  12.0000000  12.0000000  12.0000000  14.0030740  12.0000000  12.0000000  12.0000000
 NucSpn=           2           0           0           0           0           0           2           0           0           0
 AtZEff=   0.0000000   0.0000000   0.0000000   0.0000000   0.0000000   0.0000000   0.0000000   0.0000000   0.0000000   0.0000000
 NQMom=    2.0440000   0.0000000   0.0000000   0.0000000   0.0000000   0.0000000   2.0440000   0.0000000   0.0000000   0.0000000
 NMagM=    0.4037610   0.0000000   0.0000000   0.0000000   0.0000000   0.0000000   0.4037610   0.0000000   0.0000000   0.0000000
 AtZNuc=   7.0000000   6.0000000   6.0000000   6.0000000   6.0000000   6.0000000   7.0000000   6.0000000   6.0000000   6.0000000

  Atom        11          12          13          14          15          16          17          18          19          20
 IAtWgt=          12           1           1           1           1           1           1           1           1           1
 AtmWgt=  12.0000000   1.0078250   1.0078250   1.0078250   1.0078250   1.0078250   1.0078250   1.0078250   1.0078250   1.0078250
 NucSpn=           0           1           1           1           1           1           1           1           1           1
 AtZEff=   0.0000000   0.0000000   0.0000000   0.0000000   0.0000000   0.0000000   0.0000000   0.0000000   0.0000000   0.0000000
 NQMom=    0.0000000   0.0000000   0.0000000   0.0000000   0.0000000   0.0000000   0.0000000   0.0000000   0.0000000   0.0000000
 NMagM=    0.0000000   2.7928460   2.7928460   2.7928460   2.7928460   2.7928460   2.7928460   2.7928460   2.7928460   2.7928460
 AtZNuc=   6.0000000   1.0000000   1.0000000   1.0000000   1.0000000   1.0000000   1.0000000   1.0000000   1.0000000   1.0000000

  Atom        21          22
 IAtWgt=           1         107
 AtmWgt=   1.0078250 106.9050900
 NucSpn=           1           1
 AtZEff=   0.0000000   0.0000000
 NQMom=    0.0000000   0.0000000
 NMagM=    2.7928460  -0.1135700
 AtZNuc=   1.0000000  47.0000000
 Leave Link  101 at Fri Sep 11 21:19:47 2026, MaxMem=  6442450944 cpu:               0.0 elap:               0.3
 (Enter C:\G16W\l202.exe)
                          Input orientation:                          
 ---------------------------------------------------------------------
 Center     Atomic      Atomic             Coordinates (Angstroms)
 Number     Number       Type             X           Y           Z
 ---------------------------------------------------------------------
      1          7           0        5.143673   -0.350316    0.218220
      2          6           0        3.998871   -0.272231    0.170326
      3          6           0        2.596311   -0.177765    0.111532
      4          6           0        1.861617   -1.009137   -0.736855
      5          6           0        0.491372   -0.916108   -0.795599
      6          6           0       -0.212060    0.013916   -0.008461
      7          7           0       -1.572327    0.107840   -0.067705
      8          6           0       -2.276121    1.067277    0.747024
      9          6           0       -2.327988   -0.751309   -0.945467
     10          6           0        0.541516    0.843475    0.842005
     11          6           0        1.911725    0.749715    0.900076
     12          1           0        2.379549   -1.731167   -1.351567
     13          1           0       -0.036847   -1.576092   -1.463215
     14          1           0       -3.344118    0.990693    0.558268
     15          1           0       -1.962619    2.089882    0.514110
     16          1           0       -2.105367    0.883166    1.812531
     17          1           0       -2.039382   -0.601554   -1.990713
     18          1           0       -3.387348   -0.525033   -0.852352
     19          1           0       -2.182049   -1.805705   -0.689891
     20          1           0        0.052874    1.572236    1.466859
     21          1           0        2.468717    1.398215    1.560873
     22         47           0        3.352750    1.556115   -1.674054
 ---------------------------------------------------------------------
                    Distance matrix (angstroms):
                    1          2          3          4          5
     1  N    0.000000
     2  C    1.148461   0.000000
     3  C    2.555427   1.406967   0.000000
     4  C    3.481107   2.435952   1.396680   0.000000
     5  C    4.794982   3.694609   2.408071   1.374655   0.000000
     6  C    5.372888   4.224427   2.817461   2.424321   1.406893
     7  N    6.737679   5.589218   4.182253   3.672516   2.416020
     8  C    7.572486   6.442235   5.068981   4.861509   3.737983
     9  C    7.572363   6.442333   5.069016   4.202712   2.828146
    10  C    4.795216   3.694490   2.408050   2.769050   2.404245
    11  C    3.481449   2.435793   1.396667   2.403251   2.769058
    12  H    3.465741   2.658356   2.144925   1.080487   2.130407
    13  H    5.582789   4.544835   3.371745   2.110261   1.077175
    14  H    8.599798   7.460896   6.070714   5.725062   4.492197
    15  H    7.519408   6.421614   5.107655   5.078741   4.095532
    16  H    7.524087   6.426002   5.111237   5.081057   4.096679
    17  H    7.519228   6.421763   5.107708   4.117776   2.816373
    18  H    8.599708   7.460966   6.070737   5.272507   3.898798
    19  H    7.523897   6.426141   5.111281   4.121645   2.819528
    20  H    5.583148   4.544662   3.371719   3.845958   3.391586
    21  H    3.466333   2.658079   2.144897   3.382820   3.849538
    22  Ag   3.228403   2.676202   2.601318   3.111645   3.882145
                    6          7          8          9         10
     6  C    0.000000
     7  N    1.364792   0.000000
     8  C    2.437350   1.442092   0.000000
     9  C    2.437355   1.442091   2.484848   0.000000
    10  C    1.406889   2.416002   2.828107   3.737973   0.000000
    11  C    2.424315   3.672495   4.202657   4.861509   1.374640
    12  H    3.400836   4.543960   5.823284   4.825551   3.849533
    13  H    2.162206   2.672223   4.109368   2.489509   3.391585
    14  H    3.329424   2.076178   1.087250   2.515613   3.898760
    15  H    2.765352   2.102220   1.094648   3.215000   2.816334
    16  H    2.766987   2.102510   1.094696   3.213662   2.819483
    17  H    2.765363   2.102223   3.215003   1.094650   4.095538
    18  H    3.329425   2.076174   2.515607   1.087251   4.492175
    19  H    2.766988   2.102506   3.213658   1.094700   4.096665
    20  H    2.162203   2.672194   2.489450   4.109341   1.077175
    21  H    3.400832   4.543938   4.825490   5.823278   2.130402
    22  Ag   4.226162   5.379055   6.146931   6.174611   3.839458
                   11         12         13         14         15
    11  C    0.000000
    12  H    3.382829   0.000000
    13  H    3.845966   2.423940   0.000000
    14  H    5.272456   6.619392   4.648959   0.000000
    15  H    4.117713   6.077466   4.588875   1.765986   0.000000
    16  H    4.121579   6.079533   4.588816   1.766138   1.778324
    17  H    5.078763   4.605593   2.288695   3.276414   3.677480
    18  H    5.725047   5.912789   3.564230   2.071025   3.276408
    19  H    5.081058   4.609940   2.291865   3.275385   4.083303
    20  H    2.110240   4.926400   4.301785   3.564167   2.288646
    21  H    1.080484   4.275896   4.926405   5.912727   4.605524
    22  Ag   3.058264   3.443449   4.620015   7.081737   5.772877
                   16         17         18         19         20
    16  H    0.000000
    17  H    4.083309   0.000000
    18  H    3.275378   1.765994   0.000000
    19  H    3.673966   1.778334   1.766143   0.000000
    20  H    2.291792   4.588867   4.648914   4.588784   0.000000
    21  H    4.609865   6.077483   6.619368   6.079528   2.423926
    22  Ag   6.511541   5.816433   7.101780   6.550145   4.555740
                   21         22
    21  H    0.000000
    22  Ag   3.357260   0.000000
 Symmetry turned off by external request.
 Stoichiometry    C9H10AgN2(2)
 Framework group  C1[X(C9H10AgN2)]
 Deg. of freedom    60
 Full point group                 C1      NOp   1
 Rotational constants (GHZ):           1.2696893           0.3406788           0.3157649
 Leave Link  202 at Fri Sep 11 21:19:47 2026, MaxMem=  6442450944 cpu:               0.0 elap:               0.1
 (Enter C:\G16W\l301.exe)
 Standard basis: def2SVP (5D, 7F)
 Ernie: Thresh=  0.10000D-02 Tol=  0.10000D-05 Strict=F.
   235 basis functions,   410 primitive gaussians,   251 cartesian basis functions
    49 alpha electrons       48 beta electrons
       nuclear repulsion energy       755.2401661711 Hartrees.
 IExCor= 1009 DFT=T Ex+Corr=PBE1PBE ExCW=0 ScaHFX=  0.250000
 ScaDFX=  0.750000  0.750000  1.000000  1.000000 ScalE2=  1.000000  1.000000
 IRadAn=      5 IRanWt=     -1 IRanGd=            0 ICorTp=0 IEmpDi=141
 NAtoms=   22 NActive=   22 NUniq=   22 SFac= 1.00D+00 NAtFMM=   60 NAOKFM=F Big=F
 Integral buffers will be    131072 words long.
 Raffenetti 2 integral format.
 Two-electron integral symmetry is turned off.
 R6Disp:  Grimme-D3(BJ) Dispersion energy=       -0.0251346958 Hartrees.
 Nuclear repulsion after empirical dispersion term =      755.2150314753 Hartrees.
 Leave Link  301 at Fri Sep 11 21:19:48 2026, MaxMem=  6442450944 cpu:               1.0 elap:               0.1
 (Enter C:\G16W\l302.exe)
 NPDir=0 NMtPBC=     1 NCelOv=     1 NCel=       1 NClECP=     1 NCelD=      1
         NCelK=      1 NCelE2=     1 NClLst=     1 CellRange=     0.0.
 One-electron integrals computed using PRISM.
   1 Symmetry operations used in ECPInt.
 ECPInt:  NShTT=    5778 NPrTT=   20489 LenC2=    5562 LenP2D=   15180.
 LDataN:  DoStor=T MaxTD1= 7 Len=  274
 NBasis=   235 RedAO= T EigKep=  2.29D-04  NBF=   235
 NBsUse=   235 1.00D-06 EigRej= -1.00D+00 NBFU=   235
 Precomputing XC quadrature grid using
 IXCGrd= 4 IRadAn=           5 IRanWt=          -1 IRanGd=           0 AccXCQ= 0.00D+00.
 Defaulting to unpruned grid for atomic number  47.
 Generated NRdTot=       0 NPtTot=           0 NUsed=           0 NTot=          32
 NSgBfM=   250   250   250   250   250 MxSgAt=    22 MxSgA2=    22.
 Leave Link  302 at Fri Sep 11 21:19:50 2026, MaxMem=  6442450944 cpu:               2.0 elap:               2.8
 (Enter C:\G16W\l303.exe)
 DipDrv:  MaxL=1.
 Leave Link  303 at Fri Sep 11 21:19:51 2026, MaxMem=  6442450944 cpu:               1.0 elap:               0.2
 (Enter C:\G16W\l401.exe)
 Initial guess from the checkpoint file:  "DMABN.chk"
 B after Tr=     0.162454    0.134704   -0.141311
         Rot=    0.999963   -0.000186   -0.006141   -0.005990 Ang=  -0.98 deg.
 Guess basis will be translated and rotated to current coordinates.
 JPrj=2 DoOrth=T DoCkMO=T.
 Initial guess <Sx>= 0.0000 <Sy>= 0.0000 <Sz>= 0.5000 <S**2>= 0.7522 S= 0.5011
 Leave Link  401 at Fri Sep 11 21:20:01 2026, MaxMem=  6442450944 cpu:              10.0 elap:              10.5
 (Enter C:\G16W\l502.exe)
 Two-electron integral symmetry not used.
 UHF open shell SCF:
 Using DIIS extrapolation, IDIIS=  1040.
 NGot=  6442450944 LenX=  6442320325 LenY=  6442256883
 Requested convergence on RMS density matrix=1.00D-08 within 128 cycles.
 Requested convergence on MAX density matrix=1.00D-06.
 Requested convergence on             energy=1.00D-06.
 No special actions if energy rises.
 Fock matrices will be formed incrementally for  20 cycles.

 Cycle   1  Pass 1  IDiag  1:
 FoFJK:  IHMeth= 1 ICntrl=       0 DoSepK=F KAlg= 0 I1Cent=           0 FoldK=F
 IRaf= 930000000 NMat=       1 IRICut=       1 DoRegI=T DoRafI=F ISym2E= 0 IDoP0=0 IntGTp=1.
 FoFCou: FMM=F IPFlag=           0 FMFlag=      100000 FMFlg1=           0
         NFxFlg=           0 DoJE=F BraDBF=F KetDBF=F FulRan=T
         wScrn=  0.000000 ICntrl=         0 IOpCl=  1 I1Cent=           0 NGrid=           0
         NMat0=    1 NMatS0=      1 NMatT0=    0 NMatD0=    1 NMtDS0=    0 NMtDT0=    0
 Symmetry not used in FoFCou.
 Defaulting to unpruned grid for atomic number  47.
 Defaulting to unpruned grid for atomic number  47.
 Defaulting to unpruned grid for atomic number  47.
 Defaulting to unpruned grid for atomic number  47.
 Defaulting to unpruned grid for atomic number  47.
 Defaulting to unpruned grid for atomic number  47.
 Defaulting to unpruned grid for atomic number  47.
 Defaulting to unpruned grid for atomic number  47.
 E= -604.524639993273    
 DIIS: error= 2.76D-02 at cycle   1 NSaved=   1.
 NSaved= 1 IEnMin= 1 EnMin= -604.524639993273     IErMin= 1 ErrMin= 2.76D-02
 ErrMax= 2.76D-02  0.00D+00 EMaxC= 1.00D-01 BMatC= 3.56D-01 BMatP= 3.56D-01
 IDIUse=3 WtCom= 7.24D-01 WtEn= 2.76D-01
 Coeff-Com:  0.100D+01
 Coeff-En:   0.100D+01
 Coeff:      0.100D+01
 Gap=     0.127 Goal=   None    Shift=    0.000
 Gap=     0.199 Goal=   None    Shift=    0.000
 GapD=    0.127 DampG=1.000 DampE=0.250 DampFc=0.2500 IDamp=-1.
 Damping current iteration by 2.50D-01
 RMSDP=2.65D-03 MaxDP=2.78D-01              OVMax= 6.19D-02

 Cycle   2  Pass 1  IDiag  1:
 RMSU=  6.42D-04    CP:  9.93D-01
 E= -604.528094655196     Delta-E=       -0.003454661923 Rises=F Damp=T
 DIIS: error= 2.07D-02 at cycle   2 NSaved=   2.
 NSaved= 2 IEnMin= 2 EnMin= -604.528094655196     IErMin= 2 ErrMin= 2.07D-02
 ErrMax= 2.07D-02  0.00D+00 EMaxC= 1.00D-01 BMatC= 2.00D-01 BMatP= 3.56D-01
 IDIUse=3 WtCom= 7.93D-01 WtEn= 2.07D-01
 Coeff-Com: -0.290D+01 0.390D+01
 Coeff-En:   0.000D+00 0.100D+01
 Coeff:     -0.230D+01 0.330D+01
 Gap=     0.107 Goal=   None    Shift=    0.000
 Gap=     0.165 Goal=   None    Shift=    0.000
 RMSDP=1.65D-03 MaxDP=1.61D-01 DE=-3.45D-03 OVMax= 3.05D-02

 Cycle   3  Pass 1  IDiag  1:
 RMSU=  5.45D-04    CP:  9.77D-01  3.00D+00
 E= -604.536049763666     Delta-E=       -0.007955108469 Rises=F Damp=F
 DIIS: error= 4.44D-03 at cycle   3 NSaved=   3.
 NSaved= 3 IEnMin= 3 EnMin= -604.536049763666     IErMin= 3 ErrMin= 4.44D-03
 ErrMax= 4.44D-03  0.00D+00 EMaxC= 1.00D-01 BMatC= 1.35D-02 BMatP= 2.00D-01
 IDIUse=3 WtCom= 9.56D-01 WtEn= 4.44D-02
 Coeff-Com: -0.177D+01 0.236D+01 0.411D+00
 Coeff-En:   0.000D+00 0.000D+00 0.100D+01
 Coeff:     -0.169D+01 0.225D+01 0.437D+00
 Gap=     0.109 Goal=   None    Shift=    0.000
 Gap=     0.166 Goal=   None    Shift=    0.000
 RMSDP=4.14D-04 MaxDP=3.39D-02 DE=-7.96D-03 OVMax= 1.86D-02

 Cycle   4  Pass 1  IDiag  1:
 RMSU=  3.98D-04    CP:  9.74D-01  3.00D+00  8.52D-01
 E= -604.538860233718     Delta-E=       -0.002810470053 Rises=F Damp=F
 DIIS: error= 1.54D-03 at cycle   4 NSaved=   4.
 NSaved= 4 IEnMin= 4 EnMin= -604.538860233718     IErMin= 4 ErrMin= 1.54D-03
 ErrMax= 1.54D-03  0.00D+00 EMaxC= 1.00D-01 BMatC= 1.44D-03 BMatP= 1.35D-02
 IDIUse=3 WtCom= 9.85D-01 WtEn= 1.54D-02
 Coeff-Com: -0.909D+00 0.121D+01 0.291D+00 0.408D+00
 Coeff-En:   0.000D+00 0.000D+00 0.926D-01 0.907D+00
 Coeff:     -0.895D+00 0.119D+01 0.288D+00 0.416D+00
 Gap=     0.111 Goal=   None    Shift=    0.000
 Gap=     0.165 Goal=   None    Shift=    0.000
 RMSDP=8.54D-05 MaxDP=5.35D-03 DE=-2.81D-03 OVMax= 5.65D-03

 Cycle   5  Pass 1  IDiag  1:
 RMSU=  7.91D-05    CP:  9.74D-01  3.00D+00  9.10D-01  9.84D-01
 E= -604.539189132329     Delta-E=       -0.000328898611 Rises=F Damp=F
 DIIS: error= 1.80D-04 at cycle   5 NSaved=   5.
 NSaved= 5 IEnMin= 5 EnMin= -604.539189132329     IErMin= 5 ErrMin= 1.80D-04
 ErrMax= 1.80D-04  0.00D+00 EMaxC= 1.00D-01 BMatC= 3.16D-05 BMatP= 1.44D-03
 IDIUse=3 WtCom= 9.98D-01 WtEn= 1.80D-03
 Coeff-Com: -0.209D+00 0.278D+00 0.743D-01 0.174D+00 0.683D+00
 Coeff-En:   0.000D+00 0.000D+00 0.000D+00 0.000D+00 0.100D+01
 Coeff:     -0.209D+00 0.278D+00 0.741D-01 0.173D+00 0.684D+00
 Gap=     0.111 Goal=   None    Shift=    0.000
 Gap=     0.164 Goal=   None    Shift=    0.000
 RMSDP=3.45D-05 MaxDP=2.86D-03 DE=-3.29D-04 OVMax= 1.88D-03

 Cycle   6  Pass 1  IDiag  1:
 RMSU=  2.40D-05    CP:  9.74D-01  3.00D+00  9.42D-01  1.03D+00  1.03D+00
 E= -604.539198874960     Delta-E=       -0.000009742631 Rises=F Damp=F
 DIIS: error= 1.24D-04 at cycle   6 NSaved=   6.
 NSaved= 6 IEnMin= 6 EnMin= -604.539198874960     IErMin= 6 ErrMin= 1.24D-04
 ErrMax= 1.24D-04  0.00D+00 EMaxC= 1.00D-01 BMatC= 8.97D-06 BMatP= 3.16D-05
 IDIUse=3 WtCom= 9.99D-01 WtEn= 1.24D-03
 Coeff-Com:  0.129D+00-0.172D+00-0.401D-01-0.996D-02 0.391D+00 0.702D+00
 Coeff-En:   0.000D+00 0.000D+00 0.000D+00 0.000D+00 0.000D+00 0.100D+01
 Coeff:      0.129D+00-0.172D+00-0.400D-01-0.995D-02 0.391D+00 0.702D+00
 Gap=     0.111 Goal=   None    Shift=    0.000
 Gap=     0.164 Goal=   None    Shift=    0.000
 RMSDP=2.13D-05 MaxDP=1.64D-03 DE=-9.74D-06 OVMax= 1.68D-03

 Cycle   7  Pass 1  IDiag  1:
 RMSU=  1.51D-05    CP:  9.74D-01  3.00D+00  9.53D-01  1.06D+00  1.07D+00
                    CP:  1.10D+00
 E= -604.539202742254     Delta-E=       -0.000003867294 Rises=F Damp=F
 DIIS: error= 5.79D-05 at cycle   7 NSaved=   7.
 NSaved= 7 IEnMin= 7 EnMin= -604.539202742254     IErMin= 7 ErrMin= 5.79D-05
 ErrMax= 5.79D-05  0.00D+00 EMaxC= 1.00D-01 BMatC= 2.37D-06 BMatP= 8.97D-06
 IDIUse=1 WtCom= 1.00D+00 WtEn= 0.00D+00
 Coeff-Com:  0.998D-01-0.133D+00-0.328D-01-0.288D-01 0.130D+00 0.425D+00
 Coeff-Com:  0.539D+00
 Coeff:      0.998D-01-0.133D+00-0.328D-01-0.288D-01 0.130D+00 0.425D+00
 Coeff:      0.539D+00
 Gap=     0.111 Goal=   None    Shift=    0.000
 Gap=     0.164 Goal=   None    Shift=    0.000
 RMSDP=6.71D-06 MaxDP=4.26D-04 DE=-3.87D-06 OVMax= 4.92D-04

 Cycle   8  Pass 1  IDiag  1:
 RMSU=  5.94D-06    CP:  9.74D-01  3.00D+00  9.56D-01  1.06D+00  1.09D+00
                    CP:  1.19D+00  1.04D+00
 E= -604.539203624712     Delta-E=       -0.000000882458 Rises=F Damp=F
 DIIS: error= 1.94D-05 at cycle   8 NSaved=   8.
 NSaved= 8 IEnMin= 8 EnMin= -604.539203624712     IErMin= 8 ErrMin= 1.94D-05
 ErrMax= 1.94D-05  0.00D+00 EMaxC= 1.00D-01 BMatC= 1.73D-07 BMatP= 2.37D-06
 IDIUse=1 WtCom= 1.00D+00 WtEn= 0.00D+00
 Coeff-Com: -0.161D-02 0.218D-02-0.971D-04-0.692D-02-0.553D-01-0.414D-01
 Coeff-Com:  0.136D+00 0.968D+00
 Coeff:     -0.161D-02 0.218D-02-0.971D-04-0.692D-02-0.553D-01-0.414D-01
 Coeff:      0.136D+00 0.968D+00
 Gap=     0.111 Goal=   None    Shift=    0.000
 Gap=     0.164 Goal=   None    Shift=    0.000
 RMSDP=3.91D-06 MaxDP=3.24D-04 DE=-8.82D-07 OVMax= 3.86D-04

 Cycle   9  Pass 1  IDiag  1:
 RMSU=  2.30D-06    CP:  9.74D-01  3.00D+00  9.57D-01  1.06D+00  1.09D+00
                    CP:  1.26D+00  1.19D+00  1.14D+00
 E= -604.539203818851     Delta-E=       -0.000000194139 Rises=F Damp=F
 DIIS: error= 1.51D-05 at cycle   9 NSaved=   9.
 NSaved= 9 IEnMin= 9 EnMin= -604.539203818851     IErMin= 9 ErrMin= 1.51D-05
 ErrMax= 1.51D-05  0.00D+00 EMaxC= 1.00D-01 BMatC= 4.96D-08 BMatP= 1.73D-07
 IDIUse=1 WtCom= 1.00D+00 WtEn= 0.00D+00
 Coeff-Com: -0.166D-01 0.222D-01 0.517D-02 0.205D-02-0.384D-01-0.798D-01
 Coeff-Com: -0.416D-01 0.339D+00 0.808D+00
 Coeff:     -0.166D-01 0.222D-01 0.517D-02 0.205D-02-0.384D-01-0.798D-01
 Coeff:     -0.416D-01 0.339D+00 0.808D+00
 Gap=     0.111 Goal=   None    Shift=    0.000
 Gap=     0.164 Goal=   None    Shift=    0.000
 RMSDP=1.67D-06 MaxDP=7.38D-05 DE=-1.94D-07 OVMax= 1.77D-04

 Cycle  10  Pass 1  IDiag  1:
 RMSU=  1.13D-06    CP:  9.74D-01  3.00D+00  9.58D-01  1.06D+00  1.09D+00
                    CP:  1.29D+00  1.23D+00  1.20D+00  1.36D+00
 E= -604.539203874207     Delta-E=       -0.000000055356 Rises=F Damp=F
 DIIS: error= 1.12D-05 at cycle  10 NSaved=  10.
 NSaved=10 IEnMin=10 EnMin= -604.539203874207     IErMin=10 ErrMin= 1.12D-05
 ErrMax= 1.12D-05  0.00D+00 EMaxC= 1.00D-01 BMatC= 2.54D-08 BMatP= 4.96D-08
 IDIUse=1 WtCom= 1.00D+00 WtEn= 0.00D+00
 Coeff-Com: -0.839D-02 0.112D-01 0.283D-02 0.377D-02 0.344D-03-0.285D-01
 Coeff-Com: -0.732D-01-0.156D+00 0.445D+00 0.803D+00
 Coeff:     -0.839D-02 0.112D-01 0.283D-02 0.377D-02 0.344D-03-0.285D-01
 Coeff:     -0.732D-01-0.156D+00 0.445D+00 0.803D+00
 Gap=     0.111 Goal=   None    Shift=    0.000
 Gap=     0.164 Goal=   None    Shift=    0.000
 RMSDP=1.23D-06 MaxDP=3.60D-05 DE=-5.54D-08 OVMax= 1.40D-04

 Cycle  11  Pass 1  IDiag  1:
 RMSU=  6.47D-07    CP:  9.74D-01  3.00D+00  9.58D-01  1.06D+00  1.09D+00
                    CP:  1.29D+00  1.25D+00  1.25D+00  1.72D+00  1.44D+00
 E= -604.539203904644     Delta-E=       -0.000000030437 Rises=F Damp=F
 DIIS: error= 5.73D-06 at cycle  11 NSaved=  11.
 NSaved=11 IEnMin=11 EnMin= -604.539203904644     IErMin=11 ErrMin= 5.73D-06
 ErrMax= 5.73D-06  0.00D+00 EMaxC= 1.00D-01 BMatC= 6.78D-09 BMatP= 2.54D-08
 IDIUse=1 WtCom= 1.00D+00 WtEn= 0.00D+00
 Coeff-Com:  0.679D-02-0.905D-02-0.195D-02 0.239D-03 0.209D-01 0.306D-01
 Coeff-Com: -0.353D-02-0.230D+00-0.284D+00 0.261D+00 0.121D+01
 Coeff:      0.679D-02-0.905D-02-0.195D-02 0.239D-03 0.209D-01 0.306D-01
 Coeff:     -0.353D-02-0.230D+00-0.284D+00 0.261D+00 0.121D+01
 Gap=     0.111 Goal=   None    Shift=    0.000
 Gap=     0.164 Goal=   None    Shift=    0.000
 RMSDP=1.29D-06 MaxDP=3.26D-05 DE=-3.04D-08 OVMax= 1.36D-04

 Cycle  12  Pass 1  IDiag  1:
 RMSU=  4.85D-07    CP:  9.74D-01  3.00D+00  9.58D-01  1.06D+00  1.09D+00
                    CP:  1.29D+00  1.26D+00  1.30D+00  2.11D+00  2.00D+00
                    CP:  1.62D+00
 E= -604.539203919556     Delta-E=       -0.000000014912 Rises=F Damp=F
 DIIS: error= 1.36D-06 at cycle  12 NSaved=  12.
 NSaved=12 IEnMin=12 EnMin= -604.539203919556     IErMin=12 ErrMin= 1.36D-06
 ErrMax= 1.36D-06  0.00D+00 EMaxC= 1.00D-01 BMatC= 1.05D-09 BMatP= 6.78D-09
 IDIUse=1 WtCom= 1.00D+00 WtEn= 0.00D+00
 Coeff-Com:  0.353D-02-0.470D-02-0.103D-02-0.312D-03 0.725D-02 0.154D-01
 Coeff-Com:  0.122D-01-0.502D-01-0.189D+00-0.666D-01 0.432D+00 0.841D+00
 Coeff:      0.353D-02-0.470D-02-0.103D-02-0.312D-03 0.725D-02 0.154D-01
 Coeff:      0.122D-01-0.502D-01-0.189D+00-0.666D-01 0.432D+00 0.841D+00
 Gap=     0.111 Goal=   None    Shift=    0.000
 Gap=     0.164 Goal=   None    Shift=    0.000
 RMSDP=4.00D-07 MaxDP=1.32D-05 DE=-1.49D-08 OVMax= 3.79D-05

 Cycle  13  Pass 1  IDiag  1:
 RMSU=  1.17D-07    CP:  9.74D-01  3.00D+00  9.58D-01  1.06D+00  1.09D+00
                    CP:  1.29D+00  1.26D+00  1.31D+00  2.19D+00  2.18D+00
                    CP:  1.91D+00  1.23D+00
 E= -604.539203920829     Delta-E=       -0.000000001272 Rises=F Damp=F
 DIIS: error= 4.53D-07 at cycle  13 NSaved=  13.
 NSaved=13 IEnMin=13 EnMin= -604.539203920829     IErMin=13 ErrMin= 4.53D-07
 ErrMax= 4.53D-07  0.00D+00 EMaxC= 1.00D-01 BMatC= 1.79D-10 BMatP= 1.05D-09
 IDIUse=1 WtCom= 1.00D+00 WtEn= 0.00D+00
 Coeff-Com:  0.641D-03-0.854D-03-0.207D-03-0.207D-03 0.126D-03 0.257D-02
 Coeff-Com:  0.619D-02 0.940D-02-0.421D-01-0.627D-01 0.239D-01 0.345D+00
 Coeff-Com:  0.718D+00
 Coeff:      0.641D-03-0.854D-03-0.207D-03-0.207D-03 0.126D-03 0.257D-02
 Coeff:      0.619D-02 0.940D-02-0.421D-01-0.627D-01 0.239D-01 0.345D+00
 Coeff:      0.718D+00
 Gap=     0.111 Goal=   None    Shift=    0.000
 Gap=     0.164 Goal=   None    Shift=    0.000
 RMSDP=9.07D-08 MaxDP=4.09D-06 DE=-1.27D-09 OVMax= 8.09D-06

 Cycle  14  Pass 1  IDiag  1:
 RMSU=  5.23D-08    CP:  9.74D-01  3.00D+00  9.58D-01  1.06D+00  1.09D+00
                    CP:  1.29D+00  1.26D+00  1.31D+00  2.20D+00  2.22D+00
                    CP:  1.97D+00  1.31D+00  1.02D+00
 E= -604.539203920913     Delta-E=       -0.000000000084 Rises=F Damp=F
 DIIS: error= 1.96D-07 at cycle  14 NSaved=  14.
 NSaved=14 IEnMin=14 EnMin= -604.539203920913     IErMin=14 ErrMin= 1.96D-07
 ErrMax= 1.96D-07  0.00D+00 EMaxC= 1.00D-01 BMatC= 3.60D-11 BMatP= 1.79D-10
 IDIUse=1 WtCom= 1.00D+00 WtEn= 0.00D+00
 Coeff-Com: -0.336D-03 0.447D-03 0.802D-04-0.358D-04-0.109D-02-0.131D-02
 Coeff-Com:  0.545D-03 0.113D-01 0.127D-01-0.147D-01-0.595D-01 0.666D-02
 Coeff-Com:  0.308D+00 0.737D+00
 Coeff:     -0.336D-03 0.447D-03 0.802D-04-0.358D-04-0.109D-02-0.131D-02
 Coeff:      0.545D-03 0.113D-01 0.127D-01-0.147D-01-0.595D-01 0.666D-02
 Coeff:      0.308D+00 0.737D+00
 Gap=     0.111 Goal=   None    Shift=    0.000
 Gap=     0.164 Goal=   None    Shift=    0.000
 RMSDP=3.75D-08 MaxDP=1.50D-06 DE=-8.44D-11 OVMax= 3.01D-06

 Cycle  15  Pass 1  IDiag  1:
 RMSU=  2.49D-08    CP:  9.74D-01  3.00D+00  9.58D-01  1.06D+00  1.09D+00
                    CP:  1.29D+00  1.26D+00  1.31D+00  2.21D+00  2.22D+00
                    CP:  2.00D+00  1.34D+00  1.15D+00  1.09D+00
 E= -604.539203920959     Delta-E=       -0.000000000045 Rises=F Damp=F
 DIIS: error= 1.12D-07 at cycle  15 NSaved=  15.
 NSaved=15 IEnMin=15 EnMin= -604.539203920959     IErMin=15 ErrMin= 1.12D-07
 ErrMax= 1.12D-07  0.00D+00 EMaxC= 1.00D-01 BMatC= 9.65D-12 BMatP= 3.60D-11
 IDIUse=1 WtCom= 1.00D+00 WtEn= 0.00D+00
 Coeff-Com: -0.265D-03 0.353D-03 0.705D-04 0.174D-04-0.467D-03-0.101D-02
 Coeff-Com: -0.106D-02 0.282D-02 0.136D-01 0.684D-02-0.292D-01-0.682D-01
 Coeff-Com: -0.155D-01 0.308D+00 0.784D+00
 Coeff:     -0.265D-03 0.353D-03 0.705D-04 0.174D-04-0.467D-03-0.101D-02
 Coeff:     -0.106D-02 0.282D-02 0.136D-01 0.684D-02-0.292D-01-0.682D-01
 Coeff:     -0.155D-01 0.308D+00 0.784D+00
 Gap=     0.111 Goal=   None    Shift=    0.000
 Gap=     0.164 Goal=   None    Shift=    0.000
 RMSDP=1.85D-08 MaxDP=7.96D-07 DE=-4.55D-11 OVMax= 1.37D-06

 Cycle  16  Pass 1  IDiag  1:
 RMSU=  1.23D-08    CP:  9.74D-01  3.00D+00  9.58D-01  1.06D+00  1.09D+00
                    CP:  1.29D+00  1.26D+00  1.31D+00  2.20D+00  2.22D+00
                    CP:  2.00D+00  1.35D+00  1.18D+00  1.30D+00  9.82D-01
 E= -604.539203920948     Delta-E=        0.000000000010 Rises=F Damp=F
 DIIS: error= 6.66D-08 at cycle  16 NSaved=  16.
 NSaved=16 IEnMin=15 EnMin= -604.539203920959     IErMin=16 ErrMin= 6.66D-08
 ErrMax= 6.66D-08  0.00D+00 EMaxC= 1.00D-01 BMatC= 4.12D-12 BMatP= 9.65D-12
 IDIUse=1 WtCom= 1.00D+00 WtEn= 0.00D+00
 Coeff-Com: -0.977D-05 0.129D-04 0.630D-05 0.203D-04 0.166D-03-0.759D-04
 Coeff-Com: -0.896D-03-0.308D-02 0.317D-02 0.109D-01 0.729D-02-0.473D-01
 Coeff-Com: -0.146D+00-0.142D+00 0.470D+00 0.848D+00
 Coeff:     -0.977D-05 0.129D-04 0.630D-05 0.203D-04 0.166D-03-0.759D-04
 Coeff:     -0.896D-03-0.308D-02 0.317D-02 0.109D-01 0.729D-02-0.473D-01
 Coeff:     -0.146D+00-0.142D+00 0.470D+00 0.848D+00
 Gap=     0.111 Goal=   None    Shift=    0.000
 Gap=     0.164 Goal=   None    Shift=    0.000
 RMSDP=1.29D-08 MaxDP=7.32D-07 DE= 1.05D-11 OVMax= 1.25D-06

 Cycle  17  Pass 1  IDiag  1:
 RMSU=  8.30D-09    CP:  9.74D-01  3.00D+00  9.58D-01  1.06D+00  1.09D+00
                    CP:  1.29D+00  1.26D+00  1.31D+00  2.20D+00  2.22D+00
                    CP:  2.00D+00  1.35D+00  1.21D+00  1.36D+00  1.27D+00
                    CP:  1.23D+00
 E= -604.539203920965     Delta-E=       -0.000000000017 Rises=F Damp=F
 DIIS: error= 2.81D-08 at cycle  17 NSaved=  17.
 NSaved=17 IEnMin=17 EnMin= -604.539203920965     IErMin=17 ErrMin= 2.81D-08
 ErrMax= 2.81D-08  0.00D+00 EMaxC= 1.00D-01 BMatC= 6.55D-13 BMatP= 4.12D-12
 IDIUse=1 WtCom= 1.00D+00 WtEn= 0.00D+00
 Coeff-Com:  0.693D-04-0.924D-04-0.156D-04 0.549D-05 0.179D-03 0.250D-03
 Coeff-Com:  0.804D-04-0.169D-02-0.299D-02 0.109D-02 0.101D-01 0.730D-02
 Coeff-Com: -0.333D-01-0.130D+00-0.755D-01 0.255D+00 0.969D+00
 Coeff:      0.693D-04-0.924D-04-0.156D-04 0.549D-05 0.179D-03 0.250D-03
 Coeff:      0.804D-04-0.169D-02-0.299D-02 0.109D-02 0.101D-01 0.730D-02
 Coeff:     -0.333D-01-0.130D+00-0.755D-01 0.255D+00 0.969D+00
 Gap=     0.111 Goal=   None    Shift=    0.000
 Gap=     0.164 Goal=   None    Shift=    0.000
 RMSDP=6.59D-09 MaxDP=3.61D-07 DE=-1.73D-11 OVMax= 6.53D-07

 SCF Done:  E(UPBE1PBE) =  -604.539203921     A.U. after   17 cycles
            NFock= 17  Conv=0.66D-08     -V/T= 2.1868
 <Sx>= 0.0000 <Sy>= 0.0000 <Sz>= 0.5000 <S**2>= 0.7517 S= 0.5009
 <L.S>= 0.000000000000E+00
 KE= 5.094006217071D+02 PE=-2.887635201866D+03 EE= 1.018480344762D+03
 Annihilation of the first spin contaminant:
 S**2 before annihilation     0.7517,   after     0.7500
 Leave Link  502 at Fri Sep 11 21:23:07 2026, MaxMem=  6442450944 cpu:             186.0 elap:             185.1
 (Enter C:\G16W\l508.exe)
 QCSCF skips out because SCF is already converged.
 Leave Link  508 at Fri Sep 11 21:23:07 2026, MaxMem=  6442450944 cpu:               0.0 elap:               0.1
 (Enter C:\G16W\l601.exe)
 Copying SCF densities to generalized density rwf, IOpCl= 1 IROHF=0.

 **********************************************************************

            Population analysis using the SCF Density.

 **********************************************************************

 Alpha  occ. eigenvalues --  -14.44398 -14.38399 -10.30513 -10.28802 -10.28795
 Alpha  occ. eigenvalues --  -10.28013 -10.27075 -10.26855 -10.26816 -10.25425
 Alpha  occ. eigenvalues --  -10.25419  -3.74276  -2.32310  -2.32220  -2.32135
 Alpha  occ. eigenvalues --   -1.00496  -0.93169  -0.89934  -0.81079  -0.79903
 Alpha  occ. eigenvalues --   -0.76637  -0.72432  -0.65133  -0.63712  -0.59221
 Alpha  occ. eigenvalues --   -0.55523  -0.53525  -0.51067  -0.48809  -0.47338
 Alpha  occ. eigenvalues --   -0.46466  -0.44578  -0.44462  -0.44253  -0.42569
 Alpha  occ. eigenvalues --   -0.41806  -0.38564  -0.38330  -0.36951  -0.34911
 Alpha  occ. eigenvalues --   -0.33679  -0.32265  -0.31598  -0.31555  -0.31269
 Alpha  occ. eigenvalues --   -0.30135  -0.29183  -0.23150  -0.15348
 Alpha virt. eigenvalues --   -0.04231  -0.03208   0.01512   0.01727   0.04047
 Alpha virt. eigenvalues --    0.04755   0.05280   0.07277   0.08365   0.08575
 Alpha virt. eigenvalues --    0.09171   0.11765   0.11873   0.13274   0.13327
 Alpha virt. eigenvalues --    0.14270   0.14963   0.16797   0.17433   0.17901
 Alpha virt. eigenvalues --    0.20614   0.22351   0.26375   0.28003   0.28703
 Alpha virt. eigenvalues --    0.28860   0.30070   0.32203   0.34782   0.34898
 Alpha virt. eigenvalues --    0.35354   0.37757   0.38337   0.38839   0.41504
 Alpha virt. eigenvalues --    0.43134   0.44749   0.45447   0.45701   0.48223
 Alpha virt. eigenvalues --    0.48570   0.49218   0.49538   0.50590   0.51411
 Alpha virt. eigenvalues --    0.53735   0.58941   0.59311   0.60106   0.60978
 Alpha virt. eigenvalues --    0.61936   0.62508   0.63011   0.63352   0.63793
 Alpha virt. eigenvalues --    0.65829   0.66080   0.66134   0.67451   0.68196
 Alpha virt. eigenvalues --    0.68301   0.68902   0.69863   0.70338   0.72260
 Alpha virt. eigenvalues --    0.72558   0.73883   0.74670   0.77342   0.77802
 Alpha virt. eigenvalues --    0.80059   0.81791   0.83593   0.87632   0.88346
 Alpha virt. eigenvalues --    0.89480   0.92735   0.93933   0.94119   0.96746
 Alpha virt. eigenvalues --    1.03426   1.03839   1.06253   1.08124   1.10093
 Alpha virt. eigenvalues --    1.11134   1.18206   1.21620   1.22645   1.23146
 Alpha virt. eigenvalues --    1.23578   1.27736   1.27957   1.29234   1.29931
 Alpha virt. eigenvalues --    1.33379   1.33900   1.36354   1.48015   1.49639
 Alpha virt. eigenvalues --    1.50937   1.51474   1.52875   1.52967   1.62462
 Alpha virt. eigenvalues --    1.63130   1.66986   1.67952   1.70693   1.72608
 Alpha virt. eigenvalues --    1.72804   1.73354   1.74030   1.77321   1.77341
 Alpha virt. eigenvalues --    1.79065   1.81447   1.81772   1.81979   1.82356
 Alpha virt. eigenvalues --    1.85116   1.89867   1.89927   1.92631   1.93716
 Alpha virt. eigenvalues --    1.94006   1.95364   1.98191   1.98891   2.00993
 Alpha virt. eigenvalues --    2.06392   2.09213   2.11551   2.14169   2.16084
 Alpha virt. eigenvalues --    2.17149   2.17563   2.19413   2.21044   2.23484
 Alpha virt. eigenvalues --    2.25318   2.26638   2.30792   2.31046   2.32223
 Alpha virt. eigenvalues --    2.35111   2.37308   2.37720   2.38272   2.44445
 Alpha virt. eigenvalues --    2.44898   2.45752   2.58355   2.60624   2.62205
 Alpha virt. eigenvalues --    2.62783   2.63107   2.63452   2.63474   2.63992
 Alpha virt. eigenvalues --    2.64207   2.65059   2.65489   2.67447   2.67939
 Alpha virt. eigenvalues --    2.71122   2.76120   2.76992   2.80901   2.86975
 Alpha virt. eigenvalues --    2.89764   2.91357   2.91967   2.92171   2.93356
 Alpha virt. eigenvalues --    2.97562   3.03079   3.03759   3.06393   3.17566
 Alpha virt. eigenvalues --    3.21030   3.27090   3.44015   3.50680   3.73250
 Alpha virt. eigenvalues --   53.86150
  Beta  occ. eigenvalues --  -14.44393 -14.38375 -10.30504 -10.28803 -10.28795
  Beta  occ. eigenvalues --  -10.27969 -10.27070 -10.26822 -10.26782 -10.25436
  Beta  occ. eigenvalues --  -10.25430  -3.74149  -2.32288  -2.32153  -2.32087
  Beta  occ. eigenvalues --   -1.00486  -0.93104  -0.89877  -0.81026  -0.79879
  Beta  occ. eigenvalues --   -0.76623  -0.72405  -0.65100  -0.63673  -0.59197
  Beta  occ. eigenvalues --   -0.55503  -0.53507  -0.51052  -0.48789  -0.47322
  Beta  occ. eigenvalues --   -0.46455  -0.44576  -0.44452  -0.43970  -0.42550
  Beta  occ. eigenvalues --   -0.41801  -0.38455  -0.38317  -0.36922  -0.34871
  Beta  occ. eigenvalues --   -0.33335  -0.31725  -0.31001  -0.30977  -0.30634
  Beta  occ. eigenvalues --   -0.29718  -0.29007  -0.23010
  Beta virt. eigenvalues --   -0.06587  -0.03936  -0.02913   0.03657   0.03884
  Beta virt. eigenvalues --    0.04770   0.04949   0.06673   0.07977   0.08496
  Beta virt. eigenvalues --    0.08781   0.09537   0.11922   0.12623   0.13353
  Beta virt. eigenvalues --    0.13372   0.14283   0.15191   0.17535   0.17774
  Beta virt. eigenvalues --    0.17961   0.20825   0.22371   0.26801   0.28151
  Beta virt. eigenvalues --    0.29297   0.30022   0.30392   0.32469   0.35434
  Beta virt. eigenvalues --    0.36333   0.37094   0.38462   0.38912   0.39518
  Beta virt. eigenvalues --    0.42009   0.43702   0.44960   0.45641   0.46653
  Beta virt. eigenvalues --    0.48440   0.49324   0.50243   0.50403   0.51173
  Beta virt. eigenvalues --    0.51881   0.54114   0.59436   0.60349   0.60467
  Beta virt. eigenvalues --    0.61695   0.62030   0.62532   0.63109   0.63458
  Beta virt. eigenvalues --    0.63824   0.65859   0.66187   0.66241   0.67636
  Beta virt. eigenvalues --    0.68312   0.68433   0.68950   0.69875   0.70447
  Beta virt. eigenvalues --    0.72328   0.72651   0.74193   0.74676   0.77604
  Beta virt. eigenvalues --    0.78553   0.80414   0.81823   0.83794   0.87724
  Beta virt. eigenvalues --    0.88446   0.89711   0.92873   0.93979   0.94150
  Beta virt. eigenvalues --    0.96839   1.03836   1.03866   1.06408   1.08142
  Beta virt. eigenvalues --    1.10098   1.11143   1.18282   1.21677   1.22711
  Beta virt. eigenvalues --    1.23228   1.23601   1.27783   1.27985   1.29313
  Beta virt. eigenvalues --    1.30000   1.33414   1.33950   1.36462   1.48039
  Beta virt. eigenvalues --    1.49648   1.50939   1.51476   1.52904   1.53007
  Beta virt. eigenvalues --    1.62502   1.63249   1.66995   1.67994   1.70717
  Beta virt. eigenvalues --    1.72617   1.72830   1.73371   1.74045   1.77348
  Beta virt. eigenvalues --    1.77360   1.79102   1.81493   1.81805   1.81983
  Beta virt. eigenvalues --    1.82369   1.85183   1.89902   1.89937   1.92652
  Beta virt. eigenvalues --    1.93779   1.94014   1.95365   1.98215   1.99011
  Beta virt. eigenvalues --    2.00998   2.06433   2.09218   2.11851   2.14773
  Beta virt. eigenvalues --    2.16090   2.17181   2.17803   2.19425   2.21072
  Beta virt. eigenvalues --    2.23519   2.25358   2.26665   2.30889   2.31084
  Beta virt. eigenvalues --    2.32301   2.35154   2.37322   2.37765   2.38295
  Beta virt. eigenvalues --    2.44466   2.44942   2.45753   2.58373   2.60647
  Beta virt. eigenvalues --    2.62258   2.62812   2.63136   2.63467   2.63483
  Beta virt. eigenvalues --    2.64058   2.64245   2.65131   2.65506   2.67532
  Beta virt. eigenvalues --    2.67975   2.71133   2.76132   2.77001   2.80919
  Beta virt. eigenvalues --    2.86981   2.89798   2.91385   2.91970   2.92174
  Beta virt. eigenvalues --    2.93365   2.97567   3.03092   3.03788   3.06445
  Beta virt. eigenvalues --    3.17579   3.21048   3.27111   3.44026   3.50706
  Beta virt. eigenvalues --    3.73278  53.86310
          Condensed to atoms (all electrons):
               1          2          3          4          5          6
     1  N    6.237598   0.811949  -0.062864  -0.001070   0.000057   0.000052
     2  C    0.811949   5.356733   0.092050  -0.074442   0.015094   0.005756
     3  C   -0.062864   0.092050   5.915205   0.190165   0.105617  -0.196791
     4  C   -0.001070  -0.074442   0.190165   5.011426   0.303400   0.135969
     5  C    0.000057   0.015094   0.105617   0.303400   5.187007   0.192246
     6  C    0.000052   0.005756  -0.196791   0.135969   0.192246   5.179233
     7  N    0.000000   0.000037  -0.000394   0.007478  -0.096574   0.401783
     8  C    0.000000   0.000000   0.000055  -0.000160   0.007947  -0.061543
     9  C    0.000000   0.000000   0.000055   0.000982   0.003292  -0.061578
    10  C    0.000061   0.015368   0.104986  -0.151319   0.087320   0.192061
    11  C   -0.001009  -0.075266   0.183800   0.106896  -0.152138   0.136728
    12  H   -0.000927  -0.026356  -0.059471   0.461363  -0.065077   0.015883
    13  H   -0.000005  -0.000725   0.018880  -0.068934   0.464846  -0.084081
    14  H    0.000000   0.000000   0.000006   0.000010  -0.000149   0.007548
    15  H    0.000000   0.000004  -0.000122   0.000030  -0.000404  -0.011456
    16  H    0.000000  -0.000002  -0.000054  -0.000005  -0.000119  -0.011971
    17  H    0.000000   0.000004  -0.000121   0.001152   0.005332  -0.011476
    18  H    0.000000   0.000000   0.000006  -0.000078   0.000581   0.007545
    19  H    0.000000  -0.000002  -0.000054   0.001040   0.006184  -0.011945
    20  H   -0.000005  -0.000714   0.018994  -0.002276   0.015480  -0.084255
    21  H   -0.000957  -0.026279  -0.059748   0.014384  -0.002221   0.015866
    22  Ag   0.007375  -0.049138   0.051501  -0.022859   0.004538  -0.004410
               7          8          9         10         11         12
     1  N    0.000000   0.000000   0.000000   0.000061  -0.001009  -0.000927
     2  C    0.000037   0.000000   0.000000   0.015368  -0.075266  -0.026356
     3  C   -0.000394   0.000055   0.000055   0.104986   0.183800  -0.059471
     4  C    0.007478  -0.000160   0.000982  -0.151319   0.106896   0.461363
     5  C   -0.096574   0.007947   0.003292   0.087320  -0.152138  -0.065077
     6  C    0.401783  -0.061543  -0.061578   0.192061   0.136728   0.015883
     7  N    6.671594   0.349970   0.350036  -0.096629   0.007505  -0.000094
     8  C    0.349970   4.465713  -0.049677   0.003311   0.000983   0.000008
     9  C    0.350036  -0.049677   4.465723   0.007943  -0.000160  -0.000049
    10  C   -0.096629   0.003311   0.007943   5.186202   0.303061  -0.002213
    11  C    0.007505   0.000983  -0.000160   0.303061   5.021712   0.014451
    12  H   -0.000094   0.000008  -0.000049  -0.002213   0.014451   0.647022
    13  H   -0.016437  -0.000001   0.012414   0.015433  -0.002244  -0.013497
    14  H   -0.019558   0.399170  -0.012856   0.000583  -0.000079   0.000000
    15  H   -0.028884   0.401255   0.003486   0.005282   0.001159   0.000000
    16  H   -0.029842   0.400108   0.003450   0.006204   0.001046   0.000000
    17  H   -0.028902   0.003488   0.401185  -0.000407   0.000030   0.000002
    18  H   -0.019547  -0.012854   0.399184  -0.000149   0.000010   0.000000
    19  H   -0.029870   0.003451   0.400150  -0.000114  -0.000006   0.000021
    20  H   -0.016454   0.012425   0.000000   0.465333  -0.069328   0.000024
    21  H   -0.000093  -0.000050   0.000008  -0.064961   0.461678  -0.000154
    22  Ag  -0.000424  -0.000103  -0.000101   0.003780  -0.023162   0.000718
              13         14         15         16         17         18
     1  N   -0.000005   0.000000   0.000000   0.000000   0.000000   0.000000
     2  C   -0.000725   0.000000   0.000004  -0.000002   0.000004   0.000000
     3  C    0.018880   0.000006  -0.000122  -0.000054  -0.000121   0.000006
     4  C   -0.068934   0.000010   0.000030  -0.000005   0.001152  -0.000078
     5  C    0.464846  -0.000149  -0.000404  -0.000119   0.005332   0.000581
     6  C   -0.084081   0.007548  -0.011456  -0.011971  -0.011476   0.007545
     7  N   -0.016437  -0.019558  -0.028884  -0.029842  -0.028902  -0.019547
     8  C   -0.000001   0.399170   0.401255   0.400108   0.003488  -0.012854
     9  C    0.012414  -0.012856   0.003486   0.003450   0.401185   0.399184
    10  C    0.015433   0.000583   0.005282   0.006204  -0.000407  -0.000149
    11  C   -0.002244  -0.000079   0.001159   0.001046   0.000030   0.000010
    12  H   -0.013497   0.000000   0.000000   0.000000   0.000002   0.000000
    13  H    0.673024  -0.000004  -0.000025  -0.000018  -0.001925   0.000090
    14  H   -0.000004   0.608958  -0.020331  -0.020842   0.000356   0.004910
    15  H   -0.000025  -0.020331   0.631853  -0.041305   0.001288   0.000356
    16  H   -0.000018  -0.020842  -0.041305   0.637389  -0.000909   0.000331
    17  H   -0.001925   0.000356   0.001288  -0.000909   0.632100  -0.020333
    18  H    0.000090   0.004910   0.000356   0.000331  -0.020333   0.608922
    19  H   -0.001614   0.000331  -0.000908   0.001323  -0.041354  -0.020836
    20  H   -0.000170   0.000091  -0.001944  -0.001612  -0.000025  -0.000004
    21  H    0.000024   0.000000   0.000001   0.000023   0.000000   0.000000
    22  Ag  -0.000042  -0.000007   0.000370  -0.000068   0.000351  -0.000006
              19         20         21         22
     1  N    0.000000  -0.000005  -0.000957   0.007375
     2  C   -0.000002  -0.000714  -0.026279  -0.049138
     3  C   -0.000054   0.018994  -0.059748   0.051501
     4  C    0.001040  -0.002276   0.014384  -0.022859
     5  C    0.006184   0.015480  -0.002221   0.004538
     6  C   -0.011945  -0.084255   0.015866  -0.004410
     7  N   -0.029870  -0.016454  -0.000093  -0.000424
     8  C    0.003451   0.012425  -0.000050  -0.000103
     9  C    0.400150   0.000000   0.000008  -0.000101
    10  C   -0.000114   0.465333  -0.064961   0.003780
    11  C   -0.000006  -0.069328   0.461678  -0.023162
    12  H    0.000021   0.000024  -0.000154   0.000718
    13  H   -0.001614  -0.000170   0.000024  -0.000042
    14  H    0.000331   0.000091   0.000000  -0.000007
    15  H   -0.000908  -0.001944   0.000001   0.000370
    16  H    0.001323  -0.001612   0.000023  -0.000068
    17  H   -0.041354  -0.000025   0.000000   0.000351
    18  H   -0.020836  -0.000004   0.000000  -0.000006
    19  H    0.637414  -0.000018   0.000000  -0.000065
    20  H   -0.000018   0.672938  -0.013499  -0.000038
    21  H    0.000000  -0.013499   0.645292   0.000742
    22  Ag  -0.000065  -0.000038   0.000742  19.106277
          Atomic-Atomic Spin Densities.
               1          2          3          4          5          6
     1  N    0.021781  -0.000791   0.000000   0.000069  -0.000005   0.000004
     2  C   -0.000791   0.016640   0.017052   0.000335  -0.000221   0.000433
     3  C    0.000000   0.017052  -0.006703   0.009834  -0.000205   0.000874
     4  C    0.000069   0.000335   0.009834   0.021400  -0.001116  -0.000350
     5  C   -0.000005  -0.000221  -0.000205  -0.001116  -0.008096  -0.000395
     6  C    0.000004   0.000433   0.000874  -0.000350  -0.000395   0.010543
     7  N    0.000000   0.000002   0.000047  -0.000008  -0.000138  -0.001572
     8  C    0.000000   0.000000   0.000007  -0.000003  -0.000026  -0.000198
     9  C    0.000000   0.000000   0.000007  -0.000001   0.000001  -0.000225
    10  C   -0.000006  -0.000265  -0.000013  -0.000262   0.000837  -0.001000
    11  C    0.000114   0.000911   0.009767   0.000398  -0.000383  -0.000264
    12  H   -0.000055  -0.000248  -0.000131   0.000262  -0.000082  -0.000045
    13  H    0.000000  -0.000007  -0.000011  -0.000063  -0.000034  -0.000014
    14  H    0.000000   0.000000   0.000000   0.000000   0.000000   0.000005
    15  H    0.000000  -0.000001  -0.000007   0.000001   0.000023   0.000194
    16  H    0.000000   0.000000   0.000001  -0.000001  -0.000011  -0.000004
    17  H    0.000000  -0.000001  -0.000007  -0.000010   0.000029   0.000207
    18  H    0.000000   0.000000   0.000000   0.000000   0.000000   0.000006
    19  H    0.000000   0.000000   0.000001  -0.000005  -0.000017  -0.000006
    20  H    0.000000  -0.000007  -0.000010   0.000000   0.000016  -0.000003
    21  H   -0.000051  -0.000190  -0.000170   0.000037  -0.000006  -0.000038
    22  Ag  -0.017904  -0.046810  -0.023763  -0.018630   0.002529  -0.002445
               7          8          9         10         11         12
     1  N    0.000000   0.000000   0.000000  -0.000006   0.000114  -0.000055
     2  C    0.000002   0.000000   0.000000  -0.000265   0.000911  -0.000248
     3  C    0.000047   0.000007   0.000007  -0.000013   0.009767  -0.000131
     4  C   -0.000008  -0.000003  -0.000001  -0.000262   0.000398   0.000262
     5  C   -0.000138  -0.000026   0.000001   0.000837  -0.000383  -0.000082
     6  C   -0.001572  -0.000198  -0.000225  -0.001000  -0.000264  -0.000045
     7  N    0.003821   0.000408   0.000442  -0.000071  -0.000007  -0.000001
     8  C    0.000408   0.000061   0.000050   0.000010  -0.000001   0.000000
     9  C    0.000442   0.000050   0.000091  -0.000027  -0.000003  -0.000001
    10  C   -0.000071   0.000010  -0.000027  -0.008336  -0.000151  -0.000003
    11  C   -0.000007  -0.000001  -0.000003  -0.000151   0.020948   0.000034
    12  H   -0.000001   0.000000  -0.000001  -0.000003   0.000034  -0.000832
    13  H   -0.000022  -0.000001  -0.000006   0.000017   0.000000   0.000013
    14  H   -0.000006   0.000005   0.000001   0.000000   0.000000   0.000000
    15  H   -0.000318  -0.000558  -0.000042   0.000003  -0.000009   0.000000
    16  H    0.000015   0.000161   0.000009  -0.000033  -0.000004   0.000000
    17  H   -0.000330  -0.000041  -0.000575   0.000022   0.000001   0.000002
    18  H   -0.000006   0.000001   0.000005   0.000001   0.000000   0.000000
    19  H    0.000013   0.000010   0.000150  -0.000014  -0.000001  -0.000001
    20  H   -0.000021  -0.000003  -0.000001  -0.000046  -0.000068   0.000000
    21  H   -0.000001  -0.000001   0.000000  -0.000076   0.000347   0.000003
    22  Ag  -0.000627  -0.000165  -0.000160   0.001834  -0.021040   0.001025
              13         14         15         16         17         18
     1  N    0.000000   0.000000   0.000000   0.000000   0.000000   0.000000
     2  C   -0.000007   0.000000  -0.000001   0.000000  -0.000001   0.000000
     3  C   -0.000011   0.000000  -0.000007   0.000001  -0.000007   0.000000
     4  C   -0.000063   0.000000   0.000001  -0.000001  -0.000010   0.000000
     5  C   -0.000034   0.000000   0.000023  -0.000011   0.000029   0.000000
     6  C   -0.000014   0.000005   0.000194  -0.000004   0.000207   0.000006
     7  N   -0.000022  -0.000006  -0.000318   0.000015  -0.000330  -0.000006
     8  C   -0.000001   0.000005  -0.000558   0.000161  -0.000041   0.000001
     9  C   -0.000006   0.000001  -0.000042   0.000009  -0.000575   0.000005
    10  C    0.000017   0.000000   0.000003  -0.000033   0.000022   0.000001
    11  C    0.000000   0.000000  -0.000009  -0.000004   0.000001   0.000000
    12  H    0.000013   0.000000   0.000000   0.000000   0.000002   0.000000
    13  H    0.000376   0.000000   0.000001   0.000000   0.000024   0.000001
    14  H    0.000000  -0.000002   0.000005  -0.000007   0.000002   0.000000
    15  H    0.000001   0.000005   0.001049  -0.000195   0.000034   0.000002
    16  H    0.000000  -0.000007  -0.000195   0.000238  -0.000008  -0.000001
    17  H    0.000024   0.000002   0.000034  -0.000008   0.001076   0.000006
    18  H    0.000001   0.000000   0.000002  -0.000001   0.000006  -0.000004
    19  H   -0.000023  -0.000001  -0.000008   0.000006  -0.000216  -0.000008
    20  H    0.000000   0.000001   0.000021  -0.000023   0.000001   0.000000
    21  H    0.000000   0.000000   0.000002  -0.000001   0.000000   0.000000
    22  Ag   0.000124   0.000001   0.000301  -0.000049   0.000289   0.000001
              19         20         21         22
     1  N    0.000000   0.000000  -0.000051  -0.017904
     2  C    0.000000  -0.000007  -0.000190  -0.046810
     3  C    0.000001  -0.000010  -0.000170  -0.023763
     4  C   -0.000005   0.000000   0.000037  -0.018630
     5  C   -0.000017   0.000016  -0.000006   0.002529
     6  C   -0.000006  -0.000003  -0.000038  -0.002445
     7  N    0.000013  -0.000021  -0.000001  -0.000627
     8  C    0.000010  -0.000003  -0.000001  -0.000165
     9  C    0.000150  -0.000001   0.000000  -0.000160
    10  C   -0.000014  -0.000046  -0.000076   0.001834
    11  C   -0.000001  -0.000068   0.000347  -0.021040
    12  H   -0.000001   0.000000   0.000003   0.001025
    13  H   -0.000023   0.000000   0.000000   0.000124
    14  H   -0.000001   0.000001   0.000000   0.000001
    15  H   -0.000008   0.000021   0.000002   0.000301
    16  H    0.000006  -0.000023  -0.000001  -0.000049
    17  H   -0.000216   0.000001   0.000000   0.000289
    18  H   -0.000008   0.000000   0.000000   0.000001
    19  H    0.000276  -0.000001   0.000000  -0.000049
    20  H   -0.000001   0.000396   0.000010   0.000126
    21  H    0.000000   0.000010  -0.000806   0.000935
    22  Ag  -0.000049   0.000126   0.000935   1.111664
 Mulliken charges and spin densities:
               1          2
     1  N    0.009745   0.003157
     2  C   -0.044069  -0.013165
     3  C   -0.301698   0.006571
     4  C    0.086849   0.011884
     5  C   -0.082259  -0.007300
     6  C    0.248838   0.005707
     7  N   -0.404699   0.001621
     8  C    0.076503  -0.000285
     9  C    0.076515  -0.000285
    10  C   -0.081134  -0.007579
    11  C    0.084333   0.010587
    12  H    0.028348  -0.000060
    13  H    0.005012   0.000375
    14  H    0.051863   0.000002
    15  H    0.060298   0.000496
    16  H    0.056871   0.000092
    17  H    0.060165   0.000506
    18  H    0.051873   0.000001
    19  H    0.056871   0.000105
    20  H    0.005059   0.000388
    21  H    0.029945  -0.000006
    22  Ag  -0.075231   0.987188
 Sum of Mulliken charges =   0.00000   1.00000
 Mulliken charges and spin densities with hydrogens summed into heavy atoms:
               1          2
     1  N    0.009745   0.003157
     2  C   -0.044069  -0.013165
     3  C   -0.301698   0.006571
     4  C    0.115197   0.011824
     5  C   -0.077248  -0.006925
     6  C    0.248838   0.005707
     7  N   -0.404699   0.001621
     8  C    0.245535   0.000305
     9  C    0.245425   0.000327
    10  C   -0.076075  -0.007191
    11  C    0.114278   0.010581
    22  Ag  -0.075231   0.987188
 Electronic spatial extent (au):  <R**2>=           3450.3402
 Charge=              0.0000 electrons
 Dipole moment (field-independent basis, Debye):
    X=             -8.3789    Y=             -1.0324    Z=              1.2842  Tot=              8.5393
 Quadrupole moment (field-independent basis, Debye-Ang):
   XX=           -111.8343   YY=            -86.2638   ZZ=            -87.4079
   XY=             -3.5064   XZ=              4.5445   YZ=              9.4702
 Traceless Quadrupole moment (field-independent basis, Debye-Ang):
   XX=            -16.6657   YY=              8.9049   ZZ=              7.7608
   XY=             -3.5064   XZ=              4.5445   YZ=              9.4702
 Octapole moment (field-independent basis, Debye-Ang**2):
  XXX=           -574.2860  YYY=            -99.4316  ZZZ=            112.0689  XYY=           -130.9085
  XXY=            -32.3045  XXZ=             42.2268  XZZ=           -132.1381  YZZ=            -39.1388
  YYZ=             42.2067  XYZ=             16.8661
 Hexadecapole moment (field-independent basis, Debye-Ang**3):
 XXXX=          -5024.7444 YYYY=           -674.4569 ZZZZ=           -696.2307 XXXY=           -239.0144
 XXXZ=            320.6412 YYYX=           -287.0595 YYYZ=            107.2212 ZZZX=            341.4425
 ZZZY=            107.3761 XXYY=           -801.7333 XXZZ=           -808.3241 YYZZ=           -232.4378
 XXYZ=             91.3649 YYXZ=            128.0081 ZZXY=           -113.4496
 N-N= 7.552150314753D+02 E-N=-2.887635198664D+03  KE= 5.094006217071D+02
                          Isotropic Fermi Contact Couplings
        Atom                 a.u.       MegaHertz       Gauss      10(-4) cm-1
     1  N(14)              0.01228       3.96714       1.41558       1.32330
     2  C(13)              0.00492       5.53170       1.97385       1.84518
     3  C(13)              0.02209      24.82910       8.85964       8.28210
     4  C(13)              0.00853       9.58729       3.42098       3.19797
     5  C(13)             -0.00129      -1.45014      -0.51745      -0.48371
     6  C(13)              0.00167       1.87471       0.66894       0.62534
     7  N(14)              0.00065       0.20980       0.07486       0.06998
     8  C(13)             -0.00012      -0.13200      -0.04710      -0.04403
     9  C(13)             -0.00011      -0.12730      -0.04542      -0.04246
    10  C(13)             -0.00123      -1.38229      -0.49323      -0.46108
    11  C(13)              0.00952      10.70532       3.81992       3.57091
    12  H(1)              -0.00009      -0.39067      -0.13940      -0.13031
    13  H(1)               0.00009       0.38514       0.13743       0.12847
    14  H(1)               0.00000       0.00115       0.00041       0.00038
    15  H(1)               0.00005       0.21548       0.07689       0.07188
    16  H(1)               0.00004       0.18719       0.06679       0.06244
    17  H(1)               0.00004       0.19395       0.06921       0.06470
    18  H(1)               0.00000       0.00008       0.00003       0.00003
    19  H(1)               0.00004       0.16666       0.05947       0.05559
    20  H(1)               0.00009       0.40274       0.14371       0.13434
    21  H(1)              -0.00003      -0.14868      -0.05305      -0.04959
    22  Ag(107             0.00032      -0.05782      -0.02063      -0.01929
 --------------------------------------------------------
       Center         ----  Spin Dipole Couplings  ----
                      3XX-RR        3YY-RR        3ZZ-RR
 --------------------------------------------------------
     1   Atom       -0.010179      0.005486      0.004694
     2   Atom       -0.000148     -0.000142      0.000290
     3   Atom       -0.008288      0.003234      0.005053
     4   Atom       -0.010506      0.005980      0.004526
     5   Atom        0.004829     -0.001170     -0.003659
     6   Atom       -0.001051      0.000133      0.000918
     7   Atom       -0.001854      0.000560      0.001294
     8   Atom        0.000820     -0.000586     -0.000235
     9   Atom        0.000835     -0.000258     -0.000578
    10   Atom        0.004784     -0.003083     -0.001701
    11   Atom       -0.010071      0.002126      0.007945
    12   Atom       -0.002860      0.005053     -0.002193
    13   Atom        0.000946      0.000394     -0.001339
    14   Atom        0.000658     -0.000385     -0.000274
    15   Atom        0.001011     -0.000673     -0.000338
    16   Atom        0.000449     -0.000452      0.000003
    17   Atom        0.001023     -0.000350     -0.000673
    18   Atom        0.000668     -0.000293     -0.000376
    19   Atom        0.000467     -0.000034     -0.000433
    20   Atom        0.000968     -0.001452      0.000484
    21   Atom       -0.002885     -0.002396      0.005281
    22   Atom        0.005158     -0.001895     -0.003263
 --------------------------------------------------------
                        XY            XZ            YZ
 --------------------------------------------------------
     1   Atom       -0.003498      0.003560     -0.017059
     2   Atom       -0.003270      0.003224     -0.006805
     3   Atom        0.009744     -0.010312     -0.016512
     4   Atom        0.007325     -0.005659     -0.016585
     5   Atom        0.002114     -0.000600      0.004135
     6   Atom        0.001099     -0.001206     -0.005153
     7   Atom        0.000977     -0.001084     -0.004807
     8   Atom        0.000109     -0.000716      0.000007
     9   Atom        0.000687     -0.000175     -0.000031
    10   Atom        0.000570     -0.002343      0.004182
    11   Atom        0.005462     -0.007882     -0.015863
    12   Atom        0.000756     -0.000898     -0.000275
    13   Atom        0.001589     -0.000333     -0.000343
    14   Atom        0.000073     -0.000416     -0.000038
    15   Atom       -0.000116     -0.000846      0.000076
    16   Atom        0.000131     -0.000691     -0.000078
    17   Atom        0.000816      0.000045      0.000042
    18   Atom        0.000390     -0.000116     -0.000051
    19   Atom        0.000666     -0.000186     -0.000111
    20   Atom        0.000200     -0.001714     -0.000235
    21   Atom        0.000961     -0.000683     -0.000001
    22   Atom       -0.006287      0.007169      0.020525
 --------------------------------------------------------


 ---------------------------------------------------------------------------------
              Anisotropic Spin Dipole Couplings in Principal Axis System
 ---------------------------------------------------------------------------------

       Atom             a.u.   MegaHertz   Gauss  10(-4) cm-1        Axes

              Baa    -0.0120    -0.462    -0.165    -0.154 -0.0942  0.6858  0.7216
     1 N(14)  Bbb    -0.0109    -0.421    -0.150    -0.141  0.9843  0.1728 -0.0357
              Bcc     0.0229     0.883     0.315     0.295 -0.1491  0.7070 -0.6913
 
              Baa    -0.0067    -0.904    -0.323    -0.302  0.0209  0.7230  0.6906
     2 C(13)  Bbb    -0.0024    -0.324    -0.116    -0.108  0.8964  0.2924 -0.3332
              Bcc     0.0091     1.228     0.438     0.410  0.4428 -0.6260  0.6419
 
              Baa    -0.0141    -1.889    -0.674    -0.630  0.9258 -0.2551  0.2788
     3 C(13)  Bbb    -0.0124    -1.663    -0.593    -0.555 -0.0059  0.7280  0.6855
              Bcc     0.0265     3.552     1.268     1.185 -0.3779 -0.6363  0.6725
 
              Baa    -0.0134    -1.796    -0.641    -0.599  0.8774 -0.4570 -0.1460
     4 C(13)  Bbb    -0.0109    -1.464    -0.522    -0.488  0.4058  0.5447  0.7339
              Bcc     0.0243     3.260     1.163     1.087  0.2559  0.7032 -0.6633
 
              Baa    -0.0070    -0.939    -0.335    -0.313  0.1483 -0.6077  0.7802
     5 C(13)  Bbb     0.0014     0.192     0.068     0.064 -0.3336  0.7119  0.6180
              Bcc     0.0056     0.747     0.267     0.249  0.9310  0.3519  0.0972
 
              Baa    -0.0046    -0.623    -0.222    -0.208  0.0043  0.7330  0.6802
     6 C(13)  Bbb    -0.0014    -0.191    -0.068    -0.064  0.9747 -0.1550  0.1609
              Bcc     0.0061     0.814     0.291     0.272 -0.2234 -0.6623  0.7151
 
              Baa    -0.0039    -0.150    -0.054    -0.050  0.0110  0.7324  0.6808
     7 N(14)  Bbb    -0.0021    -0.082    -0.029    -0.027  0.9832 -0.1320  0.1261
              Bcc     0.0060     0.232     0.083     0.077 -0.1822 -0.6680  0.7215
 
              Baa    -0.0006    -0.087    -0.031    -0.029 -0.3585  0.6877 -0.6313
     8 C(13)  Bbb    -0.0005    -0.072    -0.026    -0.024  0.2752  0.7241  0.6325
              Bcc     0.0012     0.159     0.057     0.053  0.8920  0.0530 -0.4488
 
              Baa    -0.0006    -0.086    -0.031    -0.029  0.3603 -0.5899  0.7226
     9 C(13)  Bbb    -0.0005    -0.073    -0.026    -0.024 -0.2538  0.6835  0.6844
              Bcc     0.0012     0.159     0.057     0.053  0.8977  0.4300 -0.0966
 
              Baa    -0.0070    -0.934    -0.333    -0.312 -0.1669  0.7342 -0.6581
    10 C(13)  Bbb     0.0013     0.179     0.064     0.060  0.3384  0.6695  0.6612
              Bcc     0.0056     0.755     0.269     0.252  0.9261 -0.1124 -0.3602
 
              Baa    -0.0131    -1.757    -0.627    -0.586  0.8916  0.1315  0.4332
    11 C(13)  Bbb    -0.0108    -1.444    -0.515    -0.482 -0.3626  0.7805  0.5092
              Bcc     0.0239     3.201     1.142     1.068 -0.2712 -0.6111  0.7437
 
              Baa    -0.0035    -1.873    -0.668    -0.625  0.8302 -0.0554  0.5546
    12 H(1)   Bbb    -0.0016    -0.871    -0.311    -0.290 -0.5485  0.0962  0.8306
              Bcc     0.0051     2.744     0.979     0.915  0.0994  0.9938 -0.0495
 
              Baa    -0.0014    -0.750    -0.268    -0.250  0.0315  0.1603  0.9866
    13 H(1)   Bbb    -0.0009    -0.501    -0.179    -0.167 -0.6518  0.7516 -0.1013
              Bcc     0.0023     1.251     0.446     0.417  0.7577  0.6399 -0.1282
 
              Baa    -0.0004    -0.232    -0.083    -0.077  0.3339  0.2209  0.9163
    14 H(1)   Bbb    -0.0004    -0.207    -0.074    -0.069 -0.1403  0.9730 -0.1834
              Bcc     0.0008     0.439     0.157     0.146  0.9321  0.0673 -0.3559
 
              Baa    -0.0007    -0.400    -0.143    -0.133  0.4038 -0.2607  0.8769
    15 H(1)   Bbb    -0.0007    -0.361    -0.129    -0.121  0.1704  0.9632  0.2079
              Bcc     0.0014     0.762     0.272     0.254  0.8989 -0.0655 -0.4333
 
              Baa    -0.0005    -0.270    -0.096    -0.090  0.5805 -0.3508  0.7348
    16 H(1)   Bbb    -0.0005    -0.247    -0.088    -0.082  0.1268  0.9304  0.3439
              Bcc     0.0010     0.517     0.184     0.172  0.8043  0.1065 -0.5846
 
              Baa    -0.0007    -0.393    -0.140    -0.131 -0.3964  0.8705 -0.2916
    17 H(1)   Bbb    -0.0007    -0.357    -0.127    -0.119 -0.1476  0.2530  0.9561
              Bcc     0.0014     0.750     0.267     0.250  0.9061  0.4221  0.0282
 
              Baa    -0.0004    -0.231    -0.082    -0.077 -0.3063  0.9284  0.2105
    18 H(1)   Bbb    -0.0004    -0.207    -0.074    -0.069  0.1681 -0.1649  0.9719
              Bcc     0.0008     0.438     0.156     0.146  0.9370  0.3331 -0.1056
 
              Baa    -0.0005    -0.267    -0.095    -0.089 -0.5731  0.7269 -0.3783
    19 H(1)   Bbb    -0.0005    -0.246    -0.088    -0.082 -0.1006  0.3957  0.9129
              Bcc     0.0010     0.513     0.183     0.171  0.8133  0.5613 -0.1536
 
              Baa    -0.0015    -0.790    -0.282    -0.263  0.0047  0.9924  0.1226
    20 H(1)   Bbb    -0.0010    -0.534    -0.191    -0.178  0.6591 -0.0953  0.7460
              Bcc     0.0025     1.324     0.472     0.442  0.7520  0.0773 -0.6546
 
              Baa    -0.0037    -1.955    -0.698    -0.652  0.7957 -0.6026  0.0607
    21 H(1)   Bbb    -0.0017    -0.893    -0.319    -0.298  0.5998  0.7980  0.0591
              Bcc     0.0053     2.848     1.016     0.950 -0.0841 -0.0106  0.9964
 
              Baa    -0.0260     0.565     0.201     0.188 -0.2921 -0.6627  0.6896
    22 Ag(107 Bbb     0.0080    -0.175    -0.062    -0.058  0.9554 -0.2352  0.1787
              Bcc     0.0180    -0.390    -0.139    -0.130  0.0438  0.7110  0.7018
 

 ---------------------------------------------------------------------------------

 No NMR shielding tensors so no spin-rotation constants.
 Leave Link  601 at Fri Sep 11 21:23:07 2026, MaxMem=  6442450944 cpu:               0.0 elap:               0.6
 (Enter C:\G16W\l9999.exe)
 Unable to Open any file for archive entry.
 1|1|UNPC-DESKTOP-2JKEGCA|SP|UPBE1PBE|def2SVP|C9H10Ag1N2(2)|JHKIM|11-Se
 p-2026|0||#P PBE1PBE/Def2SVP EmpiricalDispersion=GD3BJ SP SCF=(XQC,Max
 Cycle=128) NoSymm Guess=Read||DMABN t=0.750 dz=+0.40 class=toface||0,2
 |N,0,5.143673,-0.350316,0.21822|C,0,3.998871,-0.272231,0.170326|C,0,2.
 596311,-0.177765,0.111532|C,0,1.861617,-1.009137,-0.736855|C,0,0.49137
 2,-0.916108,-0.795599|C,0,-0.21206,0.013916,-0.008461|N,0,-1.572327,0.
 10784,-0.067705|C,0,-2.276121,1.067277,0.747024|C,0,-2.327988,-0.75130
 9,-0.945467|C,0,0.541516,0.843475,0.842005|C,0,1.911725,0.749715,0.900
 076|H,0,2.379549,-1.731167,-1.351567|H,0,-0.036847,-1.576092,-1.463215
 |H,0,-3.344118,0.990693,0.558268|H,0,-1.962619,2.089882,0.51411|H,0,-2
 .105367,0.883166,1.812531|H,0,-2.039382,-0.601554,-1.990713|H,0,-3.387
 348,-0.525033,-0.852352|H,0,-2.182049,-1.805705,-0.689891|H,0,0.052874
 ,1.572236,1.466859|H,0,2.468717,1.398215,1.560873|Ag,0,3.35274959,1.55
 611483,-1.67405362||Version=EM64W-G16RevC.01|HF=-604.5392039|S2=0.7517
 18|S2-1=0.|S2A=0.750003|RMSD=6.590e-009|Dipole=-3.2965019,-0.4061782,0
 .5052273|Quadrupole=-12.3905308,6.6205704,5.7699604,-2.6069347,3.37872
 78,7.0408528|PG=C01 [X(C9H10Ag1N2)]||@
 The archive entry for this job was punched.


 A MAN BEGINS CUTTING HIS WISDOM TEETH THE 1ST
 TIME HE BITES OFF MORE THAN HE CAN CHEW.
 Job cpu time:       0 days  0 hours  3 minutes 22.0 seconds.
 Elapsed time:       0 days  0 hours  3 minutes 20.3 seconds.
 File lengths (MBytes):  RWF=     57 Int=      0 D2E=      0 Chk=      5 Scr=      1
 Normal termination of Gaussian 16 at Fri Sep 11 21:23:08 2026.
