 Entering Gaussian System, Link 0=C:\G16W\g16.exe
 Input=HATCN_t4_z1.gjf
 Output=HATCN_t4_z1.out
 Initial command:
 C:\G16W\l1.exe ".\Gau-84008.inp" "HATCN_t4_z1.out" /scrdir=".\"
 Entering Link 1 = C:\G16W\l1.exe PID=     99880.
  
 Copyright (c) 1988-2019, Gaussian, Inc.  All Rights Reserved.
  
 This is part of the Gaussian(R) 16 program.  It is based on
 the Gaussian(R) 09 system (copyright 2009, Gaussian, Inc.),
 the Gaussian(R) 03 system (copyright 2003, Gaussian, Inc.),
 the Gaussian(R) 98 system (copyright 1998, Gaussian, Inc.),
 the Gaussian(R) 94 system (copyright 1995, Gaussian, Inc.),
 the Gaussian 92(TM) system (copyright 1992, Gaussian, Inc.),
 the Gaussian 90(TM) system (copyright 1990, Gaussian, Inc.),
 the Gaussian 88(TM) system (copyright 1988, Gaussian, Inc.),
 the Gaussian 86(TM) system (copyright 1986, Carnegie Mellon
 University), and the Gaussian 82(TM) system (copyright 1983,
 Carnegie Mellon University). Gaussian is a federally registered
 trademark of Gaussian, Inc.
  
 This software contains proprietary and confidential information,
 including trade secrets, belonging to Gaussian, Inc.
  
 This software is provided under written license and may be
 used, copied, transmitted, or stored only in accord with that
 written license.
  
 The following legend is applicable only to US Government
 contracts under FAR:
  
                    RESTRICTED RIGHTS LEGEND
  
 Use, reproduction and disclosure by the US Government is
 subject to restrictions as set forth in subparagraphs (a)
 and (c) of the Commercial Computer Software - Restricted
 Rights clause in FAR 52.227-19.
  
 Gaussian, Inc.
 340 Quinnipiac St., Bldg. 40, Wallingford CT 06492
  
  
 ---------------------------------------------------------------
 Warning -- This program may not be used in any manner that
 competes with the business of Gaussian, Inc. or will provide
 assistance to any competitor of Gaussian, Inc.  The licensee
 of this program is prohibited from giving any competitor of
 Gaussian, Inc. access to this program.  By using this program,
 the user acknowledges that Gaussian, Inc. is engaged in the
 business of creating and licensing software in the field of
 computational chemistry and represents and warrants to the
 licensee that it is not a competitor of Gaussian, Inc. and that
 it will not use this program in any manner prohibited above.
 ---------------------------------------------------------------
  

 Cite this work as:
 Gaussian 16, Revision C.01,
 M. J. Frisch, G. W. Trucks, H. B. Schlegel, G. E. Scuseria, 
 M. A. Robb, J. R. Cheeseman, G. Scalmani, V. Barone, 
 G. A. Petersson, H. Nakatsuji, X. Li, M. Caricato, A. V. Marenich, 
 J. Bloino, B. G. Janesko, R. Gomperts, B. Mennucci, H. P. Hratchian, 
 J. V. Ortiz, A. F. Izmaylov, J. L. Sonnenberg, D. Williams-Young, 
 F. Ding, F. Lipparini, F. Egidi, J. Goings, B. Peng, A. Petrone, 
 T. Henderson, D. Ranasinghe, V. G. Zakrzewski, J. Gao, N. Rega, 
 G. Zheng, W. Liang, M. Hada, M. Ehara, K. Toyota, R. Fukuda, 
 J. Hasegawa, M. Ishida, T. Nakajima, Y. Honda, O. Kitao, H. Nakai, 
 T. Vreven, K. Throssell, J. A. Montgomery, Jr., J. E. Peralta, 
 F. Ogliaro, M. J. Bearpark, J. J. Heyd, E. N. Brothers, K. N. Kudin, 
 V. N. Staroverov, T. A. Keith, R. Kobayashi, J. Normand, 
 K. Raghavachari, A. P. Rendell, J. C. Burant, S. S. Iyengar, 
 J. Tomasi, M. Cossi, J. M. Millam, M. Klene, C. Adamo, R. Cammi, 
 J. W. Ochterski, R. L. Martin, K. Morokuma, O. Farkas, 
 J. B. Foresman, and D. J. Fox, Gaussian, Inc., Wallingford CT, 2019.
 
 ******************************************
 Gaussian 16:  EM64W-G16RevC.01 30-May-2019
                12-Sep-2026 
 ******************************************
 %Chk=HATCN.chk
 %NProcShared=8
 Will use up to    8 processors via shared memory.
 %Mem=48GB
 ----------------------------------------------------------------------
 #P PBE1PBE/Def2SVP EmpiricalDispersion=GD3BJ SP SCF=(XQC,MaxCycle=128)
  NoSymm Guess=Read
 ----------------------------------------------------------------------
 1/38=1,172=1/1;
 2/12=2,15=1,17=6,18=5,40=1/2;
 3/5=43,7=101,11=2,25=1,30=1,74=-13,116=-2,124=41/1,2,3;
 4/5=1/1;
 5/5=2,7=128,8=3,13=1,38=6/2,8;
 6/7=2,8=2,9=2,10=2,28=1/1;
 99/5=1,9=1/99;
 Leave Link    1 at Sat Sep 12 01:21:43 2026, MaxMem=  6442450944 cpu:               0.0 elap:               0.2
 (Enter C:\G16W\l101.exe)
 --------------------------------------
 HATCN t=1.000 dz=+0.40 class=site2site
 --------------------------------------
 Symbolic Z-matrix:
 Charge =  0 Multiplicity = 2
 N                    -2.61135   5.39999  -1.15554 
 C                    -1.91032   4.49873  -0.94781 
 C                    -1.02078   3.40514  -0.69357 
 N                    -1.60315   2.1915   -0.49979 
 C                    -0.81575   1.11099  -0.25358 
 C                    -1.39334  -0.14139  -0.05227 
 N                    -2.74445  -0.28324  -0.1022 
 C                    -3.2891   -1.51343   0.09681 
 C                    -4.71794  -1.58939   0.03004 
 N                    -5.87423  -1.6754   -0.01938 
 C                    -2.49407  -2.60351   0.34544 
 C                    -3.01919  -3.9186    0.56141 
 N                    -3.46773  -4.97504   0.73347 
 N                    -1.14054  -2.48239   0.39937 
 C                    -0.57675  -1.26104   0.20307 
 C                     0.80853  -1.11611   0.25422 
 N                     1.59673  -2.19599   0.50061 
 C                     2.94632  -2.03432   0.54656 
 C                     3.71472  -3.21402   0.81056 
 N                     4.35816  -4.15619   1.0231 
 C                     3.51485  -0.80163   0.34811 
 C                     4.92952  -0.58015   0.38638 
 N                     6.07909  -0.42499   0.42212 
 N                     2.7437    0.29089   0.10037 
 C                     1.39249   0.15004   0.05052 
 C                     0.58479   1.2575   -0.20193 
 N                     1.14769   2.47923  -0.3984 
 C                     0.34277   3.54776  -0.64334 
 C                     1.00321   4.80344  -0.84058 
 N                     1.51612   5.83162  -1.00374 
 Ag                   -2.41093   2.21213   2.07646 
 
 ITRead=  0  0  0  0  0  0  0  0  0  0  0  0  0  0  0  0  0  0  0  0
 ITRead=  0  0  0  0  0  0  0  0  0  0  0
 MicOpt= -1 -1 -1 -1 -1 -1 -1 -1 -1 -1 -1 -1 -1 -1 -1 -1 -1 -1 -1 -1
 MicOpt= -1 -1 -1 -1 -1 -1 -1 -1 -1 -1 -1
 NAtoms=     31 NQM=       31 NQMF=       0 NMMI=      0 NMMIF=      0
                NMic=       0 NMicF=      0.
                    Isotopes and Nuclear Properties:
 (Nuclear quadrupole moments (NQMom) in fm**2, nuclear magnetic moments (NMagM)
  in nuclear magnetons)

  Atom         1           2           3           4           5           6           7           8           9          10
 IAtWgt=          14          12          12          14          12          12          14          12          12          14
 AtmWgt=  14.0030740  12.0000000  12.0000000  14.0030740  12.0000000  12.0000000  14.0030740  12.0000000  12.0000000  14.0030740
 NucSpn=           2           0           0           2           0           0           2           0           0           2
 AtZEff=   0.0000000   0.0000000   0.0000000   0.0000000   0.0000000   0.0000000   0.0000000   0.0000000   0.0000000   0.0000000
 NQMom=    2.0440000   0.0000000   0.0000000   2.0440000   0.0000000   0.0000000   2.0440000   0.0000000   0.0000000   2.0440000
 NMagM=    0.4037610   0.0000000   0.0000000   0.4037610   0.0000000   0.0000000   0.4037610   0.0000000   0.0000000   0.4037610
 AtZNuc=   7.0000000   6.0000000   6.0000000   7.0000000   6.0000000   6.0000000   7.0000000   6.0000000   6.0000000   7.0000000

  Atom        11          12          13          14          15          16          17          18          19          20
 IAtWgt=          12          12          14          14          12          12          14          12          12          14
 AtmWgt=  12.0000000  12.0000000  14.0030740  14.0030740  12.0000000  12.0000000  14.0030740  12.0000000  12.0000000  14.0030740
 NucSpn=           0           0           2           2           0           0           2           0           0           2
 AtZEff=   0.0000000   0.0000000   0.0000000   0.0000000   0.0000000   0.0000000   0.0000000   0.0000000   0.0000000   0.0000000
 NQMom=    0.0000000   0.0000000   2.0440000   2.0440000   0.0000000   0.0000000   2.0440000   0.0000000   0.0000000   2.0440000
 NMagM=    0.0000000   0.0000000   0.4037610   0.4037610   0.0000000   0.0000000   0.4037610   0.0000000   0.0000000   0.4037610
 AtZNuc=   6.0000000   6.0000000   7.0000000   7.0000000   6.0000000   6.0000000   7.0000000   6.0000000   6.0000000   7.0000000

  Atom        21          22          23          24          25          26          27          28          29          30
 IAtWgt=          12          12          14          14          12          12          14          12          12          14
 AtmWgt=  12.0000000  12.0000000  14.0030740  14.0030740  12.0000000  12.0000000  14.0030740  12.0000000  12.0000000  14.0030740
 NucSpn=           0           0           2           2           0           0           2           0           0           2
 AtZEff=   0.0000000   0.0000000   0.0000000   0.0000000   0.0000000   0.0000000   0.0000000   0.0000000   0.0000000   0.0000000
 NQMom=    0.0000000   0.0000000   2.0440000   2.0440000   0.0000000   0.0000000   2.0440000   0.0000000   0.0000000   2.0440000
 NMagM=    0.0000000   0.0000000   0.4037610   0.4037610   0.0000000   0.0000000   0.4037610   0.0000000   0.0000000   0.4037610
 AtZNuc=   6.0000000   6.0000000   7.0000000   7.0000000   6.0000000   6.0000000   7.0000000   6.0000000   6.0000000   7.0000000

  Atom        31
 IAtWgt=         107
 AtmWgt= 106.9050900
 NucSpn=           1
 AtZEff=   0.0000000
 NQMom=    0.0000000
 NMagM=   -0.1135700
 AtZNuc=  47.0000000
 Leave Link  101 at Sat Sep 12 01:21:43 2026, MaxMem=  6442450944 cpu:               0.0 elap:               0.4
 (Enter C:\G16W\l202.exe)
                          Input orientation:                          
 ---------------------------------------------------------------------
 Center     Atomic      Atomic             Coordinates (Angstroms)
 Number     Number       Type             X           Y           Z
 ---------------------------------------------------------------------
      1          7           0       -2.611348    5.399985   -1.155538
      2          6           0       -1.910320    4.498728   -0.947808
      3          6           0       -1.020781    3.405143   -0.693573
      4          7           0       -1.603150    2.191496   -0.499794
      5          6           0       -0.815750    1.110993   -0.253581
      6          6           0       -1.393339   -0.141391   -0.052273
      7          7           0       -2.744445   -0.283235   -0.102199
      8          6           0       -3.289096   -1.513430    0.096812
      9          6           0       -4.717936   -1.589392    0.030040
     10          7           0       -5.874228   -1.675402   -0.019378
     11          6           0       -2.494073   -2.603514    0.345437
     12          6           0       -3.019195   -3.918595    0.561413
     13          7           0       -3.467734   -4.975035    0.733469
     14          7           0       -1.140539   -2.482394    0.399369
     15          6           0       -0.576747   -1.261039    0.203066
     16          6           0        0.808530   -1.116108    0.254224
     17          7           0        1.596730   -2.195985    0.500607
     18          6           0        2.946318   -2.034320    0.546556
     19          6           0        3.714722   -3.214024    0.810558
     20          7           0        4.358155   -4.156189    1.023098
     21          6           0        3.514850   -0.801628    0.348106
     22          6           0        4.929519   -0.580153    0.386379
     23          7           0        6.079085   -0.424992    0.422118
     24          7           0        2.743704    0.290890    0.100372
     25          6           0        1.392486    0.150039    0.050519
     26          6           0        0.584785    1.257497   -0.201933
     27          7           0        1.147692    2.479234   -0.398398
     28          6           0        0.342769    3.547761   -0.643340
     29          6           0        1.003212    4.803441   -0.840583
     30          7           0        1.516124    5.831620   -1.003743
     31         47           0       -2.410931    2.212134    2.076456
 ---------------------------------------------------------------------
                    Distance matrix (angstroms):
                    1          2          3          4          5
     1  N    0.000000
     2  C    1.160541   0.000000
     3  C    2.592819   1.432426   0.000000
     4  N    3.426495   2.370314   1.360016   0.000000
     5  C    4.736365   3.627228   2.344942   1.359451   0.000000
     6  C    5.779930   4.753941   3.623254   2.384671   1.393772
     7  N    5.781542   4.927270   4.113985   2.754075   2.384670
     8  C    7.058543   6.256061   5.473785   4.113980   3.623232
     9  C    7.395586   6.775256   6.256033   4.927244   4.753901
    10  N    7.873903   7.395568   7.058500   5.781506   5.779883
    11  C    8.143874   7.242589   6.273284   4.949776   4.119849
    12  C    9.484208   8.623148   7.694530   6.361176   5.551229
    13  N   10.580302   9.747021   8.845983   7.507115   6.711708
    14  N    8.167797   7.151469   5.989320   4.782024   3.666642
    15  C    7.096101   6.023109   4.772251   3.669811   2.427382
    16  C    7.492827   6.353220   4.968542   4.162330   2.802879
    17  N    8.840220   7.695225   6.296830   5.521777   4.162327
    18  C    9.436825   8.276519   6.845696   6.296827   4.968538
    19  C   10.866731   9.706673   8.276519   7.695221   6.353215
    20  N   12.026674  10.866731   9.436824   8.840218   7.492824
    21  C    8.845974   7.694520   6.273274   5.989295   4.772237
    22  C    9.747012   8.623137   7.242579   7.151441   6.023092
    23  N   10.580311   9.484214   8.143881   8.167782   7.096095
    24  N    7.507113   6.361173   4.949775   4.782012   3.669818
    25  C    6.711721   5.551241   4.119858   3.666637   2.427389
    26  C    5.318349   4.157819   2.726158   2.397527   1.409124
    27  N    4.820210   3.705623   2.376281   2.767708   2.397532
    28  C    3.524186   2.464437   1.371908   2.376270   2.726154
    29  C    3.676970   2.931385   2.464426   3.705606   4.157808
    30  N    4.152755   3.676989   3.524185   4.820201   5.318336
    31  Ag   4.544045   3.824304   3.320971   2.700000   3.030872
                    6          7          8          9         10
     6  C    0.000000
     7  N    1.359448   0.000000
     8  C    2.344912   1.360011   0.000000
     9  C    3.627179   2.370274   1.432415   0.000000
    10  N    4.736311   3.426446   2.592806   1.160539   0.000000
    11  C    2.726140   2.376291   1.371918   2.464444   3.524192
    12  C    4.157798   3.705632   2.464451   2.931427   3.677016
    13  N    5.318329   4.820215   3.524195   3.677009   4.152779
    14  N    2.397537   2.767740   2.376285   3.705621   4.820207
    15  C    1.409125   2.397541   2.726138   4.157788   5.318316
    16  C    2.427394   3.666653   4.119852   5.551224   6.711700
    17  N    3.669815   4.782028   4.949770   6.361163   7.507104
    18  C    4.772253   5.989321   6.273275   7.694514   8.845967
    19  C    6.023109   7.151468   7.242577   8.623129   9.747005
    20  N    7.096105   8.167802   8.143871   9.484199  10.580299
    21  C    4.968555   6.296847   6.845691   8.276503   9.436806
    22  C    6.353224   7.695232   8.276502   9.706644  10.866700
    23  N    7.492836   8.840231   9.436808  10.866702  12.026643
    24  N    4.162366   5.521814   6.296845   7.695224   8.840215
    25  C    2.802913   4.162361   4.968549   6.353212   7.492813
    26  C    2.427398   3.669819   4.772236   6.023075   7.096060
    27  N    3.666649   4.782018   5.989298   7.151424   8.167742
    28  C    4.119863   4.949773   6.273270   7.242549   8.143820
    29  C    5.551239   6.361165   7.694510   8.623099   9.484143
    30  N    6.711716   7.507109   8.845966   9.746981  10.580248
    31  Ag   3.332576   3.329360   4.309291   4.895068   5.612475
                   11         12         13         14         15
    11  C    0.000000
    12  C    1.432423   0.000000
    13  N    2.592816   1.160541   0.000000
    14  N    1.360012   2.370291   3.426473   0.000000
    15  C    2.344920   3.627198   4.736338   1.359450   0.000000
    16  C    3.623242   4.753922   5.779916   2.384675   1.393777
    17  N    4.113979   4.927255   5.781534   2.754073   2.384671
    18  C    5.473782   6.256042   7.058527   4.113980   3.623249
    19  C    6.256053   6.775259   7.395592   4.927263   4.753936
    20  N    7.058545   7.395600   7.873940   5.781545   5.779931
    21  C    6.273273   7.242564   8.143851   4.949773   4.119862
    22  C    7.694504   8.623102   9.484161   6.361155   5.551232
    23  N    8.845953   9.746967  10.580245   7.507089   6.711711
    24  N    5.989319   7.151456   8.167787   4.782034   3.666664
    25  C    4.772250   6.023099   7.096093   3.669825   2.427404
    26  C    4.968540   6.353212   7.492819   4.162342   2.802892
    27  N    6.296830   7.695219   8.840215   5.521792   4.162342
    28  C    6.845695   8.276515   9.436821   6.296842   4.968548
    29  C    8.276511   9.706661  10.866719   7.695228   6.353219
    30  N    9.436814  10.866716  12.026659   8.840216   7.492817
    31  Ag   5.117988   6.344381   7.387546   5.144425   4.351638
                   16         17         18         19         20
    16  C    0.000000
    17  N    1.359448   0.000000
    18  C    2.344933   1.360013   0.000000
    19  C    3.627218   2.370309   1.432426   0.000000
    20  N    4.736359   3.426495   2.592818   1.160540   0.000000
    21  C    2.726147   2.376273   1.371911   2.464440   3.524182
    22  C    4.157795   3.705596   2.464416   2.931371   3.676942
    23  N    5.318325   4.820175   3.524152   3.676928   4.152663
    24  N    2.397543   2.767722   2.376286   3.705626   4.820206
    25  C    1.409123   2.397524   2.726146   4.157807   5.318336
    26  C    2.427373   3.666624   4.119846   5.551229   6.711708
    27  N    3.669800   4.781999   4.949764   6.361164   7.507101
    28  C    4.772235   5.989295   6.273273   7.694519   8.845970
    29  C    6.023086   7.151435   7.242568   8.623126   9.746995
    30  N    7.096062   8.167742   8.143826   9.484155  10.580244
    31  Ag   4.976209   6.162480   7.005218   8.280659   9.353375
                   21         22         23         24         25
    21  C    0.000000
    22  C    1.432412   0.000000
    23  N    2.592804   1.160540   0.000000
    24  N    1.360012   2.370296   3.426481   0.000000
    25  C    2.344922   3.627201   4.736344   1.359454   0.000000
    26  C    3.623233   4.753923   5.779926   2.384670   1.393763
    27  N    4.113971   4.927265   5.781558   2.754065   2.384659
    28  C    5.473778   6.256059   7.058561   4.113977   3.623239
    29  C    6.256046   6.775279   7.395635   4.927253   4.753919
    30  N    7.058497   7.395576   7.873937   5.781497   5.779889
    31  Ag   6.869122   8.033395   9.042767   5.845199   4.777304
                   26         27         28         29         30
    26  C    0.000000
    27  N    1.359450   0.000000
    28  C    2.344935   1.360017   0.000000
    29  C    3.627213   2.370304   1.432418   0.000000
    30  N    4.736337   3.426467   2.592810   1.160540   0.000000
    31  Ag   3.882873   4.342815   4.094393   5.184628   6.165231
                   31
    31  Ag   0.000000
 Symmetry turned off by external request.
 Stoichiometry    C18AgN12(2)
 Framework group  C1[X(C18AgN12)]
 Deg. of freedom    87
 Full point group                 C1      NOp   1
 Rotational constants (GHZ):           0.1340645           0.1103714           0.0677886
 Leave Link  202 at Sat Sep 12 01:21:44 2026, MaxMem=  6442450944 cpu:               0.0 elap:               0.1
 (Enter C:\G16W\l301.exe)
 Standard basis: def2SVP (5D, 7F)
 Ernie: Thresh=  0.10000D-02 Tol=  0.10000D-05 Strict=F.
   451 basis functions,   815 primitive gaussians,   486 cartesian basis functions
   106 alpha electrons      105 beta electrons
       nuclear repulsion energy      2756.3500081676 Hartrees.
 IExCor= 1009 DFT=T Ex+Corr=PBE1PBE ExCW=0 ScaHFX=  0.250000
 ScaDFX=  0.750000  0.750000  1.000000  1.000000 ScalE2=  1.000000  1.000000
 IRadAn=      5 IRanWt=     -1 IRanGd=            0 ICorTp=0 IEmpDi=141
 NAtoms=   31 NActive=   31 NUniq=   31 SFac= 1.00D+00 NAtFMM=   60 NAOKFM=F Big=F
 Integral buffers will be    131072 words long.
 Raffenetti 2 integral format.
 Two-electron integral symmetry is turned off.
 R6Disp:  Grimme-D3(BJ) Dispersion energy=       -0.0536369442 Hartrees.
 Nuclear repulsion after empirical dispersion term =     2756.2963712235 Hartrees.
 Leave Link  301 at Sat Sep 12 01:21:44 2026, MaxMem=  6442450944 cpu:               0.0 elap:               0.2
 (Enter C:\G16W\l302.exe)
 NPDir=0 NMtPBC=     1 NCelOv=     1 NCel=       1 NClECP=     1 NCelD=      1
         NCelK=      1 NCelE2=     1 NClLst=     1 CellRange=     0.0.
 One-electron integrals computed using PRISM.
   1 Symmetry operations used in ECPInt.
 ECPInt:  NShTT=   18336 NPrTT=   72415 LenC2=   15378 LenP2D=   39238.
 LDataN:  DoStor=T MaxTD1= 7 Len=  274
 NBasis=   451 RedAO= T EigKep=  2.12D-05  NBF=   451
 NBsUse=   451 1.00D-06 EigRej= -1.00D+00 NBFU=   451
 Precomputing XC quadrature grid using
 IXCGrd= 4 IRadAn=           5 IRanWt=          -1 IRanGd=           0 AccXCQ= 0.00D+00.
 Defaulting to unpruned grid for atomic number  47.
 Generated NRdTot=       0 NPtTot=           0 NUsed=           0 NTot=          32
 NSgBfM=   476   476   476   476   476 MxSgAt=    31 MxSgA2=    31.
 Leave Link  302 at Sat Sep 12 01:21:57 2026, MaxMem=  6442450944 cpu:              13.0 elap:              12.5
 (Enter C:\G16W\l303.exe)
 DipDrv:  MaxL=1.
 Leave Link  303 at Sat Sep 12 01:21:59 2026, MaxMem=  6442450944 cpu:               2.0 elap:               2.2
 (Enter C:\G16W\l401.exe)
 Initial guess from the checkpoint file:  "HATCN.chk"
 B after Tr=    -0.049877    0.012306    0.120453
         Rot=    0.999957   -0.007444   -0.005444   -0.000962 Ang=  -1.06 deg.
 Guess basis will be translated and rotated to current coordinates.
 JPrj=2 DoOrth=T DoCkMO=T.
 Initial guess <Sx>= 0.0000 <Sy>= 0.0000 <Sz>= 0.5000 <S**2>= 0.7650 S= 0.5075
 Leave Link  401 at Sat Sep 12 01:22:33 2026, MaxMem=  6442450944 cpu:              34.0 elap:              33.4
 (Enter C:\G16W\l502.exe)
 Two-electron integral symmetry not used.
 UHF open shell SCF:
 Using DIIS extrapolation, IDIIS=  1040.
 NGot=  6442450944 LenX=  6441970456 LenY=  6441733774
 Requested convergence on RMS density matrix=1.00D-08 within 128 cycles.
 Requested convergence on MAX density matrix=1.00D-06.
 Requested convergence on             energy=1.00D-06.
 No special actions if energy rises.
 Fock matrices will be formed incrementally for  20 cycles.

 Cycle   1  Pass 1  IDiag  1:
 FoFJK:  IHMeth= 1 ICntrl=       0 DoSepK=F KAlg= 0 I1Cent=           0 FoldK=F
 IRaf= 750000000 NMat=       1 IRICut=       1 DoRegI=T DoRafI=F ISym2E= 0 IDoP0=0 IntGTp=1.
 FoFCou: FMM=F IPFlag=           0 FMFlag=      100000 FMFlg1=           0
         NFxFlg=           0 DoJE=F BraDBF=F KetDBF=F FulRan=T
         wScrn=  0.000000 ICntrl=         0 IOpCl=  1 I1Cent=           0 NGrid=           0
         NMat0=    1 NMatS0=      1 NMatT0=    0 NMatD0=    1 NMtDS0=    0 NMtDT0=    0
 Symmetry not used in FoFCou.
 Defaulting to unpruned grid for atomic number  47.
 Defaulting to unpruned grid for atomic number  47.
 Defaulting to unpruned grid for atomic number  47.
 Defaulting to unpruned grid for atomic number  47.
 Defaulting to unpruned grid for atomic number  47.
 Defaulting to unpruned grid for atomic number  47.
 Defaulting to unpruned grid for atomic number  47.
 Defaulting to unpruned grid for atomic number  47.
 E= -1487.20448719220    
 DIIS: error= 1.12D-02 at cycle   1 NSaved=   1.
 NSaved= 1 IEnMin= 1 EnMin= -1487.20448719220     IErMin= 1 ErrMin= 1.12D-02
 ErrMax= 1.12D-02  0.00D+00 EMaxC= 1.00D-01 BMatC= 1.21D-01 BMatP= 1.21D-01
 IDIUse=3 WtCom= 8.88D-01 WtEn= 1.12D-01
 Coeff-Com:  0.100D+01
 Coeff-En:   0.100D+01
 Coeff:      0.100D+01
 Gap=     0.082 Goal=   None    Shift=    0.000
 Gap=     0.173 Goal=   None    Shift=    0.000
 GapD=    0.082 DampG=0.500 DampE=0.250 DampFc=0.1250 IDamp=-1.
 Damping current iteration by 1.25D-01
 RMSDP=9.79D-04 MaxDP=1.47D-01              OVMax= 2.37D-01

 Cycle   2  Pass 1  IDiag  1:
 RMSU=  1.22D-04    CP:  1.00D+00
 E= -1487.20610061575     Delta-E=       -0.001613423547 Rises=F Damp=T
 DIIS: error= 9.80D-03 at cycle   2 NSaved=   2.
 NSaved= 2 IEnMin= 2 EnMin= -1487.20610061575     IErMin= 2 ErrMin= 9.80D-03
 ErrMax= 9.80D-03  0.00D+00 EMaxC= 1.00D-01 BMatC= 9.24D-02 BMatP= 1.21D-01
 IDIUse=3 WtCom= 9.02D-01 WtEn= 9.80D-02
 Coeff-Com: -0.576D+01 0.676D+01
 Coeff-En:   0.000D+00 0.100D+01
 Coeff:     -0.519D+01 0.619D+01
 Gap=     0.045 Goal=   None    Shift=    0.000
 Gap=     0.185 Goal=   None    Shift=    0.000
 RMSDP=7.74D-04 MaxDP=5.89D-02 DE=-1.61D-03 OVMax= 1.62D-01

 Cycle   3  Pass 1  IDiag  1:
 RMSU=  6.37D-04    CP:  9.98D-01  3.00D+00
 E= -1487.20594542825     Delta-E=        0.000155187500 Rises=F Damp=F
 DIIS: error= 3.94D-03 at cycle   3 NSaved=   3.
 NSaved= 3 IEnMin= 2 EnMin= -1487.20610061575     IErMin= 3 ErrMin= 3.94D-03
 ErrMax= 3.94D-03  0.00D+00 EMaxC= 1.00D-01 BMatC= 4.23D-02 BMatP= 9.24D-02
 IDIUse=3 WtCom= 9.61D-01 WtEn= 3.94D-02
 Coeff-Com: -0.419D+01 0.479D+01 0.401D+00
 Coeff-En:   0.000D+00 0.518D+00 0.482D+00
 Coeff:     -0.403D+01 0.462D+01 0.405D+00
 Gap=     0.048 Goal=   None    Shift=    0.000
 Gap=     0.170 Goal=   None    Shift=    0.000
 RMSDP=4.86D-04 MaxDP=1.10D-01 DE= 1.55D-04 OVMax= 1.49D-01

 Cycle   4  Pass 1  IDiag  1:
 RMSU=  4.52D-04    CP:  9.97D-01  3.00D+00  7.20D-01
 E= -1487.21758647061     Delta-E=       -0.011641042362 Rises=F Damp=F
 DIIS: error= 1.06D-03 at cycle   4 NSaved=   4.
 NSaved= 4 IEnMin= 4 EnMin= -1487.21758647061     IErMin= 4 ErrMin= 1.06D-03
 ErrMax= 1.06D-03  0.00D+00 EMaxC= 1.00D-01 BMatC= 2.64D-03 BMatP= 4.23D-02
 IDIUse=3 WtCom= 9.89D-01 WtEn= 1.06D-02
 Coeff-Com: -0.228D+01 0.260D+01 0.283D+00 0.397D+00
 Coeff-En:   0.000D+00 0.000D+00 0.483D-02 0.995D+00
 Coeff:     -0.225D+01 0.257D+01 0.280D+00 0.403D+00
 Gap=     0.050 Goal=   None    Shift=    0.000
 Gap=     0.164 Goal=   None    Shift=    0.000
 RMSDP=7.33D-05 MaxDP=5.02D-03 DE=-1.16D-02 OVMax= 9.66D-03

 Cycle   5  Pass 1  IDiag  1:
 RMSU=  6.26D-05    CP:  9.98D-01  3.00D+00  7.79D-01  9.93D-01
 E= -1487.21821975121     Delta-E=       -0.000633280599 Rises=F Damp=F
 DIIS: error= 3.77D-04 at cycle   5 NSaved=   5.
 NSaved= 5 IEnMin= 5 EnMin= -1487.21821975121     IErMin= 5 ErrMin= 3.77D-04
 ErrMax= 3.77D-04  0.00D+00 EMaxC= 1.00D-01 BMatC= 3.54D-04 BMatP= 2.64D-03
 IDIUse=3 WtCom= 9.96D-01 WtEn= 3.77D-03
 Coeff-Com: -0.311D+00 0.353D+00 0.102D+00 0.270D+00 0.587D+00
 Coeff-En:   0.000D+00 0.000D+00 0.000D+00 0.000D+00 0.100D+01
 Coeff:     -0.310D+00 0.351D+00 0.101D+00 0.269D+00 0.589D+00
 Gap=     0.050 Goal=   None    Shift=    0.000
 Gap=     0.164 Goal=   None    Shift=    0.000
 RMSDP=5.41D-05 MaxDP=4.42D-03 DE=-6.33D-04 OVMax= 1.36D-02

 Cycle   6  Pass 1  IDiag  1:
 RMSU=  3.96D-05    CP:  9.97D-01  3.00D+00  8.19D-01  1.05D+00  1.19D+00
 E= -1487.21834320003     Delta-E=       -0.000123448825 Rises=F Damp=F
 DIIS: error= 1.83D-04 at cycle   6 NSaved=   6.
 NSaved= 6 IEnMin= 6 EnMin= -1487.21834320003     IErMin= 6 ErrMin= 1.83D-04
 ErrMax= 1.83D-04  0.00D+00 EMaxC= 1.00D-01 BMatC= 9.81D-05 BMatP= 3.54D-04
 IDIUse=3 WtCom= 9.98D-01 WtEn= 1.83D-03
 Coeff-Com:  0.754D+00-0.862D+00-0.279D-01 0.177D-01 0.317D+00 0.801D+00
 Coeff-En:   0.000D+00 0.000D+00 0.000D+00 0.000D+00 0.000D+00 0.100D+01
 Coeff:      0.753D+00-0.860D+00-0.279D-01 0.176D-01 0.316D+00 0.802D+00
 Gap=     0.050 Goal=   None    Shift=    0.000
 Gap=     0.164 Goal=   None    Shift=    0.000
 RMSDP=5.39D-05 MaxDP=4.73D-03 DE=-1.23D-04 OVMax= 1.41D-02

 Cycle   7  Pass 1  IDiag  1:
 RMSU=  2.80D-05    CP:  9.97D-01  3.00D+00  8.58D-01  1.10D+00  1.48D+00
                    CP:  1.62D+00
 E= -1487.21840345361     Delta-E=       -0.000060253577 Rises=F Damp=F
 DIIS: error= 1.11D-04 at cycle   7 NSaved=   7.
 NSaved= 7 IEnMin= 7 EnMin= -1487.21840345361     IErMin= 7 ErrMin= 1.11D-04
 ErrMax= 1.11D-04  0.00D+00 EMaxC= 1.00D-01 BMatC= 4.15D-05 BMatP= 9.81D-05
 IDIUse=3 WtCom= 9.99D-01 WtEn= 1.11D-03
 Coeff-Com:  0.555D+00-0.633D+00-0.326D-01-0.521D-01 0.387D-01 0.557D+00
 Coeff-Com:  0.567D+00
 Coeff-En:   0.000D+00 0.000D+00 0.000D+00 0.000D+00 0.000D+00 0.000D+00
 Coeff-En:   0.100D+01
 Coeff:      0.554D+00-0.632D+00-0.326D-01-0.521D-01 0.387D-01 0.556D+00
 Coeff:      0.568D+00
 Gap=     0.050 Goal=   None    Shift=    0.000
 Gap=     0.164 Goal=   None    Shift=    0.000
 RMSDP=2.82D-05 MaxDP=3.93D-03 DE=-6.03D-05 OVMax= 9.37D-03

 Cycle   8  Pass 1  IDiag  1:
 RMSU=  1.42D-05    CP:  9.98D-01  3.00D+00  8.68D-01  1.13D+00  1.69D+00
                    CP:  2.00D+00  1.07D+00
 E= -1487.21842476185     Delta-E=       -0.000021308239 Rises=F Damp=F
 DIIS: error= 7.60D-05 at cycle   8 NSaved=   8.
 NSaved= 8 IEnMin= 8 EnMin= -1487.21842476185     IErMin= 8 ErrMin= 7.60D-05
 ErrMax= 7.60D-05  0.00D+00 EMaxC= 1.00D-01 BMatC= 1.23D-05 BMatP= 4.15D-05
 IDIUse=1 WtCom= 1.00D+00 WtEn= 0.00D+00
 Coeff-Com:  0.530D-01-0.600D-01-0.646D-02-0.473D-01-0.129D+00 0.243D-01
 Coeff-Com:  0.396D+00 0.769D+00
 Coeff:      0.530D-01-0.600D-01-0.646D-02-0.473D-01-0.129D+00 0.243D-01
 Coeff:      0.396D+00 0.769D+00
 Gap=     0.050 Goal=   None    Shift=    0.000
 Gap=     0.165 Goal=   None    Shift=    0.000
 RMSDP=2.21D-05 MaxDP=1.71D-03 DE=-2.13D-05 OVMax= 6.36D-03

 Cycle   9  Pass 1  IDiag  1:
 RMSU=  7.06D-06    CP:  9.97D-01  3.00D+00  8.81D-01  1.15D+00  1.83D+00
                    CP:  2.31D+00  1.37D+00  1.06D+00
 E= -1487.21843444572     Delta-E=       -0.000009683871 Rises=F Damp=F
 DIIS: error= 3.43D-05 at cycle   9 NSaved=   9.
 NSaved= 9 IEnMin= 9 EnMin= -1487.21843444572     IErMin= 9 ErrMin= 3.43D-05
 ErrMax= 3.43D-05  0.00D+00 EMaxC= 1.00D-01 BMatC= 3.23D-06 BMatP= 1.23D-05
 IDIUse=1 WtCom= 1.00D+00 WtEn= 0.00D+00
 Coeff-Com: -0.120D+00 0.137D+00 0.509D-02-0.183D-01-0.101D+00-0.138D+00
 Coeff-Com:  0.106D+00 0.503D+00 0.625D+00
 Coeff:     -0.120D+00 0.137D+00 0.509D-02-0.183D-01-0.101D+00-0.138D+00
 Coeff:      0.106D+00 0.503D+00 0.625D+00
 Gap=     0.050 Goal=   None    Shift=    0.000
 Gap=     0.165 Goal=   None    Shift=    0.000
 RMSDP=1.03D-05 MaxDP=7.63D-04 DE=-9.68D-06 OVMax= 3.18D-03

 Cycle  10  Pass 1  IDiag  1:
 RMSU=  4.83D-06    CP:  9.97D-01  3.00D+00  8.86D-01  1.15D+00  1.88D+00
                    CP:  2.46D+00  1.48D+00  1.21D+00  1.27D+00
 E= -1487.21843719486     Delta-E=       -0.000002749138 Rises=F Damp=F
 DIIS: error= 2.86D-05 at cycle  10 NSaved=  10.
 NSaved=10 IEnMin=10 EnMin= -1487.21843719486     IErMin=10 ErrMin= 2.86D-05
 ErrMax= 2.86D-05  0.00D+00 EMaxC= 1.00D-01 BMatC= 1.26D-06 BMatP= 3.23D-06
 IDIUse=1 WtCom= 1.00D+00 WtEn= 0.00D+00
 Coeff-Com: -0.917D-01 0.105D+00 0.484D-02 0.234D-02-0.240D-01-0.924D-01
 Coeff-Com: -0.545D-01 0.972D-01 0.415D+00 0.639D+00
 Coeff:     -0.917D-01 0.105D+00 0.484D-02 0.234D-02-0.240D-01-0.924D-01
 Coeff:     -0.545D-01 0.972D-01 0.415D+00 0.639D+00
 Gap=     0.050 Goal=   None    Shift=    0.000
 Gap=     0.165 Goal=   None    Shift=    0.000
 RMSDP=4.70D-06 MaxDP=2.97D-04 DE=-2.75D-06 OVMax= 1.38D-03

 Cycle  11  Pass 1  IDiag  1:
 RMSU=  2.38D-06    CP:  9.98D-01  3.00D+00  8.86D-01  1.16D+00  1.90D+00
                    CP:  2.49D+00  1.52D+00  1.33D+00  1.62D+00  1.27D+00
 E= -1487.21843833368     Delta-E=       -0.000001138826 Rises=F Damp=F
 DIIS: error= 2.01D-05 at cycle  11 NSaved=  11.
 NSaved=11 IEnMin=11 EnMin= -1487.21843833368     IErMin=11 ErrMin= 2.01D-05
 ErrMax= 2.01D-05  0.00D+00 EMaxC= 1.00D-01 BMatC= 6.47D-07 BMatP= 1.26D-06
 IDIUse=1 WtCom= 1.00D+00 WtEn= 0.00D+00
 Coeff-Com: -0.861D-02 0.972D-02 0.138D-02 0.143D-01 0.453D-01 0.605D-02
 Coeff-Com: -0.113D+00-0.222D+00-0.220D-01 0.520D+00 0.769D+00
 Coeff:     -0.861D-02 0.972D-02 0.138D-02 0.143D-01 0.453D-01 0.605D-02
 Coeff:     -0.113D+00-0.222D+00-0.220D-01 0.520D+00 0.769D+00
 Gap=     0.050 Goal=   None    Shift=    0.000
 Gap=     0.165 Goal=   None    Shift=    0.000
 RMSDP=4.43D-06 MaxDP=2.57D-04 DE=-1.14D-06 OVMax= 1.24D-03

 Cycle  12  Pass 1  IDiag  1:
 RMSU=  1.83D-06    CP:  9.97D-01  3.00D+00  8.85D-01  1.16D+00  1.90D+00
                    CP:  2.51D+00  1.55D+00  1.43D+00  2.00D+00  1.71D+00
                    CP:  1.22D+00
 E= -1487.21843920519     Delta-E=       -0.000000871507 Rises=F Damp=F
 DIIS: error= 1.36D-05 at cycle  12 NSaved=  12.
 NSaved=12 IEnMin=12 EnMin= -1487.21843920519     IErMin=12 ErrMin= 1.36D-05
 ErrMax= 1.36D-05  0.00D+00 EMaxC= 1.00D-01 BMatC= 2.25D-07 BMatP= 6.47D-07
 IDIUse=1 WtCom= 1.00D+00 WtEn= 0.00D+00
 Coeff-Com:  0.302D-01-0.346D-01-0.120D-02 0.668D-02 0.337D-01 0.320D-01
 Coeff-Com: -0.418D-01-0.158D+00-0.170D+00 0.271D-01 0.442D+00 0.833D+00
 Coeff:      0.302D-01-0.346D-01-0.120D-02 0.668D-02 0.337D-01 0.320D-01
 Coeff:     -0.418D-01-0.158D+00-0.170D+00 0.271D-01 0.442D+00 0.833D+00
 Gap=     0.050 Goal=   None    Shift=    0.000
 Gap=     0.165 Goal=   None    Shift=    0.000
 RMSDP=3.15D-06 MaxDP=1.85D-04 DE=-8.72D-07 OVMax= 7.39D-04

 Cycle  13  Pass 1  IDiag  1:
 RMSU=  1.15D-06    CP:  9.98D-01  3.00D+00  8.85D-01  1.16D+00  1.91D+00
                    CP:  2.53D+00  1.57D+00  1.49D+00  2.24D+00  2.01D+00
                    CP:  1.66D+00  1.48D+00
 E= -1487.21843962686     Delta-E=       -0.000000421673 Rises=F Damp=F
 DIIS: error= 8.34D-06 at cycle  13 NSaved=  13.
 NSaved=13 IEnMin=13 EnMin= -1487.21843962686     IErMin=13 ErrMin= 8.34D-06
 ErrMax= 8.34D-06  0.00D+00 EMaxC= 1.00D-01 BMatC= 1.42D-07 BMatP= 2.25D-07
 IDIUse=1 WtCom= 1.00D+00 WtEn= 0.00D+00
 Coeff-Com:  0.264D-01-0.302D-01-0.146D-02-0.154D-02 0.402D-02 0.200D-01
 Coeff-Com:  0.227D-01-0.132D-01-0.115D+00-0.228D+00-0.267D-01 0.642D+00
 Coeff-Com:  0.701D+00
 Coeff:      0.264D-01-0.302D-01-0.146D-02-0.154D-02 0.402D-02 0.200D-01
 Coeff:      0.227D-01-0.132D-01-0.115D+00-0.228D+00-0.267D-01 0.642D+00
 Coeff:      0.701D+00
 Gap=     0.050 Goal=   None    Shift=    0.000
 Gap=     0.165 Goal=   None    Shift=    0.000
 RMSDP=2.11D-06 MaxDP=1.28D-04 DE=-4.22D-07 OVMax= 4.37D-04

 Cycle  14  Pass 1  IDiag  1:
 RMSU=  7.21D-07    CP:  9.98D-01  3.00D+00  8.86D-01  1.16D+00  1.91D+00
                    CP:  2.53D+00  1.58D+00  1.53D+00  2.36D+00  2.21D+00
                    CP:  2.01D+00  2.00D+00  1.43D+00
 E= -1487.21843982673     Delta-E=       -0.000000199873 Rises=F Damp=F
 DIIS: error= 5.69D-06 at cycle  14 NSaved=  14.
 NSaved=14 IEnMin=14 EnMin= -1487.21843982673     IErMin=14 ErrMin= 5.69D-06
 ErrMax= 5.69D-06  0.00D+00 EMaxC= 1.00D-01 BMatC= 6.74D-08 BMatP= 1.42D-07
 IDIUse=1 WtCom= 1.00D+00 WtEn= 0.00D+00
 Coeff-Com:  0.186D-02-0.209D-02-0.237D-03-0.488D-02-0.168D-01-0.153D-02
 Coeff-Com:  0.446D-01 0.832D-01 0.958D-02-0.202D+00-0.302D+00-0.440D-02
 Coeff-Com:  0.581D+00 0.813D+00
 Coeff:      0.186D-02-0.209D-02-0.237D-03-0.488D-02-0.168D-01-0.153D-02
 Coeff:      0.446D-01 0.832D-01 0.958D-02-0.202D+00-0.302D+00-0.440D-02
 Coeff:      0.581D+00 0.813D+00
 Gap=     0.050 Goal=   None    Shift=    0.000
 Gap=     0.165 Goal=   None    Shift=    0.000
 RMSDP=1.80D-06 MaxDP=1.05D-04 DE=-2.00D-07 OVMax= 3.02D-04

 Cycle  15  Pass 1  IDiag  1:
 RMSU=  6.25D-07    CP:  9.97D-01  3.00D+00  8.85D-01  1.16D+00  1.91D+00
                    CP:  2.54D+00  1.58D+00  1.55D+00  2.45D+00  2.33D+00
                    CP:  2.28D+00  2.59D+00  1.96D+00  1.24D+00
 E= -1487.21843993206     Delta-E=       -0.000000105326 Rises=F Damp=F
 DIIS: error= 3.13D-06 at cycle  15 NSaved=  15.
 NSaved=15 IEnMin=15 EnMin= -1487.21843993206     IErMin=15 ErrMin= 3.13D-06
 ErrMax= 3.13D-06  0.00D+00 EMaxC= 1.00D-01 BMatC= 1.66D-08 BMatP= 6.74D-08
 IDIUse=1 WtCom= 1.00D+00 WtEn= 0.00D+00
 Coeff-Com: -0.801D-02 0.917D-02 0.247D-03-0.272D-02-0.122D-01-0.799D-02
 Coeff-Com:  0.182D-01 0.514D-01 0.446D-01-0.392D-01-0.170D+00-0.204D+00
 Coeff-Com:  0.983D-01 0.455D+00 0.767D+00
 Coeff:     -0.801D-02 0.917D-02 0.247D-03-0.272D-02-0.122D-01-0.799D-02
 Coeff:      0.182D-01 0.514D-01 0.446D-01-0.392D-01-0.170D+00-0.204D+00
 Coeff:      0.983D-01 0.455D+00 0.767D+00
 Gap=     0.050 Goal=   None    Shift=    0.000
 Gap=     0.165 Goal=   None    Shift=    0.000
 RMSDP=8.95D-07 MaxDP=4.96D-05 DE=-1.05D-07 OVMax= 1.49D-04

 Cycle  16  Pass 1  IDiag  1:
 RMSU=  3.18D-07    CP:  9.97D-01  3.00D+00  8.86D-01  1.16D+00  1.91D+00
                    CP:  2.54D+00  1.59D+00  1.55D+00  2.48D+00  2.37D+00
                    CP:  2.40D+00  2.82D+00  2.32D+00  1.65D+00  1.25D+00
 E= -1487.21843995657     Delta-E=       -0.000000024508 Rises=F Damp=F
 DIIS: error= 1.87D-06 at cycle  16 NSaved=  16.
 NSaved=16 IEnMin=16 EnMin= -1487.21843995657     IErMin=16 ErrMin= 1.87D-06
 ErrMax= 1.87D-06  0.00D+00 EMaxC= 1.00D-01 BMatC= 6.38D-09 BMatP= 1.66D-08
 IDIUse=1 WtCom= 1.00D+00 WtEn= 0.00D+00
 Coeff-Com: -0.516D-02 0.589D-02 0.263D-03 0.103D-03-0.148D-02-0.306D-02
 Coeff-Com: -0.404D-02 0.159D-02 0.221D-01 0.461D-01-0.300D-02-0.120D+00
 Coeff-Com: -0.129D+00 0.163D-01 0.465D+00 0.709D+00
 Coeff:     -0.516D-02 0.589D-02 0.263D-03 0.103D-03-0.148D-02-0.306D-02
 Coeff:     -0.404D-02 0.159D-02 0.221D-01 0.461D-01-0.300D-02-0.120D+00
 Coeff:     -0.129D+00 0.163D-01 0.465D+00 0.709D+00
 Gap=     0.050 Goal=   None    Shift=    0.000
 Gap=     0.165 Goal=   None    Shift=    0.000
 RMSDP=4.02D-07 MaxDP=2.37D-05 DE=-2.45D-08 OVMax= 8.00D-05

 Cycle  17  Pass 1  IDiag  1:
 RMSU=  1.66D-07    CP:  9.97D-01  3.00D+00  8.86D-01  1.16D+00  1.91D+00
                    CP:  2.54D+00  1.59D+00  1.55D+00  2.47D+00  2.38D+00
                    CP:  2.41D+00  2.91D+00  2.47D+00  1.86D+00  1.58D+00
                    CP:  1.02D+00
 E= -1487.21843996260     Delta-E=       -0.000000006029 Rises=F Damp=F
 DIIS: error= 1.24D-06 at cycle  17 NSaved=  17.
 NSaved=17 IEnMin=17 EnMin= -1487.21843996260     IErMin=17 ErrMin= 1.24D-06
 ErrMax= 1.24D-06  0.00D+00 EMaxC= 1.00D-01 BMatC= 2.70D-09 BMatP= 6.38D-09
 IDIUse=1 WtCom= 1.00D+00 WtEn= 0.00D+00
 Coeff-Com: -0.616D-03 0.698D-03 0.905D-04 0.972D-03 0.309D-02 0.602D-03
 Coeff-Com: -0.907D-02-0.164D-01 0.122D-03 0.463D-01 0.568D-01-0.135D-01
 Coeff-Com: -0.126D+00-0.148D+00 0.503D-01 0.497D+00 0.658D+00
 Coeff:     -0.616D-03 0.698D-03 0.905D-04 0.972D-03 0.309D-02 0.602D-03
 Coeff:     -0.907D-02-0.164D-01 0.122D-03 0.463D-01 0.568D-01-0.135D-01
 Coeff:     -0.126D+00-0.148D+00 0.503D-01 0.497D+00 0.658D+00
 Gap=     0.050 Goal=   None    Shift=    0.000
 Gap=     0.165 Goal=   None    Shift=    0.000
 RMSDP=2.34D-07 MaxDP=1.51D-05 DE=-6.03D-09 OVMax= 5.35D-05

 Cycle  18  Pass 1  IDiag  1:
 RMSU=  1.11D-07    CP:  9.97D-01  3.00D+00  8.86D-01  1.16D+00  1.91D+00
                    CP:  2.54D+00  1.59D+00  1.55D+00  2.47D+00  2.37D+00
                    CP:  2.43D+00  2.94D+00  2.55D+00  1.99D+00  1.74D+00
                    CP:  1.29D+00  1.06D+00
 E= -1487.21843996503     Delta-E=       -0.000000002434 Rises=F Damp=F
 DIIS: error= 7.69D-07 at cycle  18 NSaved=  18.
 NSaved=18 IEnMin=18 EnMin= -1487.21843996503     IErMin=18 ErrMin= 7.69D-07
 ErrMax= 7.69D-07  0.00D+00 EMaxC= 1.00D-01 BMatC= 7.78D-10 BMatP= 2.70D-09
 IDIUse=1 WtCom= 1.00D+00 WtEn= 0.00D+00
 Coeff-Com:  0.128D-02-0.146D-02-0.684D-05 0.639D-03 0.255D-02 0.134D-02
 Coeff-Com: -0.442D-02-0.108D-01-0.795D-02 0.146D-01 0.369D-01 0.286D-01
 Coeff-Com: -0.376D-01-0.909D-01-0.117D+00 0.666D-01 0.393D+00 0.724D+00
 Coeff:      0.128D-02-0.146D-02-0.684D-05 0.639D-03 0.255D-02 0.134D-02
 Coeff:     -0.442D-02-0.108D-01-0.795D-02 0.146D-01 0.369D-01 0.286D-01
 Coeff:     -0.376D-01-0.909D-01-0.117D+00 0.666D-01 0.393D+00 0.724D+00
 Gap=     0.050 Goal=   None    Shift=    0.000
 Gap=     0.165 Goal=   None    Shift=    0.000
 RMSDP=1.37D-07 MaxDP=9.07D-06 DE=-2.43D-09 OVMax= 3.83D-05

 Cycle  19  Pass 1  IDiag  1:
 RMSU=  6.06D-08    CP:  9.97D-01  3.00D+00  8.86D-01  1.16D+00  1.91D+00
                    CP:  2.54D+00  1.59D+00  1.55D+00  2.47D+00  2.37D+00
                    CP:  2.43D+00  2.96D+00  2.58D+00  2.02D+00  1.83D+00
                    CP:  1.46D+00  1.41D+00  1.21D+00
 E= -1487.21843996586     Delta-E=       -0.000000000826 Rises=F Damp=F
 DIIS: error= 4.55D-07 at cycle  19 NSaved=  19.
 NSaved=19 IEnMin=19 EnMin= -1487.21843996586     IErMin=19 ErrMin= 4.55D-07
 ErrMax= 4.55D-07  0.00D+00 EMaxC= 1.00D-01 BMatC= 2.17D-10 BMatP= 7.78D-10
 IDIUse=1 WtCom= 1.00D+00 WtEn= 0.00D+00
 Coeff-Com:  0.544D-03-0.621D-03-0.487D-04-0.223D-03-0.669D-03-0.122D-03
 Coeff-Com:  0.259D-02 0.476D-02-0.314D-02-0.155D-01-0.127D-01 0.166D-01
 Coeff-Com:  0.417D-01 0.372D-01-0.626D-01-0.215D+00-0.158D+00 0.267D+00
 Coeff-Com:  0.110D+01
 Coeff:      0.544D-03-0.621D-03-0.487D-04-0.223D-03-0.669D-03-0.122D-03
 Coeff:      0.259D-02 0.476D-02-0.314D-02-0.155D-01-0.127D-01 0.166D-01
 Coeff:      0.417D-01 0.372D-01-0.626D-01-0.215D+00-0.158D+00 0.267D+00
 Coeff:      0.110D+01
 Gap=     0.050 Goal=   None    Shift=    0.000
 Gap=     0.165 Goal=   None    Shift=    0.000
 RMSDP=1.20D-07 MaxDP=7.60D-06 DE=-8.26D-10 OVMax= 3.59D-05

 Cycle  20  Pass 1  IDiag  1:
 RMSU=  4.11D-08    CP:  9.97D-01  3.00D+00  8.86D-01  1.16D+00  1.91D+00
                    CP:  2.54D+00  1.59D+00  1.55D+00  2.47D+00  2.37D+00
                    CP:  2.43D+00  2.96D+00  2.59D+00  2.05D+00  1.88D+00
                    CP:  1.58D+00  1.73D+00  1.80D+00  1.56D+00
 E= -1487.21843996613     Delta-E=       -0.000000000274 Rises=F Damp=F
 DIIS: error= 2.78D-07 at cycle  20 NSaved=  20.
 NSaved=20 IEnMin=20 EnMin= -1487.21843996613     IErMin=20 ErrMin= 2.78D-07
 ErrMax= 2.78D-07  0.00D+00 EMaxC= 1.00D-01 BMatC= 1.25D-10 BMatP= 2.17D-10
 IDIUse=1 WtCom= 1.00D+00 WtEn= 0.00D+00
 Coeff-Com:  0.925D-05-0.946D-05-0.331D-04-0.293D-03-0.102D-02-0.290D-03
 Coeff-Com:  0.265D-02 0.582D-02-0.215D-03-0.132D-01-0.172D-01 0.298D-02
 Coeff-Com:  0.339D-01 0.454D-01-0.558D-02-0.153D+00-0.185D+00-0.282D-01
 Coeff-Com:  0.690D+00 0.623D+00
 Coeff:      0.925D-05-0.946D-05-0.331D-04-0.293D-03-0.102D-02-0.290D-03
 Coeff:      0.265D-02 0.582D-02-0.215D-03-0.132D-01-0.172D-01 0.298D-02
 Coeff:      0.339D-01 0.454D-01-0.558D-02-0.153D+00-0.185D+00-0.282D-01
 Coeff:      0.690D+00 0.623D+00
 Gap=     0.050 Goal=   None    Shift=    0.000
 Gap=     0.165 Goal=   None    Shift=    0.000
 RMSDP=5.38D-08 MaxDP=3.03D-06 DE=-2.74D-10 OVMax= 1.64D-05

 Cycle  21  Pass 1  IDiag  1:
 Restarting incremental Fock formation.
 E= -1487.21843996634     Delta-E=       -0.000000000208 Rises=F Damp=F
 DIIS: error= 1.90D-07 at cycle  21 NSaved=  20.
 NSaved=20 IEnMin=20 EnMin= -1487.21843996634     IErMin=20 ErrMin= 1.90D-07
 ErrMax= 1.90D-07  0.00D+00 EMaxC= 1.00D-01 BMatC= 4.44D-11 BMatP= 1.25D-10
 IDIUse=1 WtCom= 1.00D+00 WtEn= 0.00D+00
 Coeff-Com:  0.541D-06-0.189D-04-0.103D-03-0.302D-03 0.884D-04 0.599D-03
 Coeff-Com:  0.163D-02 0.435D-03-0.256D-02-0.526D-02-0.288D-02 0.508D-02
 Coeff-Com:  0.137D-01 0.179D-01-0.193D-01-0.495D-01-0.125D+00 0.337D-01
 Coeff-Com:  0.429D+00 0.703D+00
 Coeff:      0.541D-06-0.189D-04-0.103D-03-0.302D-03 0.884D-04 0.599D-03
 Coeff:      0.163D-02 0.435D-03-0.256D-02-0.526D-02-0.288D-02 0.508D-02
 Coeff:      0.137D-01 0.179D-01-0.193D-01-0.495D-01-0.125D+00 0.337D-01
 Coeff:      0.429D+00 0.703D+00
 Gap=     0.050 Goal=   None    Shift=    0.000
 Gap=     0.165 Goal=   None    Shift=    0.000
 RMSDP=3.86D-08 MaxDP=2.47D-06 DE=-2.08D-10 OVMax= 1.29D-05

 Cycle  22  Pass 1  IDiag  1:
 RMSU=  3.86D-08    CP:  1.00D+00
 E= -1487.21843996643     Delta-E=       -0.000000000089 Rises=F Damp=F
 DIIS: error= 1.24D-07 at cycle  22 NSaved=  20.
 NSaved=20 IEnMin=20 EnMin= -1487.21843996643     IErMin=20 ErrMin= 1.24D-07
 ErrMax= 1.24D-07  0.00D+00 EMaxC= 1.00D-01 BMatC= 2.00D-11 BMatP= 4.44D-11
 IDIUse=1 WtCom= 1.00D+00 WtEn= 0.00D+00
 Coeff-Com:  0.712D-07 0.435D-04 0.204D-03 0.200D-03-0.756D-03-0.136D-02
 Coeff-Com:  0.448D-03 0.418D-02 0.394D-02-0.383D-02-0.120D-01-0.951D-02
 Coeff-Com:  0.151D-01 0.573D-01 0.498D-01-0.863D-01-0.308D+00 0.542D-01
 Coeff-Com:  0.535D+00 0.701D+00
 Coeff:      0.712D-07 0.435D-04 0.204D-03 0.200D-03-0.756D-03-0.136D-02
 Coeff:      0.448D-03 0.418D-02 0.394D-02-0.383D-02-0.120D-01-0.951D-02
 Coeff:      0.151D-01 0.573D-01 0.498D-01-0.863D-01-0.308D+00 0.542D-01
 Coeff:      0.535D+00 0.701D+00
 Gap=     0.050 Goal=   None    Shift=    0.000
 Gap=     0.165 Goal=   None    Shift=    0.000
 RMSDP=3.11D-08 MaxDP=2.12D-06 DE=-8.91D-11 OVMax= 1.09D-05

 Cycle  23  Pass 1  IDiag  1:
 RMSU=  1.78D-08    CP:  1.00D+00  1.66D+00
 E= -1487.21843996644     Delta-E=       -0.000000000015 Rises=F Damp=F
 DIIS: error= 5.29D-08 at cycle  23 NSaved=  20.
 NSaved=20 IEnMin=20 EnMin= -1487.21843996644     IErMin=20 ErrMin= 5.29D-08
 ErrMax= 5.29D-08  0.00D+00 EMaxC= 1.00D-01 BMatC= 5.62D-12 BMatP= 2.00D-11
 IDIUse=1 WtCom= 1.00D+00 WtEn= 0.00D+00
 Coeff-Com:  0.541D-05 0.370D-04 0.408D-05-0.310D-03-0.584D-03 0.400D-03
 Coeff-Com:  0.219D-02 0.214D-02-0.237D-02-0.584D-02-0.474D-02 0.333D-02
 Coeff-Com:  0.297D-01 0.287D-01-0.127D-01-0.149D+00-0.676D-01 0.575D-01
 Coeff-Com:  0.297D+00 0.822D+00
 Coeff:      0.541D-05 0.370D-04 0.408D-05-0.310D-03-0.584D-03 0.400D-03
 Coeff:      0.219D-02 0.214D-02-0.237D-02-0.584D-02-0.474D-02 0.333D-02
 Coeff:      0.297D-01 0.287D-01-0.127D-01-0.149D+00-0.676D-01 0.575D-01
 Coeff:      0.297D+00 0.822D+00
 Gap=     0.050 Goal=   None    Shift=    0.000
 Gap=     0.165 Goal=   None    Shift=    0.000
 RMSDP=2.24D-08 MaxDP=1.34D-06 DE=-1.55D-11 OVMax= 7.89D-06

 Cycle  24  Pass 1  IDiag  1:
 RMSU=  1.19D-08    CP:  1.00D+00  2.03D+00  1.72D+00
 E= -1487.21843996638     Delta-E=        0.000000000065 Rises=F Damp=F
 DIIS: error= 3.29D-08 at cycle  24 NSaved=  20.
 NSaved=20 IEnMin=19 EnMin= -1487.21843996644     IErMin=20 ErrMin= 3.29D-08
 ErrMax= 3.29D-08  0.00D+00 EMaxC= 1.00D-01 BMatC= 2.26D-12 BMatP= 5.62D-12
 IDIUse=1 WtCom= 1.00D+00 WtEn= 0.00D+00
 Coeff-Com:  0.175D-06-0.268D-04-0.463D-04-0.104D-03 0.607D-04 0.390D-03
 Coeff-Com:  0.547D-03-0.213D-03-0.613D-03-0.912D-03-0.281D-02 0.195D-02
 Coeff-Com:  0.568D-02 0.188D-01 0.298D-02-0.564D-01-0.154D+00-0.102D+00
 Coeff-Com:  0.502D+00 0.784D+00
 Coeff:      0.175D-06-0.268D-04-0.463D-04-0.104D-03 0.607D-04 0.390D-03
 Coeff:      0.547D-03-0.213D-03-0.613D-03-0.912D-03-0.281D-02 0.195D-02
 Coeff:      0.568D-02 0.188D-01 0.298D-02-0.564D-01-0.154D+00-0.102D+00
 Coeff:      0.502D+00 0.784D+00
 Gap=     0.050 Goal=   None    Shift=    0.000
 Gap=     0.165 Goal=   None    Shift=    0.000
 RMSDP=1.37D-08 MaxDP=1.02D-06 DE= 6.55D-11 OVMax= 5.25D-06

 Cycle  25  Pass 1  IDiag  1:
 RMSU=  3.92D-09    CP:  1.00D+00  2.30D+00  2.12D+00  1.26D+00
 E= -1487.21843996638     Delta-E=       -0.000000000003 Rises=F Damp=F
 DIIS: error= 2.40D-08 at cycle  25 NSaved=  20.
 NSaved=20 IEnMin=18 EnMin= -1487.21843996644     IErMin=20 ErrMin= 2.40D-08
 ErrMax= 2.40D-08  0.00D+00 EMaxC= 1.00D-01 BMatC= 1.42D-12 BMatP= 2.26D-12
 IDIUse=1 WtCom= 1.00D+00 WtEn= 0.00D+00
 Coeff-Com:  0.120D-04 0.544D-04 0.999D-04-0.921D-04-0.385D-03-0.345D-03
 Coeff-Com:  0.515D-03 0.121D-02 0.837D-03-0.213D-02-0.677D-02-0.351D-02
 Coeff-Com:  0.122D-01 0.412D-01-0.146D-01-0.116D+00-0.169D+00 0.864D-01
 Coeff-Com:  0.572D+00 0.598D+00
 Coeff:      0.120D-04 0.544D-04 0.999D-04-0.921D-04-0.385D-03-0.345D-03
 Coeff:      0.515D-03 0.121D-02 0.837D-03-0.213D-02-0.677D-02-0.351D-02
 Coeff:      0.122D-01 0.412D-01-0.146D-01-0.116D+00-0.169D+00 0.864D-01
 Coeff:      0.572D+00 0.598D+00
 Gap=     0.050 Goal=   None    Shift=    0.000
 Gap=     0.165 Goal=   None    Shift=    0.000
 RMSDP=6.85D-09 MaxDP=4.71D-07 DE=-2.73D-12 OVMax= 2.31D-06

 SCF Done:  E(UPBE1PBE) =  -1487.21843997     A.U. after   25 cycles
            NFock= 25  Conv=0.68D-08     -V/T= 2.0739
 <Sx>= 0.0000 <Sy>= 0.0000 <Sz>= 0.5000 <S**2>= 0.7574 S= 0.5037
 <L.S>= 0.000000000000E+00
 KE= 1.384932742778D+03 PE=-8.939282773678D+03 EE= 3.310835219710D+03
 Annihilation of the first spin contaminant:
 S**2 before annihilation     0.7574,   after     0.7500
 Leave Link  502 at Sat Sep 12 01:33:24 2026, MaxMem=  6442450944 cpu:             651.0 elap:             650.7
 (Enter C:\G16W\l508.exe)
 QCSCF skips out because SCF is already converged.
 Leave Link  508 at Sat Sep 12 01:33:24 2026, MaxMem=  6442450944 cpu:               0.0 elap:               0.1
 (Enter C:\G16W\l601.exe)
 Copying SCF densities to generalized density rwf, IOpCl= 1 IROHF=0.

 **********************************************************************

            Population analysis using the SCF Density.

 **********************************************************************

 Alpha  occ. eigenvalues --  -14.49810 -14.49494 -14.49317 -14.49218 -14.49216
 Alpha  occ. eigenvalues --  -14.48322 -14.45123 -14.44969 -14.44852 -14.44804
 Alpha  occ. eigenvalues --  -14.44779 -14.44515 -10.39428 -10.39292 -10.39205
 Alpha  occ. eigenvalues --  -10.39142 -10.38958 -10.38704 -10.37252 -10.37191
 Alpha  occ. eigenvalues --  -10.37127 -10.37068 -10.37001 -10.36909 -10.32770
 Alpha  occ. eigenvalues --  -10.32602 -10.32487 -10.32454 -10.32438 -10.32211
 Alpha  occ. eigenvalues --   -3.82260  -2.40355  -2.40311  -2.40215  -1.10588
 Alpha  occ. eigenvalues --   -1.08530  -1.08452  -1.01527  -1.01491  -0.99622
 Alpha  occ. eigenvalues --   -0.98926  -0.97635  -0.97560  -0.96934  -0.96805
 Alpha  occ. eigenvalues --   -0.96537  -0.95650  -0.90053  -0.89913  -0.84195
 Alpha  occ. eigenvalues --   -0.81904  -0.81857  -0.76243  -0.75408  -0.75367
 Alpha  occ. eigenvalues --   -0.69138  -0.67847  -0.67785  -0.66680  -0.64754
 Alpha  occ. eigenvalues --   -0.64633  -0.61509  -0.61402  -0.58849  -0.58786
 Alpha  occ. eigenvalues --   -0.57291  -0.53774  -0.53548  -0.53364  -0.53275
 Alpha  occ. eigenvalues --   -0.47854  -0.46492  -0.46026  -0.44074  -0.42906
 Alpha  occ. eigenvalues --   -0.42788  -0.42663  -0.42547  -0.42446  -0.42246
 Alpha  occ. eigenvalues --   -0.42168  -0.42035  -0.41558  -0.41251  -0.41078
 Alpha  occ. eigenvalues --   -0.41017  -0.40925  -0.40638  -0.40403  -0.40043
 Alpha  occ. eigenvalues --   -0.39901  -0.39747  -0.39733  -0.39460  -0.39156
 Alpha  occ. eigenvalues --   -0.38817  -0.38605  -0.38050  -0.37684  -0.36979
 Alpha  occ. eigenvalues --   -0.35510  -0.34820  -0.34629  -0.34087  -0.33952
 Alpha  occ. eigenvalues --   -0.22533
 Alpha virt. eigenvalues --   -0.17581  -0.17500  -0.17095  -0.11025  -0.10844
 Alpha virt. eigenvalues --   -0.10733  -0.04430  -0.04191  -0.03462  -0.02918
 Alpha virt. eigenvalues --   -0.02839  -0.01156  -0.01027  -0.00509   0.00127
 Alpha virt. eigenvalues --    0.00262   0.00343   0.03155   0.03281   0.03316
 Alpha virt. eigenvalues --    0.05313   0.07962   0.08599   0.08950   0.09024
 Alpha virt. eigenvalues --    0.11815   0.13004   0.13625   0.13695   0.13795
 Alpha virt. eigenvalues --    0.14697   0.15348   0.16652   0.17651   0.18908
 Alpha virt. eigenvalues --    0.19669   0.19952   0.20916   0.21220   0.21829
 Alpha virt. eigenvalues --    0.22392   0.22534   0.23363   0.24221   0.25293
 Alpha virt. eigenvalues --    0.25708   0.26637   0.27852   0.28525   0.28931
 Alpha virt. eigenvalues --    0.29448   0.30435   0.32910   0.33570   0.36759
 Alpha virt. eigenvalues --    0.37064   0.37559   0.38324   0.38572   0.39046
 Alpha virt. eigenvalues --    0.39681   0.40392   0.40531   0.40957   0.41955
 Alpha virt. eigenvalues --    0.43728   0.44683   0.45357   0.45892   0.46413
 Alpha virt. eigenvalues --    0.47031   0.47212   0.48444   0.49501   0.49758
 Alpha virt. eigenvalues --    0.50002   0.50119   0.50482   0.50692   0.50807
 Alpha virt. eigenvalues --    0.51772   0.53249   0.53512   0.53881   0.54149
 Alpha virt. eigenvalues --    0.54368   0.54571   0.54939   0.55444   0.56524
 Alpha virt. eigenvalues --    0.57162   0.58454   0.59859   0.61403   0.62142
 Alpha virt. eigenvalues --    0.63517   0.63803   0.64265   0.64454   0.64646
 Alpha virt. eigenvalues --    0.65248   0.65455   0.65578   0.65733   0.65746
 Alpha virt. eigenvalues --    0.65934   0.66410   0.66954   0.67099   0.67672
 Alpha virt. eigenvalues --    0.68113   0.69164   0.69340   0.70008   0.71159
 Alpha virt. eigenvalues --    0.72418   0.73859   0.74948   0.75703   0.76848
 Alpha virt. eigenvalues --    0.77995   0.78091   0.78539   0.79168   0.82180
 Alpha virt. eigenvalues --    0.82896   0.83223   0.83519   0.84296   0.84824
 Alpha virt. eigenvalues --    0.85265   0.87544   0.87899   0.88658   0.88930
 Alpha virt. eigenvalues --    0.89006   0.89152   0.90188   0.90870   0.92878
 Alpha virt. eigenvalues --    0.92896   0.93336   0.93832   0.93928   0.94921
 Alpha virt. eigenvalues --    0.95450   0.95799   0.96765   0.98257   0.99561
 Alpha virt. eigenvalues --    1.00439   1.00808   1.01776   1.02364   1.02578
 Alpha virt. eigenvalues --    1.04294   1.04730   1.06113   1.07134   1.07629
 Alpha virt. eigenvalues --    1.08557   1.09542   1.12433   1.14742   1.15111
 Alpha virt. eigenvalues --    1.16202   1.17109   1.17868   1.18870   1.19095
 Alpha virt. eigenvalues --    1.20733   1.21381   1.23182   1.23615   1.24417
 Alpha virt. eigenvalues --    1.25422   1.26031   1.26733   1.29135   1.30794
 Alpha virt. eigenvalues --    1.31675   1.32199   1.32369   1.34151   1.35687
 Alpha virt. eigenvalues --    1.36564   1.38933   1.40502   1.40622   1.40758
 Alpha virt. eigenvalues --    1.41385   1.43069   1.43441   1.43847   1.44786
 Alpha virt. eigenvalues --    1.45519   1.47770   1.55175   1.55630   1.55783
 Alpha virt. eigenvalues --    1.55967   1.56454   1.58446   1.58555   1.59311
 Alpha virt. eigenvalues --    1.59428   1.59640   1.60012   1.61283   1.61433
 Alpha virt. eigenvalues --    1.65181   1.65408   1.66357   1.67226   1.69879
 Alpha virt. eigenvalues --    1.70262   1.72068   1.74954   1.75014   1.76079
 Alpha virt. eigenvalues --    1.76108   1.79960   1.80180   1.80636   1.80844
 Alpha virt. eigenvalues --    1.81272   1.86373   1.86757   1.87004   1.87125
 Alpha virt. eigenvalues --    1.87459   1.88801   1.88981   1.89225   1.89521
 Alpha virt. eigenvalues --    1.89619   1.89822   1.90042   1.93042   1.93216
 Alpha virt. eigenvalues --    1.94020   2.01754   2.02106   2.03318   2.04936
 Alpha virt. eigenvalues --    2.06218   2.06469   2.12829   2.12918   2.12976
 Alpha virt. eigenvalues --    2.13802   2.18359   2.18585   2.19857   2.20027
 Alpha virt. eigenvalues --    2.22287   2.22437   2.22469   2.23290   2.23418
 Alpha virt. eigenvalues --    2.23585   2.23962   2.24367   2.24495   2.24804
 Alpha virt. eigenvalues --    2.24964   2.25372   2.28405   2.28607   2.32562
 Alpha virt. eigenvalues --    2.35101   2.35296   2.35431   2.38900   2.39126
 Alpha virt. eigenvalues --    2.40036   2.45206   2.48092   2.48341   2.48466
 Alpha virt. eigenvalues --    2.48666   2.49948   2.52118   2.52154   2.52722
 Alpha virt. eigenvalues --    2.54660   2.55007   2.55064   2.55133   2.55154
 Alpha virt. eigenvalues --    2.55371   2.55430   2.55952   2.56608   2.57510
 Alpha virt. eigenvalues --    2.59081   2.59609   2.63870   2.65845   2.65879
 Alpha virt. eigenvalues --    2.67106   2.74762   2.74822   2.75978   2.76132
 Alpha virt. eigenvalues --    2.78779   2.82357   2.84293   2.86057   2.86172
 Alpha virt. eigenvalues --    2.86481   2.88948   2.89107   2.92128   2.92249
 Alpha virt. eigenvalues --    2.92441   2.94780   2.95263   2.97931   2.99477
 Alpha virt. eigenvalues --    2.99674   3.00115   3.00582   3.00727   3.01039
 Alpha virt. eigenvalues --    3.07732   3.11403   3.11549   3.14885   3.23244
 Alpha virt. eigenvalues --    3.23400   3.24013   3.34071   3.34462   3.42113
 Alpha virt. eigenvalues --    3.42286   3.42495   3.42994   3.44828   3.44935
 Alpha virt. eigenvalues --    3.62222   3.62477   3.70239   3.72381  53.77175
  Beta  occ. eigenvalues --  -14.49766 -14.49427 -14.49313 -14.49219 -14.49195
  Beta  occ. eigenvalues --  -14.48040 -14.45130 -14.44923 -14.44852 -14.44804
  Beta  occ. eigenvalues --  -14.44756 -14.44526 -10.39443 -10.39291 -10.39204
  Beta  occ. eigenvalues --  -10.39102 -10.38830 -10.38734 -10.37258 -10.37198
  Beta  occ. eigenvalues --  -10.37110 -10.36990 -10.36965 -10.36922 -10.32766
  Beta  occ. eigenvalues --  -10.32627 -10.32487 -10.32454 -10.32449 -10.32204
  Beta  occ. eigenvalues --   -3.82168  -2.40334  -2.40276  -2.40194  -1.10490
  Beta  occ. eigenvalues --   -1.08492  -1.08292  -1.01477  -1.01298  -0.99504
  Beta  occ. eigenvalues --   -0.98864  -0.97630  -0.97515  -0.96921  -0.96790
  Beta  occ. eigenvalues --   -0.96503  -0.95585  -0.89991  -0.89805  -0.84073
  Beta  occ. eigenvalues --   -0.81832  -0.81778  -0.76201  -0.75344  -0.75240
  Beta  occ. eigenvalues --   -0.69096  -0.67791  -0.67731  -0.66621  -0.64706
  Beta  occ. eigenvalues --   -0.64601  -0.61472  -0.61318  -0.58813  -0.58754
  Beta  occ. eigenvalues --   -0.56985  -0.53499  -0.53375  -0.53294  -0.53201
  Beta  occ. eigenvalues --   -0.47641  -0.46055  -0.45870  -0.43926  -0.42740
  Beta  occ. eigenvalues --   -0.42709  -0.42661  -0.42483  -0.42442  -0.42217
  Beta  occ. eigenvalues --   -0.42164  -0.42032  -0.41387  -0.41232  -0.41041
  Beta  occ. eigenvalues --   -0.40994  -0.40905  -0.40507  -0.40269  -0.39775
  Beta  occ. eigenvalues --   -0.39544  -0.39325  -0.39251  -0.39126  -0.38880
  Beta  occ. eigenvalues --   -0.38752  -0.38378  -0.37643  -0.37500  -0.36841
  Beta  occ. eigenvalues --   -0.35400  -0.34752  -0.34424  -0.33823  -0.33714
  Beta virt. eigenvalues --   -0.17247  -0.17166  -0.16942  -0.14404  -0.10683
  Beta virt. eigenvalues --   -0.10617  -0.10262  -0.03471  -0.03051  -0.02877
  Beta virt. eigenvalues --   -0.02365  -0.02012  -0.00852  -0.00699   0.00129
  Beta virt. eigenvalues --    0.00263   0.00345   0.01360   0.03224   0.03310
  Beta virt. eigenvalues --    0.03499   0.06298   0.07988   0.08754   0.09095
  Beta virt. eigenvalues --    0.09120   0.12274   0.13114   0.13785   0.13899
  Beta virt. eigenvalues --    0.14028   0.14742   0.15515   0.16723   0.17924
  Beta virt. eigenvalues --    0.19241   0.19991   0.20051   0.21022   0.21285
  Beta virt. eigenvalues --    0.22179   0.22475   0.22705   0.24119   0.24459
  Beta virt. eigenvalues --    0.25348   0.25917   0.27262   0.28421   0.28668
  Beta virt. eigenvalues --    0.29912   0.30364   0.31377   0.33153   0.33945
  Beta virt. eigenvalues --    0.37347   0.37701   0.37969   0.38499   0.39100
  Beta virt. eigenvalues --    0.39303   0.39901   0.40584   0.40938   0.41180
  Beta virt. eigenvalues --    0.42269   0.44209   0.44822   0.45706   0.46056
  Beta virt. eigenvalues --    0.46462   0.47171   0.47657   0.48793   0.49621
  Beta virt. eigenvalues --    0.49779   0.50051   0.50311   0.50541   0.50817
  Beta virt. eigenvalues --    0.50943   0.52017   0.53349   0.53593   0.54052
  Beta virt. eigenvalues --    0.54195   0.54441   0.54674   0.55050   0.55535
  Beta virt. eigenvalues --    0.56776   0.57632   0.58529   0.60094   0.61649
  Beta virt. eigenvalues --    0.62229   0.63542   0.63994   0.64397   0.64489
  Beta virt. eigenvalues --    0.64681   0.65337   0.65497   0.65590   0.65757
  Beta virt. eigenvalues --    0.65821   0.65972   0.66496   0.67021   0.67157
  Beta virt. eigenvalues --    0.67741   0.68213   0.69213   0.69467   0.70337
  Beta virt. eigenvalues --    0.71425   0.72774   0.73953   0.74972   0.75797
  Beta virt. eigenvalues --    0.76895   0.78045   0.78162   0.78689   0.79308
  Beta virt. eigenvalues --    0.82429   0.82936   0.83301   0.83625   0.84415
  Beta virt. eigenvalues --    0.84883   0.85421   0.87690   0.88096   0.88689
  Beta virt. eigenvalues --    0.88960   0.89040   0.89161   0.90352   0.90913
  Beta virt. eigenvalues --    0.92900   0.92928   0.93359   0.93869   0.93978
  Beta virt. eigenvalues --    0.94959   0.95524   0.95872   0.97014   0.98342
  Beta virt. eigenvalues --    0.99611   1.00501   1.00862   1.01843   1.02478
  Beta virt. eigenvalues --    1.02647   1.04339   1.04771   1.06232   1.07194
  Beta virt. eigenvalues --    1.07670   1.08620   1.09618   1.12554   1.14759
  Beta virt. eigenvalues --    1.15162   1.16278   1.17154   1.17990   1.18971
  Beta virt. eigenvalues --    1.19180   1.20793   1.21592   1.23241   1.23655
  Beta virt. eigenvalues --    1.24536   1.25467   1.26066   1.26903   1.29203
  Beta virt. eigenvalues --    1.30870   1.31745   1.32249   1.32535   1.34226
  Beta virt. eigenvalues --    1.35712   1.36611   1.38993   1.40540   1.40658
  Beta virt. eigenvalues --    1.40812   1.41527   1.43124   1.43534   1.43879
  Beta virt. eigenvalues --    1.44923   1.45620   1.48030   1.55206   1.55629
  Beta virt. eigenvalues --    1.55783   1.55965   1.56479   1.58453   1.58563
  Beta virt. eigenvalues --    1.59315   1.59431   1.59679   1.60029   1.61289
  Beta virt. eigenvalues --    1.61448   1.65203   1.65471   1.66415   1.67278
  Beta virt. eigenvalues --    1.69925   1.70300   1.72126   1.74981   1.75065
  Beta virt. eigenvalues --    1.76117   1.76167   1.80025   1.80298   1.80705
  Beta virt. eigenvalues --    1.80956   1.81411   1.86479   1.86805   1.87073
  Beta virt. eigenvalues --    1.87222   1.87524   1.88863   1.89022   1.89271
  Beta virt. eigenvalues --    1.89565   1.89716   1.89968   1.90173   1.93135
  Beta virt. eigenvalues --    1.93287   1.94090   2.01814   2.02177   2.03688
  Beta virt. eigenvalues --    2.05287   2.06309   2.06673   2.12948   2.12993
  Beta virt. eigenvalues --    2.13069   2.13906   2.18389   2.18676   2.19948
  Beta virt. eigenvalues --    2.20090   2.22315   2.22439   2.22531   2.23306
  Beta virt. eigenvalues --    2.23456   2.23637   2.23984   2.24393   2.24516
  Beta virt. eigenvalues --    2.24837   2.25013   2.25472   2.28433   2.28706
  Beta virt. eigenvalues --    2.32638   2.35172   2.35430   2.35613   2.39020
  Beta virt. eigenvalues --    2.39398   2.40163   2.45313   2.48259   2.48500
  Beta virt. eigenvalues --    2.48527   2.48740   2.50183   2.52156   2.52217
  Beta virt. eigenvalues --    2.52763   2.54776   2.55053   2.55120   2.55198
  Beta virt. eigenvalues --    2.55208   2.55472   2.55562   2.56035   2.56676
  Beta virt. eigenvalues --    2.57550   2.59119   2.59639   2.63933   2.65951
  Beta virt. eigenvalues --    2.66047   2.67253   2.74844   2.75133   2.76115
  Beta virt. eigenvalues --    2.76261   2.78855   2.82414   2.84485   2.86087
  Beta virt. eigenvalues --    2.86210   2.86517   2.89018   2.89255   2.92148
  Beta virt. eigenvalues --    2.92251   2.92502   2.94822   2.95298   2.98045
  Beta virt. eigenvalues --    2.99486   2.99714   3.00218   3.00603   3.00753
  Beta virt. eigenvalues --    3.01100   3.07747   3.11437   3.11581   3.14915
  Beta virt. eigenvalues --    3.23255   3.23454   3.24027   3.34086   3.34521
  Beta virt. eigenvalues --    3.42121   3.42301   3.42507   3.43017   3.44848
  Beta virt. eigenvalues --    3.44960   3.62229   3.62503   3.70270   3.72406
  Beta virt. eigenvalues --   53.77301
          Condensed to atoms (all electrons):
               1          2          3          4          5          6
     1  N    6.050157   0.857667  -0.034025  -0.004707   0.000123   0.000014
     2  C    0.857667   5.240061   0.222880  -0.120727   0.019777   0.001077
     3  C   -0.034025   0.222880   5.119972   0.533006  -0.021124   0.018551
     4  N   -0.004707  -0.120727   0.533006   6.387401   0.536466  -0.112710
     5  C    0.000123   0.019777  -0.021124   0.536466   5.818100   0.037657
     6  C    0.000014   0.001077   0.018551  -0.112710   0.037657   5.726338
     7  N    0.000001  -0.000009  -0.000251   0.007664  -0.115960   0.587435
     8  C    0.000000  -0.000004   0.000048  -0.000262   0.015175  -0.020393
     9  C    0.000000   0.000000  -0.000003  -0.000025   0.001004   0.017819
    10  N    0.000000   0.000000   0.000000   0.000000   0.000015   0.000097
    11  C    0.000000   0.000000   0.000001   0.000002   0.002105  -0.079961
    12  C    0.000000   0.000000   0.000000   0.000000   0.000413   0.000287
    13  N    0.000000   0.000000   0.000000   0.000000   0.000001  -0.000039
    14  N    0.000000   0.000000  -0.000001   0.000017   0.005610  -0.125367
    15  C    0.000000  -0.000011  -0.000236   0.009423  -0.081482   0.181810
    16  C    0.000000   0.000003  -0.000240  -0.001413  -0.096737  -0.077009
    17  N    0.000000   0.000000   0.000001  -0.000001  -0.001735   0.008453
    18  C    0.000000   0.000000   0.000001   0.000001  -0.000291  -0.000049
    19  C    0.000000   0.000000   0.000000   0.000000   0.000000  -0.000008
    20  N    0.000000   0.000000   0.000000   0.000000   0.000000   0.000000
    21  C    0.000000   0.000000   0.000003  -0.000001  -0.000081  -0.000271
    22  C    0.000000   0.000000   0.000000   0.000000  -0.000008   0.000000
    23  N    0.000000   0.000000   0.000000   0.000000   0.000000   0.000000
    24  N    0.000000   0.000000  -0.000044   0.000028   0.008890  -0.001805
    25  C    0.000000   0.000335   0.001537   0.003924  -0.082942  -0.091075
    26  C   -0.000033   0.000096  -0.084375  -0.109365   0.212775  -0.074847
    27  N   -0.000011   0.002247  -0.052991  -0.038552  -0.123159   0.005841
    28  C   -0.002529  -0.104804   0.506342  -0.048216  -0.084057   0.001475
    29  C   -0.002919  -0.044387  -0.119300  -0.000498  -0.000293   0.000381
    30  N   -0.000382  -0.002546  -0.004695  -0.000030  -0.000043   0.000000
    31  Ag   0.000115  -0.019897  -0.010609   0.071506  -0.032605  -0.030606
               7          8          9         10         11         12
     1  N    0.000001   0.000000   0.000000   0.000000   0.000000   0.000000
     2  C   -0.000009  -0.000004   0.000000   0.000000   0.000000   0.000000
     3  C   -0.000251   0.000048  -0.000003   0.000000   0.000001   0.000000
     4  N    0.007664  -0.000262  -0.000025   0.000000   0.000002   0.000000
     5  C   -0.115960   0.015175   0.001004   0.000015   0.002105   0.000413
     6  C    0.587435  -0.020393   0.017819   0.000097  -0.079961   0.000287
     7  N    6.310520   0.567361  -0.115667  -0.005089  -0.049308  -0.000099
     8  C    0.567361   5.044316   0.224295  -0.032376   0.508039  -0.118039
     9  C   -0.115667   0.224295   5.227618   0.867981  -0.115940  -0.042779
    10  N   -0.005089  -0.032376   0.867981   6.038578  -0.003598  -0.002722
    11  C   -0.049308   0.508039  -0.115940  -0.003598   5.057893   0.219943
    12  C   -0.000099  -0.118039  -0.042779  -0.002722   0.219943   5.232882
    13  N   -0.000028  -0.004426  -0.002528  -0.000385  -0.036664   0.865924
    14  N   -0.040652  -0.051604   0.001183  -0.000019   0.576548  -0.113607
    15  C   -0.112111  -0.081316  -0.000040  -0.000036  -0.023975   0.014187
    16  C    0.004601   0.001651   0.000377   0.000000   0.013739   0.001254
    17  N    0.000028  -0.000038   0.000000   0.000000   0.000147  -0.000046
    18  C   -0.000001   0.000002   0.000000   0.000000   0.000029  -0.000004
    19  C    0.000000   0.000000   0.000000   0.000000  -0.000004   0.000000
    20  N    0.000000   0.000000   0.000000   0.000000   0.000000   0.000000
    21  C    0.000001   0.000001   0.000000   0.000000   0.000002   0.000000
    22  C    0.000000   0.000000   0.000000   0.000000   0.000000   0.000000
    23  N    0.000000   0.000000   0.000000   0.000000   0.000000   0.000000
    24  N   -0.000001   0.000001   0.000000   0.000000  -0.000001   0.000000
    25  C   -0.001734  -0.000197   0.000002   0.000000  -0.000149  -0.000012
    26  C    0.008706  -0.000281  -0.000012   0.000000  -0.000125   0.000004
    27  N    0.000019  -0.000001   0.000000   0.000000   0.000001   0.000000
    28  C   -0.000003   0.000000   0.000000   0.000000   0.000001   0.000000
    29  C    0.000000   0.000000   0.000000   0.000000   0.000000   0.000000
    30  N    0.000000   0.000000   0.000000   0.000000   0.000000   0.000000
    31  Ag   0.029144   0.000783  -0.005214  -0.000514   0.001532  -0.000319
              13         14         15         16         17         18
     1  N    0.000000   0.000000   0.000000   0.000000   0.000000   0.000000
     2  C    0.000000   0.000000  -0.000011   0.000003   0.000000   0.000000
     3  C    0.000000  -0.000001  -0.000236  -0.000240   0.000001   0.000001
     4  N    0.000000   0.000017   0.009423  -0.001413  -0.000001   0.000001
     5  C    0.000001   0.005610  -0.081482  -0.096737  -0.001735  -0.000291
     6  C   -0.000039  -0.125367   0.181810  -0.077009   0.008453  -0.000049
     7  N   -0.000028  -0.040652  -0.112111   0.004601   0.000028  -0.000001
     8  C   -0.004426  -0.051604  -0.081316   0.001651  -0.000038   0.000002
     9  C   -0.002528   0.001183  -0.000040   0.000377   0.000000   0.000000
    10  N   -0.000385  -0.000019  -0.000036   0.000000   0.000000   0.000000
    11  C   -0.036664   0.576548  -0.023975   0.013739   0.000147   0.000029
    12  C    0.865924  -0.113607   0.014187   0.001254  -0.000046  -0.000004
    13  N    6.047758  -0.005630   0.000043   0.000018   0.000000   0.000000
    14  N   -0.005630   6.272800   0.620525  -0.095660   0.004968   0.000111
    15  C    0.000043   0.620525   5.635224   0.046509  -0.099492   0.014380
    16  C    0.000018  -0.095660   0.046509   5.635942   0.620224  -0.026274
    17  N    0.000000   0.004968  -0.099492   0.620224   6.269122   0.582478
    18  C    0.000000   0.000111   0.014380  -0.026274   0.582478   5.045917
    19  C    0.000000  -0.000048   0.001385   0.014906  -0.115014   0.217615
    20  N    0.000000   0.000000   0.000018   0.000053  -0.005673  -0.035850
    21  C    0.000000  -0.000024   0.001734  -0.077569  -0.051287   0.517074
    22  C    0.000000   0.000000   0.000416  -0.000318   0.000186  -0.120639
    23  N    0.000000   0.000000   0.000001  -0.000040  -0.000027  -0.004463
    24  N    0.000000   0.000024   0.005279  -0.120757  -0.042319  -0.051457
    25  C    0.000000   0.008721  -0.075847   0.209122  -0.119958  -0.077417
    26  C    0.000000  -0.001900  -0.092123  -0.080060   0.005102   0.001622
    27  N    0.000000  -0.000002  -0.001753   0.008530   0.000024  -0.000026
    28  C    0.000000   0.000001  -0.000147  -0.000082  -0.000001   0.000002
    29  C    0.000000   0.000000   0.000003  -0.000006   0.000000   0.000000
    30  N    0.000000   0.000000   0.000000   0.000000   0.000000   0.000000
    31  Ag   0.000005   0.001035   0.006689  -0.001489   0.000149  -0.000047
              19         20         21         22         23         24
     1  N    0.000000   0.000000   0.000000   0.000000   0.000000   0.000000
     2  C    0.000000   0.000000   0.000000   0.000000   0.000000   0.000000
     3  C    0.000000   0.000000   0.000003   0.000000   0.000000  -0.000044
     4  N    0.000000   0.000000  -0.000001   0.000000   0.000000   0.000028
     5  C    0.000000   0.000000  -0.000081  -0.000008   0.000000   0.008890
     6  C   -0.000008   0.000000  -0.000271   0.000000   0.000000  -0.001805
     7  N    0.000000   0.000000   0.000001   0.000000   0.000000  -0.000001
     8  C    0.000000   0.000000   0.000001   0.000000   0.000000   0.000001
     9  C    0.000000   0.000000   0.000000   0.000000   0.000000   0.000000
    10  N    0.000000   0.000000   0.000000   0.000000   0.000000   0.000000
    11  C   -0.000004   0.000000   0.000002   0.000000   0.000000  -0.000001
    12  C    0.000000   0.000000   0.000000   0.000000   0.000000   0.000000
    13  N    0.000000   0.000000   0.000000   0.000000   0.000000   0.000000
    14  N   -0.000048   0.000000  -0.000024   0.000000   0.000000   0.000024
    15  C    0.001385   0.000018   0.001734   0.000416   0.000001   0.005279
    16  C    0.014906   0.000053  -0.077569  -0.000318  -0.000040  -0.120757
    17  N   -0.115014  -0.005673  -0.051287   0.000186  -0.000027  -0.042319
    18  C    0.217615  -0.035850   0.517074  -0.120639  -0.004463  -0.051457
    19  C    5.231368   0.865554  -0.119526  -0.039534  -0.002418   0.000205
    20  N    0.865554   6.046273  -0.004407  -0.002420  -0.000373  -0.000027
    21  C   -0.119526  -0.004407   5.042286   0.216583  -0.036088   0.583583
    22  C   -0.039534  -0.002420   0.216583   5.233583   0.865061  -0.115805
    23  N   -0.002418  -0.000373  -0.036088   0.865061   6.046391  -0.005722
    24  N    0.000205  -0.000027   0.583583  -0.115805  -0.005722   6.272338
    25  C   -0.000214  -0.000039  -0.025760   0.014949   0.000052   0.617248
    26  C    0.000416   0.000001   0.014726   0.001500   0.000019  -0.100173
    27  N    0.000000   0.000000   0.000142  -0.000045   0.000000   0.005421
    28  C    0.000000   0.000000   0.000029  -0.000004   0.000000   0.000075
    29  C    0.000000   0.000000  -0.000004   0.000000   0.000000  -0.000042
    30  N    0.000000   0.000000   0.000000   0.000000   0.000000   0.000000
    31  Ag  -0.000009   0.000000  -0.000028  -0.000024  -0.000001   0.000421
              25         26         27         28         29         30
     1  N    0.000000  -0.000033  -0.000011  -0.002529  -0.002919  -0.000382
     2  C    0.000335   0.000096   0.002247  -0.104804  -0.044387  -0.002546
     3  C    0.001537  -0.084375  -0.052991   0.506342  -0.119300  -0.004695
     4  N    0.003924  -0.109365  -0.038552  -0.048216  -0.000498  -0.000030
     5  C   -0.082942   0.212775  -0.123159  -0.084057  -0.000293  -0.000043
     6  C   -0.091075  -0.074847   0.005841   0.001475   0.000381   0.000000
     7  N   -0.001734   0.008706   0.000019  -0.000003   0.000000   0.000000
     8  C   -0.000197  -0.000281  -0.000001   0.000000   0.000000   0.000000
     9  C    0.000002  -0.000012   0.000000   0.000000   0.000000   0.000000
    10  N    0.000000   0.000000   0.000000   0.000000   0.000000   0.000000
    11  C   -0.000149  -0.000125   0.000001   0.000001   0.000000   0.000000
    12  C   -0.000012   0.000004   0.000000   0.000000   0.000000   0.000000
    13  N    0.000000   0.000000   0.000000   0.000000   0.000000   0.000000
    14  N    0.008721  -0.001900  -0.000002   0.000001   0.000000   0.000000
    15  C   -0.075847  -0.092123  -0.001753  -0.000147   0.000003   0.000000
    16  C    0.209122  -0.080060   0.008530  -0.000082  -0.000006   0.000000
    17  N   -0.119958   0.005102   0.000024  -0.000001   0.000000   0.000000
    18  C   -0.077417   0.001622  -0.000026   0.000002   0.000000   0.000000
    19  C   -0.000214   0.000416   0.000000   0.000000   0.000000   0.000000
    20  N   -0.000039   0.000001   0.000000   0.000000   0.000000   0.000000
    21  C   -0.025760   0.014726   0.000142   0.000029  -0.000004   0.000000
    22  C    0.014949   0.001500  -0.000045  -0.000004   0.000000   0.000000
    23  N    0.000052   0.000019   0.000000   0.000000   0.000000   0.000000
    24  N    0.617248  -0.100173   0.005421   0.000075  -0.000042   0.000000
    25  C    5.629130   0.058715  -0.096384   0.014294   0.001301   0.000018
    26  C    0.058715   5.579122   0.611105  -0.016287   0.014806   0.000040
    27  N   -0.096384   0.611105   6.301486   0.565348  -0.110926  -0.005492
    28  C    0.014294  -0.016287   0.565348   5.037524   0.225442  -0.036524
    29  C    0.001301   0.014806  -0.110926   0.225442   5.232201   0.865840
    30  N    0.000018   0.000040  -0.005492  -0.036524   0.865840   6.049184
    31  Ag  -0.002650   0.004088   0.002960   0.003112  -0.001009   0.000024
              31
     1  N    0.000115
     2  C   -0.019897
     3  C   -0.010609
     4  N    0.071506
     5  C   -0.032605
     6  C   -0.030606
     7  N    0.029144
     8  C    0.000783
     9  C   -0.005214
    10  N   -0.000514
    11  C    0.001532
    12  C   -0.000319
    13  N    0.000005
    14  N    0.001035
    15  C    0.006689
    16  C   -0.001489
    17  N    0.000149
    18  C   -0.000047
    19  C   -0.000009
    20  N    0.000000
    21  C   -0.000028
    22  C   -0.000024
    23  N   -0.000001
    24  N    0.000421
    25  C   -0.002650
    26  C    0.004088
    27  N    0.002960
    28  C    0.003112
    29  C   -0.001009
    30  N    0.000024
    31  Ag  18.778806
          Atomic-Atomic Spin Densities.
               1          2          3          4          5          6
     1  N    0.026341  -0.001508  -0.003318   0.000187   0.000012   0.000000
     2  C   -0.001508  -0.012905  -0.002805   0.001720   0.000682   0.000018
     3  C   -0.003318  -0.002805   0.107814  -0.022781   0.004330   0.000673
     4  N    0.000187   0.001720  -0.022781   0.038778  -0.016325  -0.002851
     5  C    0.000012   0.000682   0.004330  -0.016325   0.095577   0.012705
     6  C    0.000000   0.000018   0.000673  -0.002851   0.012705   0.044988
     7  N    0.000000   0.000014  -0.000066   0.001503  -0.003719  -0.010007
     8  C    0.000000  -0.000001   0.000002  -0.000075   0.000249   0.001236
     9  C    0.000000   0.000000   0.000000   0.000011   0.000041   0.000023
    10  N    0.000000   0.000000   0.000000   0.000000   0.000000  -0.000002
    11  C    0.000000   0.000000   0.000000  -0.000001   0.000091   0.001029
    12  C    0.000000   0.000000   0.000000   0.000000   0.000000  -0.000050
    13  N    0.000000   0.000000   0.000000   0.000000   0.000000  -0.000001
    14  N    0.000000   0.000000   0.000000   0.000003  -0.000190  -0.002086
    15  C    0.000000   0.000003  -0.000004   0.000034  -0.003235  -0.005023
    16  C    0.000000   0.000000   0.000006   0.000027  -0.000873  -0.000274
    17  N    0.000000   0.000000   0.000000   0.000000  -0.000034  -0.000022
    18  C    0.000000   0.000000   0.000000   0.000000   0.000018  -0.000001
    19  C    0.000000   0.000000   0.000000   0.000000   0.000000  -0.000001
    20  N    0.000000   0.000000   0.000000   0.000000   0.000000   0.000000
    21  C    0.000000   0.000000   0.000000   0.000000  -0.000029   0.000010
    22  C    0.000000   0.000000   0.000000   0.000000  -0.000002   0.000000
    23  N    0.000000   0.000000   0.000000   0.000000   0.000000   0.000000
    24  N    0.000000   0.000000  -0.000002   0.000000  -0.000061  -0.000039
    25  C    0.000000  -0.000011  -0.000112  -0.000231   0.001612   0.000319
    26  C   -0.000002  -0.000191   0.000618   0.001706   0.005469  -0.002808
    27  N    0.000004   0.000375  -0.004437   0.001276  -0.004517  -0.000407
    28  C    0.000044  -0.000076   0.014035  -0.000587   0.001343   0.000034
    29  C   -0.000036   0.000077  -0.001900  -0.000076  -0.000180  -0.000002
    30  N    0.000004   0.000035  -0.000262   0.000000  -0.000002   0.000000
    31  Ag  -0.000582  -0.007721  -0.012866   0.016460  -0.031696  -0.013630
               7          8          9         10         11         12
     1  N    0.000000   0.000000   0.000000   0.000000   0.000000   0.000000
     2  C    0.000014  -0.000001   0.000000   0.000000   0.000000   0.000000
     3  C   -0.000066   0.000002   0.000000   0.000000   0.000000   0.000000
     4  N    0.001503  -0.000075   0.000011   0.000000  -0.000001   0.000000
     5  C   -0.003719   0.000249   0.000041   0.000000   0.000091   0.000000
     6  C   -0.010007   0.001236   0.000023  -0.000002   0.001029  -0.000050
     7  N    0.045641  -0.004200  -0.000111   0.000036  -0.001333  -0.000038
     8  C   -0.004200  -0.007555  -0.002861  -0.000806   0.003166  -0.000345
     9  C   -0.000111  -0.002861   0.006809  -0.000616  -0.000240   0.000098
    10  N    0.000036  -0.000806  -0.000616  -0.001778  -0.000010   0.000002
    11  C   -0.001333   0.003166  -0.000240  -0.000010   0.032582   0.001017
    12  C   -0.000038  -0.000345   0.000098   0.000002   0.001017  -0.008940
    13  N    0.000000  -0.000034   0.000007   0.000001  -0.000543  -0.000322
    14  N    0.000604  -0.000177   0.000096   0.000001  -0.008028   0.000155
    15  C    0.001497  -0.000127  -0.000038   0.000000  -0.000648  -0.000065
    16  C   -0.000074  -0.000039  -0.000002   0.000000  -0.000001   0.000001
    17  N    0.000000  -0.000001   0.000000   0.000000  -0.000013   0.000000
    18  C    0.000000   0.000000   0.000000   0.000000   0.000001   0.000000
    19  C    0.000000   0.000000   0.000000   0.000000   0.000000   0.000000
    20  N    0.000000   0.000000   0.000000   0.000000   0.000000   0.000000
    21  C    0.000000   0.000000   0.000000   0.000000   0.000000   0.000000
    22  C    0.000000   0.000000   0.000000   0.000000   0.000000   0.000000
    23  N    0.000000   0.000000   0.000000   0.000000   0.000000   0.000000
    24  N    0.000000   0.000000   0.000000   0.000000   0.000000   0.000000
    25  C   -0.000028   0.000006   0.000000   0.000000   0.000014   0.000000
    26  C    0.000007  -0.000019   0.000003   0.000000  -0.000003   0.000000
    27  N    0.000006   0.000000   0.000000   0.000000   0.000000   0.000000
    28  C   -0.000004   0.000000   0.000000   0.000000   0.000000   0.000000
    29  C    0.000000   0.000000   0.000000   0.000000   0.000000   0.000000
    30  N    0.000000   0.000000   0.000000   0.000000   0.000000   0.000000
    31  Ag   0.003230   0.001629  -0.001299  -0.000174  -0.001027  -0.000054
              13         14         15         16         17         18
     1  N    0.000000   0.000000   0.000000   0.000000   0.000000   0.000000
     2  C    0.000000   0.000000   0.000003   0.000000   0.000000   0.000000
     3  C    0.000000   0.000000  -0.000004   0.000006   0.000000   0.000000
     4  N    0.000000   0.000003   0.000034   0.000027   0.000000   0.000000
     5  C    0.000000  -0.000190  -0.003235  -0.000873  -0.000034   0.000018
     6  C   -0.000001  -0.002086  -0.005023  -0.000274  -0.000022  -0.000001
     7  N    0.000000   0.000604   0.001497  -0.000074   0.000000   0.000000
     8  C   -0.000034  -0.000177  -0.000127  -0.000039  -0.000001   0.000000
     9  C    0.000007   0.000096  -0.000038  -0.000002   0.000000   0.000000
    10  N    0.000001   0.000001   0.000000   0.000000   0.000000   0.000000
    11  C   -0.000543  -0.008028  -0.000648  -0.000001  -0.000013   0.000001
    12  C   -0.000322   0.000155  -0.000065   0.000001   0.000000   0.000000
    13  N    0.011562   0.000036  -0.000002   0.000000   0.000000   0.000000
    14  N    0.000036   0.016239   0.002528   0.000543   0.000177  -0.000023
    15  C   -0.000002   0.002528  -0.003739   0.002937   0.000207  -0.000047
    16  C    0.000000   0.000543   0.002937  -0.009172   0.000821   0.000165
    17  N    0.000000   0.000177   0.000207   0.000821   0.002716  -0.001224
    18  C    0.000000  -0.000023  -0.000047   0.000165  -0.001224   0.001556
    19  C    0.000000   0.000000  -0.000011  -0.000050  -0.000005   0.000139
    20  N    0.000000   0.000000   0.000000  -0.000001   0.000004  -0.000071
    21  C    0.000000   0.000001   0.000020   0.000229   0.000063  -0.000331
    22  C    0.000000   0.000000   0.000002   0.000047   0.000000   0.000088
    23  N    0.000000   0.000000   0.000000   0.000000   0.000000   0.000007
    24  N    0.000000   0.000001   0.000029   0.000016   0.000072  -0.000211
    25  C    0.000000  -0.000110  -0.001655  -0.001296  -0.000484   0.000457
    26  C    0.000000   0.000064   0.003455  -0.001331   0.000007   0.000018
    27  N    0.000000   0.000000   0.000118  -0.000155   0.000001   0.000002
    28  C    0.000000   0.000000  -0.000024   0.000010   0.000000   0.000000
    29  C    0.000000   0.000000   0.000000   0.000001   0.000000   0.000000
    30  N    0.000000   0.000000   0.000000   0.000000   0.000000   0.000000
    31  Ag   0.000003   0.000071  -0.001336   0.000514   0.000013  -0.000041
              19         20         21         22         23         24
     1  N    0.000000   0.000000   0.000000   0.000000   0.000000   0.000000
     2  C    0.000000   0.000000   0.000000   0.000000   0.000000   0.000000
     3  C    0.000000   0.000000   0.000000   0.000000   0.000000  -0.000002
     4  N    0.000000   0.000000   0.000000   0.000000   0.000000   0.000000
     5  C    0.000000   0.000000  -0.000029  -0.000002   0.000000  -0.000061
     6  C   -0.000001   0.000000   0.000010   0.000000   0.000000  -0.000039
     7  N    0.000000   0.000000   0.000000   0.000000   0.000000   0.000000
     8  C    0.000000   0.000000   0.000000   0.000000   0.000000   0.000000
     9  C    0.000000   0.000000   0.000000   0.000000   0.000000   0.000000
    10  N    0.000000   0.000000   0.000000   0.000000   0.000000   0.000000
    11  C    0.000000   0.000000   0.000000   0.000000   0.000000   0.000000
    12  C    0.000000   0.000000   0.000000   0.000000   0.000000   0.000000
    13  N    0.000000   0.000000   0.000000   0.000000   0.000000   0.000000
    14  N    0.000000   0.000000   0.000001   0.000000   0.000000   0.000001
    15  C   -0.000011   0.000000   0.000020   0.000002   0.000000   0.000029
    16  C   -0.000050  -0.000001   0.000229   0.000047   0.000000   0.000016
    17  N   -0.000005   0.000004   0.000063   0.000000   0.000000   0.000072
    18  C    0.000139  -0.000071  -0.000331   0.000088   0.000007  -0.000211
    19  C    0.000149  -0.000175  -0.000058   0.000032   0.000001  -0.000011
    20  N   -0.000175   0.000311   0.000002   0.000002   0.000000   0.000000
    21  C   -0.000058   0.000002   0.001016  -0.000214  -0.000057   0.000619
    22  C    0.000032   0.000002  -0.000214  -0.000195  -0.000002  -0.000029
    23  N    0.000001   0.000000  -0.000057  -0.000002   0.000329  -0.000004
    24  N   -0.000011   0.000000   0.000619  -0.000029  -0.000004   0.000842
    25  C    0.000027   0.000000  -0.000414  -0.000010   0.000000  -0.003351
    26  C    0.000003   0.000000  -0.000079  -0.000021   0.000000   0.000623
    27  N    0.000000   0.000000  -0.000007  -0.000007   0.000000   0.000652
    28  C    0.000000   0.000000   0.000001   0.000000   0.000000  -0.000036
    29  C    0.000000   0.000000   0.000000   0.000000   0.000000  -0.000001
    30  N    0.000000   0.000000   0.000000   0.000000   0.000000   0.000000
    31  Ag  -0.000003   0.000000   0.000012  -0.000008   0.000000   0.000093
              25         26         27         28         29         30
     1  N    0.000000  -0.000002   0.000004   0.000044  -0.000036   0.000004
     2  C   -0.000011  -0.000191   0.000375  -0.000076   0.000077   0.000035
     3  C   -0.000112   0.000618  -0.004437   0.014035  -0.001900  -0.000262
     4  N   -0.000231   0.001706   0.001276  -0.000587  -0.000076   0.000000
     5  C    0.001612   0.005469  -0.004517   0.001343  -0.000180  -0.000002
     6  C    0.000319  -0.002808  -0.000407   0.000034  -0.000002   0.000000
     7  N   -0.000028   0.000007   0.000006  -0.000004   0.000000   0.000000
     8  C    0.000006  -0.000019   0.000000   0.000000   0.000000   0.000000
     9  C    0.000000   0.000003   0.000000   0.000000   0.000000   0.000000
    10  N    0.000000   0.000000   0.000000   0.000000   0.000000   0.000000
    11  C    0.000014  -0.000003   0.000000   0.000000   0.000000   0.000000
    12  C    0.000000   0.000000   0.000000   0.000000   0.000000   0.000000
    13  N    0.000000   0.000000   0.000000   0.000000   0.000000   0.000000
    14  N   -0.000110   0.000064   0.000000   0.000000   0.000000   0.000000
    15  C   -0.001655   0.003455   0.000118  -0.000024   0.000000   0.000000
    16  C   -0.001296  -0.001331  -0.000155   0.000010   0.000001   0.000000
    17  N   -0.000484   0.000007   0.000001   0.000000   0.000000   0.000000
    18  C    0.000457   0.000018   0.000002   0.000000   0.000000   0.000000
    19  C    0.000027   0.000003   0.000000   0.000000   0.000000   0.000000
    20  N    0.000000   0.000000   0.000000   0.000000   0.000000   0.000000
    21  C   -0.000414  -0.000079  -0.000007   0.000001   0.000000   0.000000
    22  C   -0.000010  -0.000021  -0.000007   0.000000   0.000000   0.000000
    23  N    0.000000   0.000000   0.000000   0.000000   0.000000   0.000000
    24  N   -0.003351   0.000623   0.000652  -0.000036  -0.000001   0.000000
    25  C    0.023425   0.003909  -0.003859   0.000420   0.000098   0.000001
    26  C    0.003909  -0.049103  -0.007314   0.002369   0.000095  -0.000006
    27  N   -0.003859  -0.007314   0.166122  -0.016486  -0.002904  -0.000004
    28  C    0.000420   0.002369  -0.016486  -0.022964  -0.000857  -0.000674
    29  C    0.000098   0.000095  -0.002904  -0.000857   0.011756  -0.001685
    30  N    0.000001  -0.000006  -0.000004  -0.000674  -0.001685  -0.002538
    31  Ag  -0.000188  -0.005691   0.001029  -0.002843   0.000024   0.000025
              31
     1  N   -0.000582
     2  C   -0.007721
     3  C   -0.012866
     4  N    0.016460
     5  C   -0.031696
     6  C   -0.013630
     7  N    0.003230
     8  C    0.001629
     9  C   -0.001299
    10  N   -0.000174
    11  C   -0.001027
    12  C   -0.000054
    13  N    0.000003
    14  N    0.000071
    15  C   -0.001336
    16  C    0.000514
    17  N    0.000013
    18  C   -0.000041
    19  C   -0.000003
    20  N    0.000000
    21  C    0.000012
    22  C   -0.000008
    23  N    0.000000
    24  N    0.000093
    25  C   -0.000188
    26  C   -0.005691
    27  N    0.001029
    28  C   -0.002843
    29  C    0.000024
    30  N    0.000025
    31  Ag   0.752116
 Mulliken charges and spin densities:
               1          2
     1  N    0.136530   0.021145
     2  C   -0.051758  -0.022296
     3  C   -0.074447   0.078922
     4  N   -0.112930   0.018778
     5  C   -0.017594   0.061267
     6  C    0.026902   0.023830
     7  N   -0.074568   0.032958
     8  C   -0.052736  -0.009951
     9  C   -0.058070   0.001921
    10  N    0.138068  -0.003346
    11  C   -0.070257   0.026053
    12  C   -0.057268  -0.008540
    13  N    0.135953   0.010708
    14  N   -0.057031   0.009905
    15  C    0.030945  -0.005126
    16  C    0.020725  -0.007950
    17  N   -0.055287   0.002299
    18  C   -0.062713   0.000504
    19  C   -0.054674   0.000036
    20  N    0.136890   0.000072
    21  C   -0.061117   0.000784
    22  C   -0.053481  -0.000317
    23  N    0.137609   0.000273
    24  N   -0.055356  -0.000798
    25  C    0.015031   0.018538
    26  C    0.046738  -0.048222
    27  N   -0.073780   0.129488
    28  C   -0.060992  -0.026294
    29  C   -0.060591   0.004410
    30  N    0.134607  -0.005108
    31  Ag   0.204653   0.696060
 Sum of Mulliken charges =   0.00000   1.00000
 Mulliken charges and spin densities with hydrogens summed into heavy atoms:
               1          2
     1  N    0.136530   0.021145
     2  C   -0.051758  -0.022296
     3  C   -0.074447   0.078922
     4  N   -0.112930   0.018778
     5  C   -0.017594   0.061267
     6  C    0.026902   0.023830
     7  N   -0.074568   0.032958
     8  C   -0.052736  -0.009951
     9  C   -0.058070   0.001921
    10  N    0.138068  -0.003346
    11  C   -0.070257   0.026053
    12  C   -0.057268  -0.008540
    13  N    0.135953   0.010708
    14  N   -0.057031   0.009905
    15  C    0.030945  -0.005126
    16  C    0.020725  -0.007950
    17  N   -0.055287   0.002299
    18  C   -0.062713   0.000504
    19  C   -0.054674   0.000036
    20  N    0.136890   0.000072
    21  C   -0.061117   0.000784
    22  C   -0.053481  -0.000317
    23  N    0.137609   0.000273
    24  N   -0.055356  -0.000798
    25  C    0.015031   0.018538
    26  C    0.046738  -0.048222
    27  N   -0.073780   0.129488
    28  C   -0.060992  -0.026294
    29  C   -0.060591   0.004410
    30  N    0.134607  -0.005108
    31  Ag   0.204653   0.696060
 Electronic spatial extent (au):  <R**2>=          13380.7387
 Charge=              0.0000 electrons
 Dipole moment (field-independent basis, Debye):
    X=             -1.6743    Y=              1.0474    Z=              1.9085  Tot=              2.7464
 Quadrupole moment (field-independent basis, Debye-Ang):
   XX=           -245.3338   YY=           -247.5845   ZZ=           -175.0058
   XY=             -6.1230   XZ=             -9.0111   YZ=             18.4418
 Traceless Quadrupole moment (field-independent basis, Debye-Ang):
   XX=            -22.6924   YY=            -24.9431   ZZ=             47.6355
   XY=             -6.1230   XZ=             -9.0111   YZ=             18.4418
 Octapole moment (field-independent basis, Debye-Ang**2):
  XXX=            110.5975  YYY=           -186.8565  ZZZ=           -109.8968  XYY=             54.8096
  XXY=             27.9496  XXZ=            -38.0672  XZZ=             34.9517  YZZ=            -35.5984
  YYZ=            -16.6100  XYZ=            -12.7032
 Hexadecapole moment (field-independent basis, Debye-Ang**3):
 XXXX=         -11905.8263 YYYY=         -11481.9677 ZZZZ=           -953.3767 XXXY=            189.6959
 XXXZ=           -136.2924 YYYX=            205.5576 YYYZ=           1034.5880 ZZZX=             36.6686
 ZZZY=            506.2609 XXYY=          -3876.0267 XXZZ=          -1659.4101 YYZZ=          -1670.1263
 XXYZ=            373.3798 YYXZ=            -55.5959 ZZXY=             82.0295
 N-N= 2.756296371223D+03 E-N=-8.939282771985D+03  KE= 1.384932742778D+03
                          Isotropic Fermi Contact Couplings
        Atom                 a.u.       MegaHertz       Gauss      10(-4) cm-1
     1  N(14)              0.00481       1.55454       0.55470       0.51854
     2  C(13)             -0.00784      -8.81246      -3.14450      -2.93952
     3  C(13)              0.01455      16.35983       5.83760       5.45705
     4  N(14)              0.04840      15.63807       5.58005       5.21630
     5  C(13)              0.01082      12.16817       4.34191       4.05887
     6  C(13)              0.00246       2.76930       0.98816       0.92374
     7  N(14)              0.01878       6.06793       2.16519       2.02404
     8  C(13)             -0.00364      -4.09466      -1.46108      -1.36583
     9  C(13)              0.00060       0.67044       0.23923       0.22364
    10  N(14)             -0.00069      -0.22337      -0.07971      -0.07451
    11  C(13)              0.00445       5.00094       1.78446       1.66814
    12  C(13)             -0.00304      -3.41786      -1.21958      -1.14007
    13  N(14)              0.00236       0.76255       0.27210       0.25436
    14  N(14)              0.00278       0.89979       0.32107       0.30014
    15  C(13)             -0.00140      -1.57133      -0.56069      -0.52414
    16  C(13)             -0.00169      -1.90349      -0.67921      -0.63494
    17  N(14)              0.00057       0.18407       0.06568       0.06140
    18  C(13)             -0.00004      -0.04303      -0.01535      -0.01435
    19  C(13)             -0.00005      -0.05930      -0.02116      -0.01978
    20  N(14)              0.00004       0.01439       0.00513       0.00480
    21  C(13)              0.00016       0.17919       0.06394       0.05977
    22  C(13)             -0.00011      -0.12896      -0.04602      -0.04302
    23  N(14)              0.00006       0.01799       0.00642       0.00600
    24  N(14)             -0.00049      -0.15939      -0.05687      -0.05317
    25  C(13)              0.00301       3.38661       1.20843       1.12965
    26  C(13)             -0.01145     -12.87622      -4.59456      -4.29505
    27  N(14)              0.03874      12.51746       4.46654       4.17537
    28  C(13)             -0.00960     -10.79760      -3.85285      -3.60169
    29  C(13)              0.00096       1.07911       0.38505       0.35995
    30  N(14)             -0.00105      -0.33899      -0.12096      -0.11308
    31  Ag(107             0.00026      -0.04717      -0.01683      -0.01573
 --------------------------------------------------------
       Center         ----  Spin Dipole Couplings  ----
                      3XX-RR        3YY-RR        3ZZ-RR
 --------------------------------------------------------
     1   Atom       -0.020484     -0.015520      0.036004
     2   Atom        0.002088      0.005078     -0.007166
     3   Atom       -0.047720     -0.038201      0.085922
     4   Atom       -0.016639     -0.005257      0.021897
     5   Atom       -0.041063     -0.037849      0.078911
     6   Atom       -0.023291     -0.019098      0.042388
     7   Atom       -0.034779     -0.036846      0.071625
     8   Atom        0.002247      0.005269     -0.007516
     9   Atom       -0.001376      0.000612      0.000764
    10   Atom        0.004185      0.001790     -0.005975
    11   Atom       -0.014643     -0.010209      0.024852
    12   Atom       -0.000041      0.004753     -0.004712
    13   Atom       -0.009015     -0.010057      0.019072
    14   Atom       -0.013235     -0.009213      0.022448
    15   Atom       -0.001070      0.004091     -0.003022
    16   Atom        0.003410      0.003874     -0.007284
    17   Atom       -0.001749     -0.001534      0.003283
    18   Atom        0.000007     -0.000085      0.000078
    19   Atom        0.000118      0.000068     -0.000186
    20   Atom       -0.000054      0.000069     -0.000015
    21   Atom        0.000219     -0.000308      0.000089
    22   Atom        0.000670     -0.000155     -0.000516
    23   Atom        0.000105     -0.000343      0.000239
    24   Atom        0.001609      0.000734     -0.002343
    25   Atom       -0.005785     -0.006401      0.012186
    26   Atom        0.019336      0.015776     -0.035113
    27   Atom       -0.137753     -0.127568      0.265321
    28   Atom        0.011485      0.005579     -0.017064
    29   Atom       -0.000832     -0.001066      0.001898
    30   Atom        0.002426      0.007064     -0.009491
    31   Atom       -0.000770     -0.000206      0.000976
 --------------------------------------------------------
                        XY            XZ            YZ
 --------------------------------------------------------
     1   Atom        0.003134     -0.001075      0.015855
     2   Atom       -0.005893     -0.000252     -0.004812
     3   Atom       -0.000981     -0.004692      0.037426
     4   Atom        0.024267      0.117777      0.024125
     5   Atom        0.000459     -0.001718      0.017110
     6   Atom        0.001115     -0.001087      0.012342
     7   Atom        0.005748      0.014982     -0.015551
     8   Atom        0.001332     -0.000467     -0.003680
     9   Atom        0.001080      0.000027      0.000983
    10   Atom        0.001107      0.000334     -0.001023
    11   Atom       -0.000792     -0.005509      0.010558
    12   Atom        0.002098      0.000162     -0.001662
    13   Atom       -0.001735     -0.003748      0.005781
    14   Atom       -0.000858     -0.003730      0.009005
    15   Atom       -0.001271     -0.000213     -0.000545
    16   Atom       -0.001489      0.000180     -0.001695
    17   Atom       -0.000870      0.000102      0.000754
    18   Atom       -0.000624      0.000187      0.000181
    19   Atom       -0.000455     -0.000077      0.000009
    20   Atom       -0.000270      0.000249      0.000294
    21   Atom       -0.000782     -0.000146      0.000232
    22   Atom       -0.000396     -0.000021     -0.000048
    23   Atom       -0.000266     -0.000053      0.000195
    24   Atom       -0.001071      0.001775     -0.001178
    25   Atom       -0.001082     -0.000838      0.002500
    26   Atom        0.003183     -0.007654     -0.011430
    27   Atom       -0.005395     -0.031297      0.073866
    28   Atom       -0.004900     -0.010066     -0.003779
    29   Atom        0.000149      0.000114      0.000130
    30   Atom        0.001886     -0.002994      0.000949
    31   Atom        0.004282     -0.002623     -0.004024
 --------------------------------------------------------


 ---------------------------------------------------------------------------------
              Anisotropic Spin Dipole Couplings in Principal Axis System
 ---------------------------------------------------------------------------------

       Atom             a.u.   MegaHertz   Gauss  10(-4) cm-1        Axes

              Baa    -0.0236    -0.909    -0.324    -0.303  0.7321 -0.6549  0.1875
     1 N(14)  Bbb    -0.0169    -0.653    -0.233    -0.218  0.6812  0.7050 -0.1973
              Bcc     0.0405     1.562     0.557     0.521 -0.0030  0.2722  0.9622
 
              Baa    -0.0093    -1.251    -0.446    -0.417  0.2208  0.3892  0.8943
     2 C(13)  Bbb    -0.0011    -0.151    -0.054    -0.050  0.7994  0.4532 -0.3945
              Bcc     0.0105     1.402     0.500     0.468 -0.5588  0.8020 -0.2111
 
              Baa    -0.0487    -6.539    -2.333    -2.181 -0.3450  0.9011 -0.2625
     3 C(13)  Bbb    -0.0478    -6.410    -2.287    -2.138  0.9380  0.3410 -0.0625
              Bcc     0.0965    12.948     4.620     4.319 -0.0332  0.2678  0.9629
 
              Baa    -0.1168    -4.504    -1.607    -1.502  0.7643 -0.0269 -0.6443
     4 N(14)  Bbb    -0.0137    -0.530    -0.189    -0.177 -0.1371  0.9695 -0.2031
              Bcc     0.1305     5.034     1.796     1.679  0.6302  0.2436  0.7373
 
              Baa    -0.0415    -5.568    -1.987    -1.857  0.8624 -0.4994  0.0833
     5 C(13)  Bbb    -0.0399    -5.353    -1.910    -1.786  0.5061  0.8547 -0.1158
              Bcc     0.0814    10.922     3.897     3.643 -0.0134  0.1420  0.9898
 
              Baa    -0.0240    -3.218    -1.148    -1.073  0.8868 -0.4516  0.0985
     6 C(13)  Bbb    -0.0208    -2.792    -0.996    -0.931  0.4620  0.8719 -0.1623
              Bcc     0.0448     6.010     2.144     2.005 -0.0126  0.1895  0.9818
 
              Baa    -0.0456    -1.759    -0.628    -0.587 -0.6443  0.7431  0.1809
     7 N(14)  Bbb    -0.0300    -1.157    -0.413    -0.386  0.7542  0.6565 -0.0107
              Bcc     0.0756     2.916     1.040     0.973  0.1267 -0.1295  0.9834
 
              Baa    -0.0085    -1.141    -0.407    -0.380  0.0101  0.2573  0.9663
     8 C(13)  Bbb     0.0018     0.242     0.086     0.081  0.9534 -0.2938  0.0683
              Bcc     0.0067     0.899     0.321     0.300  0.3015  0.9206 -0.2482
 
              Baa    -0.0019    -0.256    -0.091    -0.085  0.8853 -0.4393  0.1528
     9 C(13)  Bbb     0.0000     0.006     0.002     0.002 -0.3951 -0.5369  0.7454
              Bcc     0.0019     0.250     0.089     0.083  0.2454  0.7203  0.6488
 
              Baa    -0.0061    -0.236    -0.084    -0.079 -0.0465  0.1343  0.9898
    10 N(14)  Bbb     0.0015     0.058     0.021     0.019 -0.3634  0.9208 -0.1420
              Bcc     0.0046     0.178     0.064     0.059  0.9305  0.3663 -0.0060
 
              Baa    -0.0156    -2.087    -0.745    -0.696  0.9521 -0.2381  0.1920
    11 C(13)  Bbb    -0.0129    -1.736    -0.619    -0.579  0.2782  0.9348 -0.2206
              Bcc     0.0285     3.823     1.364     1.275 -0.1270  0.2635  0.9563
 
              Baa    -0.0051    -0.678    -0.242    -0.226 -0.1108  0.1891  0.9757
    12 C(13)  Bbb    -0.0007    -0.095    -0.034    -0.032  0.9363 -0.3093  0.1663
              Bcc     0.0058     0.773     0.276     0.258  0.3332  0.9320 -0.1428
 
              Baa    -0.0116    -0.449    -0.160    -0.150  0.4270  0.8967 -0.1167
    13 N(14)  Bbb    -0.0091    -0.350    -0.125    -0.117  0.8943 -0.3997  0.2011
              Bcc     0.0207     0.799     0.285     0.267 -0.1337  0.1902  0.9726
 
              Baa    -0.0136    -0.525    -0.187    -0.175  0.9932 -0.0336  0.1111
    14 N(14)  Bbb    -0.0116    -0.447    -0.159    -0.149  0.0606  0.9666 -0.2491
              Bcc     0.0252     0.972     0.347     0.324 -0.0990  0.2541  0.9621
 
              Baa    -0.0031    -0.418    -0.149    -0.139  0.1662  0.1035  0.9806
    15 C(13)  Bbb    -0.0013    -0.175    -0.062    -0.058  0.9606  0.2077 -0.1847
              Bcc     0.0044     0.593     0.212     0.198 -0.2228  0.9727 -0.0649
 
              Baa    -0.0075    -1.011    -0.361    -0.337  0.0038  0.1475  0.9891
    16 C(13)  Bbb     0.0022     0.299     0.107     0.100  0.7850  0.6123 -0.0943
              Bcc     0.0053     0.713     0.254     0.238 -0.6195  0.7767 -0.1134
 
              Baa    -0.0026    -0.099    -0.035    -0.033  0.7271  0.6792 -0.1000
    17 N(14)  Bbb    -0.0008    -0.032    -0.011    -0.011 -0.6865  0.7180 -0.1148
              Bcc     0.0034     0.131     0.047     0.044 -0.0062  0.1521  0.9883
 
              Baa    -0.0007    -0.100    -0.036    -0.033  0.6517  0.6966 -0.3001
    18 C(13)  Bbb     0.0002     0.021     0.008     0.007  0.1820  0.2405  0.9534
              Bcc     0.0006     0.079     0.028     0.026  0.7363 -0.6759  0.0300
 
              Baa    -0.0004    -0.050    -0.018    -0.017  0.6785  0.6930  0.2438
    19 C(13)  Bbb    -0.0002    -0.024    -0.009    -0.008 -0.1080 -0.2343  0.9662
              Bcc     0.0006     0.074     0.027     0.025  0.7267 -0.6818 -0.0841
 
              Baa    -0.0005    -0.021    -0.007    -0.007  0.5992  0.5453 -0.5862
    20 N(14)  Bbb     0.0002     0.008     0.003     0.003  0.7658 -0.1768  0.6183
              Bcc     0.0003     0.013     0.005     0.004 -0.2336  0.8194  0.5235
 
              Baa    -0.0009    -0.118    -0.042    -0.039  0.5661  0.8169 -0.1104
    21 C(13)  Bbb     0.0000     0.002     0.001     0.001  0.3188 -0.0935  0.9432
              Bcc     0.0009     0.116     0.041     0.039  0.7602 -0.5691 -0.3134
 
              Baa    -0.0005    -0.071    -0.025    -0.024  0.0895  0.2206  0.9713
    22 C(13)  Bbb    -0.0003    -0.040    -0.014    -0.013  0.3624  0.9011 -0.2381
              Bcc     0.0008     0.111     0.040     0.037  0.9277 -0.3733 -0.0008
 
              Baa    -0.0005    -0.019    -0.007    -0.006  0.3774  0.9017 -0.2108
    23 N(14)  Bbb     0.0001     0.005     0.002     0.002  0.7596 -0.1712  0.6275
              Bcc     0.0004     0.015     0.005     0.005 -0.5297  0.3970  0.7495
 
              Baa    -0.0032    -0.122    -0.044    -0.041 -0.3018  0.1987  0.9324
    24 N(14)  Bbb     0.0000     0.001     0.000     0.000  0.5556  0.8314  0.0026
              Bcc     0.0032     0.122     0.043     0.041  0.7747 -0.5189  0.3613
 
              Baa    -0.0073    -0.986    -0.352    -0.329  0.5369  0.8394 -0.0844
    25 C(13)  Bbb    -0.0052    -0.701    -0.250    -0.234  0.8420 -0.5269  0.1162
              Bcc     0.0126     1.687     0.602     0.563 -0.0531  0.1334  0.9896
 
              Baa    -0.0384    -5.149    -1.837    -1.718  0.1181  0.1984  0.9730
    26 C(13)  Bbb     0.0144     1.933     0.690     0.645 -0.6272  0.7746 -0.0818
              Bcc     0.0240     3.216     1.148     1.073  0.7699  0.6006 -0.2159
 
              Baa    -0.1411    -5.441    -1.942    -1.815 -0.2973  0.9351 -0.1929
    27 N(14)  Bbb    -0.1401    -5.402    -1.928    -1.802  0.9518  0.3062  0.0177
              Bcc     0.2812    10.844     3.869     3.617 -0.0756  0.1783  0.9811
 
              Baa    -0.0212    -2.849    -1.017    -0.950  0.3145  0.1886  0.9303
    28 C(13)  Bbb     0.0053     0.707     0.252     0.236  0.2736  0.9205 -0.2791
              Bcc     0.0160     2.142     0.764     0.715  0.9090 -0.3423 -0.2379
 
              Baa    -0.0011    -0.153    -0.055    -0.051 -0.4285  0.9032 -0.0225
    29 C(13)  Bbb    -0.0008    -0.103    -0.037    -0.034  0.9025  0.4267 -0.0594
              Bcc     0.0019     0.256     0.091     0.085  0.0441  0.0457  0.9980
 
              Baa    -0.0103    -0.398    -0.142    -0.133  0.2392 -0.0788  0.9678
    30 N(14)  Bbb     0.0026     0.099     0.035     0.033  0.9102 -0.3290 -0.2517
              Bcc     0.0077     0.298     0.106     0.100  0.3382  0.9411 -0.0070
 
              Baa    -0.0050     0.108     0.039     0.036 -0.6165  0.7512  0.2358
    31 Ag(107 Bbb    -0.0024     0.051     0.018     0.017  0.5944  0.2476  0.7651
              Bcc     0.0073    -0.159    -0.057    -0.053  0.5164  0.6119 -0.5991
 

 ---------------------------------------------------------------------------------

 No NMR shielding tensors so no spin-rotation constants.
 Leave Link  601 at Sat Sep 12 01:33:27 2026, MaxMem=  6442450944 cpu:               3.0 elap:               2.7
 (Enter C:\G16W\l9999.exe)
 Unable to Open any file for archive entry.
 1|1|UNPC-DESKTOP-2JKEGCA|SP|UPBE1PBE|def2SVP|C18Ag1N12(2)|JHKIM|12-Sep
 -2026|0||#P PBE1PBE/Def2SVP EmpiricalDispersion=GD3BJ SP SCF=(XQC,MaxC
 ycle=128) NoSymm Guess=Read||HATCN t=1.000 dz=+0.40 class=site2site||0
 ,2|N,0,-2.611348,5.399985,-1.155538|C,0,-1.91032,4.498728,-0.947808|C,
 0,-1.020781,3.405143,-0.693573|N,0,-1.60315,2.191496,-0.499794|C,0,-0.
 81575,1.110993,-0.253581|C,0,-1.393339,-0.141391,-0.052273|N,0,-2.7444
 45,-0.283235,-0.102199|C,0,-3.289096,-1.51343,0.096812|C,0,-4.717936,-
 1.589392,0.03004|N,0,-5.874228,-1.675402,-0.019378|C,0,-2.494073,-2.60
 3514,0.345437|C,0,-3.019195,-3.918595,0.561413|N,0,-3.467734,-4.975035
 ,0.733469|N,0,-1.140539,-2.482394,0.399369|C,0,-0.576747,-1.261039,0.2
 03066|C,0,0.80853,-1.116108,0.254224|N,0,1.59673,-2.195985,0.500607|C,
 0,2.946318,-2.03432,0.546556|C,0,3.714722,-3.214024,0.810558|N,0,4.358
 155,-4.156189,1.023098|C,0,3.51485,-0.801628,0.348106|C,0,4.929519,-0.
 580153,0.386379|N,0,6.079085,-0.424992,0.422118|N,0,2.743704,0.29089,0
 .100372|C,0,1.392486,0.150039,0.050519|C,0,0.584785,1.257497,-0.201933
 |N,0,1.147692,2.479234,-0.398398|C,0,0.342769,3.547761,-0.64334|C,0,1.
 003212,4.803441,-0.840583|N,0,1.516124,5.83162,-1.003743|Ag,0,-2.41093
 097,2.21213371,2.07645613||Version=EM64W-G16RevC.01|HF=-1487.21844|S2=
 0.757437|S2-1=0.|S2A=0.75004|RMSD=6.846e-009|Dipole=-0.6587129,0.41209
 31,0.7508614|Quadrupole=-16.8712323,-18.5446206,35.415853,-4.5522836,-
 6.699536,13.711016|PG=C01 [X(C18Ag1N12)]||@
 The archive entry for this job was punched.


 SOME PEOPLE TRY TO PULL THE WOOL OVER YOUR EYES
 USING THE WRONG YARN.
 Job cpu time:       0 days  0 hours 11 minutes 45.0 seconds.
 Elapsed time:       0 days  0 hours 11 minutes 43.7 seconds.
 File lengths (MBytes):  RWF=    192 Int=      0 D2E=      0 Chk=     15 Scr=      1
 Normal termination of Gaussian 16 at Sat Sep 12 01:33:28 2026.
