 Entering Gaussian System, Link 0=C:\G16W\g16.exe
 Input=HATCN_t4_z0.gjf
 Output=HATCN_t4_z0.out
 Initial command:
 C:\G16W\l1.exe ".\Gau-36188.inp" "HATCN_t4_z0.out" /scrdir=".\"
 Entering Link 1 = C:\G16W\l1.exe PID=     93128.
  
 Copyright (c) 1988-2019, Gaussian, Inc.  All Rights Reserved.
  
 This is part of the Gaussian(R) 16 program.  It is based on
 the Gaussian(R) 09 system (copyright 2009, Gaussian, Inc.),
 the Gaussian(R) 03 system (copyright 2003, Gaussian, Inc.),
 the Gaussian(R) 98 system (copyright 1998, Gaussian, Inc.),
 the Gaussian(R) 94 system (copyright 1995, Gaussian, Inc.),
 the Gaussian 92(TM) system (copyright 1992, Gaussian, Inc.),
 the Gaussian 90(TM) system (copyright 1990, Gaussian, Inc.),
 the Gaussian 88(TM) system (copyright 1988, Gaussian, Inc.),
 the Gaussian 86(TM) system (copyright 1986, Carnegie Mellon
 University), and the Gaussian 82(TM) system (copyright 1983,
 Carnegie Mellon University). Gaussian is a federally registered
 trademark of Gaussian, Inc.
  
 This software contains proprietary and confidential information,
 including trade secrets, belonging to Gaussian, Inc.
  
 This software is provided under written license and may be
 used, copied, transmitted, or stored only in accord with that
 written license.
  
 The following legend is applicable only to US Government
 contracts under FAR:
  
                    RESTRICTED RIGHTS LEGEND
  
 Use, reproduction and disclosure by the US Government is
 subject to restrictions as set forth in subparagraphs (a)
 and (c) of the Commercial Computer Software - Restricted
 Rights clause in FAR 52.227-19.
  
 Gaussian, Inc.
 340 Quinnipiac St., Bldg. 40, Wallingford CT 06492
  
  
 ---------------------------------------------------------------
 Warning -- This program may not be used in any manner that
 competes with the business of Gaussian, Inc. or will provide
 assistance to any competitor of Gaussian, Inc.  The licensee
 of this program is prohibited from giving any competitor of
 Gaussian, Inc. access to this program.  By using this program,
 the user acknowledges that Gaussian, Inc. is engaged in the
 business of creating and licensing software in the field of
 computational chemistry and represents and warrants to the
 licensee that it is not a competitor of Gaussian, Inc. and that
 it will not use this program in any manner prohibited above.
 ---------------------------------------------------------------
  

 Cite this work as:
 Gaussian 16, Revision C.01,
 M. J. Frisch, G. W. Trucks, H. B. Schlegel, G. E. Scuseria, 
 M. A. Robb, J. R. Cheeseman, G. Scalmani, V. Barone, 
 G. A. Petersson, H. Nakatsuji, X. Li, M. Caricato, A. V. Marenich, 
 J. Bloino, B. G. Janesko, R. Gomperts, B. Mennucci, H. P. Hratchian, 
 J. V. Ortiz, A. F. Izmaylov, J. L. Sonnenberg, D. Williams-Young, 
 F. Ding, F. Lipparini, F. Egidi, J. Goings, B. Peng, A. Petrone, 
 T. Henderson, D. Ranasinghe, V. G. Zakrzewski, J. Gao, N. Rega, 
 G. Zheng, W. Liang, M. Hada, M. Ehara, K. Toyota, R. Fukuda, 
 J. Hasegawa, M. Ishida, T. Nakajima, Y. Honda, O. Kitao, H. Nakai, 
 T. Vreven, K. Throssell, J. A. Montgomery, Jr., J. E. Peralta, 
 F. Ogliaro, M. J. Bearpark, J. J. Heyd, E. N. Brothers, K. N. Kudin, 
 V. N. Staroverov, T. A. Keith, R. Kobayashi, J. Normand, 
 K. Raghavachari, A. P. Rendell, J. C. Burant, S. S. Iyengar, 
 J. Tomasi, M. Cossi, J. M. Millam, M. Klene, C. Adamo, R. Cammi, 
 J. W. Ochterski, R. L. Martin, K. Morokuma, O. Farkas, 
 J. B. Foresman, and D. J. Fox, Gaussian, Inc., Wallingford CT, 2019.
 
 ******************************************
 Gaussian 16:  EM64W-G16RevC.01 30-May-2019
                12-Sep-2026 
 ******************************************
 %Chk=HATCN.chk
 %NProcShared=8
 Will use up to    8 processors via shared memory.
 %Mem=48GB
 ----------------------------------------------------------------------
 #P PBE1PBE/Def2SVP EmpiricalDispersion=GD3BJ SP SCF=(XQC,MaxCycle=128)
  NoSymm Guess=Read
 ----------------------------------------------------------------------
 1/38=1,172=1/1;
 2/12=2,15=1,17=6,18=5,40=1/2;
 3/5=43,7=101,11=2,25=1,30=1,74=-13,116=-2,124=41/1,2,3;
 4/5=1/1;
 5/5=2,7=128,8=3,13=1,38=6/2,8;
 6/7=2,8=2,9=2,10=2,28=1/1;
 99/5=1,9=1/99;
 Leave Link    1 at Sat Sep 12 01:09:08 2026, MaxMem=  6442450944 cpu:               1.0 elap:               1.2
 (Enter C:\G16W\l101.exe)
 --------------------------------------
 HATCN t=1.000 dz=+0.00 class=site2site
 --------------------------------------
 Symbolic Z-matrix:
 Charge =  0 Multiplicity = 2
 N                    -2.61135   5.39999  -1.15554 
 C                    -1.91032   4.49873  -0.94781 
 C                    -1.02078   3.40514  -0.69357 
 N                    -1.60315   2.1915   -0.49979 
 C                    -0.81575   1.11099  -0.25358 
 C                    -1.39334  -0.14139  -0.05227 
 N                    -2.74445  -0.28324  -0.1022 
 C                    -3.2891   -1.51343   0.09681 
 C                    -4.71794  -1.58939   0.03004 
 N                    -5.87423  -1.6754   -0.01938 
 C                    -2.49407  -2.60351   0.34544 
 C                    -3.01919  -3.9186    0.56141 
 N                    -3.46773  -4.97504   0.73347 
 N                    -1.14054  -2.48239   0.39937 
 C                    -0.57675  -1.26104   0.20307 
 C                     0.80853  -1.11611   0.25422 
 N                     1.59673  -2.19599   0.50061 
 C                     2.94632  -2.03432   0.54656 
 C                     3.71472  -3.21402   0.81056 
 N                     4.35816  -4.15619   1.0231 
 C                     3.51485  -0.80163   0.34811 
 C                     4.92952  -0.58015   0.38638 
 N                     6.07909  -0.42499   0.42212 
 N                     2.7437    0.29089   0.10037 
 C                     1.39249   0.15004   0.05052 
 C                     0.58479   1.2575   -0.20193 
 N                     1.14769   2.47923  -0.3984 
 C                     0.34277   3.54776  -0.64334 
 C                     1.00321   4.80344  -0.84058 
 N                     1.51612   5.83162  -1.00374 
 Ag                   -2.29126   2.20908   1.69479 
 
 ITRead=  0  0  0  0  0  0  0  0  0  0  0  0  0  0  0  0  0  0  0  0
 ITRead=  0  0  0  0  0  0  0  0  0  0  0
 MicOpt= -1 -1 -1 -1 -1 -1 -1 -1 -1 -1 -1 -1 -1 -1 -1 -1 -1 -1 -1 -1
 MicOpt= -1 -1 -1 -1 -1 -1 -1 -1 -1 -1 -1
 NAtoms=     31 NQM=       31 NQMF=       0 NMMI=      0 NMMIF=      0
                NMic=       0 NMicF=      0.
                    Isotopes and Nuclear Properties:
 (Nuclear quadrupole moments (NQMom) in fm**2, nuclear magnetic moments (NMagM)
  in nuclear magnetons)

  Atom         1           2           3           4           5           6           7           8           9          10
 IAtWgt=          14          12          12          14          12          12          14          12          12          14
 AtmWgt=  14.0030740  12.0000000  12.0000000  14.0030740  12.0000000  12.0000000  14.0030740  12.0000000  12.0000000  14.0030740
 NucSpn=           2           0           0           2           0           0           2           0           0           2
 AtZEff=   0.0000000   0.0000000   0.0000000   0.0000000   0.0000000   0.0000000   0.0000000   0.0000000   0.0000000   0.0000000
 NQMom=    2.0440000   0.0000000   0.0000000   2.0440000   0.0000000   0.0000000   2.0440000   0.0000000   0.0000000   2.0440000
 NMagM=    0.4037610   0.0000000   0.0000000   0.4037610   0.0000000   0.0000000   0.4037610   0.0000000   0.0000000   0.4037610
 AtZNuc=   7.0000000   6.0000000   6.0000000   7.0000000   6.0000000   6.0000000   7.0000000   6.0000000   6.0000000   7.0000000

  Atom        11          12          13          14          15          16          17          18          19          20
 IAtWgt=          12          12          14          14          12          12          14          12          12          14
 AtmWgt=  12.0000000  12.0000000  14.0030740  14.0030740  12.0000000  12.0000000  14.0030740  12.0000000  12.0000000  14.0030740
 NucSpn=           0           0           2           2           0           0           2           0           0           2
 AtZEff=   0.0000000   0.0000000   0.0000000   0.0000000   0.0000000   0.0000000   0.0000000   0.0000000   0.0000000   0.0000000
 NQMom=    0.0000000   0.0000000   2.0440000   2.0440000   0.0000000   0.0000000   2.0440000   0.0000000   0.0000000   2.0440000
 NMagM=    0.0000000   0.0000000   0.4037610   0.4037610   0.0000000   0.0000000   0.4037610   0.0000000   0.0000000   0.4037610
 AtZNuc=   6.0000000   6.0000000   7.0000000   7.0000000   6.0000000   6.0000000   7.0000000   6.0000000   6.0000000   7.0000000

  Atom        21          22          23          24          25          26          27          28          29          30
 IAtWgt=          12          12          14          14          12          12          14          12          12          14
 AtmWgt=  12.0000000  12.0000000  14.0030740  14.0030740  12.0000000  12.0000000  14.0030740  12.0000000  12.0000000  14.0030740
 NucSpn=           0           0           2           2           0           0           2           0           0           2
 AtZEff=   0.0000000   0.0000000   0.0000000   0.0000000   0.0000000   0.0000000   0.0000000   0.0000000   0.0000000   0.0000000
 NQMom=    0.0000000   0.0000000   2.0440000   2.0440000   0.0000000   0.0000000   2.0440000   0.0000000   0.0000000   2.0440000
 NMagM=    0.0000000   0.0000000   0.4037610   0.4037610   0.0000000   0.0000000   0.4037610   0.0000000   0.0000000   0.4037610
 AtZNuc=   6.0000000   6.0000000   7.0000000   7.0000000   6.0000000   6.0000000   7.0000000   6.0000000   6.0000000   7.0000000

  Atom        31
 IAtWgt=         107
 AtmWgt= 106.9050900
 NucSpn=           1
 AtZEff=   0.0000000
 NQMom=    0.0000000
 NMagM=   -0.1135700
 AtZNuc=  47.0000000
 Leave Link  101 at Sat Sep 12 01:09:09 2026, MaxMem=  6442450944 cpu:               1.0 elap:               0.4
 (Enter C:\G16W\l202.exe)
                          Input orientation:                          
 ---------------------------------------------------------------------
 Center     Atomic      Atomic             Coordinates (Angstroms)
 Number     Number       Type             X           Y           Z
 ---------------------------------------------------------------------
      1          7           0       -2.611348    5.399985   -1.155538
      2          6           0       -1.910320    4.498728   -0.947808
      3          6           0       -1.020781    3.405143   -0.693573
      4          7           0       -1.603150    2.191496   -0.499794
      5          6           0       -0.815750    1.110993   -0.253581
      6          6           0       -1.393339   -0.141391   -0.052273
      7          7           0       -2.744445   -0.283235   -0.102199
      8          6           0       -3.289096   -1.513430    0.096812
      9          6           0       -4.717936   -1.589392    0.030040
     10          7           0       -5.874228   -1.675402   -0.019378
     11          6           0       -2.494073   -2.603514    0.345437
     12          6           0       -3.019195   -3.918595    0.561413
     13          7           0       -3.467734   -4.975035    0.733469
     14          7           0       -1.140539   -2.482394    0.399369
     15          6           0       -0.576747   -1.261039    0.203066
     16          6           0        0.808530   -1.116108    0.254224
     17          7           0        1.596730   -2.195985    0.500607
     18          6           0        2.946318   -2.034320    0.546556
     19          6           0        3.714722   -3.214024    0.810558
     20          7           0        4.358155   -4.156189    1.023098
     21          6           0        3.514850   -0.801628    0.348106
     22          6           0        4.929519   -0.580153    0.386379
     23          7           0        6.079085   -0.424992    0.422118
     24          7           0        2.743704    0.290890    0.100372
     25          6           0        1.392486    0.150039    0.050519
     26          6           0        0.584785    1.257497   -0.201933
     27          7           0        1.147692    2.479234   -0.398398
     28          6           0        0.342769    3.547761   -0.643340
     29          6           0        1.003212    4.803441   -0.840583
     30          7           0        1.516124    5.831620   -1.003743
     31         47           0       -2.291260    2.209076    1.694789
 ---------------------------------------------------------------------
                    Distance matrix (angstroms):
                    1          2          3          4          5
     1  N    0.000000
     2  C    1.160541   0.000000
     3  C    2.592819   1.432426   0.000000
     4  N    3.426495   2.370314   1.360016   0.000000
     5  C    4.736365   3.627228   2.344942   1.359451   0.000000
     6  C    5.779930   4.753941   3.623254   2.384671   1.393772
     7  N    5.781542   4.927270   4.113985   2.754075   2.384670
     8  C    7.058543   6.256061   5.473785   4.113980   3.623232
     9  C    7.395586   6.775256   6.256033   4.927244   4.753901
    10  N    7.873903   7.395568   7.058500   5.781506   5.779883
    11  C    8.143874   7.242589   6.273284   4.949776   4.119849
    12  C    9.484208   8.623148   7.694530   6.361176   5.551229
    13  N   10.580302   9.747021   8.845983   7.507115   6.711708
    14  N    8.167797   7.151469   5.989320   4.782024   3.666642
    15  C    7.096101   6.023109   4.772251   3.669811   2.427382
    16  C    7.492827   6.353220   4.968542   4.162330   2.802879
    17  N    8.840220   7.695225   6.296830   5.521777   4.162327
    18  C    9.436825   8.276519   6.845696   6.296827   4.968538
    19  C   10.866731   9.706673   8.276519   7.695221   6.353215
    20  N   12.026674  10.866731   9.436824   8.840218   7.492824
    21  C    8.845974   7.694520   6.273274   5.989295   4.772237
    22  C    9.747012   8.623137   7.242579   7.151441   6.023092
    23  N   10.580311   9.484214   8.143881   8.167782   7.096095
    24  N    7.507113   6.361173   4.949775   4.782012   3.669818
    25  C    6.711721   5.551241   4.119858   3.666637   2.427389
    26  C    5.318349   4.157819   2.726158   2.397527   1.409124
    27  N    4.820210   3.705623   2.376281   2.767708   2.397532
    28  C    3.524186   2.464437   1.371908   2.376270   2.726154
    29  C    3.676970   2.931385   2.464426   3.705606   4.157808
    30  N    4.152755   3.676989   3.524185   4.820201   5.318336
    31  Ag   4.290539   3.517235   2.957865   2.300000   2.679377
                    6          7          8          9         10
     6  C    0.000000
     7  N    1.359448   0.000000
     8  C    2.344912   1.360011   0.000000
     9  C    3.627179   2.370274   1.432415   0.000000
    10  N    4.736311   3.426446   2.592806   1.160539   0.000000
    11  C    2.726140   2.376291   1.371918   2.464444   3.524192
    12  C    4.157798   3.705632   2.464451   2.931427   3.677016
    13  N    5.318329   4.820215   3.524195   3.677009   4.152779
    14  N    2.397537   2.767740   2.376285   3.705621   4.820207
    15  C    1.409125   2.397541   2.726138   4.157788   5.318316
    16  C    2.427394   3.666653   4.119852   5.551224   6.711700
    17  N    3.669815   4.782028   4.949770   6.361163   7.507104
    18  C    4.772253   5.989321   6.273275   7.694514   8.845967
    19  C    6.023109   7.151468   7.242577   8.623129   9.747005
    20  N    7.096105   8.167802   8.143871   9.484199  10.580299
    21  C    4.968555   6.296847   6.845691   8.276503   9.436806
    22  C    6.353224   7.695232   8.276502   9.706644  10.866700
    23  N    7.492836   8.840231   9.436808  10.866702  12.026643
    24  N    4.162366   5.521814   6.296845   7.695224   8.840215
    25  C    2.802913   4.162361   4.968549   6.353212   7.492813
    26  C    2.427398   3.669819   4.772236   6.023075   7.096060
    27  N    3.666649   4.782018   5.989298   7.151424   8.167742
    28  C    4.119863   4.949773   6.273270   7.242549   8.143820
    29  C    5.551239   6.361165   7.694510   8.623099   9.484143
    30  N    6.711716   7.507109   8.845966   9.746981  10.580248
    31  Ag   3.063199   3.105827   4.172081   4.805050   5.555646
                   11         12         13         14         15
    11  C    0.000000
    12  C    1.432423   0.000000
    13  N    2.592816   1.160541   0.000000
    14  N    1.360012   2.370291   3.426473   0.000000
    15  C    2.344920   3.627198   4.736338   1.359450   0.000000
    16  C    3.623242   4.753922   5.779916   2.384675   1.393777
    17  N    4.113979   4.927255   5.781534   2.754073   2.384671
    18  C    5.473782   6.256042   7.058527   4.113980   3.623249
    19  C    6.256053   6.775259   7.395592   4.927263   4.753936
    20  N    7.058545   7.395600   7.873940   5.781545   5.779931
    21  C    6.273273   7.242564   8.143851   4.949773   4.119862
    22  C    7.694504   8.623102   9.484161   6.361155   5.551232
    23  N    8.845953   9.746967  10.580245   7.507089   6.711711
    24  N    5.989319   7.151456   8.167787   4.782034   3.666664
    25  C    4.772250   6.023099   7.096093   3.669825   2.427404
    26  C    4.968540   6.353212   7.492819   4.162342   2.802892
    27  N    6.296830   7.695219   8.840215   5.521792   4.162342
    28  C    6.845695   8.276515   9.436821   6.296842   4.968548
    29  C    8.276511   9.706661  10.866719   7.695228   6.353219
    30  N    9.436814  10.866716  12.026659   8.840216   7.492817
    31  Ag   5.002291   6.273977   7.343002   5.001216   4.148071
                   16         17         18         19         20
    16  C    0.000000
    17  N    1.359448   0.000000
    18  C    2.344933   1.360013   0.000000
    19  C    3.627218   2.370309   1.432426   0.000000
    20  N    4.736359   3.426495   2.592818   1.160540   0.000000
    21  C    2.726147   2.376273   1.371911   2.464440   3.524182
    22  C    4.157795   3.705596   2.464416   2.931371   3.676942
    23  N    5.318325   4.820175   3.524152   3.676928   4.152663
    24  N    2.397543   2.767722   2.376286   3.705626   4.820206
    25  C    1.409123   2.397524   2.726146   4.157807   5.318336
    26  C    2.427373   3.666624   4.119846   5.551229   6.711708
    27  N    3.669800   4.781999   4.949764   6.361164   7.507101
    28  C    4.772235   5.989295   6.273273   7.694519   8.845970
    29  C    6.023086   7.151435   7.242568   8.623126   9.746995
    30  N    7.096062   8.167742   8.143826   9.484155  10.580244
    31  Ag   4.768729   5.995590   6.837914   8.140252   9.229436
                   21         22         23         24         25
    21  C    0.000000
    22  C    1.432412   0.000000
    23  N    2.592804   1.160540   0.000000
    24  N    1.360012   2.370296   3.426481   0.000000
    25  C    2.344922   3.627201   4.736344   1.359454   0.000000
    26  C    3.623233   4.753923   5.779926   2.384670   1.393763
    27  N    4.113971   4.927265   5.781558   2.754065   2.384659
    28  C    5.473778   6.256059   7.058561   4.113977   3.623239
    29  C    6.256046   6.775279   7.395635   4.927253   4.753919
    30  N    7.058497   7.395576   7.873937   5.781497   5.779889
    31  Ag   6.677485   7.850566   8.866830   5.618938   4.529155
                   26         27         28         29         30
    26  C    0.000000
    27  N    1.359450   0.000000
    28  C    2.344935   1.360017   0.000000
    29  C    3.627213   2.370304   1.432418   0.000000
    30  N    4.736337   3.426467   2.592810   1.160540   0.000000
    31  Ag   3.574170   4.034948   3.767895   4.900243   5.907713
                   31
    31  Ag   0.000000
 Symmetry turned off by external request.
 Stoichiometry    C18AgN12(2)
 Framework group  C1[X(C18AgN12)]
 Deg. of freedom    87
 Full point group                 C1      NOp   1
 Rotational constants (GHZ):           0.1384184           0.1145896           0.0682462
 Leave Link  202 at Sat Sep 12 01:09:09 2026, MaxMem=  6442450944 cpu:               0.0 elap:               0.1
 (Enter C:\G16W\l301.exe)
 Standard basis: def2SVP (5D, 7F)
 Ernie: Thresh=  0.10000D-02 Tol=  0.10000D-05 Strict=F.
   451 basis functions,   815 primitive gaussians,   486 cartesian basis functions
   106 alpha electrons      105 beta electrons
       nuclear repulsion energy      2781.5276665519 Hartrees.
 IExCor= 1009 DFT=T Ex+Corr=PBE1PBE ExCW=0 ScaHFX=  0.250000
 ScaDFX=  0.750000  0.750000  1.000000  1.000000 ScalE2=  1.000000  1.000000
 IRadAn=      5 IRanWt=     -1 IRanGd=            0 ICorTp=0 IEmpDi=141
 NAtoms=   31 NActive=   31 NUniq=   31 SFac= 1.00D+00 NAtFMM=   60 NAOKFM=F Big=F
 Integral buffers will be    131072 words long.
 Raffenetti 2 integral format.
 Two-electron integral symmetry is turned off.
 R6Disp:  Grimme-D3(BJ) Dispersion energy=       -0.0529419053 Hartrees.
 Nuclear repulsion after empirical dispersion term =     2781.4747246466 Hartrees.
 Leave Link  301 at Sat Sep 12 01:09:09 2026, MaxMem=  6442450944 cpu:               0.0 elap:               0.2
 (Enter C:\G16W\l302.exe)
 NPDir=0 NMtPBC=     1 NCelOv=     1 NCel=       1 NClECP=     1 NCelD=      1
         NCelK=      1 NCelE2=     1 NClLst=     1 CellRange=     0.0.
 One-electron integrals computed using PRISM.
   1 Symmetry operations used in ECPInt.
 ECPInt:  NShTT=   18336 NPrTT=   72415 LenC2=   15394 LenP2D=   39379.
 LDataN:  DoStor=T MaxTD1= 7 Len=  274
 NBasis=   451 RedAO= T EigKep=  2.11D-05  NBF=   451
 NBsUse=   451 1.00D-06 EigRej= -1.00D+00 NBFU=   451
 Precomputing XC quadrature grid using
 IXCGrd= 4 IRadAn=           5 IRanWt=          -1 IRanGd=           0 AccXCQ= 0.00D+00.
 Defaulting to unpruned grid for atomic number  47.
 Generated NRdTot=       0 NPtTot=           0 NUsed=           0 NTot=          32
 NSgBfM=   476   476   476   476   476 MxSgAt=    31 MxSgA2=    31.
 Leave Link  302 at Sat Sep 12 01:09:19 2026, MaxMem=  6442450944 cpu:               9.0 elap:               9.7
 (Enter C:\G16W\l303.exe)
 DipDrv:  MaxL=1.
 Leave Link  303 at Sat Sep 12 01:09:21 2026, MaxMem=  6442450944 cpu:               2.0 elap:               1.2
 (Enter C:\G16W\l401.exe)
 Initial guess from the checkpoint file:  "HATCN.chk"
 B after Tr=     0.315395   -0.499886   -0.057160
         Rot=    0.999665   -0.022384   -0.011177   -0.006569 Ang=  -2.96 deg.
 Guess basis will be translated and rotated to current coordinates.
 JPrj=2 DoOrth=T DoCkMO=T.
 Initial guess <Sx>= 0.0000 <Sy>= 0.0000 <Sz>= 0.5000 <S**2>= 0.7550 S= 0.5025
 Leave Link  401 at Sat Sep 12 01:09:59 2026, MaxMem=  6442450944 cpu:              38.0 elap:              38.1
 (Enter C:\G16W\l502.exe)
 Two-electron integral symmetry not used.
 UHF open shell SCF:
 Using DIIS extrapolation, IDIIS=  1040.
 NGot=  6442450944 LenX=  6441970456 LenY=  6441733774
 Requested convergence on RMS density matrix=1.00D-08 within 128 cycles.
 Requested convergence on MAX density matrix=1.00D-06.
 Requested convergence on             energy=1.00D-06.
 No special actions if energy rises.
 Fock matrices will be formed incrementally for  20 cycles.

 Cycle   1  Pass 1  IDiag  1:
 FoFJK:  IHMeth= 1 ICntrl=       0 DoSepK=F KAlg= 0 I1Cent=           0 FoldK=F
 IRaf= 750000000 NMat=       1 IRICut=       1 DoRegI=T DoRafI=F ISym2E= 0 IDoP0=0 IntGTp=1.
 FoFCou: FMM=F IPFlag=           0 FMFlag=      100000 FMFlg1=           0
         NFxFlg=           0 DoJE=F BraDBF=F KetDBF=F FulRan=T
         wScrn=  0.000000 ICntrl=         0 IOpCl=  1 I1Cent=           0 NGrid=           0
         NMat0=    1 NMatS0=      1 NMatT0=    0 NMatD0=    1 NMtDS0=    0 NMtDT0=    0
 Symmetry not used in FoFCou.
 Defaulting to unpruned grid for atomic number  47.
 Defaulting to unpruned grid for atomic number  47.
 Defaulting to unpruned grid for atomic number  47.
 Defaulting to unpruned grid for atomic number  47.
 Defaulting to unpruned grid for atomic number  47.
 Defaulting to unpruned grid for atomic number  47.
 Defaulting to unpruned grid for atomic number  47.
 Defaulting to unpruned grid for atomic number  47.
 E= -1487.15508568058    
 DIIS: error= 1.42D-02 at cycle   1 NSaved=   1.
 NSaved= 1 IEnMin= 1 EnMin= -1487.15508568058     IErMin= 1 ErrMin= 1.42D-02
 ErrMax= 1.42D-02  0.00D+00 EMaxC= 1.00D-01 BMatC= 3.79D-01 BMatP= 3.79D-01
 IDIUse=3 WtCom= 8.58D-01 WtEn= 1.42D-01
 Coeff-Com:  0.100D+01
 Coeff-En:   0.100D+01
 Coeff:      0.100D+01
 Gap=     0.104 Goal=   None    Shift=    0.000
 Gap=     0.244 Goal=   None    Shift=    0.000
 GapD=    0.104 DampG=1.000 DampE=0.250 DampFc=0.2500 IDamp=-1.
 Damping current iteration by 2.50D-01
 RMSDP=1.86D-03 MaxDP=1.46D-01              OVMax= 2.58D-01

 Cycle   2  Pass 1  IDiag  1:
 RMSU=  4.64D-04    CP:  9.99D-01
 E= -1487.16944976307     Delta-E=       -0.014364082494 Rises=F Damp=T
 DIIS: error= 1.06D-02 at cycle   2 NSaved=   2.
 NSaved= 2 IEnMin= 2 EnMin= -1487.16944976307     IErMin= 2 ErrMin= 1.06D-02
 ErrMax= 1.06D-02  0.00D+00 EMaxC= 1.00D-01 BMatC= 2.14D-01 BMatP= 3.79D-01
 IDIUse=3 WtCom= 8.94D-01 WtEn= 1.06D-01
 Coeff-Com: -0.269D+01 0.369D+01
 Coeff-En:   0.000D+00 0.100D+01
 Coeff:     -0.240D+01 0.340D+01
 Gap=     0.052 Goal=   None    Shift=    0.000
 Gap=     0.175 Goal=   None    Shift=    0.000
 RMSDP=1.27D-03 MaxDP=8.16D-02 DE=-1.44D-02 OVMax= 1.65D-01

 Cycle   3  Pass 1  IDiag  1:
 RMSU=  7.86D-04    CP:  9.97D-01  3.00D+00
 E= -1487.19878133094     Delta-E=       -0.029331567875 Rises=F Damp=F
 DIIS: error= 4.64D-03 at cycle   3 NSaved=   3.
 NSaved= 3 IEnMin= 3 EnMin= -1487.19878133094     IErMin= 3 ErrMin= 4.64D-03
 ErrMax= 4.64D-03  0.00D+00 EMaxC= 1.00D-01 BMatC= 7.17D-02 BMatP= 2.14D-01
 IDIUse=3 WtCom= 9.54D-01 WtEn= 4.64D-02
 Coeff-Com: -0.185D+01 0.245D+01 0.392D+00
 Coeff-En:   0.000D+00 0.000D+00 0.100D+01
 Coeff:     -0.176D+01 0.234D+01 0.421D+00
 Gap=     0.051 Goal=   None    Shift=    0.000
 Gap=     0.170 Goal=   None    Shift=    0.000
 RMSDP=6.58D-04 MaxDP=1.35D-01 DE=-2.93D-02 OVMax= 1.72D-01

 Cycle   4  Pass 1  IDiag  1:
 RMSU=  4.76D-04    CP:  9.97D-01  3.00D+00  4.23D-01
 E= -1487.21640067542     Delta-E=       -0.017619344479 Rises=F Damp=F
 DIIS: error= 1.86D-03 at cycle   4 NSaved=   4.
 NSaved= 4 IEnMin= 4 EnMin= -1487.21640067542     IErMin= 4 ErrMin= 1.86D-03
 ErrMax= 1.86D-03  0.00D+00 EMaxC= 1.00D-01 BMatC= 8.39D-03 BMatP= 7.17D-02
 IDIUse=3 WtCom= 9.81D-01 WtEn= 1.86D-02
 Coeff-Com: -0.875D+00 0.116D+01 0.293D+00 0.426D+00
 Coeff-En:   0.000D+00 0.000D+00 0.109D+00 0.891D+00
 Coeff:     -0.859D+00 0.113D+01 0.290D+00 0.434D+00
 Gap=     0.051 Goal=   None    Shift=    0.000
 Gap=     0.165 Goal=   None    Shift=    0.000
 RMSDP=1.38D-04 MaxDP=6.59D-03 DE=-1.76D-02 OVMax= 1.53D-02

 Cycle   5  Pass 1  IDiag  1:
 RMSU=  1.12D-04    CP:  9.96D-01  3.00D+00  5.21D-01  9.55D-01
 E= -1487.21844048314     Delta-E=       -0.002039807713 Rises=F Damp=F
 DIIS: error= 5.53D-04 at cycle   5 NSaved=   5.
 NSaved= 5 IEnMin= 5 EnMin= -1487.21844048314     IErMin= 5 ErrMin= 5.53D-04
 ErrMax= 5.53D-04  0.00D+00 EMaxC= 1.00D-01 BMatC= 7.95D-04 BMatP= 8.39D-03
 IDIUse=3 WtCom= 9.94D-01 WtEn= 5.53D-03
 Coeff-Com: -0.251D+00 0.329D+00 0.143D+00 0.291D+00 0.488D+00
 Coeff-En:   0.000D+00 0.000D+00 0.000D+00 0.000D+00 0.100D+01
 Coeff:     -0.250D+00 0.327D+00 0.143D+00 0.289D+00 0.491D+00
 Gap=     0.052 Goal=   None    Shift=    0.000
 Gap=     0.163 Goal=   None    Shift=    0.000
 RMSDP=6.82D-05 MaxDP=3.89D-03 DE=-2.04D-03 OVMax= 1.63D-02

 Cycle   6  Pass 1  IDiag  1:
 RMSU=  5.61D-05    CP:  9.96D-01  3.00D+00  5.55D-01  1.01D+00  1.07D+00
 E= -1487.21869202020     Delta-E=       -0.000251537062 Rises=F Damp=F
 DIIS: error= 2.70D-04 at cycle   6 NSaved=   6.
 NSaved= 6 IEnMin= 6 EnMin= -1487.21869202020     IErMin= 6 ErrMin= 2.70D-04
 ErrMax= 2.70D-04  0.00D+00 EMaxC= 1.00D-01 BMatC= 1.81D-04 BMatP= 7.95D-04
 IDIUse=3 WtCom= 9.97D-01 WtEn= 2.70D-03
 Coeff-Com:  0.140D+00-0.187D+00 0.116D-01 0.435D-01 0.274D+00 0.717D+00
 Coeff-En:   0.000D+00 0.000D+00 0.000D+00 0.000D+00 0.000D+00 0.100D+01
 Coeff:      0.140D+00-0.186D+00 0.116D-01 0.434D-01 0.274D+00 0.718D+00
 Gap=     0.053 Goal=   None    Shift=    0.000
 Gap=     0.162 Goal=   None    Shift=    0.000
 RMSDP=6.86D-05 MaxDP=7.12D-03 DE=-2.52D-04 OVMax= 2.12D-02

 Cycle   7  Pass 1  IDiag  1:
 RMSU=  4.06D-05    CP:  9.96D-01  3.00D+00  5.72D-01  1.09D+00  1.28D+00
                    CP:  1.49D+00
 E= -1487.21881674351     Delta-E=       -0.000124723311 Rises=F Damp=F
 DIIS: error= 1.82D-04 at cycle   7 NSaved=   7.
 NSaved= 7 IEnMin= 7 EnMin= -1487.21881674351     IErMin= 7 ErrMin= 1.82D-04
 ErrMax= 1.82D-04  0.00D+00 EMaxC= 1.00D-01 BMatC= 9.08D-05 BMatP= 1.81D-04
 IDIUse=3 WtCom= 9.98D-01 WtEn= 1.82D-03
 Coeff-Com:  0.120D+00-0.158D+00-0.965D-02-0.419D-01 0.535D-02 0.441D+00
 Coeff-Com:  0.644D+00
 Coeff-En:   0.000D+00 0.000D+00 0.000D+00 0.000D+00 0.000D+00 0.000D+00
 Coeff-En:   0.100D+01
 Coeff:      0.120D+00-0.158D+00-0.963D-02-0.418D-01 0.534D-02 0.440D+00
 Coeff:      0.645D+00
 Gap=     0.054 Goal=   None    Shift=    0.000
 Gap=     0.162 Goal=   None    Shift=    0.000
 RMSDP=4.90D-05 MaxDP=7.83D-03 DE=-1.25D-04 OVMax= 1.73D-02

 Cycle   8  Pass 1  IDiag  1:
 RMSU=  2.51D-05    CP:  9.96D-01  3.00D+00  5.81D-01  1.14D+00  1.46D+00
                    CP:  1.92D+00  1.40D+00
 E= -1487.21887930098     Delta-E=       -0.000062557464 Rises=F Damp=F
 DIIS: error= 1.05D-04 at cycle   8 NSaved=   8.
 NSaved= 8 IEnMin= 8 EnMin= -1487.21887930098     IErMin= 8 ErrMin= 1.05D-04
 ErrMax= 1.05D-04  0.00D+00 EMaxC= 1.00D-01 BMatC= 5.05D-05 BMatP= 9.08D-05
 IDIUse=3 WtCom= 9.99D-01 WtEn= 1.05D-03
 Coeff-Com: -0.176D-02 0.312D-02-0.566D-02-0.702D-01-0.219D+00-0.144D+00
 Coeff-Com:  0.560D+00 0.878D+00
 Coeff-En:   0.000D+00 0.000D+00 0.000D+00 0.000D+00 0.000D+00 0.000D+00
 Coeff-En:   0.000D+00 0.100D+01
 Coeff:     -0.176D-02 0.312D-02-0.565D-02-0.701D-01-0.219D+00-0.143D+00
 Coeff:      0.559D+00 0.878D+00
 Gap=     0.054 Goal=   None    Shift=    0.000
 Gap=     0.162 Goal=   None    Shift=    0.000
 RMSDP=6.00D-05 MaxDP=4.89D-03 DE=-6.26D-05 OVMax= 1.86D-02

 Cycle   9  Pass 1  IDiag  1:
 RMSU=  1.52D-05    CP:  9.95D-01  3.00D+00  6.01D-01  1.19D+00  1.68D+00
                    CP:  2.54D+00  2.07D+00  1.22D+00
 E= -1487.21893345916     Delta-E=       -0.000054158183 Rises=F Damp=F
 DIIS: error= 6.96D-05 at cycle   9 NSaved=   9.
 NSaved= 9 IEnMin= 9 EnMin= -1487.21893345916     IErMin= 9 ErrMin= 6.96D-05
 ErrMax= 6.96D-05  0.00D+00 EMaxC= 1.00D-01 BMatC= 1.23D-05 BMatP= 5.05D-05
 IDIUse=1 WtCom= 1.00D+00 WtEn= 0.00D+00
 Coeff-Com: -0.494D-01 0.658D-01 0.230D-02-0.336D-01-0.159D+00-0.264D+00
 Coeff-Com:  0.184D+00 0.627D+00 0.627D+00
 Coeff:     -0.494D-01 0.658D-01 0.230D-02-0.336D-01-0.159D+00-0.264D+00
 Coeff:      0.184D+00 0.627D+00 0.627D+00
 Gap=     0.054 Goal=   None    Shift=    0.000
 Gap=     0.162 Goal=   None    Shift=    0.000
 RMSDP=3.07D-05 MaxDP=2.19D-03 DE=-5.42D-05 OVMax= 1.12D-02

 Cycle  10  Pass 1  IDiag  1:
 RMSU=  1.16D-05    CP:  9.95D-01  3.00D+00  6.09D-01  1.21D+00  1.76D+00
                    CP:  2.86D+00  2.37D+00  1.51D+00  1.31D+00
 E= -1487.21894790720     Delta-E=       -0.000014448041 Rises=F Damp=F
 DIIS: error= 5.75D-05 at cycle  10 NSaved=  10.
 NSaved=10 IEnMin=10 EnMin= -1487.21894790720     IErMin=10 ErrMin= 5.75D-05
 ErrMax= 5.75D-05  0.00D+00 EMaxC= 1.00D-01 BMatC= 5.97D-06 BMatP= 1.23D-05
 IDIUse=1 WtCom= 1.00D+00 WtEn= 0.00D+00
 Coeff-Com: -0.333D-01 0.443D-01 0.263D-02-0.286D-04-0.323D-01-0.143D+00
 Coeff-Com: -0.493D-01 0.167D+00 0.456D+00 0.588D+00
 Coeff:     -0.333D-01 0.443D-01 0.263D-02-0.286D-04-0.323D-01-0.143D+00
 Coeff:     -0.493D-01 0.167D+00 0.456D+00 0.588D+00
 Gap=     0.054 Goal=   None    Shift=    0.000
 Gap=     0.162 Goal=   None    Shift=    0.000
 RMSDP=1.29D-05 MaxDP=7.06D-04 DE=-1.44D-05 OVMax= 4.38D-03

 Cycle  11  Pass 1  IDiag  1:
 RMSU=  5.31D-06    CP:  9.95D-01  3.00D+00  6.11D-01  1.22D+00  1.78D+00
                    CP:  2.95D+00  2.50D+00  1.67D+00  1.71D+00  1.26D+00
 E= -1487.21895280690     Delta-E=       -0.000004899701 Rises=F Damp=F
 DIIS: error= 3.70D-05 at cycle  11 NSaved=  11.
 NSaved=11 IEnMin=11 EnMin= -1487.21895280690     IErMin=11 ErrMin= 3.70D-05
 ErrMax= 3.70D-05  0.00D+00 EMaxC= 1.00D-01 BMatC= 2.34D-06 BMatP= 5.97D-06
 IDIUse=1 WtCom= 1.00D+00 WtEn= 0.00D+00
 Coeff-Com: -0.463D-04-0.732D-04-0.339D-03 0.203D-01 0.740D-01 0.213D-01
 Coeff-Com: -0.163D+00-0.205D+00 0.606D-01 0.425D+00 0.767D+00
 Coeff:     -0.463D-04-0.732D-04-0.339D-03 0.203D-01 0.740D-01 0.213D-01
 Coeff:     -0.163D+00-0.205D+00 0.606D-01 0.425D+00 0.767D+00
 Gap=     0.054 Goal=   None    Shift=    0.000
 Gap=     0.162 Goal=   None    Shift=    0.000
 RMSDP=1.29D-05 MaxDP=7.17D-04 DE=-4.90D-06 OVMax= 4.87D-03

 Cycle  12  Pass 1  IDiag  1:
 RMSU=  4.33D-06    CP:  9.95D-01  3.00D+00  6.12D-01  1.22D+00  1.79D+00
                    CP:  3.00D+00  2.62D+00  1.82D+00  2.18D+00  1.78D+00
                    CP:  1.35D+00
 E= -1487.21895613384     Delta-E=       -0.000003326935 Rises=F Damp=F
 DIIS: error= 2.42D-05 at cycle  12 NSaved=  12.
 NSaved=12 IEnMin=12 EnMin= -1487.21895613384     IErMin=12 ErrMin= 2.42D-05
 ErrMax= 2.42D-05  0.00D+00 EMaxC= 1.00D-01 BMatC= 9.83D-07 BMatP= 2.34D-06
 IDIUse=1 WtCom= 1.00D+00 WtEn= 0.00D+00
 Coeff-Com:  0.173D-01-0.230D-01-0.231D-02 0.136D-01 0.720D-01 0.797D-01
 Coeff-Com: -0.903D-01-0.203D+00-0.161D+00-0.576D-01 0.519D+00 0.834D+00
 Coeff:      0.173D-01-0.230D-01-0.231D-02 0.136D-01 0.720D-01 0.797D-01
 Coeff:     -0.903D-01-0.203D+00-0.161D+00-0.576D-01 0.519D+00 0.834D+00
 Gap=     0.054 Goal=   None    Shift=    0.000
 Gap=     0.162 Goal=   None    Shift=    0.000
 RMSDP=9.96D-06 MaxDP=5.61D-04 DE=-3.33D-06 OVMax= 3.74D-03

 Cycle  13  Pass 1  IDiag  1:
 RMSU=  2.66D-06    CP:  9.95D-01  3.00D+00  6.13D-01  1.22D+00  1.79D+00
                    CP:  3.00D+00  2.68D+00  1.94D+00  2.56D+00  2.23D+00
                    CP:  1.89D+00  1.69D+00
 E= -1487.21895771331     Delta-E=       -0.000001579475 Rises=F Damp=F
 DIIS: error= 1.48D-05 at cycle  13 NSaved=  13.
 NSaved=13 IEnMin=13 EnMin= -1487.21895771331     IErMin=13 ErrMin= 1.48D-05
 ErrMax= 1.48D-05  0.00D+00 EMaxC= 1.00D-01 BMatC= 3.73D-07 BMatP= 9.83D-07
 IDIUse=1 WtCom= 1.00D+00 WtEn= 0.00D+00
 Coeff-Com:  0.123D-01-0.164D-01-0.154D-02 0.337D-02 0.295D-01 0.474D-01
 Coeff-Com: -0.139D-01-0.779D-01-0.124D+00-0.197D+00 0.125D+00 0.574D+00
 Coeff-Com:  0.639D+00
 Coeff:      0.123D-01-0.164D-01-0.154D-02 0.337D-02 0.295D-01 0.474D-01
 Coeff:     -0.139D-01-0.779D-01-0.124D+00-0.197D+00 0.125D+00 0.574D+00
 Coeff:      0.639D+00
 Gap=     0.054 Goal=   None    Shift=    0.000
 Gap=     0.162 Goal=   None    Shift=    0.000
 RMSDP=5.38D-06 MaxDP=3.79D-04 DE=-1.58D-06 OVMax= 2.00D-03

 Cycle  14  Pass 1  IDiag  1:
 RMSU=  1.06D-06    CP:  9.95D-01  3.00D+00  6.14D-01  1.22D+00  1.79D+00
                    CP:  3.00D+00  2.71D+00  2.00D+00  2.74D+00  2.46D+00
                    CP:  2.26D+00  2.12D+00  1.34D+00
 E= -1487.21895820560     Delta-E=       -0.000000492292 Rises=F Damp=F
 DIIS: error= 6.98D-06 at cycle  14 NSaved=  14.
 NSaved=14 IEnMin=14 EnMin= -1487.21895820560     IErMin=14 ErrMin= 6.98D-06
 ErrMax= 6.98D-06  0.00D+00 EMaxC= 1.00D-01 BMatC= 1.59D-07 BMatP= 3.73D-07
 IDIUse=1 WtCom= 1.00D+00 WtEn= 0.00D+00
 Coeff-Com:  0.148D-04 0.102D-04 0.180D-03-0.541D-02-0.185D-01-0.917D-02
 Coeff-Com:  0.462D-01 0.559D-01-0.519D-02-0.153D+00-0.218D+00-0.128D-01
 Coeff-Com:  0.540D+00 0.781D+00
 Coeff:      0.148D-04 0.102D-04 0.180D-03-0.541D-02-0.185D-01-0.917D-02
 Coeff:      0.462D-01 0.559D-01-0.519D-02-0.153D+00-0.218D+00-0.128D-01
 Coeff:      0.540D+00 0.781D+00
 Gap=     0.054 Goal=   None    Shift=    0.000
 Gap=     0.162 Goal=   None    Shift=    0.000
 RMSDP=5.12D-06 MaxDP=3.02D-04 DE=-4.92D-07 OVMax= 1.88D-03

 Cycle  15  Pass 1  IDiag  1:
 RMSU=  9.38D-07    CP:  9.95D-01  3.00D+00  6.15D-01  1.22D+00  1.78D+00
                    CP:  3.00D+00  2.74D+00  2.05D+00  2.92D+00  2.67D+00
                    CP:  2.57D+00  2.62D+00  1.70D+00  1.13D+00
 E= -1487.21895844546     Delta-E=       -0.000000239860 Rises=F Damp=F
 DIIS: error= 3.31D-06 at cycle  15 NSaved=  15.
 NSaved=15 IEnMin=15 EnMin= -1487.21895844546     IErMin=15 ErrMin= 3.31D-06
 ErrMax= 3.31D-06  0.00D+00 EMaxC= 1.00D-01 BMatC= 2.89D-08 BMatP= 1.59D-07
 IDIUse=1 WtCom= 1.00D+00 WtEn= 0.00D+00
 Coeff-Com: -0.305D-02 0.407D-02 0.387D-03-0.357D-02-0.171D-01-0.182D-01
 Coeff-Com:  0.277D-01 0.465D-01 0.316D-01-0.307D-01-0.140D+00-0.135D+00
 Coeff-Com:  0.120D+00 0.418D+00 0.700D+00
 Coeff:     -0.305D-02 0.407D-02 0.387D-03-0.357D-02-0.171D-01-0.182D-01
 Coeff:      0.277D-01 0.465D-01 0.316D-01-0.307D-01-0.140D+00-0.135D+00
 Coeff:      0.120D+00 0.418D+00 0.700D+00
 Gap=     0.054 Goal=   None    Shift=    0.000
 Gap=     0.162 Goal=   None    Shift=    0.000
 RMSDP=1.61D-06 MaxDP=1.10D-04 DE=-2.40D-07 OVMax= 6.25D-04

 Cycle  16  Pass 1  IDiag  1:
 RMSU=  4.79D-07    CP:  9.95D-01  3.00D+00  6.15D-01  1.22D+00  1.79D+00
                    CP:  3.00D+00  2.76D+00  2.06D+00  2.96D+00  2.72D+00
                    CP:  2.66D+00  2.78D+00  1.89D+00  1.45D+00  1.09D+00
 E= -1487.21895847719     Delta-E=       -0.000000031723 Rises=F Damp=F
 DIIS: error= 2.06D-06 at cycle  16 NSaved=  16.
 NSaved=16 IEnMin=16 EnMin= -1487.21895847719     IErMin=16 ErrMin= 2.06D-06
 ErrMax= 2.06D-06  0.00D+00 EMaxC= 1.00D-01 BMatC= 9.39D-09 BMatP= 2.89D-08
 IDIUse=1 WtCom= 1.00D+00 WtEn= 0.00D+00
 Coeff-Com: -0.177D-02 0.235D-02 0.167D-03-0.600D-03-0.514D-02-0.843D-02
 Coeff-Com:  0.430D-02 0.120D-01 0.189D-01 0.163D-01-0.303D-01-0.707D-01
 Coeff-Com: -0.531D-01 0.495D-01 0.403D+00 0.663D+00
 Coeff:     -0.177D-02 0.235D-02 0.167D-03-0.600D-03-0.514D-02-0.843D-02
 Coeff:      0.430D-02 0.120D-01 0.189D-01 0.163D-01-0.303D-01-0.707D-01
 Coeff:     -0.531D-01 0.495D-01 0.403D+00 0.663D+00
 Gap=     0.054 Goal=   None    Shift=    0.000
 Gap=     0.162 Goal=   None    Shift=    0.000
 RMSDP=7.61D-07 MaxDP=4.98D-05 DE=-3.17D-08 OVMax= 2.78D-04

 Cycle  17  Pass 1  IDiag  1:
 RMSU=  2.47D-07    CP:  9.95D-01  3.00D+00  6.16D-01  1.22D+00  1.79D+00
                    CP:  3.00D+00  2.76D+00  2.07D+00  2.98D+00  2.74D+00
                    CP:  2.69D+00  2.85D+00  1.99D+00  1.58D+00  1.33D+00
                    CP:  1.13D+00
 E= -1487.21895848534     Delta-E=       -0.000000008153 Rises=F Damp=F
 DIIS: error= 8.29D-07 at cycle  17 NSaved=  17.
 NSaved=17 IEnMin=17 EnMin= -1487.21895848534     IErMin=17 ErrMin= 8.29D-07
 ErrMax= 8.29D-07  0.00D+00 EMaxC= 1.00D-01 BMatC= 3.01D-09 BMatP= 9.39D-09
 IDIUse=1 WtCom= 1.00D+00 WtEn= 0.00D+00
 Coeff-Com: -0.294D-04 0.353D-04-0.196D-04 0.900D-03 0.287D-02 0.119D-02
 Coeff-Com: -0.687D-02-0.784D-02 0.848D-03 0.197D-01 0.266D-01 0.380D-02
 Coeff-Com: -0.709D-01-0.112D+00 0.225D-01 0.400D+00 0.719D+00
 Coeff:     -0.294D-04 0.353D-04-0.196D-04 0.900D-03 0.287D-02 0.119D-02
 Coeff:     -0.687D-02-0.784D-02 0.848D-03 0.197D-01 0.266D-01 0.380D-02
 Coeff:     -0.709D-01-0.112D+00 0.225D-01 0.400D+00 0.719D+00
 Gap=     0.054 Goal=   None    Shift=    0.000
 Gap=     0.162 Goal=   None    Shift=    0.000
 RMSDP=3.41D-07 MaxDP=1.93D-05 DE=-8.15D-09 OVMax= 1.24D-04

 Cycle  18  Pass 1  IDiag  1:
 RMSU=  1.29D-07    CP:  9.95D-01  3.00D+00  6.16D-01  1.22D+00  1.79D+00
                    CP:  3.00D+00  2.76D+00  2.07D+00  2.98D+00  2.75D+00
                    CP:  2.71D+00  2.88D+00  2.02D+00  1.67D+00  1.49D+00
                    CP:  1.41D+00  1.18D+00
 E= -1487.21895848809     Delta-E=       -0.000000002751 Rises=F Damp=F
 DIIS: error= 6.73D-07 at cycle  18 NSaved=  18.
 NSaved=18 IEnMin=18 EnMin= -1487.21895848809     IErMin=18 ErrMin= 6.73D-07
 ErrMax= 6.73D-07  0.00D+00 EMaxC= 1.00D-01 BMatC= 1.45D-09 BMatP= 3.01D-09
 IDIUse=1 WtCom= 1.00D+00 WtEn= 0.00D+00
 Coeff-Com:  0.537D-03-0.718D-03-0.640D-04 0.793D-03 0.363D-02 0.344D-02
 Coeff-Com: -0.599D-02-0.866D-02-0.532D-02 0.808D-02 0.262D-01 0.258D-01
 Coeff-Com: -0.287D-01-0.902D-01-0.107D+00 0.694D-01 0.504D+00 0.605D+00
 Coeff:      0.537D-03-0.718D-03-0.640D-04 0.793D-03 0.363D-02 0.344D-02
 Coeff:     -0.599D-02-0.866D-02-0.532D-02 0.808D-02 0.262D-01 0.258D-01
 Coeff:     -0.287D-01-0.902D-01-0.107D+00 0.694D-01 0.504D+00 0.605D+00
 Gap=     0.054 Goal=   None    Shift=    0.000
 Gap=     0.162 Goal=   None    Shift=    0.000
 RMSDP=1.69D-07 MaxDP=8.57D-06 DE=-2.75D-09 OVMax= 5.81D-05

 Cycle  19  Pass 1  IDiag  1:
 RMSU=  8.64D-08    CP:  9.95D-01  3.00D+00  6.16D-01  1.22D+00  1.79D+00
                    CP:  3.00D+00  2.76D+00  2.07D+00  2.98D+00  2.75D+00
                    CP:  2.71D+00  2.89D+00  2.03D+00  1.71D+00  1.59D+00
                    CP:  1.56D+00  1.31D+00  1.38D+00
 E= -1487.21895848918     Delta-E=       -0.000000001094 Rises=F Damp=F
 DIIS: error= 3.98D-07 at cycle  19 NSaved=  19.
 NSaved=19 IEnMin=19 EnMin= -1487.21895848918     IErMin=19 ErrMin= 3.98D-07
 ErrMax= 3.98D-07  0.00D+00 EMaxC= 1.00D-01 BMatC= 4.42D-10 BMatP= 1.45D-09
 IDIUse=1 WtCom= 1.00D+00 WtEn= 0.00D+00
 Coeff-Com:  0.336D-03-0.448D-03-0.419D-04 0.161D-03 0.120D-02 0.154D-02
 Coeff-Com: -0.130D-02-0.263D-02-0.372D-02-0.173D-02 0.631D-02 0.141D-01
 Coeff-Com:  0.744D-02-0.143D-01-0.660D-01-0.103D+00 0.149D-01 0.366D+00
 Coeff-Com:  0.781D+00
 Coeff:      0.336D-03-0.448D-03-0.419D-04 0.161D-03 0.120D-02 0.154D-02
 Coeff:     -0.130D-02-0.263D-02-0.372D-02-0.173D-02 0.631D-02 0.141D-01
 Coeff:      0.744D-02-0.143D-01-0.660D-01-0.103D+00 0.149D-01 0.366D+00
 Coeff:      0.781D+00
 Gap=     0.054 Goal=   None    Shift=    0.000
 Gap=     0.162 Goal=   None    Shift=    0.000
 RMSDP=1.40D-07 MaxDP=8.27D-06 DE=-1.09D-09 OVMax= 5.11D-05

 Cycle  20  Pass 1  IDiag  1:
 RMSU=  4.57D-08    CP:  9.95D-01  3.00D+00  6.16D-01  1.22D+00  1.79D+00
                    CP:  3.00D+00  2.76D+00  2.07D+00  2.98D+00  2.75D+00
                    CP:  2.71D+00  2.90D+00  2.04D+00  1.74D+00  1.65D+00
                    CP:  1.67D+00  1.48D+00  1.77D+00  1.36D+00
 E= -1487.21895848953     Delta-E=       -0.000000000344 Rises=F Damp=F
 DIIS: error= 3.79D-07 at cycle  20 NSaved=  20.
 NSaved=20 IEnMin=20 EnMin= -1487.21895848953     IErMin=20 ErrMin= 3.79D-07
 ErrMax= 3.79D-07  0.00D+00 EMaxC= 1.00D-01 BMatC= 3.04D-10 BMatP= 4.42D-10
 IDIUse=1 WtCom= 1.00D+00 WtEn= 0.00D+00
 Coeff-Com:  0.255D-04-0.329D-04-0.121D-04-0.255D-03-0.799D-03-0.438D-03
 Coeff-Com:  0.194D-02 0.211D-02-0.589D-03-0.516D-02-0.755D-02-0.144D-02
 Coeff-Com:  0.193D-01 0.323D-01 0.437D-02-0.120D+00-0.253D+00-0.730D-02
 Coeff-Com:  0.654D+00 0.683D+00
 Coeff:      0.255D-04-0.329D-04-0.121D-04-0.255D-03-0.799D-03-0.438D-03
 Coeff:      0.194D-02 0.211D-02-0.589D-03-0.516D-02-0.755D-02-0.144D-02
 Coeff:      0.193D-01 0.323D-01 0.437D-02-0.120D+00-0.253D+00-0.730D-02
 Coeff:      0.654D+00 0.683D+00
 Gap=     0.054 Goal=   None    Shift=    0.000
 Gap=     0.162 Goal=   None    Shift=    0.000
 RMSDP=1.06D-07 MaxDP=6.60D-06 DE=-3.44D-10 OVMax= 3.65D-05

 Cycle  21  Pass 1  IDiag  1:
 Restarting incremental Fock formation.
 E= -1487.21895849002     Delta-E=       -0.000000000497 Rises=F Damp=F
 DIIS: error= 2.12D-07 at cycle  21 NSaved=  20.
 NSaved=20 IEnMin=20 EnMin= -1487.21895849002     IErMin=20 ErrMin= 2.12D-07
 ErrMax= 2.12D-07  0.00D+00 EMaxC= 1.00D-01 BMatC= 8.33D-11 BMatP= 3.04D-10
 IDIUse=1 WtCom= 1.00D+00 WtEn= 0.00D+00
 Coeff-Com:  0.911D-06-0.764D-05-0.163D-03-0.622D-03-0.408D-03 0.143D-02
 Coeff-Com:  0.161D-02 0.241D-04-0.284D-02-0.511D-02-0.314D-02 0.922D-02
 Coeff-Com:  0.214D-01 0.205D-01-0.462D-01-0.151D+00-0.961D-01 0.157D+00
 Coeff-Com:  0.393D+00 0.701D+00
 Coeff:      0.911D-06-0.764D-05-0.163D-03-0.622D-03-0.408D-03 0.143D-02
 Coeff:      0.161D-02 0.241D-04-0.284D-02-0.511D-02-0.314D-02 0.922D-02
 Coeff:      0.214D-01 0.205D-01-0.462D-01-0.151D+00-0.961D-01 0.157D+00
 Coeff:      0.393D+00 0.701D+00
 Gap=     0.054 Goal=   None    Shift=    0.000
 Gap=     0.162 Goal=   None    Shift=    0.000
 RMSDP=5.11D-08 MaxDP=3.42D-06 DE=-4.97D-10 OVMax= 1.31D-05

 Cycle  22  Pass 1  IDiag  1:
 RMSU=  5.10D-08    CP:  1.00D+00
 E= -1487.21895849019     Delta-E=       -0.000000000167 Rises=F Damp=F
 DIIS: error= 1.69D-07 at cycle  22 NSaved=  20.
 NSaved=20 IEnMin=20 EnMin= -1487.21895849019     IErMin=20 ErrMin= 1.69D-07
 ErrMax= 1.69D-07  0.00D+00 EMaxC= 1.00D-01 BMatC= 4.66D-11 BMatP= 8.33D-11
 IDIUse=1 WtCom= 1.00D+00 WtEn= 0.00D+00
 Coeff-Com: -0.333D-05 0.194D-04-0.160D-04-0.672D-04 0.347D-04 0.275D-04
 Coeff-Com:  0.246D-03 0.494D-03 0.273D-03-0.166D-02-0.384D-02-0.991D-03
 Coeff-Com:  0.162D-01 0.275D-01 0.149D-01-0.712D-01-0.225D+00-0.451D-01
 Coeff-Com:  0.579D+00 0.709D+00
 Coeff:     -0.333D-05 0.194D-04-0.160D-04-0.672D-04 0.347D-04 0.275D-04
 Coeff:      0.246D-03 0.494D-03 0.273D-03-0.166D-02-0.384D-02-0.991D-03
 Coeff:      0.162D-01 0.275D-01 0.149D-01-0.712D-01-0.225D+00-0.451D-01
 Coeff:      0.579D+00 0.709D+00
 Gap=     0.054 Goal=   None    Shift=    0.000
 Gap=     0.162 Goal=   None    Shift=    0.000
 RMSDP=3.75D-08 MaxDP=3.96D-06 DE=-1.67D-10 OVMax= 9.93D-06

 Cycle  23  Pass 1  IDiag  1:
 RMSU=  2.45D-08    CP:  1.00D+00  1.56D+00
 E= -1487.21895849019     Delta-E=        0.000000000002 Rises=F Damp=F
 DIIS: error= 1.19D-07 at cycle  23 NSaved=  20.
 NSaved=20 IEnMin=19 EnMin= -1487.21895849019     IErMin=20 ErrMin= 1.19D-07
 ErrMax= 1.19D-07  0.00D+00 EMaxC= 1.00D-01 BMatC= 1.17D-11 BMatP= 4.66D-11
 IDIUse=1 WtCom= 1.00D+00 WtEn= 0.00D+00
 Coeff-Com:  0.671D-04 0.241D-03 0.107D-03-0.576D-03-0.604D-03 0.226D-03
 Coeff-Com:  0.127D-02 0.228D-02 0.656D-03-0.563D-02-0.922D-02-0.392D-03
 Coeff-Com:  0.296D-01 0.685D-01 0.445D-02-0.171D+00-0.179D+00 0.475D-02
 Coeff-Com:  0.295D+00 0.959D+00
 Coeff:      0.671D-04 0.241D-03 0.107D-03-0.576D-03-0.604D-03 0.226D-03
 Coeff:      0.127D-02 0.228D-02 0.656D-03-0.563D-02-0.922D-02-0.392D-03
 Coeff:      0.296D-01 0.685D-01 0.445D-02-0.171D+00-0.179D+00 0.475D-02
 Coeff:      0.295D+00 0.959D+00
 Gap=     0.054 Goal=   None    Shift=    0.000
 Gap=     0.162 Goal=   None    Shift=    0.000
 RMSDP=2.44D-08 MaxDP=1.64D-06 DE= 1.82D-12 OVMax= 5.21D-06

 Cycle  24  Pass 1  IDiag  1:
 RMSU=  1.34D-08    CP:  1.00D+00  1.86D+00  1.55D+00
 E= -1487.21895849019     Delta-E=        0.000000000004 Rises=F Damp=F
 DIIS: error= 8.45D-08 at cycle  24 NSaved=  20.
 NSaved=20 IEnMin=18 EnMin= -1487.21895849019     IErMin=20 ErrMin= 8.45D-08
 ErrMax= 8.45D-08  0.00D+00 EMaxC= 1.00D-01 BMatC= 8.51D-12 BMatP= 1.17D-11
 IDIUse=1 WtCom= 1.00D+00 WtEn= 0.00D+00
 Coeff-Com:  0.562D-04 0.258D-04-0.165D-03-0.115D-03 0.167D-03 0.497D-04
 Coeff-Com:  0.446D-03 0.789D-03-0.486D-03-0.266D-02-0.548D-02 0.168D-02
 Coeff-Com:  0.271D-01 0.301D-01-0.401D-02-0.779D-01-0.233D+00-0.136D+00
 Coeff-Com:  0.685D+00 0.714D+00
 Coeff:      0.562D-04 0.258D-04-0.165D-03-0.115D-03 0.167D-03 0.497D-04
 Coeff:      0.446D-03 0.789D-03-0.486D-03-0.266D-02-0.548D-02 0.168D-02
 Coeff:      0.271D-01 0.301D-01-0.401D-02-0.779D-01-0.233D+00-0.136D+00
 Coeff:      0.685D+00 0.714D+00
 Gap=     0.054 Goal=   None    Shift=    0.000
 Gap=     0.162 Goal=   None    Shift=    0.000
 RMSDP=1.53D-08 MaxDP=1.14D-06 DE= 3.64D-12 OVMax= 3.14D-06

 Cycle  25  Pass 1  IDiag  1:
 RMSU=  8.20D-09    CP:  1.00D+00  1.98D+00  1.89D+00  1.56D+00
 E= -1487.21895849019     Delta-E=       -0.000000000007 Rises=F Damp=F
 DIIS: error= 5.65D-08 at cycle  25 NSaved=  20.
 NSaved=20 IEnMin=20 EnMin= -1487.21895849019     IErMin=20 ErrMin= 5.65D-08
 ErrMax= 5.65D-08  0.00D+00 EMaxC= 1.00D-01 BMatC= 3.92D-12 BMatP= 8.51D-12
 IDIUse=1 WtCom= 1.00D+00 WtEn= 0.00D+00
 Coeff-Com: -0.149D-04-0.384D-04-0.440D-04 0.129D-03 0.976D-05 0.202D-04
 Coeff-Com:  0.831D-04 0.546D-04-0.113D-03-0.127D-02-0.250D-02 0.133D-02
 Coeff-Com:  0.146D-01 0.298D-01 0.902D-02-0.110D+00-0.190D+00 0.106D-01
 Coeff-Com:  0.486D+00 0.752D+00
 Coeff:     -0.149D-04-0.384D-04-0.440D-04 0.129D-03 0.976D-05 0.202D-04
 Coeff:      0.831D-04 0.546D-04-0.113D-03-0.127D-02-0.250D-02 0.133D-02
 Coeff:      0.146D-01 0.298D-01 0.902D-02-0.110D+00-0.190D+00 0.106D-01
 Coeff:      0.486D+00 0.752D+00
 Gap=     0.054 Goal=   None    Shift=    0.000
 Gap=     0.162 Goal=   None    Shift=    0.000
 RMSDP=1.18D-08 MaxDP=7.54D-07 DE=-7.28D-12 OVMax= 3.07D-06

 Cycle  26  Pass 1  IDiag  1:
 RMSU=  4.70D-09    CP:  1.00D+00  2.00D+00  2.20D+00  2.12D+00  1.21D+00
 E= -1487.21895849011     Delta-E=        0.000000000078 Rises=F Damp=F
 DIIS: error= 3.06D-08 at cycle  26 NSaved=  20.
 NSaved=20 IEnMin=19 EnMin= -1487.21895849019     IErMin=20 ErrMin= 3.06D-08
 ErrMax= 3.06D-08  0.00D+00 EMaxC= 1.00D-01 BMatC= 2.22D-12 BMatP= 3.92D-12
 IDIUse=1 WtCom= 1.00D+00 WtEn= 0.00D+00
 Coeff-Com:  0.454D-06-0.155D-04 0.224D-05-0.138D-03-0.105D-04 0.312D-03
 Coeff-Com:  0.739D-03 0.581D-03-0.233D-02-0.748D-02-0.720D-02 0.142D-01
 Coeff-Com:  0.463D-01 0.298D-01-0.675D-01-0.163D+00-0.164D+00 0.183D+00
 Coeff-Com:  0.568D+00 0.569D+00
 Coeff:      0.454D-06-0.155D-04 0.224D-05-0.138D-03-0.105D-04 0.312D-03
 Coeff:      0.739D-03 0.581D-03-0.233D-02-0.748D-02-0.720D-02 0.142D-01
 Coeff:      0.463D-01 0.298D-01-0.675D-01-0.163D+00-0.164D+00 0.183D+00
 Coeff:      0.568D+00 0.569D+00
 Gap=     0.054 Goal=   None    Shift=    0.000
 Gap=     0.162 Goal=   None    Shift=    0.000
 RMSDP=6.57D-09 MaxDP=4.61D-07 DE= 7.82D-11 OVMax= 1.08D-06

 SCF Done:  E(UPBE1PBE) =  -1487.21895849     A.U. after   26 cycles
            NFock= 26  Conv=0.66D-08     -V/T= 2.0738
 <Sx>= 0.0000 <Sy>= 0.0000 <Sz>= 0.5000 <S**2>= 0.7648 S= 0.5074
 <L.S>= 0.000000000000E+00
 KE= 1.385037194764D+03 PE=-8.989854266020D+03 EE= 3.336123388120D+03
 Annihilation of the first spin contaminant:
 S**2 before annihilation     0.7648,   after     0.7502
 Leave Link  502 at Sat Sep 12 01:21:40 2026, MaxMem=  6442450944 cpu:             701.0 elap:             701.0
 (Enter C:\G16W\l508.exe)
 QCSCF skips out because SCF is already converged.
 Leave Link  508 at Sat Sep 12 01:21:40 2026, MaxMem=  6442450944 cpu:               0.0 elap:               0.2
 (Enter C:\G16W\l601.exe)
 Copying SCF densities to generalized density rwf, IOpCl= 1 IROHF=0.

 **********************************************************************

            Population analysis using the SCF Density.

 **********************************************************************

 Alpha  occ. eigenvalues --  -14.49685 -14.49213 -14.48961 -14.48837 -14.48783
 Alpha  occ. eigenvalues --  -14.46971 -14.45027 -14.44668 -14.44558 -14.44485
 Alpha  occ. eigenvalues --  -14.44388 -14.43856 -10.39191 -10.38916 -10.38798
 Alpha  occ. eigenvalues --  -10.38629 -10.38361 -10.37783 -10.36839 -10.36744
 Alpha  occ. eigenvalues --  -10.36694 -10.36652 -10.36563 -10.36317 -10.32698
 Alpha  occ. eigenvalues --  -10.32349 -10.32204 -10.32158 -10.32079 -10.31621
 Alpha  occ. eigenvalues --   -3.85249  -2.43477  -2.43319  -2.43165  -1.10303
 Alpha  occ. eigenvalues --   -1.08245  -1.08140  -1.01231  -1.01197  -0.99311
 Alpha  occ. eigenvalues --   -0.98597  -0.97412  -0.97288  -0.96675  -0.96445
 Alpha  occ. eigenvalues --   -0.96129  -0.95267  -0.89738  -0.89487  -0.83831
 Alpha  occ. eigenvalues --   -0.81552  -0.81496  -0.75900  -0.75044  -0.74994
 Alpha  occ. eigenvalues --   -0.68838  -0.67498  -0.67407  -0.66295  -0.64409
 Alpha  occ. eigenvalues --   -0.64181  -0.61170  -0.61046  -0.58473  -0.58350
 Alpha  occ. eigenvalues --   -0.57445  -0.54067  -0.53293  -0.53004  -0.52844
 Alpha  occ. eigenvalues --   -0.47828  -0.47240  -0.45948  -0.44626  -0.43906
 Alpha  occ. eigenvalues --   -0.43357  -0.43033  -0.42659  -0.42546  -0.42336
 Alpha  occ. eigenvalues --   -0.42302  -0.42169  -0.42050  -0.41949  -0.41887
 Alpha  occ. eigenvalues --   -0.41583  -0.41463  -0.41106  -0.40772  -0.40754
 Alpha  occ. eigenvalues --   -0.40637  -0.40328  -0.39880  -0.39445  -0.39226
 Alpha  occ. eigenvalues --   -0.38695  -0.38313  -0.37897  -0.37446  -0.36708
 Alpha  occ. eigenvalues --   -0.35170  -0.34492  -0.34089  -0.33866  -0.33674
 Alpha  occ. eigenvalues --   -0.22768
 Alpha virt. eigenvalues --   -0.17373  -0.17285  -0.16727  -0.11044  -0.10654
 Alpha virt. eigenvalues --   -0.10482  -0.04718  -0.04256  -0.03170  -0.02644
 Alpha virt. eigenvalues --   -0.02531  -0.01044  -0.00783   0.00335   0.00560
 Alpha virt. eigenvalues --    0.00670   0.00943   0.03343   0.03529   0.03603
 Alpha virt. eigenvalues --    0.05107   0.08257   0.08872   0.09314   0.09473
 Alpha virt. eigenvalues --    0.12323   0.13252   0.13831   0.13947   0.14241
 Alpha virt. eigenvalues --    0.14967   0.15653   0.16981   0.17845   0.19166
 Alpha virt. eigenvalues --    0.19792   0.20261   0.21209   0.21544   0.22049
 Alpha virt. eigenvalues --    0.22771   0.22993   0.23241   0.24758   0.25588
 Alpha virt. eigenvalues --    0.25974   0.26740   0.27346   0.28699   0.29114
 Alpha virt. eigenvalues --    0.29805   0.30365   0.33226   0.33762   0.36812
 Alpha virt. eigenvalues --    0.37775   0.38018   0.38816   0.39376   0.39731
 Alpha virt. eigenvalues --    0.40062   0.40737   0.40990   0.41387   0.42537
 Alpha virt. eigenvalues --    0.44066   0.45125   0.46185   0.46409   0.46760
 Alpha virt. eigenvalues --    0.47460   0.48905   0.49367   0.49817   0.50116
 Alpha virt. eigenvalues --    0.50381   0.50810   0.51053   0.51369   0.51975
 Alpha virt. eigenvalues --    0.52295   0.53739   0.53856   0.54344   0.54570
 Alpha virt. eigenvalues --    0.54820   0.55129   0.55425   0.55980   0.57300
 Alpha virt. eigenvalues --    0.58703   0.59792   0.60984   0.62161   0.63006
 Alpha virt. eigenvalues --    0.64088   0.64210   0.64537   0.64703   0.64931
 Alpha virt. eigenvalues --    0.65557   0.65790   0.65868   0.66084   0.66198
 Alpha virt. eigenvalues --    0.66386   0.66758   0.67413   0.67506   0.68136
 Alpha virt. eigenvalues --    0.68551   0.69561   0.70093   0.70742   0.72976
 Alpha virt. eigenvalues --    0.73997   0.74638   0.75440   0.76376   0.77244
 Alpha virt. eigenvalues --    0.78305   0.78655   0.79321   0.79630   0.83020
 Alpha virt. eigenvalues --    0.83238   0.83651   0.84589   0.85353   0.85393
 Alpha virt. eigenvalues --    0.86158   0.87987   0.88717   0.88915   0.89155
 Alpha virt. eigenvalues --    0.89354   0.89527   0.91141   0.91616   0.93165
 Alpha virt. eigenvalues --    0.93259   0.93625   0.94139   0.94353   0.95244
 Alpha virt. eigenvalues --    0.95813   0.96311   0.97736   0.98846   0.99950
 Alpha virt. eigenvalues --    1.00850   1.01437   1.02206   1.02804   1.03086
 Alpha virt. eigenvalues --    1.04583   1.05183   1.06856   1.07628   1.08086
 Alpha virt. eigenvalues --    1.10044   1.11591   1.13582   1.14941   1.15537
 Alpha virt. eigenvalues --    1.17093   1.17360   1.18506   1.19601   1.20202
 Alpha virt. eigenvalues --    1.21173   1.23416   1.23664   1.24018   1.25729
 Alpha virt. eigenvalues --    1.26022   1.26409   1.28978   1.29939   1.30915
 Alpha virt. eigenvalues --    1.32114   1.33105   1.33906   1.34262   1.36059
 Alpha virt. eigenvalues --    1.37106   1.39441   1.40703   1.40993   1.41230
 Alpha virt. eigenvalues --    1.42149   1.43305   1.44084   1.44489   1.44981
 Alpha virt. eigenvalues --    1.46026   1.51711   1.55818   1.56010   1.56096
 Alpha virt. eigenvalues --    1.56412   1.56810   1.58738   1.58904   1.59570
 Alpha virt. eigenvalues --    1.59729   1.60383   1.60652   1.61542   1.61899
 Alpha virt. eigenvalues --    1.65469   1.65838   1.67265   1.67750   1.69775
 Alpha virt. eigenvalues --    1.70694   1.72536   1.75257   1.75639   1.76508
 Alpha virt. eigenvalues --    1.76739   1.80364   1.80619   1.81076   1.81250
 Alpha virt. eigenvalues --    1.81806   1.86840   1.87213   1.87405   1.87710
 Alpha virt. eigenvalues --    1.88162   1.89225   1.89403   1.89500   1.89869
 Alpha virt. eigenvalues --    1.90055   1.90482   1.91087   1.93601   1.93728
 Alpha virt. eigenvalues --    1.94491   2.02194   2.02469   2.02548   2.04766
 Alpha virt. eigenvalues --    2.06648   2.07020   2.13210   2.13264   2.13447
 Alpha virt. eigenvalues --    2.14244   2.18653   2.18961   2.20291   2.20578
 Alpha virt. eigenvalues --    2.22485   2.22725   2.22875   2.23459   2.23711
 Alpha virt. eigenvalues --    2.23860   2.24275   2.24654   2.24945   2.25078
 Alpha virt. eigenvalues --    2.25318   2.25822   2.28732   2.28893   2.32898
 Alpha virt. eigenvalues --    2.35229   2.35616   2.36084   2.39360   2.39651
 Alpha virt. eigenvalues --    2.40479   2.45314   2.48360   2.48379   2.48669
 Alpha virt. eigenvalues --    2.48850   2.50191   2.51214   2.52074   2.52379
 Alpha virt. eigenvalues --    2.52496   2.52742   2.52869   2.53005   2.54604
 Alpha virt. eigenvalues --    2.55090   2.55703   2.56515   2.56935   2.58977
 Alpha virt. eigenvalues --    2.59467   2.60551   2.64333   2.66318   2.66565
 Alpha virt. eigenvalues --    2.67592   2.75067   2.75143   2.76480   2.76722
 Alpha virt. eigenvalues --    2.79465   2.82998   2.84617   2.86391   2.86717
 Alpha virt. eigenvalues --    2.87056   2.89363   2.89899   2.92349   2.92545
 Alpha virt. eigenvalues --    2.92960   2.95203   2.95663   2.98423   2.99764
 Alpha virt. eigenvalues --    3.00123   3.00693   3.00835   3.01069   3.01505
 Alpha virt. eigenvalues --    3.08126   3.11790   3.12093   3.15341   3.23587
 Alpha virt. eigenvalues --    3.23867   3.24461   3.34377   3.34962   3.42388
 Alpha virt. eigenvalues --    3.42659   3.42903   3.43407   3.45192   3.45417
 Alpha virt. eigenvalues --    3.62536   3.62952   3.70673   3.72806  53.77010
  Beta  occ. eigenvalues --  -14.49477 -14.49081 -14.48955 -14.48835 -14.48798
  Beta  occ. eigenvalues --  -14.46455 -14.45047 -14.44584 -14.44555 -14.44486
  Beta  occ. eigenvalues --  -14.44337 -14.43862 -10.39236 -10.38910 -10.38799
  Beta  occ. eigenvalues --  -10.38536 -10.38152 -10.37828 -10.36830 -10.36756
  Beta  occ. eigenvalues --  -10.36611 -10.36543 -10.36484 -10.36426 -10.32688
  Beta  occ. eigenvalues --  -10.32393 -10.32206 -10.32157 -10.32106 -10.31614
  Beta  occ. eigenvalues --   -3.85202  -2.43476  -2.43314  -2.43161  -1.10106
  Beta  occ. eigenvalues --   -1.08142  -1.07864  -1.01115  -1.00831  -0.99067
  Beta  occ. eigenvalues --   -0.98493  -0.97403  -0.97187  -0.96641  -0.96424
  Beta  occ. eigenvalues --   -0.96053  -0.95143  -0.89631  -0.89290  -0.83620
  Beta  occ. eigenvalues --   -0.81401  -0.81355  -0.75827  -0.74927  -0.74761
  Beta  occ. eigenvalues --   -0.68764  -0.67400  -0.67315  -0.66185  -0.64322
  Beta  occ. eigenvalues --   -0.64120  -0.61101  -0.60904  -0.58409  -0.58289
  Beta  occ. eigenvalues --   -0.56815  -0.53527  -0.53067  -0.52905  -0.52707
  Beta  occ. eigenvalues --   -0.47432  -0.46461  -0.45700  -0.44399  -0.43553
  Beta  occ. eigenvalues --   -0.43027  -0.42883  -0.42593  -0.42325  -0.42171
  Beta  occ. eigenvalues --   -0.42163  -0.42018  -0.41903  -0.41858  -0.41749
  Beta  occ. eigenvalues --   -0.41457  -0.41405  -0.41087  -0.40739  -0.40704
  Beta  occ. eigenvalues --   -0.40602  -0.40266  -0.39743  -0.39183  -0.38939
  Beta  occ. eigenvalues --   -0.38572  -0.38144  -0.37234  -0.37053  -0.36477
  Beta  occ. eigenvalues --   -0.35039  -0.34409  -0.33648  -0.33359  -0.33202
  Beta virt. eigenvalues --   -0.17024  -0.16761  -0.16518  -0.15061  -0.10406
  Beta virt. eigenvalues --   -0.10255  -0.09648  -0.03483  -0.03298  -0.02927
  Beta virt. eigenvalues --   -0.02574  -0.02311  -0.00526  -0.00179   0.00356
  Beta virt. eigenvalues --    0.00562   0.00806   0.01986   0.03442   0.03605
  Beta virt. eigenvalues --    0.03898   0.05904   0.08275   0.08995   0.09477
  Beta virt. eigenvalues --    0.09621   0.12548   0.13377   0.14090   0.14337
  Beta virt. eigenvalues --    0.14543   0.15031   0.15841   0.17107   0.18325
  Beta virt. eigenvalues --    0.19479   0.20095   0.20431   0.21335   0.21658
  Beta virt. eigenvalues --    0.22323   0.22871   0.23204   0.23803   0.25003
  Beta virt. eigenvalues --    0.25680   0.26264   0.27109   0.28122   0.29036
  Beta virt. eigenvalues --    0.29258   0.30521   0.30831   0.33389   0.34053
  Beta virt. eigenvalues --    0.37233   0.38236   0.38271   0.38975   0.39569
  Beta virt. eigenvalues --    0.40053   0.40272   0.40889   0.41252   0.41589
  Beta virt. eigenvalues --    0.42761   0.44371   0.45190   0.46271   0.46535
  Beta virt. eigenvalues --    0.46810   0.47533   0.49147   0.49585   0.49907
  Beta virt. eigenvalues --    0.50140   0.50415   0.50902   0.51202   0.51540
  Beta virt. eigenvalues --    0.52238   0.52540   0.53880   0.53953   0.54416
  Beta virt. eigenvalues --    0.54780   0.54892   0.55290   0.55549   0.56115
  Beta virt. eigenvalues --    0.57585   0.58794   0.60150   0.61112   0.62274
  Beta virt. eigenvalues --    0.63163   0.64196   0.64380   0.64665   0.64840
  Beta virt. eigenvalues --    0.64978   0.65604   0.65822   0.65941   0.66111
  Beta virt. eigenvalues --    0.66333   0.66415   0.66834   0.67499   0.67601
  Beta virt. eigenvalues --    0.68237   0.68708   0.69627   0.70243   0.71203
  Beta virt. eigenvalues --    0.73242   0.74172   0.74951   0.75569   0.76546
  Beta virt. eigenvalues --    0.77326   0.78408   0.78786   0.79523   0.79801
  Beta virt. eigenvalues --    0.83117   0.83447   0.83795   0.84673   0.85531
  Beta virt. eigenvalues --    0.85636   0.86366   0.88065   0.88879   0.89119
  Beta virt. eigenvalues --    0.89184   0.89429   0.89592   0.91226   0.91926
  Beta virt. eigenvalues --    0.93209   0.93361   0.93656   0.94222   0.94429
  Beta virt. eigenvalues --    0.95316   0.95951   0.96430   0.98138   0.99017
  Beta virt. eigenvalues --    1.00032   1.00927   1.01555   1.02268   1.02964
  Beta virt. eigenvalues --    1.03306   1.04706   1.05253   1.06924   1.07664
  Beta virt. eigenvalues --    1.08166   1.10123   1.11864   1.13757   1.14971
  Beta virt. eigenvalues --    1.15630   1.17245   1.17438   1.18675   1.19699
  Beta virt. eigenvalues --    1.20396   1.21285   1.23697   1.23757   1.24149
  Beta virt. eigenvalues --    1.25824   1.26229   1.26492   1.29228   1.30062
  Beta virt. eigenvalues --    1.31054   1.32232   1.33407   1.34060   1.34390
  Beta virt. eigenvalues --    1.36093   1.37214   1.39552   1.40781   1.41050
  Beta virt. eigenvalues --    1.41321   1.42393   1.43418   1.44145   1.44625
  Beta virt. eigenvalues --    1.45218   1.46193   1.52108   1.55823   1.56059
  Beta virt. eigenvalues --    1.56103   1.56399   1.56842   1.58748   1.58919
  Beta virt. eigenvalues --    1.59570   1.59732   1.60490   1.60680   1.61549
  Beta virt. eigenvalues --    1.61923   1.65503   1.65932   1.67364   1.67840
  Beta virt. eigenvalues --    1.69853   1.70759   1.72625   1.75302   1.75713
  Beta virt. eigenvalues --    1.76601   1.76822   1.80487   1.80783   1.81255
  Beta virt. eigenvalues --    1.81518   1.81990   1.86962   1.87301   1.87502
  Beta virt. eigenvalues --    1.87861   1.88247   1.89301   1.89485   1.89588
  Beta virt. eigenvalues --    1.89907   1.90240   1.90729   1.91485   1.93695
  Beta virt. eigenvalues --    1.93945   1.94615   2.02270   2.02643   2.02996
  Beta virt. eigenvalues --    2.04872   2.06819   2.07183   2.13351   2.13436
  Beta virt. eigenvalues --    2.13583   2.14408   2.18713   2.19114   2.20415
  Beta virt. eigenvalues --    2.20744   2.22540   2.22730   2.23014   2.23460
  Beta virt. eigenvalues --    2.23770   2.24007   2.24341   2.24704   2.24994
  Beta virt. eigenvalues --    2.25149   2.25389   2.26025   2.28787   2.29059
  Beta virt. eigenvalues --    2.33027   2.35389   2.35883   2.36358   2.39623
  Beta virt. eigenvalues --    2.40196   2.40715   2.45508   2.48446   2.48626
  Beta virt. eigenvalues --    2.48930   2.49119   2.50663   2.51282   2.52136
  Beta virt. eigenvalues --    2.52417   2.52529   2.52765   2.52927   2.53053
  Beta virt. eigenvalues --    2.54705   2.55484   2.56000   2.56672   2.57051
  Beta virt. eigenvalues --    2.59051   2.59527   2.60596   2.64435   2.66600
  Beta virt. eigenvalues --    2.66829   2.67877   2.75233   2.75753   2.76682
  Beta virt. eigenvalues --    2.77007   2.79636   2.83089   2.84996   2.86444
  Beta virt. eigenvalues --    2.86775   2.87128   2.89470   2.90262   2.92384
  Beta virt. eigenvalues --    2.92549   2.93091   2.95285   2.95728   2.98648
  Beta virt. eigenvalues --    2.99774   3.00226   3.00879   3.00889   3.01097
  Beta virt. eigenvalues --    3.01649   3.08152   3.11849   3.12160   3.15397
  Beta virt. eigenvalues --    3.23602   3.23970   3.24486   3.34399   3.35077
  Beta virt. eigenvalues --    3.42400   3.42686   3.42924   3.43450   3.45233
  Beta virt. eigenvalues --    3.45461   3.62547   3.62998   3.70728   3.72851
  Beta virt. eigenvalues --   53.77087
          Condensed to atoms (all electrons):
               1          2          3          4          5          6
     1  N    6.059008   0.854134  -0.037098  -0.004775   0.000206   0.000014
     2  C    0.854134   5.259240   0.214678  -0.134370   0.024597   0.001098
     3  C   -0.037098   0.214678   5.198809   0.482156  -0.018696   0.022475
     4  N   -0.004775  -0.134370   0.482156   6.563479   0.435080  -0.122055
     5  C    0.000206   0.024597  -0.018696   0.435080   5.989404   0.022450
     6  C    0.000014   0.001098   0.022475  -0.122055   0.022450   5.788001
     7  N    0.000001   0.000009  -0.000312   0.005729  -0.123837   0.575354
     8  C    0.000000  -0.000004   0.000049  -0.000196   0.014718  -0.022461
     9  C    0.000000   0.000000  -0.000001  -0.000031   0.000581   0.018546
    10  N    0.000000   0.000000   0.000000   0.000000   0.000012   0.000115
    11  C    0.000000   0.000000   0.000000  -0.000006   0.002925  -0.077675
    12  C    0.000000   0.000000   0.000000  -0.000001   0.000432   0.000728
    13  N    0.000000   0.000000   0.000000   0.000000   0.000001  -0.000038
    14  N    0.000000   0.000000   0.000000   0.000007   0.005778  -0.127682
    15  C    0.000000  -0.000024  -0.000153   0.009172  -0.084687   0.167017
    16  C    0.000000   0.000009  -0.000216  -0.001033  -0.101932  -0.078070
    17  N    0.000000   0.000000   0.000001  -0.000001  -0.001704   0.008544
    18  C    0.000000   0.000000   0.000001   0.000000  -0.000318  -0.000036
    19  C    0.000000   0.000000   0.000000   0.000000  -0.000001  -0.000008
    20  N    0.000000   0.000000   0.000000   0.000000   0.000000   0.000000
    21  C    0.000000   0.000000   0.000003   0.000000  -0.000074  -0.000278
    22  C    0.000000   0.000000   0.000000   0.000000  -0.000007   0.000001
    23  N    0.000000   0.000000   0.000000   0.000000   0.000000   0.000000
    24  N    0.000000   0.000000  -0.000047   0.000022   0.009210  -0.001842
    25  C    0.000000   0.000259   0.000954   0.003425  -0.096759  -0.092494
    26  C   -0.000035   0.000111  -0.087615  -0.103843   0.223995  -0.066160
    27  N   -0.000003   0.003522  -0.050061  -0.037482  -0.119667   0.006614
    28  C   -0.001588  -0.090273   0.509459  -0.047057  -0.088207   0.001110
    29  C   -0.003297  -0.048206  -0.120733  -0.000218  -0.000820   0.000351
    30  N   -0.000390  -0.002616  -0.004792  -0.000030  -0.000047   0.000000
    31  Ag   0.001339  -0.030783  -0.032773   0.165164  -0.063687  -0.051640
               7          8          9         10         11         12
     1  N    0.000001   0.000000   0.000000   0.000000   0.000000   0.000000
     2  C    0.000009  -0.000004   0.000000   0.000000   0.000000   0.000000
     3  C   -0.000312   0.000049  -0.000001   0.000000   0.000000   0.000000
     4  N    0.005729  -0.000196  -0.000031   0.000000  -0.000006  -0.000001
     5  C   -0.123837   0.014718   0.000581   0.000012   0.002925   0.000432
     6  C    0.575354  -0.022461   0.018546   0.000115  -0.077675   0.000728
     7  N    6.338494   0.565785  -0.115450  -0.004916  -0.049646  -0.000032
     8  C    0.565785   5.040182   0.225077  -0.030907   0.507271  -0.117595
     9  C   -0.115450   0.225077   5.225491   0.869807  -0.112443  -0.044068
    10  N   -0.004916  -0.030907   0.869807   6.036786  -0.003261  -0.002864
    11  C   -0.049646   0.507271  -0.112443  -0.003261   5.068658   0.220354
    12  C   -0.000032  -0.117595  -0.044068  -0.002864   0.220354   5.234147
    13  N   -0.000027  -0.004385  -0.002537  -0.000391  -0.037259   0.867653
    14  N   -0.040505  -0.050488   0.001552  -0.000017   0.571629  -0.113231
    15  C   -0.110181  -0.079812   0.000726  -0.000030  -0.027113   0.013862
    16  C    0.004421   0.001710   0.000379   0.000000   0.013459   0.001173
    17  N    0.000028  -0.000044   0.000000   0.000000   0.000152  -0.000043
    18  C   -0.000001   0.000003   0.000000   0.000000   0.000029  -0.000004
    19  C    0.000000   0.000000   0.000000   0.000000  -0.000004   0.000000
    20  N    0.000000   0.000000   0.000000   0.000000   0.000000   0.000000
    21  C    0.000001   0.000001   0.000000   0.000000   0.000002   0.000000
    22  C    0.000000   0.000000   0.000000   0.000000   0.000000   0.000000
    23  N    0.000000   0.000000   0.000000   0.000000   0.000000   0.000000
    24  N   -0.000001   0.000001   0.000000   0.000000  -0.000001   0.000000
    25  C   -0.001669  -0.000123   0.000004   0.000000  -0.000210  -0.000015
    26  C    0.008018  -0.000338  -0.000021   0.000000  -0.000062   0.000005
    27  N    0.000016  -0.000001   0.000000   0.000000   0.000001   0.000000
    28  C   -0.000015   0.000001   0.000000   0.000000   0.000001   0.000000
    29  C    0.000000   0.000000   0.000000   0.000000   0.000000   0.000000
    30  N    0.000000   0.000000   0.000000   0.000000   0.000000   0.000000
    31  Ag   0.042183  -0.000339  -0.005943  -0.000511   0.002323  -0.000397
              13         14         15         16         17         18
     1  N    0.000000   0.000000   0.000000   0.000000   0.000000   0.000000
     2  C    0.000000   0.000000  -0.000024   0.000009   0.000000   0.000000
     3  C    0.000000   0.000000  -0.000153  -0.000216   0.000001   0.000001
     4  N    0.000000   0.000007   0.009172  -0.001033  -0.000001   0.000000
     5  C    0.000001   0.005778  -0.084687  -0.101932  -0.001704  -0.000318
     6  C   -0.000038  -0.127682   0.167017  -0.078070   0.008544  -0.000036
     7  N   -0.000027  -0.040505  -0.110181   0.004421   0.000028  -0.000001
     8  C   -0.004385  -0.050488  -0.079812   0.001710  -0.000044   0.000003
     9  C   -0.002537   0.001552   0.000726   0.000379   0.000000   0.000000
    10  N   -0.000391  -0.000017  -0.000030   0.000000   0.000000   0.000000
    11  C   -0.037259   0.571629  -0.027113   0.013459   0.000152   0.000029
    12  C    0.867653  -0.113231   0.013862   0.001173  -0.000043  -0.000004
    13  N    6.050649  -0.005605   0.000040   0.000017   0.000000   0.000000
    14  N   -0.005605   6.272000   0.623812  -0.093828   0.004868   0.000105
    15  C    0.000040   0.623812   5.639154   0.052139  -0.099118   0.014212
    16  C    0.000017  -0.093828   0.052139   5.643964   0.620459  -0.026895
    17  N    0.000000   0.004868  -0.099118   0.620459   6.268538   0.582633
    18  C    0.000000   0.000105   0.014212  -0.026895   0.582633   5.051703
    19  C    0.000000  -0.000046   0.001334   0.014707  -0.114782   0.217427
    20  N    0.000000   0.000000   0.000018   0.000050  -0.005669  -0.036017
    21  C    0.000000  -0.000025   0.001904  -0.077341  -0.051535   0.515578
    22  C    0.000000   0.000000   0.000424  -0.000304   0.000161  -0.121562
    23  N    0.000000   0.000000   0.000001  -0.000040  -0.000028  -0.004481
    24  N    0.000000   0.000024   0.005326  -0.121674  -0.042325  -0.051706
    25  C    0.000000   0.008863  -0.078115   0.213046  -0.120043  -0.077122
    26  C    0.000000  -0.001930  -0.091604  -0.089068   0.004939   0.001725
    27  N    0.000000  -0.000002  -0.001728   0.008301   0.000023  -0.000027
    28  C    0.000000   0.000001  -0.000121  -0.000043  -0.000001   0.000001
    29  C    0.000000   0.000000   0.000002   0.000001   0.000000   0.000000
    30  N    0.000000   0.000000   0.000000   0.000000   0.000000   0.000000
    31  Ag   0.000008   0.001544   0.013686  -0.002810   0.000172  -0.000035
              19         20         21         22         23         24
     1  N    0.000000   0.000000   0.000000   0.000000   0.000000   0.000000
     2  C    0.000000   0.000000   0.000000   0.000000   0.000000   0.000000
     3  C    0.000000   0.000000   0.000003   0.000000   0.000000  -0.000047
     4  N    0.000000   0.000000   0.000000   0.000000   0.000000   0.000022
     5  C   -0.000001   0.000000  -0.000074  -0.000007   0.000000   0.009210
     6  C   -0.000008   0.000000  -0.000278   0.000001   0.000000  -0.001842
     7  N    0.000000   0.000000   0.000001   0.000000   0.000000  -0.000001
     8  C    0.000000   0.000000   0.000001   0.000000   0.000000   0.000001
     9  C    0.000000   0.000000   0.000000   0.000000   0.000000   0.000000
    10  N    0.000000   0.000000   0.000000   0.000000   0.000000   0.000000
    11  C   -0.000004   0.000000   0.000002   0.000000   0.000000  -0.000001
    12  C    0.000000   0.000000   0.000000   0.000000   0.000000   0.000000
    13  N    0.000000   0.000000   0.000000   0.000000   0.000000   0.000000
    14  N   -0.000046   0.000000  -0.000025   0.000000   0.000000   0.000024
    15  C    0.001334   0.000018   0.001904   0.000424   0.000001   0.005326
    16  C    0.014707   0.000050  -0.077341  -0.000304  -0.000040  -0.121674
    17  N   -0.114782  -0.005669  -0.051535   0.000161  -0.000028  -0.042325
    18  C    0.217427  -0.036017   0.515578  -0.121562  -0.004481  -0.051706
    19  C    5.231416   0.866469  -0.119356  -0.039698  -0.002430   0.000189
    20  N    0.866469   6.047994  -0.004370  -0.002438  -0.000375  -0.000027
    21  C   -0.119356  -0.004370   5.045911   0.215649  -0.036531   0.584494
    22  C   -0.039698  -0.002438   0.215649   5.235723   0.865626  -0.116385
    23  N   -0.002430  -0.000375  -0.036531   0.865626   6.048413  -0.005762
    24  N    0.000189  -0.000027   0.584494  -0.116385  -0.005762   6.273372
    25  C   -0.000116  -0.000039  -0.026133   0.014803   0.000049   0.614695
    26  C    0.000426   0.000001   0.014786   0.001546   0.000019  -0.099270
    27  N    0.000000   0.000000   0.000164  -0.000043   0.000000   0.005843
    28  C    0.000000   0.000000   0.000029  -0.000003   0.000000   0.000014
    29  C    0.000000   0.000000  -0.000004   0.000000   0.000000  -0.000044
    30  N    0.000000   0.000000   0.000000   0.000000   0.000000   0.000000
    31  Ag  -0.000008   0.000000  -0.000052  -0.000033  -0.000001   0.000665
              25         26         27         28         29         30
     1  N    0.000000  -0.000035  -0.000003  -0.001588  -0.003297  -0.000390
     2  C    0.000259   0.000111   0.003522  -0.090273  -0.048206  -0.002616
     3  C    0.000954  -0.087615  -0.050061   0.509459  -0.120733  -0.004792
     4  N    0.003425  -0.103843  -0.037482  -0.047057  -0.000218  -0.000030
     5  C   -0.096759   0.223995  -0.119667  -0.088207  -0.000820  -0.000047
     6  C   -0.092494  -0.066160   0.006614   0.001110   0.000351   0.000000
     7  N   -0.001669   0.008018   0.000016  -0.000015   0.000000   0.000000
     8  C   -0.000123  -0.000338  -0.000001   0.000001   0.000000   0.000000
     9  C    0.000004  -0.000021   0.000000   0.000000   0.000000   0.000000
    10  N    0.000000   0.000000   0.000000   0.000000   0.000000   0.000000
    11  C   -0.000210  -0.000062   0.000001   0.000001   0.000000   0.000000
    12  C   -0.000015   0.000005   0.000000   0.000000   0.000000   0.000000
    13  N    0.000000   0.000000   0.000000   0.000000   0.000000   0.000000
    14  N    0.008863  -0.001930  -0.000002   0.000001   0.000000   0.000000
    15  C   -0.078115  -0.091604  -0.001728  -0.000121   0.000002   0.000000
    16  C    0.213046  -0.089068   0.008301  -0.000043   0.000001   0.000000
    17  N   -0.120043   0.004939   0.000023  -0.000001   0.000000   0.000000
    18  C   -0.077122   0.001725  -0.000027   0.000001   0.000000   0.000000
    19  C   -0.000116   0.000426   0.000000   0.000000   0.000000   0.000000
    20  N   -0.000039   0.000001   0.000000   0.000000   0.000000   0.000000
    21  C   -0.026133   0.014786   0.000164   0.000029  -0.000004   0.000000
    22  C    0.014803   0.001546  -0.000043  -0.000003   0.000000   0.000000
    23  N    0.000049   0.000019   0.000000   0.000000   0.000000   0.000000
    24  N    0.614695  -0.099270   0.005843   0.000014  -0.000044   0.000000
    25  C    5.631744   0.080530  -0.096359   0.015233   0.001348   0.000019
    26  C    0.080530   5.521866   0.608501  -0.010281   0.015590   0.000047
    27  N   -0.096359   0.608501   6.326405   0.549437  -0.109697  -0.005420
    28  C    0.015233  -0.010281   0.549437   5.024192   0.228028  -0.037409
    29  C    0.001348   0.015590  -0.109697   0.228028   5.237213   0.868048
    30  N    0.000019   0.000047  -0.005420  -0.037409   0.868048   6.054102
    31  Ag  -0.002963   0.008423   0.004538   0.006645  -0.001380   0.000041
              31
     1  N    0.001339
     2  C   -0.030783
     3  C   -0.032773
     4  N    0.165164
     5  C   -0.063687
     6  C   -0.051640
     7  N    0.042183
     8  C   -0.000339
     9  C   -0.005943
    10  N   -0.000511
    11  C    0.002323
    12  C   -0.000397
    13  N    0.000008
    14  N    0.001544
    15  C    0.013686
    16  C   -0.002810
    17  N    0.000172
    18  C   -0.000035
    19  C   -0.000008
    20  N    0.000000
    21  C   -0.000052
    22  C   -0.000033
    23  N   -0.000001
    24  N    0.000665
    25  C   -0.002963
    26  C    0.008423
    27  N    0.004538
    28  C    0.006645
    29  C   -0.001380
    30  N    0.000041
    31  Ag  18.555700
          Atomic-Atomic Spin Densities.
               1          2          3          4          5          6
     1  N    0.044597  -0.001783  -0.003787   0.000114   0.000044   0.000000
     2  C   -0.001783  -0.029855   0.003375  -0.001569   0.002155   0.000030
     3  C   -0.003787   0.003375   0.177486  -0.047888   0.013657   0.001076
     4  N    0.000114  -0.001569  -0.047888   0.135319  -0.043801  -0.005755
     5  C    0.000044   0.002155   0.013657  -0.043801   0.176363   0.023078
     6  C    0.000000   0.000030   0.001076  -0.005755   0.023078   0.064951
     7  N    0.000000   0.000006  -0.000029   0.001800  -0.005927  -0.017541
     8  C    0.000000  -0.000001  -0.000005  -0.000030   0.000092   0.001029
     9  C    0.000000   0.000000   0.000001  -0.000004   0.000084   0.000309
    10  N    0.000000   0.000000   0.000000   0.000000   0.000001   0.000003
    11  C    0.000000   0.000000   0.000000  -0.000004   0.000210   0.001911
    12  C    0.000000   0.000000   0.000000   0.000000   0.000001  -0.000023
    13  N    0.000000   0.000000   0.000000   0.000000   0.000000  -0.000001
    14  N    0.000000   0.000000   0.000000   0.000001  -0.000257  -0.001587
    15  C    0.000000  -0.000001  -0.000022  -0.000012  -0.005654  -0.010339
    16  C    0.000000   0.000001   0.000016   0.000028  -0.001910  -0.001140
    17  N    0.000000   0.000000   0.000000   0.000000  -0.000055   0.000044
    18  C    0.000000   0.000000   0.000000   0.000000   0.000032  -0.000001
    19  C    0.000000   0.000000   0.000000   0.000000   0.000000   0.000000
    20  N    0.000000   0.000000   0.000000   0.000000   0.000000   0.000000
    21  C    0.000000   0.000000   0.000000   0.000000  -0.000055   0.000016
    22  C    0.000000   0.000000   0.000000   0.000000  -0.000003   0.000001
    23  N    0.000000   0.000000   0.000000   0.000000   0.000000   0.000000
    24  N    0.000000   0.000000  -0.000003  -0.000001  -0.000073  -0.000052
    25  C    0.000000  -0.000025  -0.000459   0.000031   0.003166   0.000349
    26  C   -0.000005  -0.000470  -0.000087   0.002754   0.008040  -0.004499
    27  N    0.000005   0.000311  -0.006449   0.001597  -0.005460  -0.000700
    28  C   -0.000159  -0.002533   0.028189  -0.000538   0.000424   0.000060
    29  C   -0.000069  -0.000064  -0.003978   0.000145  -0.000528  -0.000003
    30  N    0.000003   0.000009  -0.000403   0.000001  -0.000004   0.000000
    31  Ag   0.000049  -0.006469  -0.033758   0.050285  -0.067044  -0.017582
               7          8          9         10         11         12
     1  N    0.000000   0.000000   0.000000   0.000000   0.000000   0.000000
     2  C    0.000006  -0.000001   0.000000   0.000000   0.000000   0.000000
     3  C   -0.000029  -0.000005   0.000001   0.000000   0.000000   0.000000
     4  N    0.001800  -0.000030  -0.000004   0.000000  -0.000004   0.000000
     5  C   -0.005927   0.000092   0.000084   0.000001   0.000210   0.000001
     6  C   -0.017541   0.001029   0.000309   0.000003   0.001911  -0.000023
     7  N    0.084005  -0.002093  -0.001480  -0.000018  -0.002924  -0.000064
     8  C   -0.002093  -0.030549  -0.002258  -0.000408   0.003157  -0.000267
     9  C   -0.001480  -0.002258   0.012088  -0.000714  -0.000745   0.000188
    10  N   -0.000018  -0.000408  -0.000714  -0.007704  -0.000051   0.000008
    11  C   -0.002924   0.003157  -0.000745  -0.000051   0.074292   0.001978
    12  C   -0.000064  -0.000267   0.000188   0.000008   0.001978  -0.021218
    13  N    0.000001  -0.000007  -0.000001   0.000001  -0.000993  -0.000253
    14  N    0.000872   0.000209   0.000067   0.000001  -0.012990   0.000535
    15  C    0.002256   0.000382  -0.000135  -0.000001  -0.002446  -0.000096
    16  C   -0.000090  -0.000062  -0.000003   0.000000  -0.000032  -0.000009
    17  N    0.000000  -0.000001   0.000000   0.000000  -0.000015   0.000001
    18  C    0.000000   0.000000   0.000000   0.000000   0.000002   0.000000
    19  C    0.000000   0.000000   0.000000   0.000000   0.000000   0.000000
    20  N    0.000000   0.000000   0.000000   0.000000   0.000000   0.000000
    21  C    0.000000   0.000000   0.000000   0.000000   0.000000   0.000000
    22  C    0.000000   0.000000   0.000000   0.000000   0.000000   0.000000
    23  N    0.000000   0.000000   0.000000   0.000000   0.000000   0.000000
    24  N    0.000000   0.000000   0.000000   0.000000   0.000000   0.000000
    25  C   -0.000048   0.000017   0.000000   0.000000   0.000023   0.000000
    26  C   -0.000103  -0.000039   0.000001   0.000000   0.000000   0.000000
    27  N    0.000008   0.000000   0.000000   0.000000   0.000000   0.000000
    28  C   -0.000009   0.000001   0.000000   0.000000   0.000000   0.000000
    29  C    0.000000   0.000000   0.000000   0.000000   0.000000   0.000000
    30  N    0.000000   0.000000   0.000000   0.000000   0.000000   0.000000
    31  Ag   0.006309   0.001594  -0.000709  -0.000098  -0.001133  -0.000025
              13         14         15         16         17         18
     1  N    0.000000   0.000000   0.000000   0.000000   0.000000   0.000000
     2  C    0.000000   0.000000  -0.000001   0.000001   0.000000   0.000000
     3  C    0.000000   0.000000  -0.000022   0.000016   0.000000   0.000000
     4  N    0.000000   0.000001  -0.000012   0.000028   0.000000   0.000000
     5  C    0.000000  -0.000257  -0.005654  -0.001910  -0.000055   0.000032
     6  C   -0.000001  -0.001587  -0.010339  -0.001140   0.000044  -0.000001
     7  N    0.000001   0.000872   0.002256  -0.000090   0.000000   0.000000
     8  C   -0.000007   0.000209   0.000382  -0.000062  -0.000001   0.000000
     9  C   -0.000001   0.000067  -0.000135  -0.000003   0.000000   0.000000
    10  N    0.000001   0.000001  -0.000001   0.000000   0.000000   0.000000
    11  C   -0.000993  -0.012990  -0.002446  -0.000032  -0.000015   0.000002
    12  C   -0.000253   0.000535  -0.000096  -0.000009   0.000001   0.000000
    13  N    0.025267   0.000066  -0.000001   0.000000   0.000000   0.000000
    14  N    0.000066   0.005477   0.005588   0.001195   0.000182  -0.000033
    15  C   -0.000001   0.005588   0.005171   0.007140   0.000193  -0.000127
    16  C    0.000000   0.001195   0.007140  -0.016361   0.000966   0.000281
    17  N    0.000000   0.000182   0.000193   0.000966   0.003370  -0.001001
    18  C    0.000000  -0.000033  -0.000127   0.000281  -0.001001   0.000897
    19  C    0.000000   0.000000  -0.000017  -0.000077  -0.000030   0.000196
    20  N    0.000000   0.000000   0.000000  -0.000001   0.000003  -0.000085
    21  C    0.000000   0.000000   0.000047   0.000419   0.000042  -0.001656
    22  C    0.000000   0.000000   0.000002   0.000086  -0.000002   0.000300
    23  N    0.000000   0.000000   0.000000   0.000001   0.000000   0.000027
    24  N    0.000000   0.000001   0.000044   0.000214   0.000060  -0.000302
    25  C    0.000000  -0.000174  -0.003203  -0.003161  -0.000715   0.000826
    26  C    0.000000   0.000073   0.003819  -0.001868   0.000058   0.000023
    27  N    0.000000   0.000000   0.000114  -0.000214   0.000001   0.000004
    28  C    0.000000   0.000000  -0.000020   0.000007   0.000000   0.000000
    29  C    0.000000   0.000000   0.000000   0.000002   0.000000   0.000000
    30  N    0.000000   0.000000   0.000000   0.000000   0.000000   0.000000
    31  Ag   0.000005   0.000148   0.001953   0.000454  -0.000007  -0.000036
              19         20         21         22         23         24
     1  N    0.000000   0.000000   0.000000   0.000000   0.000000   0.000000
     2  C    0.000000   0.000000   0.000000   0.000000   0.000000   0.000000
     3  C    0.000000   0.000000   0.000000   0.000000   0.000000  -0.000003
     4  N    0.000000   0.000000   0.000000   0.000000   0.000000  -0.000001
     5  C    0.000000   0.000000  -0.000055  -0.000003   0.000000  -0.000073
     6  C    0.000000   0.000000   0.000016   0.000001   0.000000  -0.000052
     7  N    0.000000   0.000000   0.000000   0.000000   0.000000   0.000000
     8  C    0.000000   0.000000   0.000000   0.000000   0.000000   0.000000
     9  C    0.000000   0.000000   0.000000   0.000000   0.000000   0.000000
    10  N    0.000000   0.000000   0.000000   0.000000   0.000000   0.000000
    11  C    0.000000   0.000000   0.000000   0.000000   0.000000   0.000000
    12  C    0.000000   0.000000   0.000000   0.000000   0.000000   0.000000
    13  N    0.000000   0.000000   0.000000   0.000000   0.000000   0.000000
    14  N    0.000000   0.000000   0.000000   0.000000   0.000000   0.000001
    15  C   -0.000017   0.000000   0.000047   0.000002   0.000000   0.000044
    16  C   -0.000077  -0.000001   0.000419   0.000086   0.000001   0.000214
    17  N   -0.000030   0.000003   0.000042  -0.000002   0.000000   0.000060
    18  C    0.000196  -0.000085  -0.001656   0.000300   0.000027  -0.000302
    19  C    0.000720  -0.000250  -0.000062   0.000014  -0.000002  -0.000020
    20  N   -0.000250  -0.000115   0.000010   0.000001   0.000000   0.000000
    21  C   -0.000062   0.000010   0.005091  -0.000076  -0.000060   0.001796
    22  C    0.000014   0.000001  -0.000076  -0.001793   0.000061   0.000015
    23  N   -0.000002   0.000000  -0.000060   0.000061   0.001563  -0.000007
    24  N   -0.000020   0.000000   0.001796   0.000015  -0.000007  -0.003803
    25  C    0.000048   0.000000  -0.001034   0.000003   0.000001  -0.006104
    26  C    0.000004   0.000000  -0.000173  -0.000038   0.000000   0.001438
    27  N    0.000000   0.000000   0.000002  -0.000016   0.000000   0.001013
    28  C    0.000000   0.000000   0.000000   0.000000   0.000000  -0.000051
    29  C    0.000000   0.000000   0.000000   0.000000   0.000000  -0.000003
    30  N    0.000000   0.000000   0.000000   0.000000   0.000000   0.000000
    31  Ag   0.000000   0.000000   0.000015  -0.000003   0.000000   0.000095
              25         26         27         28         29         30
     1  N    0.000000  -0.000005   0.000005  -0.000159  -0.000069   0.000003
     2  C   -0.000025  -0.000470   0.000311  -0.002533  -0.000064   0.000009
     3  C   -0.000459  -0.000087  -0.006449   0.028189  -0.003978  -0.000403
     4  N    0.000031   0.002754   0.001597  -0.000538   0.000145   0.000001
     5  C    0.003166   0.008040  -0.005460   0.000424  -0.000528  -0.000004
     6  C    0.000349  -0.004499  -0.000700   0.000060  -0.000003   0.000000
     7  N   -0.000048  -0.000103   0.000008  -0.000009   0.000000   0.000000
     8  C    0.000017  -0.000039   0.000000   0.000001   0.000000   0.000000
     9  C    0.000000   0.000001   0.000000   0.000000   0.000000   0.000000
    10  N    0.000000   0.000000   0.000000   0.000000   0.000000   0.000000
    11  C    0.000023   0.000000   0.000000   0.000000   0.000000   0.000000
    12  C    0.000000   0.000000   0.000000   0.000000   0.000000   0.000000
    13  N    0.000000   0.000000   0.000000   0.000000   0.000000   0.000000
    14  N   -0.000174   0.000073   0.000000   0.000000   0.000000   0.000000
    15  C   -0.003203   0.003819   0.000114  -0.000020   0.000000   0.000000
    16  C   -0.003161  -0.001868  -0.000214   0.000007   0.000002   0.000000
    17  N   -0.000715   0.000058   0.000001   0.000000   0.000000   0.000000
    18  C    0.000826   0.000023   0.000004   0.000000   0.000000   0.000000
    19  C    0.000048   0.000004   0.000000   0.000000   0.000000   0.000000
    20  N    0.000000   0.000000   0.000000   0.000000   0.000000   0.000000
    21  C   -0.001034  -0.000173   0.000002   0.000000   0.000000   0.000000
    22  C    0.000003  -0.000038  -0.000016   0.000000   0.000000   0.000000
    23  N    0.000001   0.000000   0.000000   0.000000   0.000000   0.000000
    24  N   -0.006104   0.001438   0.001013  -0.000051  -0.000003   0.000000
    25  C    0.050685   0.003887  -0.008586   0.001245   0.000219   0.000001
    26  C    0.003887  -0.089086  -0.010286   0.004039   0.000650   0.000001
    27  N   -0.008586  -0.010286   0.300136  -0.030757  -0.006569  -0.000064
    28  C    0.001245   0.004039  -0.030757  -0.027240  -0.002599  -0.001524
    29  C    0.000219   0.000650  -0.006569  -0.002599   0.017204  -0.002314
    30  N    0.000001   0.000001  -0.000064  -0.001524  -0.002314   0.001502
    31  Ag   0.000633  -0.003886   0.002129  -0.002379   0.000703   0.000089
              31
     1  N    0.000049
     2  C   -0.006469
     3  C   -0.033758
     4  N    0.050285
     5  C   -0.067044
     6  C   -0.017582
     7  N    0.006309
     8  C    0.001594
     9  C   -0.000709
    10  N   -0.000098
    11  C   -0.001133
    12  C   -0.000025
    13  N    0.000005
    14  N    0.000148
    15  C    0.001953
    16  C    0.000454
    17  N   -0.000007
    18  C   -0.000036
    19  C    0.000000
    20  N    0.000000
    21  C    0.000015
    22  C   -0.000003
    23  N    0.000000
    24  N    0.000095
    25  C    0.000633
    26  C   -0.003886
    27  N    0.002129
    28  C   -0.002379
    29  C    0.000703
    30  N    0.000089
    31  Ag   0.472968
 Mulliken charges and spin densities:
               1          2
     1  N    0.132484   0.039009
     2  C   -0.051381  -0.036883
     3  C   -0.076089   0.126932
     4  N   -0.213135   0.092472
     5  C   -0.028943   0.096578
     6  C    0.028022   0.033634
     7  N   -0.093444   0.064933
     8  C   -0.048105  -0.029241
     9  C   -0.061667   0.006688
    10  N    0.136176  -0.008982
    11  C   -0.079123   0.060241
    12  C   -0.060104  -0.019245
    13  N    0.131873   0.024083
    14  N   -0.056823  -0.000626
    15  C    0.029857   0.004636
    16  C    0.019416  -0.014117
    17  N   -0.055223   0.003094
    18  C   -0.065213  -0.000651
    19  C   -0.055520   0.000524
    20  N    0.134405  -0.000438
    21  C   -0.062823   0.004325
    22  C   -0.053459  -0.001449
    23  N    0.135541   0.001583
    24  N   -0.054771  -0.005741
    25  C    0.007189   0.037625
    26  C    0.059697  -0.085752
    27  N   -0.092875   0.236220
    28  C   -0.059154  -0.033847
    29  C   -0.066181   0.002796
    30  N    0.128448  -0.002702
    31  Ag   0.390925   0.404298
 Sum of Mulliken charges =   0.00000   1.00000
 Mulliken charges and spin densities with hydrogens summed into heavy atoms:
               1          2
     1  N    0.132484   0.039009
     2  C   -0.051381  -0.036883
     3  C   -0.076089   0.126932
     4  N   -0.213135   0.092472
     5  C   -0.028943   0.096578
     6  C    0.028022   0.033634
     7  N   -0.093444   0.064933
     8  C   -0.048105  -0.029241
     9  C   -0.061667   0.006688
    10  N    0.136176  -0.008982
    11  C   -0.079123   0.060241
    12  C   -0.060104  -0.019245
    13  N    0.131873   0.024083
    14  N   -0.056823  -0.000626
    15  C    0.029857   0.004636
    16  C    0.019416  -0.014117
    17  N   -0.055223   0.003094
    18  C   -0.065213  -0.000651
    19  C   -0.055520   0.000524
    20  N    0.134405  -0.000438
    21  C   -0.062823   0.004325
    22  C   -0.053459  -0.001449
    23  N    0.135541   0.001583
    24  N   -0.054771  -0.005741
    25  C    0.007189   0.037625
    26  C    0.059697  -0.085752
    27  N   -0.092875   0.236220
    28  C   -0.059154  -0.033847
    29  C   -0.066181   0.002796
    30  N    0.128448  -0.002702
    31  Ag   0.390925   0.404298
 Electronic spatial extent (au):  <R**2>=          13244.5153
 Charge=              0.0000 electrons
 Dipole moment (field-independent basis, Debye):
    X=             -2.6627    Y=              1.6163    Z=              3.2305  Tot=              4.4876
 Quadrupole moment (field-independent basis, Debye-Ang):
   XX=           -245.4194   YY=           -250.6230   ZZ=           -172.6014
   XY=             -9.3130   XZ=            -11.6407   YZ=             22.2594
 Traceless Quadrupole moment (field-independent basis, Debye-Ang):
   XX=            -22.5381   YY=            -27.7417   ZZ=             50.2798
   XY=             -9.3130   XZ=            -11.6407   YZ=             22.2594
 Octapole moment (field-independent basis, Debye-Ang**2):
  XXX=             97.1876  YYY=           -194.2990  ZZZ=            -78.8136  XYY=             48.5591
  XXY=             37.1348  XXZ=            -25.3413  XZZ=             27.2557  YZZ=            -29.9972
  YYZ=              0.1716  XYZ=            -18.7300
 Hexadecapole moment (field-independent basis, Debye-Ang**3):
 XXXX=         -11874.4703 YYYY=         -11599.3101 ZZZZ=           -759.8088 XXXY=            150.8102
 XXXZ=           -220.0727 YYYX=            165.8737 YYYZ=           1127.2141 ZZZX=            -45.0594
 ZZZY=            576.3894 XXYY=          -3881.4194 XXZZ=          -1610.8331 YYZZ=          -1633.0876
 XXYZ=            409.5897 YYXZ=            -91.6614 ZZXY=             65.3575
 N-N= 2.781474724647D+03 E-N=-8.989854270477D+03  KE= 1.385037194764D+03
                          Isotropic Fermi Contact Couplings
        Atom                 a.u.       MegaHertz       Gauss      10(-4) cm-1
     1  N(14)              0.00865       2.79408       0.99700       0.93200
     2  C(13)             -0.01355     -15.22846      -5.43389      -5.07967
     3  C(13)              0.02041      22.94712       8.18810       7.65433
     4  N(14)              0.07176      23.18592       8.27331       7.73399
     5  C(13)              0.01333      14.98819       5.34816       4.99952
     6  C(13)              0.00178       2.00000       0.71365       0.66713
     7  N(14)              0.02490       8.04595       2.87099       2.68384
     8  C(13)             -0.00884      -9.94343      -3.54806      -3.31677
     9  C(13)              0.00212       2.38036       0.84937       0.79400
    10  N(14)             -0.00193      -0.62344      -0.22246      -0.20796
    11  C(13)              0.01095      12.30456       4.39057       4.10436
    12  C(13)             -0.00676      -7.59604      -2.71046      -2.53377
    13  N(14)              0.00528       1.70443       0.60818       0.56854
    14  N(14)             -0.00073      -0.23599      -0.08421      -0.07872
    15  C(13)              0.00013       0.14442       0.05153       0.04817
    16  C(13)             -0.00321      -3.60483      -1.28629      -1.20244
    17  N(14)              0.00069       0.22151       0.07904       0.07389
    18  C(13)             -0.00039      -0.43681      -0.15586      -0.14570
    19  C(13)              0.00008       0.08874       0.03167       0.02960
    20  N(14)             -0.00005      -0.01553      -0.00554      -0.00518
    21  C(13)              0.00097       1.09244       0.38981       0.36440
    22  C(13)             -0.00050      -0.56275      -0.20080      -0.18771
    23  N(14)              0.00034       0.10885       0.03884       0.03631
    24  N(14)             -0.00238      -0.76842      -0.27419      -0.25632
    25  C(13)              0.00613       6.88760       2.45767       2.29746
    26  C(13)             -0.02183     -24.54131      -8.75695      -8.18610
    27  N(14)              0.06998      22.60992       8.06778       7.54186
    28  C(13)             -0.01573     -17.68790      -6.31148      -5.90005
    29  C(13)              0.00001       0.01218       0.00435       0.00406
    30  N(14)             -0.00056      -0.18087      -0.06454      -0.06033
    31  Ag(107             0.00016      -0.02999      -0.01070      -0.01000
 --------------------------------------------------------
       Center         ----  Spin Dipole Couplings  ----
                      3XX-RR        3YY-RR        3ZZ-RR
 --------------------------------------------------------
     1   Atom       -0.037652     -0.030878      0.068529
     2   Atom        0.005379      0.010122     -0.015501
     3   Atom       -0.076347     -0.061762      0.138109
     4   Atom       -0.098698     -0.076083      0.174781
     5   Atom       -0.062003     -0.053295      0.115299
     6   Atom       -0.032538     -0.028389      0.060927
     7   Atom       -0.067737     -0.069851      0.137588
     8   Atom        0.010329      0.014517     -0.024847
     9   Atom       -0.003576      0.000606      0.002970
    10   Atom        0.010937      0.004958     -0.015896
    11   Atom       -0.032686     -0.025268      0.057954
    12   Atom        0.000636      0.009614     -0.010250
    13   Atom       -0.019915     -0.023356      0.043271
    14   Atom       -0.004693     -0.000932      0.005625
    15   Atom       -0.007362     -0.000907      0.008269
    16   Atom        0.004813      0.005538     -0.010350
    17   Atom       -0.002363     -0.001981      0.004344
    18   Atom        0.000613      0.000609     -0.001222
    19   Atom        0.000017     -0.000076      0.000059
    20   Atom        0.000331      0.000537     -0.000868
    21   Atom       -0.001328     -0.001770      0.003098
    22   Atom        0.001369     -0.000141     -0.001228
    23   Atom       -0.001307     -0.001184      0.002491
    24   Atom        0.006455      0.005721     -0.012175
    25   Atom       -0.013483     -0.012354      0.025836
    26   Atom        0.032216      0.031033     -0.063250
    27   Atom       -0.254622     -0.233678      0.488299
    28   Atom        0.012624      0.004976     -0.017600
    29   Atom       -0.000774      0.000460      0.000314
    30   Atom       -0.001424      0.005742     -0.004318
    31   Atom       -0.004833     -0.007622      0.012456
 --------------------------------------------------------
                        XY            XZ            YZ
 --------------------------------------------------------
     1   Atom        0.004057     -0.004147      0.028651
     2   Atom       -0.010582      0.000618     -0.006362
     3   Atom       -0.000796     -0.007441      0.056819
     4   Atom        0.033063      0.162149      0.076825
     5   Atom       -0.000144     -0.001406      0.027315
     6   Atom        0.002567     -0.002764      0.013506
     7   Atom        0.007068      0.013952     -0.006618
     8   Atom        0.002089      0.000889     -0.009277
     9   Atom        0.001029     -0.000539      0.000888
    10   Atom        0.001402      0.000980     -0.003305
    11   Atom       -0.000925     -0.009380      0.020139
    12   Atom        0.004318      0.000134     -0.003904
    13   Atom       -0.003861     -0.006039      0.012750
    14   Atom       -0.000176     -0.002997      0.005245
    15   Atom       -0.001216     -0.000256      0.000765
    16   Atom       -0.001543      0.000727     -0.002925
    17   Atom       -0.001111      0.000135      0.001062
    18   Atom       -0.000695      0.000460     -0.000300
    19   Atom       -0.000415     -0.000043      0.000025
    20   Atom       -0.000386      0.000405      0.000006
    21   Atom       -0.001038     -0.000319      0.001162
    22   Atom       -0.000447      0.000170     -0.000245
    23   Atom       -0.000466     -0.000158      0.000905
    24   Atom       -0.001718      0.003112     -0.004103
    25   Atom       -0.001169     -0.001112      0.005456
    26   Atom        0.006548     -0.006399     -0.020241
    27   Atom       -0.009955     -0.055270      0.136523
    28   Atom       -0.008312     -0.012274     -0.003056
    29   Atom        0.000743      0.000659     -0.000077
    30   Atom        0.002487     -0.004241      0.003836
    31   Atom        0.008076     -0.005806     -0.006280
 --------------------------------------------------------


 ---------------------------------------------------------------------------------
              Anisotropic Spin Dipole Couplings in Principal Axis System
 ---------------------------------------------------------------------------------

       Atom             a.u.   MegaHertz   Gauss  10(-4) cm-1        Axes

              Baa    -0.0431    -1.664    -0.594    -0.555 -0.6775  0.7060 -0.2063
     1 N(14)  Bbb    -0.0331    -1.278    -0.456    -0.426  0.7351  0.6598 -0.1560
              Bcc     0.0763     2.942     1.050     0.981 -0.0260  0.2573  0.9660
 
              Baa    -0.0172    -2.304    -0.822    -0.769  0.0963  0.2612  0.9605
     2 C(13)  Bbb    -0.0023    -0.303    -0.108    -0.101  0.7951  0.5603 -0.2321
              Bcc     0.0194     2.607     0.930     0.870 -0.5988  0.7860 -0.1538
 
              Baa    -0.0778   -10.443    -3.726    -3.483 -0.6751  0.7074 -0.2094
     3 C(13)  Bbb    -0.0755   -10.138    -3.617    -3.382  0.7370  0.6591 -0.1496
              Bcc     0.1534    20.581     7.344     6.865 -0.0322  0.2553  0.9663
 
              Baa    -0.1741    -6.716    -2.396    -2.240  0.9040  0.0294 -0.4266
     4 N(14)  Bbb    -0.0962    -3.710    -1.324    -1.237 -0.1260  0.9716 -0.2001
              Bcc     0.2703    10.426     3.720     3.478  0.4086  0.2346  0.8820
 
              Baa    -0.0620    -8.322    -2.969    -2.776  0.9998 -0.0161  0.0104
     5 C(13)  Bbb    -0.0576    -7.731    -2.758    -2.579  0.0176  0.9876 -0.1559
              Bcc     0.1196    16.052     5.728     5.355 -0.0078  0.1560  0.9877
 
              Baa    -0.0346    -4.648    -1.658    -1.550  0.8218 -0.5604  0.1030
     6 C(13)  Bbb    -0.0283    -3.804    -1.357    -1.269  0.5693  0.8153 -0.1057
              Bcc     0.0630     8.452     3.016     2.819 -0.0247  0.1455  0.9890
 
              Baa    -0.0769    -2.965    -1.058    -0.989 -0.6717  0.7378  0.0665
     7 N(14)  Bbb    -0.0618    -2.385    -0.851    -0.795  0.7378  0.6743 -0.0292
              Bcc     0.1387     5.350     1.909     1.785  0.0664 -0.0294  0.9974
 
              Baa    -0.0270    -3.619    -1.291    -1.207 -0.0355  0.2198  0.9749
     8 C(13)  Bbb     0.0099     1.325     0.473     0.442  0.9638 -0.2504  0.0916
              Bcc     0.0171     2.295     0.819     0.765  0.2642  0.9429 -0.2029
 
              Baa    -0.0039    -0.522    -0.186    -0.174  0.9644 -0.2416  0.1070
     9 C(13)  Bbb     0.0006     0.083     0.030     0.028  0.2627  0.9209 -0.2879
              Bcc     0.0033     0.439     0.157     0.146 -0.0290  0.3057  0.9517
 
              Baa    -0.0165    -0.635    -0.226    -0.212 -0.0432  0.1551  0.9869
    10 N(14)  Bbb     0.0052     0.201     0.072     0.067 -0.2085  0.9647 -0.1608
              Bcc     0.0113     0.434     0.155     0.145  0.9771  0.2127  0.0094
 
              Baa    -0.0339    -4.555    -1.625    -1.519  0.9552 -0.2533  0.1530
    11 C(13)  Bbb    -0.0295    -3.964    -1.414    -1.322  0.2796  0.9418 -0.1868
              Bcc     0.0635     8.518     3.040     2.841 -0.0968  0.2212  0.9704
 
              Baa    -0.0111    -1.485    -0.530    -0.496 -0.0857  0.2020  0.9756
    12 C(13)  Bbb    -0.0009    -0.116    -0.041    -0.039  0.9325 -0.3285  0.1499
              Bcc     0.0119     1.601     0.571     0.534  0.3507  0.9227 -0.1603
 
              Baa    -0.0269    -1.036    -0.370    -0.346  0.3915  0.9107 -0.1319
    13 N(14)  Bbb    -0.0194    -0.749    -0.267    -0.250  0.9147 -0.3696  0.1633
              Bcc     0.0463     1.785     0.637     0.596 -0.0999  0.1845  0.9777
 
              Baa    -0.0060    -0.231    -0.082    -0.077  0.8447 -0.3710  0.3857
    14 N(14)  Bbb    -0.0031    -0.119    -0.042    -0.040  0.4985  0.8077 -0.3149
              Bcc     0.0091     0.350     0.125     0.117 -0.1947  0.4582  0.8672
 
              Baa    -0.0076    -1.018    -0.363    -0.339  0.9839  0.1784  0.0073
    15 C(13)  Bbb    -0.0008    -0.102    -0.036    -0.034 -0.1770  0.9802 -0.0881
              Bcc     0.0083     1.119     0.399     0.373 -0.0229  0.0854  0.9961
 
              Baa    -0.0109    -1.461    -0.521    -0.487 -0.0286  0.1727  0.9846
    16 C(13)  Bbb     0.0037     0.494     0.176     0.165  0.8216  0.5651 -0.0752
              Bcc     0.0072     0.966     0.345     0.322 -0.5694  0.8067 -0.1581
 
              Baa    -0.0034    -0.130    -0.047    -0.044  0.7392  0.6654 -0.1044
    17 N(14)  Bbb    -0.0011    -0.044    -0.016    -0.015 -0.6735  0.7286 -0.1246
              Bcc     0.0045     0.174     0.062     0.058 -0.0068  0.1624  0.9867
 
              Baa    -0.0013    -0.180    -0.064    -0.060 -0.2023  0.0780  0.9762
    18 C(13)  Bbb    -0.0001    -0.010    -0.004    -0.003  0.6806  0.7280  0.0829
              Bcc     0.0014     0.190     0.068     0.063  0.7042 -0.6812  0.2003
 
              Baa    -0.0004    -0.060    -0.021    -0.020  0.6671  0.7448  0.0192
    19 C(13)  Bbb     0.0001     0.007     0.002     0.002  0.0941 -0.1098  0.9895
              Bcc     0.0004     0.053     0.019     0.018  0.7390 -0.6583 -0.1433
 
              Baa    -0.0010    -0.039    -0.014    -0.013 -0.3117 -0.0822  0.9466
    20 N(14)  Bbb     0.0001     0.005     0.002     0.002  0.6958  0.6587  0.2863
              Bcc     0.0009     0.034     0.012     0.011 -0.6471  0.7479 -0.1482
 
              Baa    -0.0027    -0.363    -0.129    -0.121  0.5783  0.8055 -0.1296
    21 C(13)  Bbb    -0.0007    -0.097    -0.035    -0.032  0.8074 -0.5423  0.2324
              Bcc     0.0034     0.460     0.164     0.153 -0.1169  0.2390  0.9640
 
              Baa    -0.0013    -0.172    -0.061    -0.057 -0.0293  0.1986  0.9797
    22 C(13)  Bbb    -0.0002    -0.031    -0.011    -0.010  0.2831  0.9416 -0.1824
              Bcc     0.0015     0.203     0.072     0.068  0.9587 -0.2720  0.0838
 
              Baa    -0.0018    -0.069    -0.024    -0.023  0.6755  0.7260 -0.1289
    23 N(14)  Bbb    -0.0009    -0.036    -0.013    -0.012  0.7345 -0.6471  0.2043
              Bcc     0.0027     0.105     0.037     0.035 -0.0649  0.2326  0.9704
 
              Baa    -0.0134    -0.518    -0.185    -0.173 -0.1351  0.1959  0.9713
    24 N(14)  Bbb     0.0044     0.169     0.060     0.057  0.6844  0.7273 -0.0516
              Bcc     0.0090     0.349     0.124     0.116  0.7165 -0.6578  0.2323
 
              Baa    -0.0143    -1.925    -0.687    -0.642  0.7735  0.6305 -0.0642
    25 C(13)  Bbb    -0.0123    -1.650    -0.589    -0.550 -0.6330  0.7635 -0.1277
              Bcc     0.0266     3.575     1.276     1.192 -0.0315  0.1394  0.9897
 
              Baa    -0.0677    -9.079    -3.240    -3.028  0.0498  0.1975  0.9790
    26 C(13)  Bbb     0.0260     3.491     1.246     1.164  0.7654 -0.6373  0.0896
              Bcc     0.0416     5.588     1.994     1.864  0.6416  0.7449 -0.1829
 
              Baa    -0.2588    -9.982    -3.562    -3.330  0.7898 -0.5904  0.1663
    27 N(14)  Bbb    -0.2585    -9.971    -3.558    -3.326  0.6091  0.7869 -0.0988
              Bcc     0.5173    19.953     7.120     6.655 -0.0726  0.1793  0.9811
 
              Baa    -0.0231    -3.106    -1.108    -1.036  0.3600  0.2053  0.9101
    28 C(13)  Bbb     0.0030     0.396     0.141     0.132  0.3363  0.8813 -0.3319
              Bcc     0.0202     2.709     0.967     0.904  0.8702 -0.4256 -0.2482
 
              Baa    -0.0014    -0.183    -0.065    -0.061  0.8603 -0.3656 -0.3552
    29 C(13)  Bbb     0.0004     0.060     0.021     0.020  0.0963 -0.5678  0.8175
              Bcc     0.0009     0.123     0.044     0.041  0.5006  0.7375  0.4533
 
              Baa    -0.0088    -0.339    -0.121    -0.113  0.5501 -0.2999  0.7794
    30 N(14)  Bbb     0.0016     0.062     0.022     0.021  0.8224  0.0323 -0.5680
              Bcc     0.0072     0.277     0.099     0.092  0.1451  0.9534  0.2644
 
              Baa    -0.0145     0.314     0.112     0.105 -0.6246  0.7795  0.0471
    31 Ag(107 Bbb    -0.0027     0.059     0.021     0.020  0.6966  0.5289  0.4847
              Bcc     0.0172    -0.373    -0.133    -0.125 -0.3529 -0.3356  0.8734
 

 ---------------------------------------------------------------------------------

 No NMR shielding tensors so no spin-rotation constants.
 Leave Link  601 at Sat Sep 12 01:21:42 2026, MaxMem=  6442450944 cpu:               2.0 elap:               1.8
 (Enter C:\G16W\l9999.exe)
 Unable to Open any file for archive entry.
 1|1|UNPC-DESKTOP-2JKEGCA|SP|UPBE1PBE|def2SVP|C18Ag1N12(2)|JHKIM|12-Sep
 -2026|0||#P PBE1PBE/Def2SVP EmpiricalDispersion=GD3BJ SP SCF=(XQC,MaxC
 ycle=128) NoSymm Guess=Read||HATCN t=1.000 dz=+0.00 class=site2site||0
 ,2|N,0,-2.611348,5.399985,-1.155538|C,0,-1.91032,4.498728,-0.947808|C,
 0,-1.020781,3.405143,-0.693573|N,0,-1.60315,2.191496,-0.499794|C,0,-0.
 81575,1.110993,-0.253581|C,0,-1.393339,-0.141391,-0.052273|N,0,-2.7444
 45,-0.283235,-0.102199|C,0,-3.289096,-1.51343,0.096812|C,0,-4.717936,-
 1.589392,0.03004|N,0,-5.874228,-1.675402,-0.019378|C,0,-2.494073,-2.60
 3514,0.345437|C,0,-3.019195,-3.918595,0.561413|N,0,-3.467734,-4.975035
 ,0.733469|N,0,-1.140539,-2.482394,0.399369|C,0,-0.576747,-1.261039,0.2
 03066|C,0,0.80853,-1.116108,0.254224|N,0,1.59673,-2.195985,0.500607|C,
 0,2.946318,-2.03432,0.546556|C,0,3.714722,-3.214024,0.810558|N,0,4.358
 155,-4.156189,1.023098|C,0,3.51485,-0.801628,0.348106|C,0,4.929519,-0.
 580153,0.386379|N,0,6.079085,-0.424992,0.422118|N,0,2.743704,0.29089,0
 .100372|C,0,1.392486,0.150039,0.050519|C,0,0.584785,1.257497,-0.201933
 |N,0,1.147692,2.479234,-0.398398|C,0,0.342769,3.547761,-0.64334|C,0,1.
 003212,4.803441,-0.840583|N,0,1.516124,5.83162,-1.003743|Ag,0,-2.29125
 972,2.20907627,1.69478946||Version=EM64W-G16RevC.01|HF=-1487.2189585|S
 2=0.764792|S2-1=0.|S2A=0.750162|RMSD=6.570e-009|Dipole=-1.0475918,0.63
 59113,1.2709824|Quadrupole=-16.7565517,-20.6252809,37.3818326,-6.92399
 18,-8.6545428,16.5493026|PG=C01 [X(C18Ag1N12)]||@
 The archive entry for this job was punched.


 IBM COMPATIBILITY IS LIKE PREGNANCY. YOU ARE OR
 OR YOU ARE NOT. -- ADAM OSBORNE
 Job cpu time:       0 days  0 hours 12 minutes 36.0 seconds.
 Elapsed time:       0 days  0 hours 12 minutes 34.1 seconds.
 File lengths (MBytes):  RWF=    192 Int=      0 D2E=      0 Chk=     15 Scr=      1
 Normal termination of Gaussian 16 at Sat Sep 12 01:21:43 2026.
