 Entering Gaussian System, Link 0=C:\G16W\g16.exe
 Input=HATCN_t0_z0.gjf
 Output=HATCN_t0_z0.out
 Initial command:
 C:\G16W\l1.exe ".\Gau-148148.inp" "HATCN_t0_z0.out" /scrdir=".\"
 Entering Link 1 = C:\G16W\l1.exe PID=    134012.
  
 Copyright (c) 1988-2019, Gaussian, Inc.  All Rights Reserved.
  
 This is part of the Gaussian(R) 16 program.  It is based on
 the Gaussian(R) 09 system (copyright 2009, Gaussian, Inc.),
 the Gaussian(R) 03 system (copyright 2003, Gaussian, Inc.),
 the Gaussian(R) 98 system (copyright 1998, Gaussian, Inc.),
 the Gaussian(R) 94 system (copyright 1995, Gaussian, Inc.),
 the Gaussian 92(TM) system (copyright 1992, Gaussian, Inc.),
 the Gaussian 90(TM) system (copyright 1990, Gaussian, Inc.),
 the Gaussian 88(TM) system (copyright 1988, Gaussian, Inc.),
 the Gaussian 86(TM) system (copyright 1986, Carnegie Mellon
 University), and the Gaussian 82(TM) system (copyright 1983,
 Carnegie Mellon University). Gaussian is a federally registered
 trademark of Gaussian, Inc.
  
 This software contains proprietary and confidential information,
 including trade secrets, belonging to Gaussian, Inc.
  
 This software is provided under written license and may be
 used, copied, transmitted, or stored only in accord with that
 written license.
  
 The following legend is applicable only to US Government
 contracts under FAR:
  
                    RESTRICTED RIGHTS LEGEND
  
 Use, reproduction and disclosure by the US Government is
 subject to restrictions as set forth in subparagraphs (a)
 and (c) of the Commercial Computer Software - Restricted
 Rights clause in FAR 52.227-19.
  
 Gaussian, Inc.
 340 Quinnipiac St., Bldg. 40, Wallingford CT 06492
  
  
 ---------------------------------------------------------------
 Warning -- This program may not be used in any manner that
 competes with the business of Gaussian, Inc. or will provide
 assistance to any competitor of Gaussian, Inc.  The licensee
 of this program is prohibited from giving any competitor of
 Gaussian, Inc. access to this program.  By using this program,
 the user acknowledges that Gaussian, Inc. is engaged in the
 business of creating and licensing software in the field of
 computational chemistry and represents and warrants to the
 licensee that it is not a competitor of Gaussian, Inc. and that
 it will not use this program in any manner prohibited above.
 ---------------------------------------------------------------
  

 Cite this work as:
 Gaussian 16, Revision C.01,
 M. J. Frisch, G. W. Trucks, H. B. Schlegel, G. E. Scuseria, 
 M. A. Robb, J. R. Cheeseman, G. Scalmani, V. Barone, 
 G. A. Petersson, H. Nakatsuji, X. Li, M. Caricato, A. V. Marenich, 
 J. Bloino, B. G. Janesko, R. Gomperts, B. Mennucci, H. P. Hratchian, 
 J. V. Ortiz, A. F. Izmaylov, J. L. Sonnenberg, D. Williams-Young, 
 F. Ding, F. Lipparini, F. Egidi, J. Goings, B. Peng, A. Petrone, 
 T. Henderson, D. Ranasinghe, V. G. Zakrzewski, J. Gao, N. Rega, 
 G. Zheng, W. Liang, M. Hada, M. Ehara, K. Toyota, R. Fukuda, 
 J. Hasegawa, M. Ishida, T. Nakajima, Y. Honda, O. Kitao, H. Nakai, 
 T. Vreven, K. Throssell, J. A. Montgomery, Jr., J. E. Peralta, 
 F. Ogliaro, M. J. Bearpark, J. J. Heyd, E. N. Brothers, K. N. Kudin, 
 V. N. Staroverov, T. A. Keith, R. Kobayashi, J. Normand, 
 K. Raghavachari, A. P. Rendell, J. C. Burant, S. S. Iyengar, 
 J. Tomasi, M. Cossi, J. M. Millam, M. Klene, C. Adamo, R. Cammi, 
 J. W. Ochterski, R. L. Martin, K. Morokuma, O. Farkas, 
 J. B. Foresman, and D. J. Fox, Gaussian, Inc., Wallingford CT, 2019.
 
 ******************************************
 Gaussian 16:  EM64W-G16RevC.01 30-May-2019
                11-Sep-2026 
 ******************************************
 %Chk=HATCN.chk
 %NProcShared=8
 Will use up to    8 processors via shared memory.
 %Mem=48GB
 ----------------------------------------------------------------------
 #P PBE1PBE/Def2SVP EmpiricalDispersion=GD3BJ SP SCF=(XQC,MaxCycle=128,
 VShift=300) NoSymm
 ----------------------------------------------------------------------
 1/38=1,172=1/1;
 2/12=2,15=1,17=6,18=5,40=1/2;
 3/5=43,7=101,11=2,25=1,30=1,74=-13,124=41/1,2,3;
 4//1;
 5/5=2,7=128,8=3,10=300,13=1,38=5/2,8;
 6/7=2,8=2,9=2,10=2,28=1/1;
 99/5=1,9=1/99;
 Leave Link    1 at Fri Sep 11 21:24:13 2026, MaxMem=  6442450944 cpu:               0.0 elap:               0.2
 (Enter C:\G16W\l101.exe)
 --------------------------------------
 HATCN t=0.000 dz=+0.00 class=site2site
 --------------------------------------
 Symbolic Z-matrix:
 Charge =  0 Multiplicity = 2
 N                    -2.61135   5.39999  -1.15554 
 C                    -1.91032   4.49873  -0.94781 
 C                    -1.02078   3.40514  -0.69357 
 N                    -1.60315   2.1915   -0.49979 
 C                    -0.81575   1.11099  -0.25358 
 C                    -1.39334  -0.14139  -0.05227 
 N                    -2.74445  -0.28324  -0.1022 
 C                    -3.2891   -1.51343   0.09681 
 C                    -4.71794  -1.58939   0.03004 
 N                    -5.87423  -1.6754   -0.01938 
 C                    -2.49407  -2.60351   0.34544 
 C                    -3.01919  -3.9186    0.56141 
 N                    -3.46773  -4.97504   0.73347 
 N                    -1.14054  -2.48239   0.39937 
 C                    -0.57675  -1.26104   0.20307 
 C                     0.80853  -1.11611   0.25422 
 N                     1.59673  -2.19599   0.50061 
 C                     2.94632  -2.03432   0.54656 
 C                     3.71472  -3.21402   0.81056 
 N                     4.35816  -4.15619   1.0231 
 C                     3.51485  -0.80163   0.34811 
 C                     4.92952  -0.58015   0.38638 
 N                     6.07909  -0.42499   0.42212 
 N                     2.7437    0.29089   0.10037 
 C                     1.39249   0.15004   0.05052 
 C                     0.58479   1.2575   -0.20193 
 N                     1.14769   2.47923  -0.3984 
 C                     0.34277   3.54776  -0.64334 
 C                     1.00321   4.80344  -0.84058 
 N                     1.51612   5.83162  -1.00374 
 Ag                   -4.00067   7.18613  -1.56722 
 
 ITRead=  0  0  0  0  0  0  0  0  0  0  0  0  0  0  0  0  0  0  0  0
 ITRead=  0  0  0  0  0  0  0  0  0  0  0
 MicOpt= -1 -1 -1 -1 -1 -1 -1 -1 -1 -1 -1 -1 -1 -1 -1 -1 -1 -1 -1 -1
 MicOpt= -1 -1 -1 -1 -1 -1 -1 -1 -1 -1 -1
 NAtoms=     31 NQM=       31 NQMF=       0 NMMI=      0 NMMIF=      0
                NMic=       0 NMicF=      0.
                    Isotopes and Nuclear Properties:
 (Nuclear quadrupole moments (NQMom) in fm**2, nuclear magnetic moments (NMagM)
  in nuclear magnetons)

  Atom         1           2           3           4           5           6           7           8           9          10
 IAtWgt=          14          12          12          14          12          12          14          12          12          14
 AtmWgt=  14.0030740  12.0000000  12.0000000  14.0030740  12.0000000  12.0000000  14.0030740  12.0000000  12.0000000  14.0030740
 NucSpn=           2           0           0           2           0           0           2           0           0           2
 AtZEff=   0.0000000   0.0000000   0.0000000   0.0000000   0.0000000   0.0000000   0.0000000   0.0000000   0.0000000   0.0000000
 NQMom=    2.0440000   0.0000000   0.0000000   2.0440000   0.0000000   0.0000000   2.0440000   0.0000000   0.0000000   2.0440000
 NMagM=    0.4037610   0.0000000   0.0000000   0.4037610   0.0000000   0.0000000   0.4037610   0.0000000   0.0000000   0.4037610
 AtZNuc=   7.0000000   6.0000000   6.0000000   7.0000000   6.0000000   6.0000000   7.0000000   6.0000000   6.0000000   7.0000000

  Atom        11          12          13          14          15          16          17          18          19          20
 IAtWgt=          12          12          14          14          12          12          14          12          12          14
 AtmWgt=  12.0000000  12.0000000  14.0030740  14.0030740  12.0000000  12.0000000  14.0030740  12.0000000  12.0000000  14.0030740
 NucSpn=           0           0           2           2           0           0           2           0           0           2
 AtZEff=   0.0000000   0.0000000   0.0000000   0.0000000   0.0000000   0.0000000   0.0000000   0.0000000   0.0000000   0.0000000
 NQMom=    0.0000000   0.0000000   2.0440000   2.0440000   0.0000000   0.0000000   2.0440000   0.0000000   0.0000000   2.0440000
 NMagM=    0.0000000   0.0000000   0.4037610   0.4037610   0.0000000   0.0000000   0.4037610   0.0000000   0.0000000   0.4037610
 AtZNuc=   6.0000000   6.0000000   7.0000000   7.0000000   6.0000000   6.0000000   7.0000000   6.0000000   6.0000000   7.0000000

  Atom        21          22          23          24          25          26          27          28          29          30
 IAtWgt=          12          12          14          14          12          12          14          12          12          14
 AtmWgt=  12.0000000  12.0000000  14.0030740  14.0030740  12.0000000  12.0000000  14.0030740  12.0000000  12.0000000  14.0030740
 NucSpn=           0           0           2           2           0           0           2           0           0           2
 AtZEff=   0.0000000   0.0000000   0.0000000   0.0000000   0.0000000   0.0000000   0.0000000   0.0000000   0.0000000   0.0000000
 NQMom=    0.0000000   0.0000000   2.0440000   2.0440000   0.0000000   0.0000000   2.0440000   0.0000000   0.0000000   2.0440000
 NMagM=    0.0000000   0.0000000   0.4037610   0.4037610   0.0000000   0.0000000   0.4037610   0.0000000   0.0000000   0.4037610
 AtZNuc=   6.0000000   6.0000000   7.0000000   7.0000000   6.0000000   6.0000000   7.0000000   6.0000000   6.0000000   7.0000000

  Atom        31
 IAtWgt=         107
 AtmWgt= 106.9050900
 NucSpn=           1
 AtZEff=   0.0000000
 NQMom=    0.0000000
 NMagM=   -0.1135700
 AtZNuc=  47.0000000
 Leave Link  101 at Fri Sep 11 21:24:14 2026, MaxMem=  6442450944 cpu:               1.0 elap:               0.2
 (Enter C:\G16W\l202.exe)
                          Input orientation:                          
 ---------------------------------------------------------------------
 Center     Atomic      Atomic             Coordinates (Angstroms)
 Number     Number       Type             X           Y           Z
 ---------------------------------------------------------------------
      1          7           0       -2.611348    5.399985   -1.155538
      2          6           0       -1.910320    4.498728   -0.947808
      3          6           0       -1.020781    3.405143   -0.693573
      4          7           0       -1.603150    2.191496   -0.499794
      5          6           0       -0.815750    1.110993   -0.253581
      6          6           0       -1.393339   -0.141391   -0.052273
      7          7           0       -2.744445   -0.283235   -0.102199
      8          6           0       -3.289096   -1.513430    0.096812
      9          6           0       -4.717936   -1.589392    0.030040
     10          7           0       -5.874228   -1.675402   -0.019378
     11          6           0       -2.494073   -2.603514    0.345437
     12          6           0       -3.019195   -3.918595    0.561413
     13          7           0       -3.467734   -4.975035    0.733469
     14          7           0       -1.140539   -2.482394    0.399369
     15          6           0       -0.576747   -1.261039    0.203066
     16          6           0        0.808530   -1.116108    0.254224
     17          7           0        1.596730   -2.195985    0.500607
     18          6           0        2.946318   -2.034320    0.546556
     19          6           0        3.714722   -3.214024    0.810558
     20          7           0        4.358155   -4.156189    1.023098
     21          6           0        3.514850   -0.801628    0.348106
     22          6           0        4.929519   -0.580153    0.386379
     23          7           0        6.079085   -0.424992    0.422118
     24          7           0        2.743704    0.290890    0.100372
     25          6           0        1.392486    0.150039    0.050519
     26          6           0        0.584785    1.257497   -0.201933
     27          7           0        1.147692    2.479234   -0.398398
     28          6           0        0.342769    3.547761   -0.643340
     29          6           0        1.003212    4.803441   -0.840583
     30          7           0        1.516124    5.831620   -1.003743
     31         47           0       -4.000669    7.186127   -1.567223
 ---------------------------------------------------------------------
                    Distance matrix (angstroms):
                    1          2          3          4          5
     1  N    0.000000
     2  C    1.160541   0.000000
     3  C    2.592819   1.432426   0.000000
     4  N    3.426495   2.370314   1.360016   0.000000
     5  C    4.736365   3.627228   2.344942   1.359451   0.000000
     6  C    5.779930   4.753941   3.623254   2.384671   1.393772
     7  N    5.781542   4.927270   4.113985   2.754075   2.384670
     8  C    7.058543   6.256061   5.473785   4.113980   3.623232
     9  C    7.395586   6.775256   6.256033   4.927244   4.753901
    10  N    7.873903   7.395568   7.058500   5.781506   5.779883
    11  C    8.143874   7.242589   6.273284   4.949776   4.119849
    12  C    9.484208   8.623148   7.694530   6.361176   5.551229
    13  N   10.580302   9.747021   8.845983   7.507115   6.711708
    14  N    8.167797   7.151469   5.989320   4.782024   3.666642
    15  C    7.096101   6.023109   4.772251   3.669811   2.427382
    16  C    7.492827   6.353220   4.968542   4.162330   2.802879
    17  N    8.840220   7.695225   6.296830   5.521777   4.162327
    18  C    9.436825   8.276519   6.845696   6.296827   4.968538
    19  C   10.866731   9.706673   8.276519   7.695221   6.353215
    20  N   12.026674  10.866731   9.436824   8.840218   7.492824
    21  C    8.845974   7.694520   6.273274   5.989295   4.772237
    22  C    9.747012   8.623137   7.242579   7.151441   6.023092
    23  N   10.580311   9.484214   8.143881   8.167782   7.096095
    24  N    7.507113   6.361173   4.949775   4.782012   3.669818
    25  C    6.711721   5.551241   4.119858   3.666637   2.427389
    26  C    5.318349   4.157819   2.726158   2.397527   1.409124
    27  N    4.820210   3.705623   2.376281   2.767708   2.397532
    28  C    3.524186   2.464437   1.371908   2.376270   2.726154
    29  C    3.676970   2.931385   2.464426   3.705606   4.157808
    30  N    4.152755   3.676989   3.524185   4.820201   5.318336
    31  Ag   2.300000   3.460541   4.892733   5.642149   6.984026
                    6          7          8          9         10
     6  C    0.000000
     7  N    1.359448   0.000000
     8  C    2.344912   1.360011   0.000000
     9  C    3.627179   2.370274   1.432415   0.000000
    10  N    4.736311   3.426446   2.592806   1.160539   0.000000
    11  C    2.726140   2.376291   1.371918   2.464444   3.524192
    12  C    4.157798   3.705632   2.464451   2.931427   3.677016
    13  N    5.318329   4.820215   3.524195   3.677009   4.152779
    14  N    2.397537   2.767740   2.376285   3.705621   4.820207
    15  C    1.409125   2.397541   2.726138   4.157788   5.318316
    16  C    2.427394   3.666653   4.119852   5.551224   6.711700
    17  N    3.669815   4.782028   4.949770   6.361163   7.507104
    18  C    4.772253   5.989321   6.273275   7.694514   8.845967
    19  C    6.023109   7.151468   7.242577   8.623129   9.747005
    20  N    7.096105   8.167802   8.143871   9.484199  10.580299
    21  C    4.968555   6.296847   6.845691   8.276503   9.436806
    22  C    6.353224   7.695232   8.276502   9.706644  10.866700
    23  N    7.492836   8.840231   9.436808  10.866702  12.026643
    24  N    4.162366   5.521814   6.296845   7.695224   8.840215
    25  C    2.802913   4.162361   4.968549   6.353212   7.492813
    26  C    2.427398   3.669819   4.772236   6.023075   7.096060
    27  N    3.666649   4.782018   5.989298   7.151424   8.167742
    28  C    4.119863   4.949773   6.273270   7.242549   8.143820
    29  C    5.551239   6.361165   7.694510   8.623099   9.484143
    30  N    6.711716   7.507109   8.845966   9.746981  10.580248
    31  Ag   7.923747   7.714646   8.885811   8.948489   9.188729
                   11         12         13         14         15
    11  C    0.000000
    12  C    1.432423   0.000000
    13  N    2.592816   1.160541   0.000000
    14  N    1.360012   2.370291   3.426473   0.000000
    15  C    2.344920   3.627198   4.736338   1.359450   0.000000
    16  C    3.623242   4.753922   5.779916   2.384675   1.393777
    17  N    4.113979   4.927255   5.781534   2.754073   2.384671
    18  C    5.473782   6.256042   7.058527   4.113980   3.623249
    19  C    6.256053   6.775259   7.395592   4.927263   4.753936
    20  N    7.058545   7.395600   7.873940   5.781545   5.779931
    21  C    6.273273   7.242564   8.143851   4.949773   4.119862
    22  C    7.694504   8.623102   9.484161   6.361155   5.551232
    23  N    8.845953   9.746967  10.580245   7.507089   6.711711
    24  N    5.989319   7.151456   8.167787   4.782034   3.666664
    25  C    4.772250   6.023099   7.096093   3.669825   2.427404
    26  C    4.968540   6.353212   7.492819   4.162342   2.802892
    27  N    6.296830   7.695219   8.840215   5.521792   4.162342
    28  C    6.845695   8.276515   9.436821   6.296842   4.968548
    29  C    8.276511   9.706661  10.866719   7.695228   6.353219
    30  N    9.436814  10.866716  12.026659   8.840216   7.492817
    31  Ag  10.087872  11.349416  12.388344  10.272688   9.285030
                   16         17         18         19         20
    16  C    0.000000
    17  N    1.359448   0.000000
    18  C    2.344933   1.360013   0.000000
    19  C    3.627218   2.370309   1.432426   0.000000
    20  N    4.736359   3.426495   2.592818   1.160540   0.000000
    21  C    2.726147   2.376273   1.371911   2.464440   3.524182
    22  C    4.157795   3.705596   2.464416   2.931371   3.676942
    23  N    5.318325   4.820175   3.524152   3.676928   4.152663
    24  N    2.397543   2.767722   2.376286   3.705626   4.820206
    25  C    1.409123   2.397524   2.726146   4.157807   5.318336
    26  C    2.427373   3.666624   4.119846   5.551229   6.711708
    27  N    3.669800   4.781999   4.949764   6.361164   7.507101
    28  C    4.772235   5.989295   6.273273   7.694519   8.845970
    29  C    6.023086   7.151435   7.242568   8.623126   9.746995
    30  N    7.096062   8.167742   8.143826   9.484155  10.580244
    31  Ag   9.765919  11.118940  11.736496  13.166026  14.325775
                   21         22         23         24         25
    21  C    0.000000
    22  C    1.432412   0.000000
    23  N    2.592804   1.160540   0.000000
    24  N    1.360012   2.370296   3.426481   0.000000
    25  C    2.344922   3.627201   4.736344   1.359454   0.000000
    26  C    3.623233   4.753923   5.779926   2.384670   1.393763
    27  N    4.113971   4.927265   5.781558   2.754065   2.384659
    28  C    5.473778   6.256059   7.058561   4.113977   3.623239
    29  C    6.256046   6.775279   7.395635   4.927253   4.753919
    30  N    7.058497   7.395576   7.873937   5.781497   5.779889
    31  Ag  11.133541  11.994996  12.786245   9.788347   9.011645
                   26         27         28         29         30
    26  C    0.000000
    27  N    1.359450   0.000000
    28  C    2.344935   1.360017   0.000000
    29  C    3.627213   2.370304   1.432418   0.000000
    30  N    4.736337   3.426467   2.592810   1.160540   0.000000
    31  Ag   7.618337   7.072949   5.740794   5.589635   5.708520
                   31
    31  Ag   0.000000
 Symmetry turned off by external request.
 Stoichiometry    C18AgN12(2)
 Framework group  C1[X(C18AgN12)]
 Deg. of freedom    87
 Full point group                 C1      NOp   1
 Rotational constants (GHZ):           0.1520852           0.0550201           0.0404033
 Leave Link  202 at Fri Sep 11 21:24:14 2026, MaxMem=  6442450944 cpu:               0.0 elap:               0.1
 (Enter C:\G16W\l301.exe)
 Standard basis: def2SVP (5D, 7F)
 Ernie: Thresh=  0.10000D-02 Tol=  0.10000D-05 Strict=F.
   451 basis functions,   815 primitive gaussians,   486 cartesian basis functions
   106 alpha electrons      105 beta electrons
       nuclear repulsion energy      2617.4473797021 Hartrees.
 IExCor= 1009 DFT=T Ex+Corr=PBE1PBE ExCW=0 ScaHFX=  0.250000
 ScaDFX=  0.750000  0.750000  1.000000  1.000000 ScalE2=  1.000000  1.000000
 IRadAn=      5 IRanWt=     -1 IRanGd=            0 ICorTp=0 IEmpDi=141
 NAtoms=   31 NActive=   31 NUniq=   31 SFac= 1.00D+00 NAtFMM=   60 NAOKFM=F Big=F
 Integral buffers will be    131072 words long.
 Raffenetti 2 integral format.
 Two-electron integral symmetry is turned off.
 R6Disp:  Grimme-D3(BJ) Dispersion energy=       -0.0482110043 Hartrees.
 Nuclear repulsion after empirical dispersion term =     2617.3991686978 Hartrees.
 Leave Link  301 at Fri Sep 11 21:24:14 2026, MaxMem=  6442450944 cpu:               0.0 elap:               0.2
 (Enter C:\G16W\l302.exe)
 NPDir=0 NMtPBC=     1 NCelOv=     1 NCel=       1 NClECP=     1 NCelD=      1
         NCelK=      1 NCelE2=     1 NClLst=     1 CellRange=     0.0.
 One-electron integrals computed using PRISM.
   1 Symmetry operations used in ECPInt.
 ECPInt:  NShTT=   18336 NPrTT=   72415 LenC2=   14868 LenP2D=   37724.
 LDataN:  DoStor=T MaxTD1= 7 Len=  274
 NBasis=   451 RedAO= T EigKep=  2.13D-05  NBF=   451
 NBsUse=   451 1.00D-06 EigRej= -1.00D+00 NBFU=   451
 Precomputing XC quadrature grid using
 IXCGrd= 4 IRadAn=           5 IRanWt=          -1 IRanGd=           0 AccXCQ= 0.00D+00.
 Defaulting to unpruned grid for atomic number  47.
 Generated NRdTot=       0 NPtTot=           0 NUsed=           0 NTot=          32
 NSgBfM=   474   474   474   474   474 MxSgAt=    31 MxSgA2=    31.
 Leave Link  302 at Fri Sep 11 21:24:23 2026, MaxMem=  6442450944 cpu:               9.0 elap:               8.7
 (Enter C:\G16W\l303.exe)
 DipDrv:  MaxL=1.
 Leave Link  303 at Fri Sep 11 21:24:25 2026, MaxMem=  6442450944 cpu:               2.0 elap:               2.2
 (Enter C:\G16W\l401.exe)
 ExpMin= 3.75D-02 ExpMax= 1.71D+03 ExpMxC= 2.58D+02 IAcc=3 IRadAn=         5 AccDes= 0.00D+00
 Harris functional with IExCor= 1009 and IRadAn=       5 diagonalized for initial guess.
 HarFok:  IExCor= 1009 AccDes= 0.00D+00 IRadAn=         5 IDoV= 1 UseB2=F ITyADJ=14
 ICtDFT=  3500011 ScaDFX=  1.000000  1.000000  1.000000  1.000000
 Defaulting to unpruned grid for atomic number  47.
 FoFCou: FMM=F IPFlag=           0 FMFlag=      100000 FMFlg1=           0
         NFxFlg=           0 DoJE=T BraDBF=F KetDBF=T FulRan=T
         wScrn=  0.000000 ICntrl=       500 IOpCl=  0 I1Cent=   200000004 NGrid=           0
         NMat0=    1 NMatS0=      1 NMatT0=    0 NMatD0=    1 NMtDS0=    0 NMtDT0=    0
 Symmetry not used in FoFCou.
 Harris En= -1487.67167822112    
 JPrj=0 DoOrth=F DoCkMO=F.
 Initial guess <Sx>= 0.0000 <Sy>= 0.0000 <Sz>= 0.5000 <S**2>= 0.7500 S= 0.5000
 Leave Link  401 at Fri Sep 11 21:24:39 2026, MaxMem=  6442450944 cpu:              14.0 elap:              13.6
 (Enter C:\G16W\l502.exe)
 Two-electron integral symmetry not used.
 UHF open shell SCF:
 Using DIIS extrapolation, IDIIS=  1040.
 NGot=  6442450944 LenX=  6441970456 LenY=  6441733774
 Requested convergence on RMS density matrix=1.00D-08 within 128 cycles.
 Requested convergence on MAX density matrix=1.00D-06.
 Requested convergence on             energy=1.00D-06.
 Virtual orbitals will be shifted by   0.300 hartree.
 No special actions if energy rises.
 Fock matrices will be formed incrementally for  20 cycles.

 Cycle   1  Pass 1  IDiag  1:
 FoFJK:  IHMeth= 1 ICntrl=       0 DoSepK=F KAlg= 0 I1Cent=           0 FoldK=F
 IRaf= 720000000 NMat=       1 IRICut=       1 DoRegI=T DoRafI=F ISym2E= 0 IDoP0=0 IntGTp=1.
 FoFCou: FMM=F IPFlag=           0 FMFlag=      100000 FMFlg1=           0
         NFxFlg=           0 DoJE=F BraDBF=F KetDBF=F FulRan=T
         wScrn=  0.000000 ICntrl=         0 IOpCl=  1 I1Cent=           0 NGrid=           0
         NMat0=    1 NMatS0=      1 NMatT0=    0 NMatD0=    1 NMtDS0=    0 NMtDT0=    0
 Symmetry not used in FoFCou.
 Defaulting to unpruned grid for atomic number  47.
 Defaulting to unpruned grid for atomic number  47.
 Defaulting to unpruned grid for atomic number  47.
 Defaulting to unpruned grid for atomic number  47.
 Defaulting to unpruned grid for atomic number  47.
 Defaulting to unpruned grid for atomic number  47.
 Defaulting to unpruned grid for atomic number  47.
 Defaulting to unpruned grid for atomic number  47.
 E= -1486.80445824594    
 DIIS: error= 6.09D-02 at cycle   1 NSaved=   1.
 NSaved= 1 IEnMin= 1 EnMin= -1486.80445824594     IErMin= 1 ErrMin= 6.09D-02
 ErrMax= 6.09D-02  0.00D+00 EMaxC= 1.00D-01 BMatC= 1.62D+00 BMatP= 1.62D+00
 IDIUse=3 WtCom= 3.91D-01 WtEn= 6.09D-01
 Coeff-Com:  0.100D+01
 Coeff-En:   0.100D+01
 Coeff:      0.100D+01
 Gap=     0.021 Goal=   None    Shift=    0.300
 Gap=     0.595 Goal=   None    Shift=    0.300
 GapD=    0.021 DampG=0.250 DampE=0.250 DampFc=0.1250 IDamp=-1.
 Damping current iteration by 1.25D-01
 RMSDP=5.39D-03 MaxDP=1.19D-01              OVMax= 1.43D-01

 Cycle   2  Pass 1  IDiag  1:
 RMSU=  6.58D-04    CP:  9.93D-01
 E= -1486.89222854319     Delta-E=       -0.087770297253 Rises=F Damp=T
 DIIS: error= 4.85D-02 at cycle   2 NSaved=   2.
 NSaved= 2 IEnMin= 2 EnMin= -1486.89222854319     IErMin= 2 ErrMin= 4.85D-02
 ErrMax= 4.85D-02  0.00D+00 EMaxC= 1.00D-01 BMatC= 1.02D+00 BMatP= 1.62D+00
 IDIUse=3 WtCom= 5.15D-01 WtEn= 4.85D-01
 Coeff-Com: -0.332D+01 0.432D+01
 Coeff-En:   0.000D+00 0.100D+01
 Coeff:     -0.171D+01 0.271D+01
 Gap=    -0.118 Goal=   None    Shift=    0.300
 Gap=    -0.013 Goal=   None    Shift=    0.300
 RMSDP=4.81D-03 MaxDP=1.06D-01 DE=-8.78D-02 OVMax= 5.73D-02

 Cycle   3  Pass 1  IDiag  1:
 RMSU=  3.40D-03    CP:  9.40D-01  3.00D+00
 E= -1487.09100644777     Delta-E=       -0.198777904576 Rises=F Damp=F
 DIIS: error= 2.89D-02 at cycle   3 NSaved=   3.
 NSaved= 3 IEnMin= 3 EnMin= -1487.09100644777     IErMin= 3 ErrMin= 2.89D-02
 ErrMax= 2.89D-02  0.00D+00 EMaxC= 1.00D-01 BMatC= 5.01D-01 BMatP= 1.02D+00
 IDIUse=3 WtCom= 7.11D-01 WtEn= 2.89D-01
 EnCoef did   100 forward-backward iterations
 Coeff-Com:  0.419D+01-0.449D+01 0.130D+01
 Coeff-En:   0.184D+00 0.935D-02 0.806D+00
 Coeff:      0.303D+01-0.319D+01 0.116D+01
 Gap=    -0.043 Goal=   None    Shift=    0.300
 Gap=     0.074 Goal=   None    Shift=    0.300
 RMSDP=9.54D-04 MaxDP=4.91D-02 DE=-1.99D-01 OVMax= 3.93D-02

 Cycle   4  Pass 1  IDiag  1:
 RMSU=  6.59D-04    CP:  9.42D-01  3.00D+00  7.98D-01
 E= -1487.20109236597     Delta-E=       -0.110085918202 Rises=F Damp=F
 DIIS: error= 2.37D-03 at cycle   4 NSaved=   4.
 NSaved= 4 IEnMin= 4 EnMin= -1487.20109236597     IErMin= 4 ErrMin= 2.37D-03
 ErrMax= 2.37D-03  0.00D+00 EMaxC= 1.00D-01 BMatC= 4.38D-03 BMatP= 5.01D-01
 IDIUse=3 WtCom= 9.76D-01 WtEn= 2.37D-02
 Coeff-Com: -0.780D+00 0.930D+00-0.111D+00 0.961D+00
 Coeff-En:   0.000D+00 0.000D+00 0.000D+00 0.100D+01
 Coeff:     -0.762D+00 0.908D+00-0.109D+00 0.962D+00
 Gap=    -0.040 Goal=   None    Shift=    0.300
 Gap=     0.076 Goal=   None    Shift=    0.300
 RMSDP=2.07D-04 MaxDP=9.08D-03 DE=-1.10D-01 OVMax= 3.46D-02

 Cycle   5  Pass 1  IDiag  1:
 RMSU=  1.97D-04    CP:  9.43D-01  3.00D+00  7.81D-01  1.04D+00
 E= -1487.20290331028     Delta-E=       -0.001810944316 Rises=F Damp=F
 DIIS: error= 1.56D-03 at cycle   5 NSaved=   5.
 NSaved= 5 IEnMin= 5 EnMin= -1487.20290331028     IErMin= 5 ErrMin= 1.56D-03
 ErrMax= 1.56D-03  0.00D+00 EMaxC= 1.00D-01 BMatC= 1.73D-03 BMatP= 4.38D-03
 IDIUse=3 WtCom= 9.84D-01 WtEn= 1.56D-02
 Coeff-Com: -0.723D+00 0.834D+00-0.142D+00 0.420D+00 0.611D+00
 Coeff-En:   0.000D+00 0.000D+00 0.000D+00 0.000D+00 0.100D+01
 Coeff:     -0.712D+00 0.821D+00-0.140D+00 0.414D+00 0.617D+00
 Gap=    -0.038 Goal=   None    Shift=    0.300
 Gap=     0.078 Goal=   None    Shift=    0.300
 RMSDP=9.13D-05 MaxDP=3.40D-03 DE=-1.81D-03 OVMax= 2.80D-02

 Cycle   6  Pass 1  IDiag  1:
 RMSU=  7.72D-05    CP:  9.43D-01  3.00D+00  7.81D-01  1.07D+00  1.23D+00
 E= -1487.20393572934     Delta-E=       -0.001032419054 Rises=F Damp=F
 DIIS: error= 1.43D-03 at cycle   6 NSaved=   6.
 NSaved= 6 IEnMin= 6 EnMin= -1487.20393572934     IErMin= 6 ErrMin= 1.43D-03
 ErrMax= 1.43D-03  0.00D+00 EMaxC= 1.00D-01 BMatC= 4.36D-04 BMatP= 1.73D-03
 IDIUse=3 WtCom= 9.86D-01 WtEn= 1.43D-02
 Coeff-Com: -0.113D+00 0.126D+00-0.325D-01-0.504D-02-0.135D+00 0.116D+01
 Coeff-En:   0.000D+00 0.000D+00 0.000D+00 0.000D+00 0.000D+00 0.100D+01
 Coeff:     -0.111D+00 0.124D+00-0.320D-01-0.496D-02-0.133D+00 0.116D+01
 Gap=    -0.035 Goal=   None    Shift=    0.300
 Gap=     0.082 Goal=   None    Shift=    0.300
 RMSDP=8.49D-05 MaxDP=3.71D-03 DE=-1.03D-03 OVMax= 2.67D-02

 Cycle   7  Pass 1  IDiag  1:
 RMSU=  4.25D-05    CP:  9.43D-01  3.00D+00  7.80D-01  1.09D+00  1.40D+00
                    CP:  1.82D+00
 E= -1487.20464970418     Delta-E=       -0.000713974842 Rises=F Damp=F
 DIIS: error= 1.48D-03 at cycle   7 NSaved=   7.
 NSaved= 7 IEnMin= 7 EnMin= -1487.20464970418     IErMin= 6 ErrMin= 1.43D-03
 ErrMax= 1.48D-03  0.00D+00 EMaxC= 1.00D-01 BMatC= 2.78D-04 BMatP= 4.36D-04
 IDIUse=3 WtCom= 9.86D-01 WtEn= 1.43D-02
 Coeff-Com:  0.868D-01-0.102D+00 0.961D-02-0.727D-01-0.175D+00 0.335D+00
 Coeff-Com:  0.919D+00
 Coeff-En:   0.000D+00 0.000D+00 0.000D+00 0.000D+00 0.000D+00 0.000D+00
 Coeff-En:   0.100D+01
 Coeff:      0.855D-01-0.100D+00 0.947D-02-0.717D-01-0.173D+00 0.330D+00
 Coeff:      0.920D+00
 Gap=    -0.033 Goal=   None    Shift=    0.300
 Gap=     0.082 Goal=   None    Shift=    0.300
 RMSDP=6.37D-05 MaxDP=4.27D-03 DE=-7.14D-04 OVMax= 2.77D-02

 Cycle   8  Pass 1  IDiag  1:
 RMSU=  3.14D-05    CP:  9.43D-01  3.00D+00  7.80D-01  1.11D+00  1.53D+00
                    CP:  2.34D+00  1.58D+00
 E= -1487.20526455674     Delta-E=       -0.000614852558 Rises=F Damp=F
 DIIS: error= 1.42D-03 at cycle   8 NSaved=   8.
 NSaved= 8 IEnMin= 8 EnMin= -1487.20526455674     IErMin= 8 ErrMin= 1.42D-03
 ErrMax= 1.42D-03  0.00D+00 EMaxC= 1.00D-01 BMatC= 2.23D-04 BMatP= 2.78D-04
 IDIUse=3 WtCom= 9.86D-01 WtEn= 1.42D-02
 Coeff-Com:  0.797D-01-0.916D-01 0.161D-01-0.351D-01 0.132D-02-0.410D+00
 Coeff-Com:  0.171D+00 0.127D+01
 Coeff-En:   0.000D+00 0.000D+00 0.000D+00 0.000D+00 0.000D+00 0.000D+00
 Coeff-En:   0.000D+00 0.100D+01
 Coeff:      0.786D-01-0.903D-01 0.158D-01-0.346D-01 0.130D-02-0.404D+00
 Coeff:      0.169D+00 0.126D+01
 Gap=    -0.031 Goal=   None    Shift=    0.300
 Gap=     0.083 Goal=   None    Shift=    0.300
 RMSDP=6.57D-05 MaxDP=3.50D-03 DE=-6.15D-04 OVMax= 2.79D-02

 Cycle   9  Pass 1  IDiag  1:
 RMSU=  1.33D-05    CP:  9.43D-01  3.00D+00  7.80D-01  1.12D+00  1.66D+00
                    CP:  2.90D+00  2.26D+00  1.84D+00
 E= -1487.20584756558     Delta-E=       -0.000583008845 Rises=F Damp=F
 DIIS: error= 1.42D-03 at cycle   9 NSaved=   9.
 NSaved= 9 IEnMin= 9 EnMin= -1487.20584756558     IErMin= 9 ErrMin= 1.42D-03
 ErrMax= 1.42D-03  0.00D+00 EMaxC= 1.00D-01 BMatC= 1.86D-04 BMatP= 2.23D-04
 IDIUse=3 WtCom= 9.86D-01 WtEn= 1.42D-02
 Coeff-Com:  0.625D-02-0.604D-02 0.722D-02 0.143D-01 0.110D+00-0.603D+00
 Coeff-Com: -0.513D+00 0.605D+00 0.138D+01
 Coeff-En:   0.000D+00 0.000D+00 0.000D+00 0.000D+00 0.000D+00 0.000D+00
 Coeff-En:   0.000D+00 0.000D+00 0.100D+01
 Coeff:      0.616D-02-0.596D-02 0.712D-02 0.141D-01 0.109D+00-0.595D+00
 Coeff:     -0.506D+00 0.596D+00 0.137D+01
 Gap=    -0.029 Goal=   None    Shift=    0.300
 Gap=     0.083 Goal=   None    Shift=    0.300
 RMSDP=7.10D-05 MaxDP=3.87D-03 DE=-5.83D-04 OVMax= 2.94D-02

 Cycle  10  Pass 1  IDiag  1:
 RMSU=  3.89D-05    CP:  9.43D-01  3.00D+00  7.79D-01  1.14D+00  1.79D+00
                    CP:  3.00D+00  3.00D+00  2.71D+00  1.87D+00
 E= -1487.20642520921     Delta-E=       -0.000577643628 Rises=F Damp=F
 DIIS: error= 1.42D-03 at cycle  10 NSaved=  10.
 NSaved=10 IEnMin=10 EnMin= -1487.20642520921     IErMin= 9 ErrMin= 1.42D-03
 ErrMax= 1.42D-03  0.00D+00 EMaxC= 1.00D-01 BMatC= 1.64D-04 BMatP= 1.86D-04
 IDIUse=3 WtCom= 9.86D-01 WtEn= 1.42D-02
 Coeff-Com: -0.123D-01 0.144D-01 0.628D-03 0.122D-01 0.464D-01-0.143D+00
 Coeff-Com: -0.544D+00 0.157D+00 0.592D+00 0.876D+00
 Coeff-En:   0.000D+00 0.000D+00 0.000D+00 0.000D+00 0.000D+00 0.000D+00
 Coeff-En:   0.000D+00 0.000D+00 0.000D+00 0.100D+01
 Coeff:     -0.121D-01 0.142D-01 0.619D-03 0.120D-01 0.458D-01-0.141D+00
 Coeff:     -0.536D+00 0.155D+00 0.584D+00 0.877D+00
 Gap=    -0.029 Goal=   None    Shift=    0.300
 Gap=     0.083 Goal=   None    Shift=    0.300
 RMSDP=5.63D-05 MaxDP=2.57D-03 DE=-5.78D-04 OVMax= 2.68D-02

 Cycle  11  Pass 1  IDiag  1:
 RMSU=  2.97D-05    CP:  9.43D-01  3.00D+00  7.79D-01  1.15D+00  1.88D+00
                    CP:  3.00D+00  3.00D+00  3.00D+00  2.70D+00  1.93D+00
 E= -1487.20690256013     Delta-E=       -0.000477350919 Rises=F Damp=F
 DIIS: error= 1.36D-03 at cycle  11 NSaved=  11.
 NSaved=11 IEnMin=11 EnMin= -1487.20690256013     IErMin=11 ErrMin= 1.36D-03
 ErrMax= 1.36D-03  0.00D+00 EMaxC= 1.00D-01 BMatC= 1.44D-04 BMatP= 1.64D-04
 IDIUse=3 WtCom= 9.86D-01 WtEn= 1.36D-02
 Coeff-Com:  0.961D-02-0.112D-01 0.582D-04-0.459D-02-0.852D-01 0.585D+00
 Coeff-Com: -0.410D+00-0.676D+00-0.765D+00 0.324D+00 0.203D+01
 Coeff-En:   0.000D+00 0.000D+00 0.000D+00 0.000D+00 0.000D+00 0.000D+00
 Coeff-En:   0.000D+00 0.000D+00 0.000D+00 0.000D+00 0.100D+01
 Coeff:      0.948D-02-0.111D-01 0.574D-04-0.453D-02-0.840D-01 0.577D+00
 Coeff:     -0.405D+00-0.667D+00-0.754D+00 0.320D+00 0.202D+01
 Gap=    -0.026 Goal=   None    Shift=    0.300
 Gap=     0.083 Goal=   None    Shift=    0.300
 RMSDP=7.52D-05 MaxDP=2.80D-03 DE=-4.77D-04 OVMax= 2.97D-02

 Cycle  12  Pass 1  IDiag  1:
 RMSU=  3.07D-05    CP:  9.43D-01  3.00D+00  7.78D-01  1.16D+00  2.00D+00
                    CP:  3.00D+00  3.00D+00  3.00D+00  3.00D+00  3.00D+00
                    CP:  2.21D+00
 E= -1487.20739654011     Delta-E=       -0.000493979977 Rises=F Damp=F
 DIIS: error= 1.39D-03 at cycle  12 NSaved=  12.
 NSaved=12 IEnMin=12 EnMin= -1487.20739654011     IErMin=11 ErrMin= 1.36D-03
 ErrMax= 1.39D-03  0.00D+00 EMaxC= 1.00D-01 BMatC= 2.00D-04 BMatP= 1.44D-04
 IDIUse=3 WtCom= 9.86D-01 WtEn= 1.36D-02
 Coeff-Com:  0.286D-01-0.339D-01 0.514D-03-0.292D-01-0.947D-01 0.815D+00
 Coeff-Com: -0.195D+00-0.461D+00-0.126D+01-0.126D+01 0.265D+01 0.837D+00
 Coeff-En:   0.000D+00 0.000D+00 0.000D+00 0.000D+00 0.000D+00 0.000D+00
 Coeff-En:   0.000D+00 0.000D+00 0.000D+00 0.000D+00 0.000D+00 0.100D+01
 Coeff:      0.282D-01-0.334D-01 0.507D-03-0.288D-01-0.934D-01 0.803D+00
 Coeff:     -0.192D+00-0.454D+00-0.125D+01-0.124D+01 0.262D+01 0.839D+00
 Gap=    -0.025 Goal=   None    Shift=    0.300
 Gap=     0.083 Goal=   None    Shift=    0.300
 RMSDP=6.36D-05 MaxDP=2.60D-03 DE=-4.94D-04 OVMax= 2.89D-02

 Cycle  13  Pass 1  IDiag  1:
 RMSU=  3.86D-05    CP:  9.42D-01  3.00D+00  7.78D-01  1.17D+00  2.10D+00
                    CP:  3.00D+00  3.00D+00  3.00D+00  3.00D+00  3.00D+00
                    CP:  3.00D+00  1.99D+00
 E= -1487.20784385588     Delta-E=       -0.000447315771 Rises=F Damp=F
 DIIS: error= 1.35D-03 at cycle  13 NSaved=  13.
 NSaved=13 IEnMin=13 EnMin= -1487.20784385588     IErMin=13 ErrMin= 1.35D-03
 ErrMax= 1.35D-03  0.00D+00 EMaxC= 1.00D-01 BMatC= 2.10D-04 BMatP= 1.44D-04
 IDIUse=3 WtCom= 9.86D-01 WtEn= 1.36D-02
 Coeff-Com:  0.277D-01-0.332D-01 0.240D-02-0.492D-01 0.188D-01 0.374D+00
 Coeff-Com: -0.139D+00 0.349D+00-0.502D+00-0.294D+01 0.271D+01-0.755D+00
 Coeff-Com:  0.193D+01
 Coeff-En:   0.000D+00 0.000D+00 0.000D+00 0.000D+00 0.000D+00 0.000D+00
 Coeff-En:   0.000D+00 0.000D+00 0.000D+00 0.000D+00 0.000D+00 0.000D+00
 Coeff-En:   0.100D+01
 Coeff:      0.274D-01-0.327D-01 0.237D-02-0.485D-01 0.186D-01 0.369D+00
 Coeff:     -0.137D+00 0.344D+00-0.495D+00-0.290D+01 0.268D+01-0.745D+00
 Coeff:      0.192D+01
 Gap=    -0.024 Goal=   None    Shift=    0.300
 Gap=     0.083 Goal=   None    Shift=    0.300
 RMSDP=6.34D-05 MaxDP=2.65D-03 DE=-4.47D-04 OVMax= 2.92D-02

 Cycle  14  Pass 1  IDiag  1:
 RMSU=  2.66D-05    CP:  9.42D-01  3.00D+00  7.78D-01  1.18D+00  2.20D+00
                    CP:  3.00D+00  3.00D+00  3.00D+00  3.00D+00  3.00D+00
                    CP:  3.00D+00  2.96D+00  2.17D+00
 E= -1487.20826322498     Delta-E=       -0.000419369097 Rises=F Damp=F
 DIIS: error= 1.32D-03 at cycle  14 NSaved=  14.
 NSaved=14 IEnMin=14 EnMin= -1487.20826322498     IErMin=14 ErrMin= 1.32D-03
 ErrMax= 1.32D-03  0.00D+00 EMaxC= 1.00D-01 BMatC= 2.21D-04 BMatP= 1.44D-04
 IDIUse=3 WtCom= 9.86D-01 WtEn= 1.36D-02
 Coeff-Com:  0.276D-01-0.328D-01 0.421D-02-0.420D-01 0.370D-01 0.100D+00
 Coeff-Com: -0.200D+00 0.562D+00 0.289D-01-0.261D+01 0.234D+01-0.165D+01
 Coeff-Com:  0.147D+01 0.968D+00
 Coeff-En:   0.000D+00 0.000D+00 0.000D+00 0.000D+00 0.000D+00 0.000D+00
 Coeff-En:   0.000D+00 0.000D+00 0.000D+00 0.000D+00 0.000D+00 0.000D+00
 Coeff-En:   0.000D+00 0.100D+01
 Coeff:      0.272D-01-0.323D-01 0.415D-02-0.415D-01 0.365D-01 0.987D-01
 Coeff:     -0.198D+00 0.554D+00 0.285D-01-0.257D+01 0.231D+01-0.163D+01
 Coeff:      0.145D+01 0.969D+00
 Gap=    -0.024 Goal=   None    Shift=    0.300
 Gap=     0.083 Goal=   None    Shift=    0.300
 RMSDP=5.46D-05 MaxDP=2.03D-03 DE=-4.19D-04 OVMax= 2.66D-02

 Cycle  15  Pass 1  IDiag  1:
 RMSU=  2.24D-05    CP:  9.42D-01  3.00D+00  7.77D-01  1.19D+00  2.27D+00
                    CP:  3.00D+00  3.00D+00  3.00D+00  3.00D+00  3.00D+00
                    CP:  3.00D+00  3.00D+00  3.00D+00  1.88D+00
 E= -1487.20863409802     Delta-E=       -0.000370873045 Rises=F Damp=F
 DIIS: error= 1.26D-03 at cycle  15 NSaved=  15.
 NSaved=15 IEnMin=15 EnMin= -1487.20863409802     IErMin=15 ErrMin= 1.26D-03
 ErrMax= 1.26D-03  0.00D+00 EMaxC= 1.00D-01 BMatC= 1.79D-04 BMatP= 1.44D-04
 IDIUse=3 WtCom= 9.86D-01 WtEn= 1.36D-02
 Coeff-Com:  0.384D-01-0.443D-01 0.648D-02 0.111D-01-0.966D-01-0.272D-02
 Coeff-Com: -0.225D+00-0.220D-01 0.318D+00 0.561D+00 0.502D+00-0.127D+01
 Coeff-Com: -0.133D+01-0.136D+01 0.392D+01
 Coeff-En:   0.000D+00 0.000D+00 0.000D+00 0.000D+00 0.000D+00 0.000D+00
 Coeff-En:   0.000D+00 0.000D+00 0.000D+00 0.000D+00 0.000D+00 0.000D+00
 Coeff-En:   0.000D+00 0.000D+00 0.100D+01
 Coeff:      0.379D-01-0.437D-01 0.639D-02 0.110D-01-0.953D-01-0.268D-02
 Coeff:     -0.222D+00-0.217D-01 0.314D+00 0.554D+00 0.495D+00-0.126D+01
 Coeff:     -0.132D+01-0.134D+01 0.388D+01
 Gap=    -0.023 Goal=   None    Shift=    0.300
 Gap=     0.084 Goal=   None    Shift=    0.300
 RMSDP=6.57D-05 MaxDP=2.56D-03 DE=-3.71D-04 OVMax= 2.93D-02

 Cycle  16  Pass 1  IDiag  1:
 RMSU=  3.15D-05    CP:  9.42D-01  3.00D+00  7.77D-01  1.20D+00  2.35D+00
                    CP:  3.00D+00  3.00D+00  3.00D+00  3.00D+00  3.00D+00
                    CP:  3.00D+00  3.00D+00  3.00D+00  2.78D+00  3.00D+00
 E= -1487.20898159919     Delta-E=       -0.000347501167 Rises=F Damp=F
 DIIS: error= 1.25D-03 at cycle  16 NSaved=  16.
 NSaved=16 IEnMin=16 EnMin= -1487.20898159919     IErMin=16 ErrMin= 1.25D-03
 ErrMax= 1.25D-03  0.00D+00 EMaxC= 1.00D-01 BMatC= 2.52D-04 BMatP= 1.44D-04
 IDIUse=3 WtCom= 9.86D-01 WtEn= 1.36D-02
 Coeff-Com:  0.342D-01-0.393D-01 0.569D-02 0.290D-01-0.156D+00 0.121D+00
 Coeff-Com: -0.369D+00-0.375D+00 0.214D+00 0.204D+01-0.202D-03-0.733D+00
 Coeff-Com: -0.236D+01-0.286D+01 0.461D+01 0.836D+00
 Coeff-En:   0.000D+00 0.000D+00 0.000D+00 0.000D+00 0.000D+00 0.000D+00
 Coeff-En:   0.000D+00 0.000D+00 0.000D+00 0.000D+00 0.000D+00 0.000D+00
 Coeff-En:   0.000D+00 0.000D+00 0.000D+00 0.100D+01
 Coeff:      0.338D-01-0.387D-01 0.562D-02 0.286D-01-0.154D+00 0.120D+00
 Coeff:     -0.364D+00-0.370D+00 0.211D+00 0.202D+01-0.199D-03-0.723D+00
 Coeff:     -0.233D+01-0.282D+01 0.455D+01 0.838D+00
 Gap=    -0.022 Goal=   None    Shift=    0.300
 Gap=     0.084 Goal=   None    Shift=    0.300
 RMSDP=5.80D-05 MaxDP=2.21D-03 DE=-3.48D-04 OVMax= 2.77D-02

 Cycle  17  Pass 1  IDiag  1:
 RMSU=  4.30D-05    CP:  9.42D-01  3.00D+00  7.76D-01  1.20D+00  2.42D+00
                    CP:  3.00D+00  3.00D+00  3.00D+00  3.00D+00  3.00D+00
                    CP:  3.00D+00  3.00D+00  3.00D+00  3.00D+00  3.00D+00
                    CP:  2.03D+00
 E= -1487.20930203101     Delta-E=       -0.000320431818 Rises=F Damp=F
 DIIS: error= 1.18D-03 at cycle  17 NSaved=  17.
 NSaved=17 IEnMin=17 EnMin= -1487.20930203101     IErMin=17 ErrMin= 1.18D-03
 ErrMax= 1.18D-03  0.00D+00 EMaxC= 1.00D-01 BMatC= 2.56D-04 BMatP= 1.44D-04
 IDIUse=3 WtCom= 9.86D-01 WtEn= 1.36D-02
 Coeff-Com:  0.222D-01-0.258D-01 0.291D-02 0.303D-02-0.142D+00 0.610D+00
 Coeff-Com: -0.620D+00-0.686D+00-0.501D+00 0.210D+01 0.712D+00 0.406D+00
 Coeff-Com: -0.180D+01-0.386D+01 0.314D+01-0.113D+01 0.278D+01
 Coeff-En:   0.000D+00 0.000D+00 0.000D+00 0.000D+00 0.000D+00 0.000D+00
 Coeff-En:   0.000D+00 0.000D+00 0.000D+00 0.000D+00 0.000D+00 0.000D+00
 Coeff-En:   0.000D+00 0.000D+00 0.000D+00 0.000D+00 0.100D+01
 Coeff:      0.219D-01-0.254D-01 0.288D-02 0.299D-02-0.140D+00 0.602D+00
 Coeff:     -0.611D+00-0.677D+00-0.494D+00 0.207D+01 0.702D+00 0.401D+00
 Coeff:     -0.177D+01-0.381D+01 0.310D+01-0.112D+01 0.275D+01
 Gap=    -0.021 Goal=   None    Shift=    0.300
 Gap=     0.084 Goal=   None    Shift=    0.300
 RMSDP=5.68D-05 MaxDP=2.22D-03 DE=-3.20D-04 OVMax= 2.71D-02

 Cycle  18  Pass 1  IDiag  1:
 RMSU=  1.37D-05    CP:  9.42D-01  3.00D+00  7.75D-01  1.21D+00  2.48D+00
                    CP:  3.00D+00  3.00D+00  3.00D+00  3.00D+00  3.00D+00
                    CP:  3.00D+00  3.00D+00  3.00D+00  3.00D+00  3.00D+00
                    CP:  2.99D+00  2.03D+00
 E= -1487.20959949002     Delta-E=       -0.000297459013 Rises=F Damp=F
 DIIS: error= 1.13D-03 at cycle  18 NSaved=  18.
 NSaved=18 IEnMin=18 EnMin= -1487.20959949002     IErMin=18 ErrMin= 1.13D-03
 ErrMax= 1.13D-03  0.00D+00 EMaxC= 1.00D-01 BMatC= 2.53D-04 BMatP= 1.44D-04
 IDIUse=3 WtCom= 9.86D-01 WtEn= 1.36D-02
 Coeff-Com:  0.326D-01-0.380D-01 0.499D-02-0.216D-01-0.960D-01 0.759D+00
 Coeff-Com: -0.665D+00-0.712D+00-0.784D+00 0.114D+01 0.158D+01 0.660D+00
 Coeff-Com: -0.753D+00-0.323D+01 0.157D+01-0.246D+01 0.303D+01 0.987D+00
 Coeff-En:   0.000D+00 0.000D+00 0.000D+00 0.000D+00 0.000D+00 0.000D+00
 Coeff-En:   0.000D+00 0.000D+00 0.000D+00 0.000D+00 0.000D+00 0.000D+00
 Coeff-En:   0.000D+00 0.000D+00 0.000D+00 0.000D+00 0.000D+00 0.100D+01
 Coeff:      0.321D-01-0.375D-01 0.492D-02-0.213D-01-0.947D-01 0.749D+00
 Coeff:     -0.656D+00-0.702D+00-0.774D+00 0.113D+01 0.155D+01 0.651D+00
 Coeff:     -0.743D+00-0.319D+01 0.155D+01-0.243D+01 0.299D+01 0.987D+00
 Gap=    -0.021 Goal=   None    Shift=    0.300
 Gap=     0.084 Goal=   None    Shift=    0.300
 RMSDP=5.11D-05 MaxDP=2.08D-03 DE=-2.97D-04 OVMax= 2.50D-02

 Cycle  19  Pass 1  IDiag  1:
 RMSU=  2.66D-05    CP:  9.41D-01  3.00D+00  7.75D-01  1.21D+00  2.53D+00
                    CP:  3.00D+00  3.00D+00  3.00D+00  3.00D+00  3.00D+00
                    CP:  3.00D+00  3.00D+00  3.00D+00  3.00D+00  3.00D+00
                    CP:  3.00D+00  2.98D+00  1.75D+00
 E= -1487.20986070022     Delta-E=       -0.000261210201 Rises=F Damp=F
 DIIS: error= 1.06D-03 at cycle  19 NSaved=  19.
 NSaved=19 IEnMin=19 EnMin= -1487.20986070022     IErMin=19 ErrMin= 1.06D-03
 ErrMax= 1.06D-03  0.00D+00 EMaxC= 1.00D-01 BMatC= 2.20D-04 BMatP= 1.44D-04
 IDIUse=3 WtCom= 9.86D-01 WtEn= 1.36D-02
 Coeff-Com:  0.242D-01-0.286D-01 0.224D-02-0.168D-01-0.643D-01 0.559D+00
 Coeff-Com: -0.348D+00-0.537D+00-0.669D+00 0.582D-01 0.178D+01 0.129D+00
 Coeff-Com:  0.319D-01-0.161D+01 0.859D+00-0.205D+01 0.126D+01-0.735D+00
 Coeff-Com:  0.235D+01
 Coeff-En:   0.000D+00 0.000D+00 0.000D+00 0.000D+00 0.000D+00 0.000D+00
 Coeff-En:   0.000D+00 0.000D+00 0.000D+00 0.000D+00 0.000D+00 0.000D+00
 Coeff-En:   0.000D+00 0.000D+00 0.000D+00 0.000D+00 0.000D+00 0.000D+00
 Coeff-En:   0.100D+01
 Coeff:      0.238D-01-0.282D-01 0.221D-02-0.166D-01-0.635D-01 0.552D+00
 Coeff:     -0.344D+00-0.529D+00-0.660D+00 0.574D-01 0.176D+01 0.127D+00
 Coeff:      0.315D-01-0.159D+01 0.847D+00-0.202D+01 0.124D+01-0.725D+00
 Coeff:      0.233D+01
 Gap=    -0.020 Goal=   None    Shift=    0.300
 Gap=     0.085 Goal=   None    Shift=    0.300
 RMSDP=4.91D-05 MaxDP=2.02D-03 DE=-2.61D-04 OVMax= 2.39D-02

 Cycle  20  Pass 1  IDiag  1:
 RMSU=  3.85D-05    CP:  9.41D-01  3.00D+00  7.75D-01  1.22D+00  2.58D+00
                    CP:  3.00D+00  3.00D+00  3.00D+00  3.00D+00  3.00D+00
                    CP:  3.00D+00  3.00D+00  3.00D+00  3.00D+00  3.00D+00
                    CP:  3.00D+00  3.00D+00  2.59D+00  1.94D+00
 E= -1487.21008975095     Delta-E=       -0.000229050733 Rises=F Damp=F
 DIIS: error= 1.00D-03 at cycle  20 NSaved=  20.
 NSaved=20 IEnMin=20 EnMin= -1487.21008975095     IErMin=20 ErrMin= 1.00D-03
 ErrMax= 1.00D-03  0.00D+00 EMaxC= 1.00D-01 BMatC= 2.01D-04 BMatP= 1.44D-04
 IDIUse=3 WtCom= 9.86D-01 WtEn= 1.36D-02
 Coeff-Com:  0.135D-01-0.163D-01 0.582D-03-0.363D-02-0.664D-01 0.260D+00
 Coeff-Com: -0.951D-01-0.277D+00-0.355D+00-0.173D+00 0.132D+01-0.462D+00
 Coeff-Com:  0.672D-01-0.820D+00 0.125D+01-0.101D+01-0.672D-01-0.183D+01
 Coeff-Com:  0.197D+01 0.129D+01
 Coeff-En:   0.000D+00 0.000D+00 0.000D+00 0.000D+00 0.000D+00 0.000D+00
 Coeff-En:   0.000D+00 0.000D+00 0.000D+00 0.000D+00 0.000D+00 0.000D+00
 Coeff-En:   0.000D+00 0.000D+00 0.000D+00 0.000D+00 0.000D+00 0.000D+00
 Coeff-En:   0.000D+00 0.100D+01
 Coeff:      0.134D-01-0.161D-01 0.574D-03-0.358D-02-0.655D-01 0.256D+00
 Coeff:     -0.938D-01-0.273D+00-0.350D+00-0.171D+00 0.130D+01-0.456D+00
 Coeff:      0.663D-01-0.809D+00 0.124D+01-0.995D+00-0.663D-01-0.181D+01
 Coeff:      0.195D+01 0.129D+01
 Gap=    -0.020 Goal=   None    Shift=    0.300
 Gap=     0.085 Goal=   None    Shift=    0.300
 RMSDP=4.48D-05 MaxDP=1.92D-03 DE=-2.29D-04 OVMax= 2.20D-02

 Cycle  21  Pass 1  IDiag  1:
 Restarting incremental Fock formation.
 E= -1487.21029107532     Delta-E=       -0.000201324368 Rises=F Damp=F
 DIIS: error= 9.35D-04 at cycle  21 NSaved=  20.
 NSaved=20 IEnMin=20 EnMin= -1487.21029107532     IErMin=20 ErrMin= 9.35D-04
 ErrMax= 9.35D-04  0.00D+00 EMaxC= 1.00D-01 BMatC= 1.68D-04 BMatP= 1.44D-04
 IDIUse=3 WtCom= 9.86D-01 WtEn= 1.36D-02
 Coeff-Com: -0.174D-03-0.911D-03 0.146D-01-0.101D+00 0.335D-01 0.130D-01
 Coeff-Com: -0.731D-01-0.875D-01 0.597D+00 0.153D+00-0.479D+00-0.651D+00
 Coeff-Com: -0.124D+01 0.240D+01 0.192D+00-0.259D+00-0.147D+01-0.600D+00
 Coeff-Com: -0.203D+00 0.276D+01
 Coeff-En:   0.000D+00 0.000D+00 0.000D+00 0.000D+00 0.000D+00 0.000D+00
 Coeff-En:   0.000D+00 0.000D+00 0.000D+00 0.000D+00 0.000D+00 0.000D+00
 Coeff-En:   0.000D+00 0.000D+00 0.000D+00 0.000D+00 0.000D+00 0.000D+00
 Coeff-En:   0.000D+00 0.100D+01
 Coeff:     -0.172D-03-0.898D-03 0.144D-01-0.994D-01 0.331D-01 0.128D-01
 Coeff:     -0.721D-01-0.863D-01 0.589D+00 0.151D+00-0.472D+00-0.643D+00
 Coeff:     -0.122D+01 0.237D+01 0.189D+00-0.255D+00-0.145D+01-0.591D+00
 Coeff:     -0.200D+00 0.273D+01
 Gap=    -0.020 Goal=   None    Shift=    0.300
 Gap=     0.085 Goal=   None    Shift=    0.300
 RMSDP=4.60D-05 MaxDP=1.95D-03 DE=-2.01D-04 OVMax= 2.21D-02

 Cycle  22  Pass 1  IDiag  1:
 RMSU=  4.60D-05    CP:  1.00D+00
 E= -1487.21046976226     Delta-E=       -0.000178686942 Rises=F Damp=F
 DIIS: error= 8.86D-04 at cycle  22 NSaved=  20.
 NSaved=20 IEnMin=20 EnMin= -1487.21046976226     IErMin=20 ErrMin= 8.86D-04
 ErrMax= 8.86D-04  0.00D+00 EMaxC= 1.00D-01 BMatC= 1.58D-04 BMatP= 1.44D-04
 IDIUse=3 WtCom= 9.91D-01 WtEn= 8.86D-03
 Coeff-Com: -0.891D-03 0.192D-01-0.118D+00 0.122D+00-0.123D+00-0.219D+00
 Coeff-Com: -0.116D+00 0.136D+01-0.327D+00-0.163D-01-0.103D+01-0.217D+01
 Coeff-Com:  0.290D+01-0.159D+00 0.108D+01-0.627D+00-0.175D+01-0.200D+01
 Coeff-Com:  0.303D+01 0.114D+01
 Coeff-En:   0.000D+00 0.000D+00 0.000D+00 0.000D+00 0.000D+00 0.000D+00
 Coeff-En:   0.000D+00 0.000D+00 0.000D+00 0.000D+00 0.000D+00 0.000D+00
 Coeff-En:   0.000D+00 0.000D+00 0.000D+00 0.000D+00 0.000D+00 0.000D+00
 Coeff-En:   0.000D+00 0.100D+01
 Coeff:     -0.883D-03 0.190D-01-0.117D+00 0.121D+00-0.122D+00-0.217D+00
 Coeff:     -0.115D+00 0.135D+01-0.324D+00-0.161D-01-0.102D+01-0.215D+01
 Coeff:      0.287D+01-0.157D+00 0.107D+01-0.622D+00-0.173D+01-0.198D+01
 Coeff:      0.300D+01 0.114D+01
 Gap=    -0.020 Goal=   None    Shift=    0.300
 Gap=     0.085 Goal=   None    Shift=    0.300
 RMSDP=4.19D-05 MaxDP=1.86D-03 DE=-1.79D-04 OVMax= 2.05D-02

 Cycle  23  Pass 1  IDiag  1:
 RMSU=  5.14D-06    CP:  1.00D+00  1.90D+00
 E= -1487.21062509893     Delta-E=       -0.000155336671 Rises=F Damp=F
 DIIS: error= 8.25D-04 at cycle  23 NSaved=  20.
 NSaved=20 IEnMin=20 EnMin= -1487.21062509893     IErMin=20 ErrMin= 8.25D-04
 ErrMax= 8.25D-04  0.00D+00 EMaxC= 1.00D-01 BMatC= 1.40D-04 BMatP= 1.44D-04
 IDIUse=3 WtCom= 9.92D-01 WtEn= 8.25D-03
 Coeff-Com:  0.144D-01-0.572D-01 0.180D+00-0.366D+00-0.329D+00-0.166D-01
 Coeff-Com:  0.141D+01-0.196D+00 0.230D+00-0.648D+00-0.246D+01 0.229D+01
 Coeff-Com: -0.142D+01 0.270D+01-0.505D-01-0.115D+01-0.276D+01 0.179D+01
 Coeff-Com: -0.126D+00 0.197D+01
 Coeff-En:   0.000D+00 0.000D+00 0.000D+00 0.000D+00 0.000D+00 0.000D+00
 Coeff-En:   0.000D+00 0.000D+00 0.000D+00 0.000D+00 0.000D+00 0.000D+00
 Coeff-En:   0.000D+00 0.000D+00 0.000D+00 0.000D+00 0.000D+00 0.000D+00
 Coeff-En:   0.000D+00 0.100D+01
 Coeff:      0.143D-01-0.568D-01 0.179D+00-0.363D+00-0.326D+00-0.165D-01
 Coeff:      0.139D+01-0.194D+00 0.228D+00-0.643D+00-0.244D+01 0.227D+01
 Coeff:     -0.141D+01 0.268D+01-0.501D-01-0.114D+01-0.274D+01 0.177D+01
 Coeff:     -0.125D+00 0.196D+01
 Gap=    -0.019 Goal=   None    Shift=    0.300
 Gap=     0.086 Goal=   None    Shift=    0.300
 RMSDP=3.87D-05 MaxDP=1.74D-03 DE=-1.55D-04 OVMax= 1.90D-02

 Cycle  24  Pass 1  IDiag  1:
 RMSU=  3.73D-06    CP:  1.00D+00  2.73D+00  2.00D+00
 E= -1487.21075976519     Delta-E=       -0.000134666252 Rises=F Damp=F
 DIIS: error= 7.69D-04 at cycle  24 NSaved=  20.
 NSaved=20 IEnMin=20 EnMin= -1487.21075976519     IErMin=20 ErrMin= 7.69D-04
 ErrMax= 7.69D-04  0.00D+00 EMaxC= 1.00D-01 BMatC= 1.21D-04 BMatP= 1.40D-04
 IDIUse=3 WtCom= 9.92D-01 WtEn= 7.69D-03
 Coeff-Com: -0.370D-01 0.360D+00-0.398D+00-0.508D+00-0.207D+00 0.844D+00
 Coeff-Com:  0.470D+00 0.385D+00-0.128D+00-0.208D+01 0.129D+01-0.209D+01
 Coeff-Com:  0.301D+01-0.133D+00 0.252D+00-0.195D+01 0.278D+00-0.145D+01
 Coeff-Com:  0.165D+01 0.144D+01
 Coeff-En:   0.000D+00 0.000D+00 0.000D+00 0.000D+00 0.000D+00 0.000D+00
 Coeff-En:   0.000D+00 0.000D+00 0.000D+00 0.000D+00 0.000D+00 0.000D+00
 Coeff-En:   0.000D+00 0.000D+00 0.000D+00 0.000D+00 0.000D+00 0.000D+00
 Coeff-En:   0.000D+00 0.100D+01
 Coeff:     -0.368D-01 0.358D+00-0.395D+00-0.504D+00-0.206D+00 0.837D+00
 Coeff:      0.466D+00 0.382D+00-0.127D+00-0.206D+01 0.128D+01-0.207D+01
 Coeff:      0.298D+01-0.132D+00 0.250D+00-0.194D+01 0.276D+00-0.144D+01
 Coeff:      0.164D+01 0.143D+01
 Gap=    -0.019 Goal=   None    Shift=    0.300
 Gap=     0.086 Goal=   None    Shift=    0.300
 RMSDP=3.51D-05 MaxDP=1.61D-03 DE=-1.35D-04 OVMax= 1.74D-02

 Cycle  25  Pass 1  IDiag  1:
 RMSU=  2.23D-05    CP:  1.00D+00  3.00D+00  3.00D+00  1.81D+00
 E= -1487.21087367875     Delta-E=       -0.000113913565 Rises=F Damp=F
 DIIS: error= 7.12D-04 at cycle  25 NSaved=  20.
 NSaved=20 IEnMin=20 EnMin= -1487.21087367875     IErMin=20 ErrMin= 7.12D-04
 ErrMax= 7.12D-04  0.00D+00 EMaxC= 1.00D-01 BMatC= 1.05D-04 BMatP= 1.21D-04
 IDIUse=3 WtCom= 9.93D-01 WtEn= 7.12D-03
 Coeff-Com:  0.167D+00-0.162D+00-0.230D+00-0.149D+00-0.515D+00 0.117D+01
 Coeff-Com: -0.847D-01 0.383D+00-0.611D+00 0.304D+00-0.108D+01 0.616D+00
 Coeff-Com: -0.847D+00 0.189D+01 0.298D+00-0.631D+00-0.167D+01-0.481D+00
 Coeff-Com: -0.478D-01 0.268D+01
 Coeff-En:   0.000D+00 0.000D+00 0.000D+00 0.000D+00 0.000D+00 0.000D+00
 Coeff-En:   0.000D+00 0.000D+00 0.000D+00 0.000D+00 0.000D+00 0.000D+00
 Coeff-En:   0.000D+00 0.000D+00 0.000D+00 0.000D+00 0.000D+00 0.000D+00
 Coeff-En:   0.000D+00 0.100D+01
 Coeff:      0.166D+00-0.161D+00-0.229D+00-0.148D+00-0.511D+00 0.117D+01
 Coeff:     -0.841D-01 0.380D+00-0.607D+00 0.302D+00-0.107D+01 0.611D+00
 Coeff:     -0.841D+00 0.188D+01 0.296D+00-0.627D+00-0.166D+01-0.478D+00
 Coeff:     -0.475D-01 0.266D+01
 Gap=    -0.019 Goal=   None    Shift=    0.300
 Gap=     0.086 Goal=   None    Shift=    0.300
 RMSDP=3.33D-05 MaxDP=1.54D-03 DE=-1.14D-04 OVMax= 1.64D-02

 Cycle  26  Pass 1  IDiag  1:
 RMSU=  6.92D-06    CP:  1.00D+00  3.00D+00  3.00D+00  2.81D+00  2.45D+00
 E= -1487.21097229679     Delta-E=       -0.000098618043 Rises=F Damp=F
 DIIS: error= 6.62D-04 at cycle  26 NSaved=  20.
 NSaved=20 IEnMin=20 EnMin= -1487.21097229679     IErMin=20 ErrMin= 6.62D-04
 ErrMax= 6.62D-04  0.00D+00 EMaxC= 1.00D-01 BMatC= 9.68D-05 BMatP= 1.05D-04
 IDIUse=3 WtCom= 9.93D-01 WtEn= 6.62D-03
 Coeff-Com: -0.287D-01 0.179D-01-0.877D-01-0.868D+00 0.126D+01-0.486D+00
 Coeff-Com:  0.383D+00 0.386D-01 0.126D+00 0.981D-02-0.107D+01-0.899D+00
 Coeff-Com:  0.158D+01 0.141D+01-0.577D-01-0.710D+00-0.211D+01-0.188D+01
 Coeff-Com:  0.314D+01 0.123D+01
 Coeff-En:   0.000D+00 0.000D+00 0.000D+00 0.000D+00 0.000D+00 0.000D+00
 Coeff-En:   0.000D+00 0.000D+00 0.000D+00 0.000D+00 0.000D+00 0.000D+00
 Coeff-En:   0.000D+00 0.000D+00 0.000D+00 0.000D+00 0.000D+00 0.000D+00
 Coeff-En:   0.000D+00 0.100D+01
 Coeff:     -0.285D-01 0.178D-01-0.872D-01-0.862D+00 0.125D+01-0.482D+00
 Coeff:      0.381D+00 0.383D-01 0.125D+00 0.974D-02-0.106D+01-0.893D+00
 Coeff:      0.157D+01 0.140D+01-0.574D-01-0.705D+00-0.209D+01-0.187D+01
 Coeff:      0.312D+01 0.123D+01
 Gap=    -0.019 Goal=   None    Shift=    0.300
 Gap=     0.086 Goal=   None    Shift=    0.300
 RMSDP=3.05D-05 MaxDP=1.42D-03 DE=-9.86D-05 OVMax= 1.51D-02

 Cycle  27  Pass 1  IDiag  1:
 RMSU=  1.77D-05    CP:  1.00D+00  3.00D+00  3.00D+00  3.00D+00  3.00D+00
                    CP:  1.95D+00
 E= -1487.21105960132     Delta-E=       -0.000087304526 Rises=F Damp=F
 DIIS: error= 6.12D-04 at cycle  27 NSaved=  20.
 NSaved=20 IEnMin=20 EnMin= -1487.21105960132     IErMin=20 ErrMin= 6.12D-04
 ErrMax= 6.12D-04  0.00D+00 EMaxC= 1.00D-01 BMatC= 8.32D-05 BMatP= 9.68D-05
 IDIUse=3 WtCom= 9.94D-01 WtEn= 6.12D-03
 Coeff-Com:  0.887D-01-0.152D+00-0.683D+00 0.925D+00-0.452D+00 0.436D+00
 Coeff-Com: -0.151D+00 0.439D+00-0.180D+00-0.627D+00-0.468D+00 0.436D+00
 Coeff-Com:  0.192D+00 0.100D+01 0.323D+00-0.127D+01-0.201D+01 0.139D+01
 Coeff-Com: -0.893D-01 0.186D+01
 Coeff-En:   0.000D+00 0.000D+00 0.000D+00 0.000D+00 0.000D+00 0.000D+00
 Coeff-En:   0.000D+00 0.000D+00 0.000D+00 0.000D+00 0.000D+00 0.000D+00
 Coeff-En:   0.000D+00 0.000D+00 0.000D+00 0.000D+00 0.000D+00 0.000D+00
 Coeff-En:   0.000D+00 0.100D+01
 Coeff:      0.882D-01-0.151D+00-0.679D+00 0.919D+00-0.449D+00 0.433D+00
 Coeff:     -0.150D+00 0.436D+00-0.178D+00-0.623D+00-0.465D+00 0.433D+00
 Coeff:      0.190D+00 0.998D+00 0.321D+00-0.127D+01-0.200D+01 0.138D+01
 Coeff:     -0.887D-01 0.185D+01
 Gap=    -0.019 Goal=   None    Shift=    0.300
 Gap=     0.087 Goal=   None    Shift=    0.300
 RMSDP=2.79D-05 MaxDP=1.31D-03 DE=-8.73D-05 OVMax= 1.38D-02

 Cycle  28  Pass 1  IDiag  1:
 RMSU=  4.08D-06    CP:  1.00D+00  3.00D+00  3.00D+00  3.00D+00  3.00D+00
                    CP:  2.85D+00  2.52D+00
 E= -1487.21113642474     Delta-E=       -0.000076823419 Rises=F Damp=F
 DIIS: error= 5.62D-04 at cycle  28 NSaved=  20.
 NSaved=20 IEnMin=20 EnMin= -1487.21113642474     IErMin=20 ErrMin= 5.62D-04
 ErrMax= 5.62D-04  0.00D+00 EMaxC= 1.00D-01 BMatC= 6.67D-05 BMatP= 8.32D-05
 IDIUse=3 WtCom= 9.94D-01 WtEn= 5.62D-03
 Coeff-Com: -0.950D-01-0.121D+00 0.275D+00-0.188D+00 0.351D+00-0.747D+00
 Coeff-Com:  0.948D+00-0.789D+00 0.692D+00-0.119D+00-0.556D+00-0.139D+01
 Coeff-Com:  0.162D+01 0.762D+00 0.432D+00-0.911D+00-0.830D+00-0.137D+01
 Coeff-Com:  0.115D+01 0.189D+01
 Coeff-En:   0.000D+00 0.000D+00 0.000D+00 0.000D+00 0.000D+00 0.000D+00
 Coeff-En:   0.000D+00 0.000D+00 0.000D+00 0.000D+00 0.000D+00 0.000D+00
 Coeff-En:   0.000D+00 0.000D+00 0.000D+00 0.000D+00 0.000D+00 0.000D+00
 Coeff-En:   0.000D+00 0.100D+01
 Coeff:     -0.945D-01-0.120D+00 0.274D+00-0.187D+00 0.349D+00-0.743D+00
 Coeff:      0.942D+00-0.784D+00 0.688D+00-0.118D+00-0.553D+00-0.138D+01
 Coeff:      0.161D+01 0.758D+00 0.430D+00-0.906D+00-0.825D+00-0.136D+01
 Coeff:      0.114D+01 0.188D+01
 Gap=    -0.019 Goal=   None    Shift=    0.300
 Gap=     0.087 Goal=   None    Shift=    0.300
 RMSDP=2.76D-05 MaxDP=1.28D-03 DE=-7.68D-05 OVMax= 1.36D-02

 Cycle  29  Pass 1  IDiag  1:
 RMSU=  1.90D-05    CP:  1.00D+00  3.00D+00  3.00D+00  3.00D+00  3.00D+00
                    CP:  3.00D+00  3.00D+00  1.69D+00
 E= -1487.21120350467     Delta-E=       -0.000067079933 Rises=F Damp=F
 DIIS: error= 5.22D-04 at cycle  29 NSaved=  20.
 NSaved=20 IEnMin=20 EnMin= -1487.21120350467     IErMin=20 ErrMin= 5.22D-04
 ErrMax= 5.22D-04  0.00D+00 EMaxC= 1.00D-01 BMatC= 6.03D-05 BMatP= 6.67D-05
 IDIUse=3 WtCom= 9.95D-01 WtEn= 5.22D-03
 Coeff-Com: -0.121D-01-0.463D-02-0.861D-01 0.425D+00-0.104D+01 0.103D+01
 Coeff-Com: -0.117D+01 0.169D+01-0.433D+00-0.579D+00-0.152D+01 0.139D+01
 Coeff-Com:  0.170D+00 0.114D+01 0.312D-01-0.105D+01-0.119D+01-0.631D+00
 Coeff-Com:  0.118D+01 0.167D+01
 Coeff-En:   0.000D+00 0.000D+00 0.000D+00 0.000D+00 0.000D+00 0.000D+00
 Coeff-En:   0.000D+00 0.000D+00 0.000D+00 0.000D+00 0.000D+00 0.000D+00
 Coeff-En:   0.000D+00 0.000D+00 0.000D+00 0.000D+00 0.000D+00 0.000D+00
 Coeff-En:   0.000D+00 0.100D+01
 Coeff:     -0.121D-01-0.460D-02-0.857D-01 0.423D+00-0.104D+01 0.102D+01
 Coeff:     -0.116D+01 0.168D+01-0.431D+00-0.576D+00-0.151D+01 0.139D+01
 Coeff:      0.169D+00 0.114D+01 0.310D-01-0.105D+01-0.119D+01-0.628D+00
 Coeff:      0.118D+01 0.167D+01
 Gap=    -0.019 Goal=   None    Shift=    0.300
 Gap=     0.087 Goal=   None    Shift=    0.300
 RMSDP=2.63D-05 MaxDP=1.21D-03 DE=-6.71D-05 OVMax= 1.28D-02

 Cycle  30  Pass 1  IDiag  1:
 RMSU=  4.42D-06    CP:  1.00D+00  3.00D+00  3.00D+00  3.00D+00  3.00D+00
                    CP:  3.00D+00  3.00D+00  2.60D+00  2.35D+00
 E= -1487.21126271887     Delta-E=       -0.000059214195 Rises=F Damp=F
 DIIS: error= 4.83D-04 at cycle  30 NSaved=  20.
 NSaved=20 IEnMin=20 EnMin= -1487.21126271887     IErMin=20 ErrMin= 4.83D-04
 ErrMax= 4.83D-04  0.00D+00 EMaxC= 1.00D-01 BMatC= 5.37D-05 BMatP= 6.03D-05
 IDIUse=3 WtCom= 9.95D-01 WtEn= 4.83D-03
 Coeff-Com: -0.807D-01 0.404D-01 0.564D+00-0.815D+00 0.614D+00-0.147D+01
 Coeff-Com:  0.202D+01-0.109D+01 0.290D+00-0.919D+00 0.606D+00-0.709D+00
 Coeff-Com:  0.129D+01 0.332D+00-0.191D+00-0.523D+00-0.155D+01-0.131D+00
 Coeff-Com:  0.116D+01 0.156D+01
 Coeff-En:   0.000D+00 0.000D+00 0.000D+00 0.000D+00 0.000D+00 0.000D+00
 Coeff-En:   0.000D+00 0.000D+00 0.000D+00 0.000D+00 0.000D+00 0.000D+00
 Coeff-En:   0.000D+00 0.000D+00 0.000D+00 0.000D+00 0.000D+00 0.000D+00
 Coeff-En:   0.000D+00 0.100D+01
 Coeff:     -0.803D-01 0.402D-01 0.561D+00-0.811D+00 0.611D+00-0.146D+01
 Coeff:      0.201D+01-0.109D+01 0.288D+00-0.915D+00 0.603D+00-0.706D+00
 Coeff:      0.129D+01 0.330D+00-0.190D+00-0.520D+00-0.154D+01-0.130D+00
 Coeff:      0.115D+01 0.156D+01
 Gap=    -0.019 Goal=   None    Shift=    0.300
 Gap=     0.087 Goal=   None    Shift=    0.300
 RMSDP=2.73D-05 MaxDP=1.22D-03 DE=-5.92D-05 OVMax= 1.30D-02

 Cycle  31  Pass 1  IDiag  1:
 RMSU=  1.47D-05    CP:  9.99D-01  3.00D+00  3.00D+00  3.00D+00  3.00D+00
                    CP:  3.00D+00  3.00D+00  3.00D+00  3.00D+00  1.91D+00
 E= -1487.21131523103     Delta-E=       -0.000052512164 Rises=F Damp=F
 DIIS: error= 4.52D-04 at cycle  31 NSaved=  20.
 NSaved=20 IEnMin=20 EnMin= -1487.21131523103     IErMin=20 ErrMin= 4.52D-04
 ErrMax= 4.52D-04  0.00D+00 EMaxC= 1.00D-01 BMatC= 5.11D-05 BMatP= 5.37D-05
 IDIUse=3 WtCom= 9.95D-01 WtEn= 4.52D-03
 Coeff-Com: -0.229D-01 0.532D+00-0.762D+00 0.527D+00-0.144D+01 0.192D+01
 Coeff-Com: -0.107D+01 0.407D+00-0.742D+00 0.490D+00-0.775D+00 0.119D+01
 Coeff-Com:  0.404D+00-0.198D+00-0.476D+00-0.172D+01-0.239D-01 0.130D+01
 Coeff-Com:  0.176D+01-0.310D+00
 Coeff-En:   0.000D+00 0.000D+00 0.000D+00 0.000D+00 0.000D+00 0.000D+00
 Coeff-En:   0.000D+00 0.000D+00 0.000D+00 0.000D+00 0.000D+00 0.000D+00
 Coeff-En:   0.000D+00 0.000D+00 0.000D+00 0.000D+00 0.000D+00 0.000D+00
 Coeff-En:   0.000D+00 0.100D+01
 Coeff:     -0.228D-01 0.530D+00-0.758D+00 0.524D+00-0.143D+01 0.191D+01
 Coeff:     -0.106D+01 0.405D+00-0.739D+00 0.488D+00-0.771D+00 0.119D+01
 Coeff:      0.402D+00-0.197D+00-0.474D+00-0.171D+01-0.238D-01 0.130D+01
 Coeff:      0.175D+01-0.304D+00
 Gap=    -0.019 Goal=   None    Shift=    0.300
 Gap=     0.087 Goal=   None    Shift=    0.300
 RMSDP=2.11D-05 MaxDP=9.96D-04 DE=-5.25D-05 OVMax= 1.06D-02

 Cycle  32  Pass 1  IDiag  1:
 RMSU=  7.08D-06    CP:  9.99D-01  3.00D+00  3.00D+00  3.00D+00  3.00D+00
                    CP:  3.00D+00  3.00D+00  3.00D+00  3.00D+00  2.54D+00
                    CP:  2.34D+00
 E= -1487.21135776621     Delta-E=       -0.000042535182 Rises=F Damp=F
 DIIS: error= 4.10D-04 at cycle  32 NSaved=  20.
 NSaved=20 IEnMin=20 EnMin= -1487.21135776621     IErMin=20 ErrMin= 4.10D-04
 ErrMax= 4.10D-04  0.00D+00 EMaxC= 1.00D-01 BMatC= 3.65D-05 BMatP= 5.11D-05
 IDIUse=3 WtCom= 9.96D-01 WtEn= 4.10D-03
 Coeff-Com:  0.231D+00-0.509D+00 0.194D+00-0.393D+00 0.984D+00-0.523D+00
 Coeff-Com:  0.158D-01-0.220D+00 0.126D+00-0.737D+00 0.638D+00 0.493D+00
 Coeff-Com:  0.195D+00 0.248D+00-0.178D+01-0.561D+00 0.600D+00 0.202D+01
 Coeff-Com: -0.345D+01 0.342D+01
 Coeff-En:   0.000D+00 0.000D+00 0.000D+00 0.000D+00 0.000D+00 0.000D+00
 Coeff-En:   0.000D+00 0.000D+00 0.000D+00 0.000D+00 0.000D+00 0.000D+00
 Coeff-En:   0.000D+00 0.000D+00 0.000D+00 0.000D+00 0.000D+00 0.000D+00
 Coeff-En:   0.000D+00 0.100D+01
 Coeff:      0.230D+00-0.507D+00 0.193D+00-0.392D+00 0.980D+00-0.521D+00
 Coeff:      0.157D-01-0.219D+00 0.126D+00-0.734D+00 0.635D+00 0.491D+00
 Coeff:      0.194D+00 0.247D+00-0.177D+01-0.558D+00 0.597D+00 0.201D+01
 Coeff:     -0.343D+01 0.341D+01
 Gap=    -0.019 Goal=   None    Shift=    0.300
 Gap=     0.088 Goal=   None    Shift=    0.300
 RMSDP=2.46D-05 MaxDP=1.10D-03 DE=-4.25D-05 OVMax= 1.17D-02

 Cycle  33  Pass 1  IDiag  1:
 RMSU=  1.48D-05    CP:  9.99D-01  3.00D+00  3.00D+00  3.00D+00  3.00D+00
                    CP:  3.00D+00  3.00D+00  3.00D+00  3.00D+00  3.00D+00
                    CP:  3.00D+00  1.53D+00
 E= -1487.21139345791     Delta-E=       -0.000035691696 Rises=F Damp=F
 DIIS: error= 3.88D-04 at cycle  33 NSaved=  20.
 NSaved=20 IEnMin=20 EnMin= -1487.21139345791     IErMin=20 ErrMin= 3.88D-04
 ErrMax= 3.88D-04  0.00D+00 EMaxC= 1.00D-01 BMatC= 4.67D-05 BMatP= 3.65D-05
 IDIUse=3 WtCom= 9.96D-01 WtEn= 4.10D-03
 Coeff-Com: -0.332D+00 0.189D+00 0.402D-01 0.510D+00 0.917D-01-0.721D+00
 Coeff-Com: -0.470D+00 0.394D+00-0.328D-01 0.511D+00 0.460D+00-0.468D+00
 Coeff-Com:  0.147D-01-0.970D+00-0.208D+00 0.330D+00 0.188D+01-0.575D+01
 Coeff-Com:  0.456D+01 0.971D+00
 Coeff-En:   0.000D+00 0.000D+00 0.000D+00 0.000D+00 0.000D+00 0.000D+00
 Coeff-En:   0.000D+00 0.000D+00 0.000D+00 0.000D+00 0.000D+00 0.000D+00
 Coeff-En:   0.000D+00 0.000D+00 0.000D+00 0.000D+00 0.000D+00 0.000D+00
 Coeff-En:   0.000D+00 0.100D+01
 Coeff:     -0.331D+00 0.188D+00 0.400D-01 0.508D+00 0.913D-01-0.718D+00
 Coeff:     -0.468D+00 0.393D+00-0.327D-01 0.509D+00 0.458D+00-0.466D+00
 Coeff:      0.146D-01-0.966D+00-0.207D+00 0.328D+00 0.187D+01-0.573D+01
 Coeff:      0.455D+01 0.971D+00
 Gap=    -0.019 Goal=   None    Shift=    0.300
 Gap=     0.088 Goal=   None    Shift=    0.300
 RMSDP=2.36D-05 MaxDP=1.08D-03 DE=-3.57D-05 OVMax= 1.15D-02

 Cycle  34  Pass 1  IDiag  1:
 RMSU=  6.22D-06    CP:  9.99D-01  3.00D+00  3.00D+00  3.00D+00  3.00D+00
                    CP:  3.00D+00  3.00D+00  3.00D+00  3.00D+00  3.00D+00
                    CP:  3.00D+00  2.19D+00  2.50D+00
 E= -1487.21142673850     Delta-E=       -0.000033280596 Rises=F Damp=F
 DIIS: error= 3.54D-04 at cycle  34 NSaved=  20.
 NSaved=20 IEnMin=20 EnMin= -1487.21142673850     IErMin=20 ErrMin= 3.54D-04
 ErrMax= 3.54D-04  0.00D+00 EMaxC= 1.00D-01 BMatC= 4.85D-05 BMatP= 3.65D-05
 IDIUse=3 WtCom= 9.96D-01 WtEn= 4.10D-03
 Coeff-Com:  0.226D+00-0.538D+00 0.715D+00-0.341D-01-0.580D+00-0.841D+00
 Coeff-Com:  0.703D+00 0.337D+00 0.529D+00 0.795D-01-0.595D+00-0.276D+00
 Coeff-Com: -0.941D-01 0.270D-01 0.135D+00 0.136D+01-0.535D+01 0.390D+01
 Coeff-Com: -0.838D+00 0.214D+01
 Coeff-En:   0.000D+00 0.000D+00 0.000D+00 0.000D+00 0.000D+00 0.000D+00
 Coeff-En:   0.000D+00 0.000D+00 0.000D+00 0.000D+00 0.000D+00 0.000D+00
 Coeff-En:   0.000D+00 0.000D+00 0.000D+00 0.000D+00 0.000D+00 0.000D+00
 Coeff-En:   0.000D+00 0.100D+01
 Coeff:      0.225D+00-0.535D+00 0.712D+00-0.339D-01-0.577D+00-0.838D+00
 Coeff:      0.700D+00 0.336D+00 0.527D+00 0.792D-01-0.593D+00-0.275D+00
 Coeff:     -0.937D-01 0.269D-01 0.134D+00 0.135D+01-0.533D+01 0.388D+01
 Coeff:     -0.835D+00 0.214D+01
 Gap=    -0.019 Goal=   None    Shift=    0.300
 Gap=     0.088 Goal=   None    Shift=    0.300
 RMSDP=2.22D-05 MaxDP=1.08D-03 DE=-3.33D-05 OVMax= 1.04D-02

 Cycle  35  Pass 1  IDiag  1:
 RMSU=  1.33D-05    CP:  9.99D-01  3.00D+00  3.00D+00  3.00D+00  3.00D+00
                    CP:  3.00D+00  3.00D+00  3.00D+00  3.00D+00  3.00D+00
                    CP:  3.00D+00  2.58D+00  3.00D+00  2.37D+00
 E= -1487.21145743668     Delta-E=       -0.000030698174 Rises=F Damp=F
 DIIS: error= 3.26D-04 at cycle  35 NSaved=  20.
 NSaved=20 IEnMin=20 EnMin= -1487.21145743668     IErMin=20 ErrMin= 3.26D-04
 ErrMax= 3.26D-04  0.00D+00 EMaxC= 1.00D-01 BMatC= 4.13D-05 BMatP= 3.65D-05
 IDIUse=3 WtCom= 9.96D-01 WtEn= 4.10D-03
 Coeff-Com: -0.417D+00 0.711D+00 0.534D-01-0.385D+00-0.540D+00 0.357D+00
 Coeff-Com:  0.604D-01 0.311D+00 0.186D+00-0.305D+00 0.759D-02-0.474D+00
 Coeff-Com:  0.973D-02 0.363D+00 0.173D+01-0.581D+01 0.388D+01-0.709D+00
 Coeff-Com:  0.877D+00 0.110D+01
 Coeff-En:   0.000D+00 0.000D+00 0.000D+00 0.000D+00 0.000D+00 0.000D+00
 Coeff-En:   0.000D+00 0.000D+00 0.000D+00 0.000D+00 0.000D+00 0.000D+00
 Coeff-En:   0.000D+00 0.000D+00 0.000D+00 0.000D+00 0.000D+00 0.000D+00
 Coeff-En:   0.000D+00 0.100D+01
 Coeff:     -0.415D+00 0.708D+00 0.532D-01-0.384D+00-0.538D+00 0.355D+00
 Coeff:      0.602D-01 0.310D+00 0.185D+00-0.304D+00 0.755D-02-0.472D+00
 Coeff:      0.969D-02 0.362D+00 0.172D+01-0.579D+01 0.386D+01-0.706D+00
 Coeff:      0.874D+00 0.110D+01
 Gap=    -0.019 Goal=   None    Shift=    0.300
 Gap=     0.088 Goal=   None    Shift=    0.300
 RMSDP=1.89D-05 MaxDP=8.76D-04 DE=-3.07D-05 OVMax= 9.43D-03

 Cycle  36  Pass 1  IDiag  1:
 RMSU=  6.42D-06    CP:  9.99D-01  3.00D+00  3.00D+00  3.00D+00  3.00D+00
                    CP:  3.00D+00  3.00D+00  3.00D+00  3.00D+00  3.00D+00
                    CP:  3.00D+00  3.00D+00  3.00D+00  3.00D+00  2.24D+00
 E= -1487.21148170076     Delta-E=       -0.000024264083 Rises=F Damp=F
 DIIS: error= 2.93D-04 at cycle  36 NSaved=  20.
 NSaved=20 IEnMin=20 EnMin= -1487.21148170076     IErMin=20 ErrMin= 2.93D-04
 ErrMax= 2.93D-04  0.00D+00 EMaxC= 1.00D-01 BMatC= 3.40D-05 BMatP= 3.65D-05
 IDIUse=3 WtCom= 9.97D-01 WtEn= 2.93D-03
 Coeff-Com:  0.302D+00 0.203D+00-0.754D+00-0.665D+00 0.708D+00 0.429D+00
 Coeff-Com:  0.191D+00-0.160D+00-0.461D+00-0.620D-01 0.268D-02 0.136D+00
 Coeff-Com:  0.267D+00 0.138D+01-0.507D+01 0.333D+01-0.391D+00 0.178D+00
 Coeff-Com:  0.199D+00 0.124D+01
 Coeff-En:   0.000D+00 0.000D+00 0.000D+00 0.000D+00 0.000D+00 0.000D+00
 Coeff-En:   0.000D+00 0.000D+00 0.000D+00 0.000D+00 0.000D+00 0.000D+00
 Coeff-En:   0.000D+00 0.000D+00 0.000D+00 0.000D+00 0.000D+00 0.000D+00
 Coeff-En:   0.000D+00 0.100D+01
 Coeff:      0.301D+00 0.203D+00-0.752D+00-0.663D+00 0.706D+00 0.428D+00
 Coeff:      0.190D+00-0.160D+00-0.460D+00-0.618D-01 0.268D-02 0.136D+00
 Coeff:      0.266D+00 0.138D+01-0.506D+01 0.332D+01-0.390D+00 0.178D+00
 Coeff:      0.198D+00 0.123D+01
 Gap=    -0.019 Goal=   None    Shift=    0.300
 Gap=     0.088 Goal=   None    Shift=    0.300
 RMSDP=1.54D-05 MaxDP=7.02D-04 DE=-2.43D-05 OVMax= 7.46D-03

 Cycle  37  Pass 1  IDiag  1:
 RMSU=  7.92D-06    CP:  9.99D-01  3.00D+00  3.00D+00  3.00D+00  3.00D+00
                    CP:  3.00D+00  3.00D+00  3.00D+00  3.00D+00  3.00D+00
                    CP:  3.00D+00  3.00D+00  3.00D+00  3.00D+00  3.00D+00
                    CP:  1.54D+00
 E= -1487.21150310487     Delta-E=       -0.000021404112 Rises=F Damp=F
 DIIS: error= 2.60D-04 at cycle  37 NSaved=  20.
 NSaved=20 IEnMin=20 EnMin= -1487.21150310487     IErMin=20 ErrMin= 2.60D-04
 ErrMax= 2.60D-04  0.00D+00 EMaxC= 1.00D-01 BMatC= 2.03D-05 BMatP= 3.40D-05
 IDIUse=3 WtCom= 9.97D-01 WtEn= 2.60D-03
 Coeff-Com: -0.108D+00-0.146D+00-0.338D-01 0.409D+00 0.161D+00-0.940D-01
 Coeff-Com: -0.268D+00-0.221D-01 0.576D-01-0.316D-01-0.178D+00 0.715D-01
 Coeff-Com:  0.104D+01-0.233D+01 0.144D+01-0.183D+00 0.315D+00-0.112D+01
 Coeff-Com:  0.314D+00 0.172D+01
 Coeff-En:   0.000D+00 0.000D+00 0.000D+00 0.000D+00 0.000D+00 0.000D+00
 Coeff-En:   0.000D+00 0.000D+00 0.000D+00 0.000D+00 0.000D+00 0.000D+00
 Coeff-En:   0.000D+00 0.000D+00 0.000D+00 0.000D+00 0.000D+00 0.000D+00
 Coeff-En:   0.000D+00 0.100D+01
 Coeff:     -0.108D+00-0.146D+00-0.337D-01 0.407D+00 0.161D+00-0.937D-01
 Coeff:     -0.267D+00-0.220D-01 0.574D-01-0.315D-01-0.178D+00 0.713D-01
 Coeff:      0.103D+01-0.233D+01 0.143D+01-0.182D+00 0.314D+00-0.112D+01
 Coeff:      0.313D+00 0.172D+01
 Gap=    -0.019 Goal=   None    Shift=    0.300
 Gap=     0.088 Goal=   None    Shift=    0.300
 RMSDP=1.33D-05 MaxDP=6.05D-04 DE=-2.14D-05 OVMax= 6.57D-03

 Cycle  38  Pass 1  IDiag  1:
 RMSU=  9.24D-06    CP:  9.99D-01  3.00D+00  3.00D+00  3.00D+00  3.00D+00
                    CP:  3.00D+00  3.00D+00  3.00D+00  3.00D+00  3.00D+00
                    CP:  3.00D+00  3.00D+00  3.00D+00  3.00D+00  3.00D+00
                    CP:  2.46D+00  1.94D+00
 E= -1487.21151822732     Delta-E=       -0.000015122449 Rises=F Damp=F
 DIIS: error= 2.34D-04 at cycle  38 NSaved=  20.
 NSaved=20 IEnMin=20 EnMin= -1487.21151822732     IErMin=20 ErrMin= 2.34D-04
 ErrMax= 2.34D-04  0.00D+00 EMaxC= 1.00D-01 BMatC= 1.54D-05 BMatP= 2.03D-05
 IDIUse=3 WtCom= 9.98D-01 WtEn= 2.34D-03
 Coeff-Com: -0.959D-01-0.854D-02 0.390D-01-0.202D+00 0.130D+00 0.224D+00
 Coeff-Com:  0.498D-01 0.132D+00-0.548D+00-0.244D+00 0.120D+00 0.656D+00
 Coeff-Com: -0.123D+00-0.952D-01 0.207D+00 0.313D+00-0.200D+01-0.404D+00
 Coeff-Com:  0.112D+01 0.173D+01
 Coeff-En:   0.000D+00 0.000D+00 0.000D+00 0.000D+00 0.000D+00 0.000D+00
 Coeff-En:   0.000D+00 0.000D+00 0.000D+00 0.000D+00 0.000D+00 0.000D+00
 Coeff-En:   0.000D+00 0.000D+00 0.000D+00 0.000D+00 0.000D+00 0.000D+00
 Coeff-En:   0.000D+00 0.100D+01
 Coeff:     -0.956D-01-0.852D-02 0.389D-01-0.202D+00 0.129D+00 0.224D+00
 Coeff:      0.496D-01 0.132D+00-0.547D+00-0.244D+00 0.119D+00 0.654D+00
 Coeff:     -0.122D+00-0.950D-01 0.207D+00 0.312D+00-0.199D+01-0.403D+00
 Coeff:      0.112D+01 0.173D+01
 Gap=    -0.019 Goal=   None    Shift=    0.300
 Gap=     0.089 Goal=   None    Shift=    0.300
 RMSDP=1.44D-05 MaxDP=7.00D-04 DE=-1.51D-05 OVMax= 6.90D-03

 Cycle  39  Pass 1  IDiag  1:
 RMSU=  3.98D-06    CP:  9.99D-01  3.00D+00  3.00D+00  3.00D+00  3.00D+00
                    CP:  3.00D+00  3.00D+00  3.00D+00  3.00D+00  3.00D+00
                    CP:  3.00D+00  3.00D+00  3.00D+00  3.00D+00  3.00D+00
                    CP:  3.00D+00  2.87D+00  2.16D+00
 E= -1487.21153007039     Delta-E=       -0.000011843063 Rises=F Damp=F
 DIIS: error= 2.18D-04 at cycle  39 NSaved=  20.
 NSaved=20 IEnMin=20 EnMin= -1487.21153007039     IErMin=20 ErrMin= 2.18D-04
 ErrMax= 2.18D-04  0.00D+00 EMaxC= 1.00D-01 BMatC= 1.88D-05 BMatP= 1.54D-05
 IDIUse=3 WtCom= 9.98D-01 WtEn= 2.34D-03
 Coeff-Com:  0.394D-01-0.103D+00-0.362D+00 0.142D+00 0.330D+00 0.170D+00
 Coeff-Com:  0.222D+00-0.727D+00-0.354D+00 0.443D-01 0.841D+00-0.131D+00
 Coeff-Com:  0.564D-01 0.247D+00 0.361D+00-0.181D+01-0.107D+01 0.103D+01
 Coeff-Com:  0.125D+01 0.829D+00
 Coeff-En:   0.000D+00 0.000D+00 0.000D+00 0.000D+00 0.000D+00 0.000D+00
 Coeff-En:   0.000D+00 0.000D+00 0.000D+00 0.000D+00 0.000D+00 0.000D+00
 Coeff-En:   0.000D+00 0.000D+00 0.000D+00 0.000D+00 0.000D+00 0.000D+00
 Coeff-En:   0.000D+00 0.100D+01
 Coeff:      0.393D-01-0.103D+00-0.361D+00 0.141D+00 0.329D+00 0.170D+00
 Coeff:      0.221D+00-0.725D+00-0.353D+00 0.442D-01 0.840D+00-0.131D+00
 Coeff:      0.563D-01 0.246D+00 0.360D+00-0.181D+01-0.107D+01 0.103D+01
 Coeff:      0.125D+01 0.829D+00
 Gap=    -0.019 Goal=   None    Shift=    0.300
 Gap=     0.089 Goal=   None    Shift=    0.300
 RMSDP=1.25D-05 MaxDP=5.76D-04 DE=-1.18D-05 OVMax= 6.17D-03

 Cycle  40  Pass 1  IDiag  1:
 RMSU=  7.36D-06    CP:  9.99D-01  3.00D+00  3.00D+00  3.00D+00  3.00D+00
                    CP:  3.00D+00  3.00D+00  3.00D+00  3.00D+00  3.00D+00
                    CP:  3.00D+00  3.00D+00  3.00D+00  3.00D+00  3.00D+00
                    CP:  3.00D+00  3.00D+00  3.00D+00  1.98D+00
 E= -1487.21154118872     Delta-E=       -0.000011118334 Rises=F Damp=F
 DIIS: error= 1.98D-04 at cycle  40 NSaved=  20.
 NSaved=20 IEnMin=20 EnMin= -1487.21154118872     IErMin=20 ErrMin= 1.98D-04
 ErrMax= 1.98D-04  0.00D+00 EMaxC= 1.00D-01 BMatC= 1.65D-05 BMatP= 1.54D-05
 IDIUse=3 WtCom= 9.98D-01 WtEn= 1.98D-03
 Coeff-Com: -0.426D-01-0.302D+00 0.980D-01 0.270D+00 0.175D+00 0.222D+00
 Coeff-Com: -0.679D+00-0.339D+00-0.466D-02 0.887D+00-0.500D+00 0.405D+00
 Coeff-Com:  0.207D+00 0.434D+00-0.151D+01-0.124D+01 0.981D+00 0.931D+00
 Coeff-Com:  0.367D+00 0.642D+00
 Coeff-En:   0.000D+00 0.000D+00 0.000D+00 0.000D+00 0.000D+00 0.000D+00
 Coeff-En:   0.000D+00 0.000D+00 0.000D+00 0.000D+00 0.000D+00 0.000D+00
 Coeff-En:   0.000D+00 0.000D+00 0.000D+00 0.000D+00 0.000D+00 0.000D+00
 Coeff-En:   0.000D+00 0.100D+01
 Coeff:     -0.425D-01-0.301D+00 0.978D-01 0.269D+00 0.175D+00 0.222D+00
 Coeff:     -0.678D+00-0.338D+00-0.465D-02 0.886D+00-0.499D+00 0.404D+00
 Coeff:      0.207D+00 0.433D+00-0.151D+01-0.124D+01 0.979D+00 0.930D+00
 Coeff:      0.366D+00 0.643D+00
 Gap=    -0.019 Goal=   None    Shift=    0.300
 Gap=     0.089 Goal=   None    Shift=    0.300
 RMSDP=1.06D-05 MaxDP=4.82D-04 DE=-1.11D-05 OVMax= 5.28D-03

 Cycle  41  Pass 1  IDiag  1:
 Restarting incremental Fock formation.
 E= -1487.21155087867     Delta-E=       -0.000009689948 Rises=F Damp=F
 DIIS: error= 1.76D-04 at cycle  41 NSaved=  20.
 NSaved=20 IEnMin=20 EnMin= -1487.21155087867     IErMin=20 ErrMin= 1.76D-04
 ErrMax= 1.76D-04  0.00D+00 EMaxC= 1.00D-01 BMatC= 1.19D-05 BMatP= 1.54D-05
 IDIUse=3 WtCom= 9.98D-01 WtEn= 1.76D-03
 Coeff-Com: -0.141D+00-0.137D-01 0.688D-01 0.182D+00 0.157D+00-0.388D+00
 Coeff-Com: -0.233D+00-0.563D-01 0.402D+00-0.538D-01 0.174D+00 0.181D+00
 Coeff-Com:  0.261D+00-0.102D+01-0.823D+00 0.693D+00 0.633D+00 0.213D+00
 Coeff-Com: -0.146D+01 0.222D+01
 Coeff-En:   0.000D+00 0.000D+00 0.000D+00 0.000D+00 0.000D+00 0.000D+00
 Coeff-En:   0.000D+00 0.000D+00 0.000D+00 0.000D+00 0.000D+00 0.000D+00
 Coeff-En:   0.000D+00 0.000D+00 0.000D+00 0.000D+00 0.000D+00 0.000D+00
 Coeff-En:   0.000D+00 0.100D+01
 Coeff:     -0.141D+00-0.137D-01 0.687D-01 0.182D+00 0.157D+00-0.387D+00
 Coeff:     -0.232D+00-0.562D-01 0.401D+00-0.537D-01 0.173D+00 0.180D+00
 Coeff:      0.260D+00-0.101D+01-0.822D+00 0.692D+00 0.632D+00 0.212D+00
 Coeff:     -0.146D+01 0.222D+01
 Gap=    -0.019 Goal=   None    Shift=    0.300
 Gap=     0.089 Goal=   None    Shift=    0.300
 RMSDP=1.04D-05 MaxDP=4.86D-04 DE=-9.69D-06 OVMax= 5.05D-03

 Cycle  42  Pass 1  IDiag  1:
 RMSU=  1.04D-05    CP:  1.00D+00
 E= -1487.21155890608     Delta-E=       -0.000008027410 Rises=F Damp=F
 DIIS: error= 1.62D-04 at cycle  42 NSaved=  20.
 NSaved=20 IEnMin=20 EnMin= -1487.21155890608     IErMin=20 ErrMin= 1.62D-04
 ErrMax= 1.62D-04  0.00D+00 EMaxC= 1.00D-01 BMatC= 1.04D-05 BMatP= 1.19D-05
 IDIUse=3 WtCom= 9.98D-01 WtEn= 1.62D-03
 Coeff-Com: -0.793D-01-0.538D-01 0.162D+00 0.117D+00-0.173D+00-0.172D+00
 Coeff-Com: -0.791D-01 0.197D+00-0.935D-01 0.187D+00 0.120D+00 0.247D+00
 Coeff-Com: -0.722D+00-0.402D+00 0.402D+00 0.549D+00 0.307D+00-0.284D+01
 Coeff-Com:  0.223D+01 0.109D+01
 Coeff-En:   0.000D+00 0.000D+00 0.000D+00 0.000D+00 0.000D+00 0.000D+00
 Coeff-En:   0.000D+00 0.000D+00 0.000D+00 0.000D+00 0.000D+00 0.000D+00
 Coeff-En:   0.000D+00 0.000D+00 0.000D+00 0.000D+00 0.000D+00 0.000D+00
 Coeff-En:   0.000D+00 0.100D+01
 Coeff:     -0.792D-01-0.537D-01 0.162D+00 0.117D+00-0.173D+00-0.172D+00
 Coeff:     -0.789D-01 0.196D+00-0.934D-01 0.187D+00 0.120D+00 0.247D+00
 Coeff:     -0.721D+00-0.401D+00 0.401D+00 0.548D+00 0.307D+00-0.283D+01
 Coeff:      0.223D+01 0.109D+01
 Gap=    -0.019 Goal=   None    Shift=    0.300
 Gap=     0.089 Goal=   None    Shift=    0.300
 RMSDP=9.51D-06 MaxDP=4.34D-04 DE=-8.03D-06 OVMax= 4.62D-03

 Cycle  43  Pass 1  IDiag  1:
 RMSU=  1.05D-06    CP:  1.00D+00  1.91D+00
 E= -1487.21156616275     Delta-E=       -0.000007256677 Rises=F Damp=F
 DIIS: error= 1.47D-04 at cycle  43 NSaved=  20.
 NSaved=20 IEnMin=20 EnMin= -1487.21156616275     IErMin=20 ErrMin= 1.47D-04
 ErrMax= 1.47D-04  0.00D+00 EMaxC= 1.00D-01 BMatC= 8.59D-06 BMatP= 1.04D-05
 IDIUse=3 WtCom= 9.99D-01 WtEn= 1.47D-03
 Coeff-Com: -0.696D-01 0.805D-01 0.697D-01-0.137D+00-0.125D+00-0.726D-01
 Coeff-Com:  0.146D+00-0.616D-01 0.166D+00 0.158D+00 0.146D+00-0.690D+00
 Coeff-Com: -0.289D+00 0.406D+00 0.501D+00 0.294D+00-0.323D+01 0.251D+01
 Coeff-Com:  0.158D+01-0.387D+00
 Coeff-En:   0.000D+00 0.000D+00 0.000D+00 0.000D+00 0.000D+00 0.000D+00
 Coeff-En:   0.000D+00 0.000D+00 0.000D+00 0.000D+00 0.000D+00 0.000D+00
 Coeff-En:   0.000D+00 0.000D+00 0.000D+00 0.000D+00 0.000D+00 0.000D+00
 Coeff-En:   0.000D+00 0.100D+01
 Coeff:     -0.695D-01 0.804D-01 0.696D-01-0.137D+00-0.125D+00-0.725D-01
 Coeff:      0.145D+00-0.615D-01 0.166D+00 0.158D+00 0.146D+00-0.689D+00
 Coeff:     -0.289D+00 0.406D+00 0.500D+00 0.294D+00-0.322D+01 0.250D+01
 Coeff:      0.158D+01-0.385D+00
 Gap=    -0.019 Goal=   None    Shift=    0.300
 Gap=     0.089 Goal=   None    Shift=    0.300
 RMSDP=8.22D-06 MaxDP=3.59D-04 DE=-7.26D-06 OVMax= 4.02D-03

 Cycle  44  Pass 1  IDiag  1:
 RMSU=  8.38D-07    CP:  1.00D+00  2.68D+00  2.61D+00
 E= -1487.21157265547     Delta-E=       -0.000006492719 Rises=F Damp=F
 DIIS: error= 1.33D-04 at cycle  44 NSaved=  20.
 NSaved=20 IEnMin=20 EnMin= -1487.21157265547     IErMin=20 ErrMin= 1.33D-04
 ErrMax= 1.33D-04  0.00D+00 EMaxC= 1.00D-01 BMatC= 6.09D-06 BMatP= 8.59D-06
 IDIUse=3 WtCom= 9.99D-01 WtEn= 1.33D-03
 Coeff-Com:  0.213D-01 0.441D-01-0.156D+00-0.104D+00-0.620D-01 0.167D+00
 Coeff-Com: -0.106D+00 0.190D+00 0.167D+00 0.159D+00-0.705D+00-0.300D+00
 Coeff-Com:  0.403D+00 0.511D+00 0.302D+00-0.330D+01 0.257D+01 0.144D+01
 Coeff-Com: -0.562D-01-0.188D+00
 Coeff-En:   0.000D+00 0.000D+00 0.000D+00 0.000D+00 0.000D+00 0.000D+00
 Coeff-En:   0.000D+00 0.000D+00 0.000D+00 0.000D+00 0.000D+00 0.000D+00
 Coeff-En:   0.000D+00 0.000D+00 0.000D+00 0.000D+00 0.000D+00 0.000D+00
 Coeff-En:   0.000D+00 0.100D+01
 Coeff:      0.213D-01 0.441D-01-0.155D+00-0.104D+00-0.619D-01 0.167D+00
 Coeff:     -0.105D+00 0.190D+00 0.166D+00 0.159D+00-0.704D+00-0.299D+00
 Coeff:      0.402D+00 0.510D+00 0.302D+00-0.329D+01 0.257D+01 0.144D+01
 Coeff:     -0.561D-01-0.187D+00
 Gap=    -0.019 Goal=   None    Shift=    0.300
 Gap=     0.089 Goal=   None    Shift=    0.300
 RMSDP=7.25D-06 MaxDP=3.74D-04 DE=-6.49D-06 OVMax= 3.53D-03

 Cycle  45  Pass 1  IDiag  1:
 RMSU=  3.87D-06    CP:  1.00D+00  3.00D+00  3.00D+00  2.35D+00
 E= -1487.21157836400     Delta-E=       -0.000005708522 Rises=F Damp=F
 DIIS: error= 1.19D-04 at cycle  45 NSaved=  20.
 NSaved=20 IEnMin=20 EnMin= -1487.21157836400     IErMin=20 ErrMin= 1.19D-04
 ErrMax= 1.19D-04  0.00D+00 EMaxC= 1.00D-01 BMatC= 4.13D-06 BMatP= 6.09D-06
 IDIUse=3 WtCom= 9.99D-01 WtEn= 1.19D-03
 Coeff-Com:  0.476D-01-0.129D+00-0.983D-01-0.713D-01 0.168D+00-0.101D+00
 Coeff-Com:  0.179D+00 0.154D+00 0.190D+00-0.717D+00-0.301D+00 0.385D+00
 Coeff-Com:  0.540D+00 0.316D+00-0.343D+01 0.266D+01 0.139D+01-0.348D+00
 Coeff-Com:  0.672D+00-0.505D+00
 Coeff-En:   0.000D+00 0.000D+00 0.000D+00 0.000D+00 0.000D+00 0.000D+00
 Coeff-En:   0.000D+00 0.000D+00 0.000D+00 0.000D+00 0.000D+00 0.000D+00
 Coeff-En:   0.000D+00 0.000D+00 0.000D+00 0.000D+00 0.000D+00 0.000D+00
 Coeff-En:   0.000D+00 0.100D+01
 Coeff:      0.475D-01-0.128D+00-0.982D-01-0.713D-01 0.168D+00-0.101D+00
 Coeff:      0.179D+00 0.154D+00 0.190D+00-0.716D+00-0.301D+00 0.384D+00
 Coeff:      0.539D+00 0.316D+00-0.343D+01 0.266D+01 0.139D+01-0.348D+00
 Coeff:      0.671D+00-0.503D+00
 Gap=    -0.019 Goal=   None    Shift=    0.300
 Gap=     0.089 Goal=   None    Shift=    0.300
 RMSDP=6.66D-06 MaxDP=3.97D-04 DE=-5.71D-06 OVMax= 3.21D-03

 Cycle  46  Pass 1  IDiag  1:
 RMSU=  9.27D-07    CP:  1.00D+00  3.00D+00  3.00D+00  3.00D+00  2.68D+00
 E= -1487.21158346713     Delta-E=       -0.000005103137 Rises=F Damp=F
 DIIS: error= 1.07D-04 at cycle  46 NSaved=  20.
 NSaved=20 IEnMin=20 EnMin= -1487.21158346713     IErMin=20 ErrMin= 1.07D-04
 ErrMax= 1.07D-04  0.00D+00 EMaxC= 1.00D-01 BMatC= 3.09D-06 BMatP= 4.13D-06
 IDIUse=3 WtCom= 9.99D-01 WtEn= 1.07D-03
 Coeff-Com: -0.920D-01-0.502D-01-0.527D-01 0.557D-01 0.694D-01 0.544D-01
 Coeff-Com:  0.177D+00 0.119D+00-0.673D+00-0.190D+00 0.349D+00 0.486D+00
 Coeff-Com:  0.293D+00-0.355D+01 0.277D+01 0.156D+01 0.108D+01-0.485D+01
 Coeff-Com:  0.585D+01-0.241D+01
 Coeff-En:   0.000D+00 0.000D+00 0.000D+00 0.000D+00 0.000D+00 0.000D+00
 Coeff-En:   0.000D+00 0.000D+00 0.000D+00 0.000D+00 0.000D+00 0.000D+00
 Coeff-En:   0.000D+00 0.000D+00 0.000D+00 0.000D+00 0.000D+00 0.000D+00
 Coeff-En:   0.000D+00 0.100D+01
 Coeff:     -0.919D-01-0.502D-01-0.527D-01 0.557D-01 0.693D-01 0.543D-01
 Coeff:      0.177D+00 0.118D+00-0.672D+00-0.189D+00 0.348D+00 0.485D+00
 Coeff:      0.293D+00-0.355D+01 0.276D+01 0.156D+01 0.108D+01-0.484D+01
 Coeff:      0.585D+01-0.241D+01
 Gap=    -0.019 Goal=   None    Shift=    0.300
 Gap=     0.089 Goal=   None    Shift=    0.300
 RMSDP=6.04D-06 MaxDP=4.20D-04 DE=-5.10D-06 OVMax= 2.86D-03

 Cycle  47  Pass 1  IDiag  1:
 RMSU=  4.75D-06    CP:  1.00D+00  3.00D+00  3.00D+00  3.00D+00  3.00D+00
                    CP:  2.06D+00
 E= -1487.21158818332     Delta-E=       -0.000004716187 Rises=F Damp=F
 DIIS: error= 9.60D-05 at cycle  47 NSaved=  20.
 NSaved=20 IEnMin=20 EnMin= -1487.21158818332     IErMin=20 ErrMin= 9.60D-05
 ErrMax= 9.60D-05  0.00D+00 EMaxC= 1.00D-01 BMatC= 2.51D-06 BMatP= 3.09D-06
 IDIUse=1 WtCom= 1.00D+00 WtEn= 0.00D+00
 Coeff-Com: -0.170D+00-0.127D+00 0.169D+00-0.839D-01 0.212D+00 0.204D+00
 Coeff-Com:  0.222D+00-0.769D+00-0.384D+00 0.430D+00 0.661D+00 0.359D+00
 Coeff-Com: -0.423D+01 0.307D+01 0.214D+01-0.191D+01 0.380D+01-0.718D+01
 Coeff-Com:  0.846D+01-0.387D+01
 Coeff:     -0.170D+00-0.127D+00 0.169D+00-0.839D-01 0.212D+00 0.204D+00
 Coeff:      0.222D+00-0.769D+00-0.384D+00 0.430D+00 0.661D+00 0.359D+00
 Coeff:     -0.423D+01 0.307D+01 0.214D+01-0.191D+01 0.380D+01-0.718D+01
 Coeff:      0.846D+01-0.387D+01
 Gap=    -0.019 Goal=   None    Shift=    0.300
 Gap=     0.089 Goal=   None    Shift=    0.300
 RMSDP=6.08D-06 MaxDP=4.34D-04 DE=-4.72D-06 OVMax= 2.84D-03

 Cycle  48  Pass 1  IDiag  1:
 RMSU=  1.13D-06    CP:  1.00D+00  3.00D+00  3.00D+00  3.00D+00  3.00D+00
                    CP:  3.00D+00  2.24D+00
 E= -1487.21159280096     Delta-E=       -0.000004617637 Rises=F Damp=F
 DIIS: error= 8.82D-05 at cycle  48 NSaved=  20.
 NSaved=20 IEnMin=20 EnMin= -1487.21159280096     IErMin=20 ErrMin= 8.82D-05
 ErrMax= 8.82D-05  0.00D+00 EMaxC= 1.00D-01 BMatC= 2.75D-06 BMatP= 2.51D-06
 IDIUse=1 WtCom= 1.00D+00 WtEn= 0.00D+00
 Coeff-Com: -0.157D+00-0.588D-01 0.138D+00 0.374D-01 0.170D+00 0.117D+00
 Coeff-Com: -0.611D+00-0.160D+00 0.326D+00 0.536D+00 0.323D+00-0.452D+01
 Coeff-Com:  0.330D+01 0.239D+01-0.125D+01 0.105D+01-0.281D+01 0.425D+01
 Coeff-Com: -0.150D+01-0.571D+00
 Coeff:     -0.157D+00-0.588D-01 0.138D+00 0.374D-01 0.170D+00 0.117D+00
 Coeff:     -0.611D+00-0.160D+00 0.326D+00 0.536D+00 0.323D+00-0.452D+01
 Coeff:      0.330D+01 0.239D+01-0.125D+01 0.105D+01-0.281D+01 0.425D+01
 Coeff:     -0.150D+01-0.571D+00
 Gap=    -0.019 Goal=   None    Shift=    0.300
 Gap=     0.089 Goal=   None    Shift=    0.300
 RMSDP=5.79D-06 MaxDP=4.69D-04 DE=-4.62D-06 OVMax= 2.66D-03

 Cycle  49  Pass 1  IDiag  1:
 RMSU=  2.27D-06    CP:  1.00D+00  3.00D+00  3.00D+00  3.00D+00  3.00D+00
                    CP:  3.00D+00  3.00D+00  1.41D+00
 E= -1487.21159762320     Delta-E=       -0.000004822241 Rises=F Damp=F
 DIIS: error= 9.72D-05 at cycle  49 NSaved=  20.
 NSaved=20 IEnMin=20 EnMin= -1487.21159762320     IErMin=19 ErrMin= 8.82D-05
 ErrMax= 9.72D-05  0.00D+00 EMaxC= 1.00D-01 BMatC= 2.80D-06 BMatP= 2.51D-06
 IDIUse=1 WtCom= 1.00D+00 WtEn= 0.00D+00
 Large coefficients: NSaved= 20 BigCof=   10.33 CofMax=   10.00 Det=-1.27D-10
 Inversion failed.  Reducing to 19 matrices.
 Coeff-Com: -0.140D+00 0.895D-01 0.102D+00-0.942D-01-0.294D+00-0.152D-01
 Coeff-Com:  0.300D+00 0.302D+00 0.162D+00-0.376D+01 0.271D+01 0.224D+01
 Coeff-Com:  0.116D+01-0.724D+01 0.884D+01-0.391D+01 0.174D+00 0.251D+01
 Coeff-Com: -0.215D+01
 Coeff:     -0.140D+00 0.895D-01 0.102D+00-0.942D-01-0.294D+00-0.152D-01
 Coeff:      0.300D+00 0.302D+00 0.162D+00-0.376D+01 0.271D+01 0.224D+01
 Coeff:      0.116D+01-0.724D+01 0.884D+01-0.391D+01 0.174D+00 0.251D+01
 Coeff:     -0.215D+01
 Gap=    -0.019 Goal=   None    Shift=    0.300
 Gap=     0.089 Goal=   None    Shift=    0.300
 RMSDP=5.57D-06 MaxDP=4.89D-04 DE=-4.82D-06 OVMax= 2.50D-03

 Cycle  50  Pass 1  IDiag  1:
 RMSU=  1.61D-06    CP:  1.00D+00  3.00D+00  3.00D+00  3.00D+00  3.00D+00
                    CP:  3.00D+00  3.00D+00  1.41D+00  3.00D+00
 E= -1487.21160249359     Delta-E=       -0.000004870391 Rises=F Damp=F
 DIIS: error= 1.07D-04 at cycle  50 NSaved=  20.
 NSaved=20 IEnMin=20 EnMin= -1487.21160249359     IErMin=18 ErrMin= 8.82D-05
 ErrMax= 1.07D-04  0.00D+00 EMaxC= 1.00D-01 BMatC= 3.22D-06 BMatP= 2.51D-06
 IDIUse=1 WtCom= 1.00D+00 WtEn= 0.00D+00
 Coeff-Com: -0.140D+00 0.898D-01 0.102D+00-0.924D-01-0.295D+00-0.177D-01
 Coeff-Com:  0.300D+00 0.304D+00 0.161D+00-0.376D+01 0.271D+01 0.224D+01
 Coeff-Com:  0.115D+01-0.721D+01 0.879D+01-0.387D+01 0.160D+00 0.248D+01
 Coeff-Com: -0.210D+01-0.184D-01
 Coeff:     -0.140D+00 0.898D-01 0.102D+00-0.924D-01-0.295D+00-0.177D-01
 Coeff:      0.300D+00 0.304D+00 0.161D+00-0.376D+01 0.271D+01 0.224D+01
 Coeff:      0.115D+01-0.721D+01 0.879D+01-0.387D+01 0.160D+00 0.248D+01
 Coeff:     -0.210D+01-0.184D-01
 Gap=    -0.019 Goal=   None    Shift=    0.300
 Gap=     0.089 Goal=   None    Shift=    0.300
 RMSDP=5.66D-06 MaxDP=5.22D-04 DE=-4.87D-06 OVMax= 2.53D-03

 Cycle  51  Pass 1  IDiag  1:
 RMSU=  4.06D-06    CP:  1.00D+00  3.00D+00  3.00D+00  3.00D+00  3.00D+00
                    CP:  3.00D+00  3.00D+00  1.68D+00  3.00D+00  3.00D+00
 E= -1487.21160773062     Delta-E=       -0.000005237027 Rises=F Damp=F
 DIIS: error= 1.18D-04 at cycle  51 NSaved=  20.
 NSaved=20 IEnMin=20 EnMin= -1487.21160773062     IErMin=17 ErrMin= 8.82D-05
 ErrMax= 1.18D-04  0.00D+00 EMaxC= 1.00D-01 BMatC= 3.97D-06 BMatP= 2.51D-06
 IDIUse=1 WtCom= 1.00D+00 WtEn= 0.00D+00
 Large coefficients: NSaved= 20 BigCof=   15.38 CofMax=   10.00 Det=-2.03D-10
 Inversion failed.  Reducing to 19 matrices.
 Large coefficients: NSaved= 19 BigCof=   14.89 CofMax=   10.00 Det=-2.03D-10
 Inversion failed.  Reducing to 18 matrices.
 Large coefficients: NSaved= 18 BigCof=   14.85 CofMax=   10.00 Det=-2.05D-10
 Inversion failed.  Reducing to 17 matrices.
 Large coefficients: NSaved= 17 BigCof=   14.69 CofMax=   10.00 Det=-2.31D-10
 Inversion failed.  Reducing to 16 matrices.
 Large coefficients: NSaved= 16 BigCof=   14.68 CofMax=   10.00 Det=-2.39D-10
 Inversion failed.  Reducing to 15 matrices.
 Large coefficients: NSaved= 15 BigCof=   14.87 CofMax=   10.00 Det=-1.45D-10
 Inversion failed.  Reducing to 14 matrices.
 Large coefficients: NSaved= 14 BigCof=   14.24 CofMax=   10.00 Det=-1.52D-10
 Inversion failed.  Reducing to 13 matrices.
 Large coefficients: NSaved= 13 BigCof=   14.43 CofMax=   10.00 Det=-1.82D-10
 Inversion failed.  Reducing to 12 matrices.
 Large coefficients: NSaved= 12 BigCof=   14.45 CofMax=   10.00 Det=-1.92D-10
 Inversion failed.  Reducing to 11 matrices.
 Large coefficients: NSaved= 11 BigCof=   18.23 CofMax=   10.00 Det=-2.24D-10
 Inversion failed.  Reducing to 10 matrices.
 Large coefficients: NSaved= 10 BigCof=   19.39 CofMax=   10.00 Det=-3.61D-10
 Inversion failed.  Reducing to  9 matrices.
 Large coefficients: NSaved=  9 BigCof=   18.16 CofMax=   10.00 Det=-4.28D-10
 Inversion failed.  Reducing to  8 matrices.
 Large coefficients: NSaved=  8 BigCof=   19.18 CofMax=   10.00 Det=-8.36D-10
 Inversion failed.  Reducing to  7 matrices.
 Large coefficients: NSaved=  7 BigCof=   19.45 CofMax=   10.00 Det=-1.02D-09
 Inversion failed.  Reducing to  6 matrices.
 Large coefficients: NSaved=  6 BigCof=   16.22 CofMax=   10.00 Det=-2.43D-09
 Inversion failed.  Reducing to  5 matrices.
 Large coefficients: NSaved=  5 BigCof=   10.51 CofMax=   10.00 Det=-3.19D-09
 Inversion failed.  Reducing to  4 matrices.
 Large coefficients: NSaved=  4 BigCof=   13.22 CofMax=   10.00 Det=-5.67D-09
 Inversion failed.  Reducing to  3 matrices.
 Large coefficients: NSaved=  3 BigCof=   13.21 CofMax=   10.00 Det=-5.69D-09
 Inversion failed.  Reducing to  2 matrices.
 Coeff-Com:  0.419D+01-0.319D+01
 Coeff:      0.419D+01-0.319D+01
 Gap=    -0.019 Goal=   None    Shift=    0.300
 Gap=     0.089 Goal=   None    Shift=    0.300
 RMSDP=7.23D-06 MaxDP=6.66D-04 DE=-5.24D-06 OVMax= 2.99D-03

 Cycle  52  Pass 1  IDiag  1:
 RMSU=  4.17D-06    CP:  1.00D+00  3.00D+00  3.00D+00  3.00D+00  3.00D+00
                    CP:  2.67D+00  3.00D+00  1.10D+00  3.00D+00  3.00D+00
                    CP:  2.43D+00
 E= -1487.21161442882     Delta-E=       -0.000006698207 Rises=F Damp=F
 DIIS: error= 1.31D-04 at cycle  52 NSaved=   3.
 NSaved= 3 IEnMin= 3 EnMin= -1487.21161442882     IErMin= 1 ErrMin= 1.07D-04
 ErrMax= 1.31D-04  0.00D+00 EMaxC= 1.00D-01 BMatC= 5.58D-06 BMatP= 3.22D-06
 IDIUse=1 WtCom= 1.00D+00 WtEn= 0.00D+00
 Coeff-Com:  0.536D+01-0.497D+01 0.608D+00
 Coeff:      0.536D+01-0.497D+01 0.608D+00
 Gap=    -0.019 Goal=   None    Shift=    0.300
 Gap=     0.089 Goal=   None    Shift=    0.300
 RMSDP=7.15D-06 MaxDP=6.99D-04 DE=-6.70D-06 OVMax= 3.09D-03

 Cycle  53  Pass 1  IDiag  1:
 RMSU=  4.40D-06    CP:  1.00D+00  3.00D+00  3.00D+00  3.00D+00  3.00D+00
                    CP:  2.02D+00  3.00D+00  1.35D+00  3.00D+00  3.00D+00
                    CP:  3.00D+00  1.72D+00
 E= -1487.21162202593     Delta-E=       -0.000007597105 Rises=F Damp=F
 DIIS: error= 1.46D-04 at cycle  53 NSaved=   4.
 NSaved= 4 IEnMin= 4 EnMin= -1487.21162202593     IErMin= 1 ErrMin= 1.07D-04
 ErrMax= 1.46D-04  0.00D+00 EMaxC= 1.00D-01 BMatC= 6.86D-06 BMatP= 3.22D-06
 IDIUse=1 WtCom= 1.00D+00 WtEn= 0.00D+00
 Coeff-Com:  0.642D+01-0.627D+01 0.325D+00 0.522D+00
 Coeff:      0.642D+01-0.627D+01 0.325D+00 0.522D+00
 Gap=    -0.019 Goal=   None    Shift=    0.300
 Gap=     0.089 Goal=   None    Shift=    0.300
 RMSDP=7.51D-06 MaxDP=7.45D-04 DE=-7.60D-06 OVMax= 3.26D-03

 Cycle  54  Pass 1  IDiag  1:
 RMSU=  1.94D-06    CP:  1.00D+00  3.00D+00  3.00D+00  3.00D+00  3.00D+00
                    CP:  1.28D+00  3.00D+00  1.63D+00  3.00D+00  3.00D+00
                    CP:  3.00D+00  2.49D+00  2.47D+00
 E= -1487.21163070629     Delta-E=       -0.000008680364 Rises=F Damp=F
 DIIS: error= 1.61D-04 at cycle  54 NSaved=   5.
 NSaved= 5 IEnMin= 5 EnMin= -1487.21163070629     IErMin= 1 ErrMin= 1.07D-04
 ErrMax= 1.61D-04  0.00D+00 EMaxC= 1.00D-01 BMatC= 8.55D-06 BMatP= 3.22D-06
 IDIUse=1 WtCom= 1.00D+00 WtEn= 0.00D+00
 Coeff-Com: -0.242D+01 0.366D+01-0.284D+00 0.658D+01-0.654D+01
 Coeff:     -0.242D+01 0.366D+01-0.284D+00 0.658D+01-0.654D+01
 Gap=    -0.019 Goal=   None    Shift=    0.300
 Gap=     0.089 Goal=   None    Shift=    0.300
 RMSDP=7.61D-06 MaxDP=6.91D-04 DE=-8.68D-06 OVMax= 3.15D-03

 Cycle  55  Pass 1  IDiag  1:
 RMSU=  4.52D-06    CP:  1.00D+00  3.00D+00  3.00D+00  3.00D+00  3.00D+00
                    CP:  1.38D+00  3.00D+00  3.00D+00  3.00D+00  3.00D+00
                    CP:  3.00D+00  3.00D+00  3.00D+00  1.73D+00
 E= -1487.21164020150     Delta-E=       -0.000009495213 Rises=F Damp=F
 DIIS: error= 1.74D-04 at cycle  55 NSaved=   6.
 NSaved= 6 IEnMin= 6 EnMin= -1487.21164020150     IErMin= 1 ErrMin= 1.07D-04
 ErrMax= 1.74D-04  0.00D+00 EMaxC= 1.00D-01 BMatC= 8.72D-06 BMatP= 3.22D-06
 IDIUse=1 WtCom= 1.00D+00 WtEn= 0.00D+00
 Coeff-Com: -0.217D+01 0.345D+01-0.172D+00 0.602D+01-0.604D+01-0.859D-01
 Coeff:     -0.217D+01 0.345D+01-0.172D+00 0.602D+01-0.604D+01-0.859D-01
 Gap=    -0.019 Goal=   None    Shift=    0.300
 Gap=     0.089 Goal=   None    Shift=    0.300
 RMSDP=7.55D-06 MaxDP=7.35D-04 DE=-9.50D-06 OVMax= 3.29D-03

 Cycle  56  Pass 1  IDiag  1:
 RMSU=  3.32D-06    CP:  1.00D+00  3.00D+00  3.00D+00  3.00D+00  3.00D+00
                    CP:  1.14D+00  3.00D+00  3.00D+00  3.00D+00  3.00D+00
                    CP:  3.00D+00  3.00D+00  3.00D+00  2.74D+00  2.43D+00
 E= -1487.21165058484     Delta-E=       -0.000010383340 Rises=F Damp=F
 DIIS: error= 1.88D-04 at cycle  56 NSaved=   7.
 NSaved= 7 IEnMin= 7 EnMin= -1487.21165058484     IErMin= 1 ErrMin= 1.07D-04
 ErrMax= 1.88D-04  0.00D+00 EMaxC= 1.00D-01 BMatC= 1.04D-05 BMatP= 3.22D-06
 IDIUse=1 WtCom= 1.00D+00 WtEn= 0.00D+00
 Coeff-Com: -0.227D+01 0.359D+01-0.166D+00 0.609D+01-0.609D+01-0.338D+00
 Coeff-Com:  0.185D+00
 Coeff:     -0.227D+01 0.359D+01-0.166D+00 0.609D+01-0.609D+01-0.338D+00
 Coeff:      0.185D+00
 Gap=    -0.019 Goal=   None    Shift=    0.300
 Gap=     0.089 Goal=   None    Shift=    0.300
 RMSDP=7.97D-06 MaxDP=7.84D-04 DE=-1.04D-05 OVMax= 3.48D-03

 Cycle  57  Pass 1  IDiag  1:
 RMSU=  4.42D-06    CP:  1.00D+00  3.00D+00  3.00D+00  3.00D+00  3.00D+00
                    CP:  8.03D-01  3.00D+00  3.00D+00  3.00D+00  3.00D+00
                    CP:  3.00D+00  3.00D+00  3.00D+00  3.00D+00  3.00D+00
                    CP:  2.15D+00
 E= -1487.21166245676     Delta-E=       -0.000011871922 Rises=F Damp=F
 DIIS: error= 2.03D-04 at cycle  57 NSaved=   8.
 NSaved= 8 IEnMin= 8 EnMin= -1487.21166245676     IErMin= 1 ErrMin= 1.07D-04
 ErrMax= 2.03D-04  0.00D+00 EMaxC= 1.00D-01 BMatC= 1.24D-05 BMatP= 3.22D-06
 IDIUse=1 WtCom= 1.00D+00 WtEn= 0.00D+00
 Large coefficients: NSaved=  8 BigCof=   15.41 CofMax=   10.00 Det=-1.11D-09
 Inversion failed.  Reducing to  7 matrices.
 Large coefficients: NSaved=  7 BigCof=   13.88 CofMax=   10.00 Det=-1.17D-09
 Inversion failed.  Reducing to  6 matrices.
 Large coefficients: NSaved=  6 BigCof=   15.89 CofMax=   10.00 Det=-1.32D-09
 Inversion failed.  Reducing to  5 matrices.
 Large coefficients: NSaved=  5 BigCof=   17.74 CofMax=   10.00 Det=-1.51D-09
 Inversion failed.  Reducing to  4 matrices.
 Large coefficients: NSaved=  4 BigCof=   20.67 CofMax=   10.00 Det=-2.55D-09
 Inversion failed.  Reducing to  3 matrices.
 Large coefficients: NSaved=  3 BigCof=   17.14 CofMax=   10.00 Det=-7.50D-09
 Inversion failed.  Reducing to  2 matrices.
 Large coefficients: NSaved=  2 BigCof=   10.92 CofMax=   10.00 Det=-9.32D-08
 Coeff-Com:  0.109D+02-0.992D+01
 Coeff:      0.109D+02-0.992D+01
 Gap=    -0.019 Goal=   None    Shift=    0.300
 Gap=     0.089 Goal=   None    Shift=    0.300
 RMSDP=8.55D-06 MaxDP=8.09D-04 DE=-1.19D-05 OVMax= 3.53D-03

 Cycle  58  Pass 1  IDiag  1:
 RMSU=  3.54D-06    CP:  1.00D+00  3.00D+00  3.00D+00  3.00D+00  3.00D+00
                    CP: -5.30D-02  3.00D+00  3.00D+00  3.00D+00  3.00D+00
                    CP:  3.00D+00  3.00D+00  3.00D+00  3.00D+00  3.00D+00
                    CP:  3.00D+00  2.42D+00
 E= -1487.21167511806     Delta-E=       -0.000012661297 Rises=F Damp=F
 DIIS: error= 2.18D-04 at cycle  58 NSaved=   3.
 NSaved= 3 IEnMin= 3 EnMin= -1487.21167511806     IErMin= 1 ErrMin= 1.88D-04
 ErrMax= 2.18D-04  0.00D+00 EMaxC= 1.00D-01 BMatC= 1.51D-05 BMatP= 1.04D-05
 IDIUse=1 WtCom= 1.00D+00 WtEn= 0.00D+00
 Large coefficients: NSaved=  3 BigCof=   11.88 CofMax=   10.00 Det=-5.84D-08
 Inversion failed.  Reducing to  2 matrices.
 Coeff-Com:  0.175D+01-0.752D+00
 Coeff:      0.175D+01-0.752D+00
 Gap=    -0.019 Goal=   None    Shift=    0.300
 Gap=     0.090 Goal=   None    Shift=    0.300
 RMSDP=1.59D-05 MaxDP=1.44D-03 DE=-1.27D-05 OVMax= 6.35D-03

 Cycle  59  Pass 1  IDiag  1:
 RMSU=  1.32D-05    CP:  1.00D+00  3.00D+00  3.00D+00  3.00D+00  3.00D+00
                    CP: -2.14D+00  3.00D+00  3.00D+00  3.00D+00  3.00D+00
                    CP:  3.00D+00  3.00D+00  3.00D+00  3.00D+00  3.00D+00
                    CP:  3.00D+00  3.00D+00  2.10D+00
 E= -1487.21170314672     Delta-E=       -0.000028028659 Rises=F Damp=F
 DIIS: error= 2.50D-04 at cycle  59 NSaved=   3.
 NSaved= 3 IEnMin= 3 EnMin= -1487.21170314672     IErMin= 1 ErrMin= 2.03D-04
 ErrMax= 2.50D-04  0.00D+00 EMaxC= 1.00D-01 BMatC= 1.41D-05 BMatP= 1.24D-05
 IDIUse=1 WtCom= 1.00D+00 WtEn= 0.00D+00
 Coeff-Com:  0.178D+01-0.133D+01 0.550D+00
 Coeff:      0.178D+01-0.133D+01 0.550D+00
 Gap=    -0.019 Goal=   None    Shift=    0.300
 Gap=     0.090 Goal=   None    Shift=    0.300
 RMSDP=1.65D-05 MaxDP=1.61D-03 DE=-2.80D-05 OVMax= 7.10D-03

 Cycle  60  Pass 1  IDiag  1:
 RMSU=  7.88D-06    CP:  1.00D+00  3.00D+00  3.00D+00  3.00D+00  3.00D+00
                    CP: -3.00D+00  3.00D+00  3.00D+00  3.00D+00  3.00D+00
                    CP:  3.00D+00  3.00D+00  3.00D+00  3.00D+00  3.00D+00
                    CP:  3.00D+00  3.00D+00  3.00D+00  2.04D+00
 E= -1487.21173737445     Delta-E=       -0.000034227732 Rises=F Damp=F
 DIIS: error= 2.84D-04 at cycle  60 NSaved=   4.
 NSaved= 4 IEnMin= 4 EnMin= -1487.21173737445     IErMin= 1 ErrMin= 2.03D-04
 ErrMax= 2.84D-04  0.00D+00 EMaxC= 1.00D-01 BMatC= 1.48D-05 BMatP= 1.24D-05
 IDIUse=1 WtCom= 1.00D+00 WtEn= 0.00D+00
 Coeff-Com:  0.176D+01-0.559D+00 0.197D+01-0.217D+01
 Coeff:      0.176D+01-0.559D+00 0.197D+01-0.217D+01
 Gap=    -0.019 Goal=   None    Shift=    0.300
 Gap=     0.089 Goal=   None    Shift=    0.300
 RMSDP=1.38D-05 MaxDP=1.37D-03 DE=-3.42D-05 OVMax= 5.92D-03

 Cycle  61  Pass 1  IDiag  1:
 Restarting incremental Fock formation.
 E= -1487.21176644608     Delta-E=       -0.000029071626 Rises=F Damp=F
 DIIS: error= 3.08D-04 at cycle  61 NSaved=   5.
 NSaved= 5 IEnMin= 5 EnMin= -1487.21176644608     IErMin= 1 ErrMin= 2.03D-04
 ErrMax= 3.08D-04  0.00D+00 EMaxC= 1.00D-01 BMatC= 2.22D-05 BMatP= 1.24D-05
 IDIUse=1 WtCom= 1.00D+00 WtEn= 0.00D+00
 Coeff-Com:  0.168D+01-0.456D+00 0.181D+01-0.187D+01-0.164D+00
 Coeff:      0.168D+01-0.456D+00 0.181D+01-0.187D+01-0.164D+00
 Gap=    -0.019 Goal=   None    Shift=    0.300
 Gap=     0.089 Goal=   None    Shift=    0.300
 RMSDP=1.46D-05 MaxDP=1.45D-03 DE=-2.91D-05 OVMax= 6.32D-03

 Cycle  62  Pass 1  IDiag  1:
 RMSU=  1.46D-05    CP:  1.00D+00
 E= -1487.21180081923     Delta-E=       -0.000034373148 Rises=F Damp=F
 DIIS: error= 3.33D-04 at cycle  62 NSaved=   6.
 NSaved= 6 IEnMin= 6 EnMin= -1487.21180081923     IErMin= 1 ErrMin= 2.03D-04
 ErrMax= 3.33D-04  0.00D+00 EMaxC= 1.00D-01 BMatC= 2.95D-05 BMatP= 1.24D-05
 IDIUse=1 WtCom= 1.00D+00 WtEn= 0.00D+00
 Coeff-Com:  0.145D+01-0.541D+00 0.145D+01-0.304D+01 0.571D+01-0.403D+01
 Coeff:      0.145D+01-0.541D+00 0.145D+01-0.304D+01 0.571D+01-0.403D+01
 Gap=    -0.019 Goal=   None    Shift=    0.300
 Gap=     0.089 Goal=   None    Shift=    0.300
 RMSDP=1.47D-05 MaxDP=1.44D-03 DE=-3.44D-05 OVMax= 6.31D-03

 Cycle  63  Pass 1  IDiag  1:
 RMSU=  1.93D-06    CP:  1.00D+00  2.00D+00
 E= -1487.21183648704     Delta-E=       -0.000035667810 Rises=F Damp=F
 DIIS: error= 3.57D-04 at cycle  63 NSaved=   7.
 NSaved= 7 IEnMin= 7 EnMin= -1487.21183648704     IErMin= 1 ErrMin= 2.03D-04
 ErrMax= 3.57D-04  0.00D+00 EMaxC= 1.00D-01 BMatC= 4.19D-05 BMatP= 1.24D-05
 IDIUse=1 WtCom= 1.00D+00 WtEn= 0.00D+00
 Coeff-Com:  0.139D+01-0.616D+00 0.131D+01-0.315D+01 0.735D+01-0.563D+01
 Coeff-Com:  0.355D+00
 Coeff:      0.139D+01-0.616D+00 0.131D+01-0.315D+01 0.735D+01-0.563D+01
 Coeff:      0.355D+00
 Gap=    -0.019 Goal=   None    Shift=    0.300
 Gap=     0.088 Goal=   None    Shift=    0.300
 RMSDP=1.55D-05 MaxDP=1.53D-03 DE=-3.57D-05 OVMax= 6.70D-03

 Cycle  64  Pass 1  IDiag  1:
 RMSU=  1.17D-06    CP:  1.00D+00  3.00D+00  1.24D+00
 E= -1487.21187851470     Delta-E=       -0.000042027667 Rises=F Damp=F
 DIIS: error= 3.82D-04 at cycle  64 NSaved=   8.
 NSaved= 8 IEnMin= 8 EnMin= -1487.21187851470     IErMin= 1 ErrMin= 2.03D-04
 ErrMax= 3.82D-04  0.00D+00 EMaxC= 1.00D-01 BMatC= 5.30D-05 BMatP= 1.24D-05
 IDIUse=1 WtCom= 1.00D+00 WtEn= 0.00D+00
 Coeff-Com:  0.706D+00 0.626D+00 0.941D+00-0.156D+01-0.956D+00 0.495D+00
 Coeff-Com:  0.624D+01-0.549D+01
 Coeff:      0.706D+00 0.626D+00 0.941D+00-0.156D+01-0.956D+00 0.495D+00
 Coeff:      0.624D+01-0.549D+01
 Gap=    -0.019 Goal=   None    Shift=    0.300
 Gap=     0.088 Goal=   None    Shift=    0.300
 RMSDP=1.57D-05 MaxDP=1.54D-03 DE=-4.20D-05 OVMax= 6.74D-03

 Cycle  65  Pass 1  IDiag  1:
 RMSU=  1.39D-05    CP:  1.00D+00  3.00D+00  1.89D+00  3.00D+00
 E= -1487.21192286320     Delta-E=       -0.000044348496 Rises=F Damp=F
 DIIS: error= 4.06D-04 at cycle  65 NSaved=   9.
 NSaved= 9 IEnMin= 9 EnMin= -1487.21192286320     IErMin= 1 ErrMin= 2.03D-04
 ErrMax= 4.06D-04  0.00D+00 EMaxC= 1.00D-01 BMatC= 6.57D-05 BMatP= 1.24D-05
 IDIUse=1 WtCom= 1.00D+00 WtEn= 0.00D+00
 Coeff-Com:  0.744D+00 0.602D+00 0.107D+01-0.188D+01 0.908D+00-0.107D+01
 Coeff-Com:  0.391D+01-0.274D+01-0.543D+00
 Coeff:      0.744D+00 0.602D+00 0.107D+01-0.188D+01 0.908D+00-0.107D+01
 Coeff:      0.391D+01-0.274D+01-0.543D+00
 Gap=    -0.019 Goal=   None    Shift=    0.300
 Gap=     0.088 Goal=   None    Shift=    0.300
 RMSDP=1.65D-05 MaxDP=1.63D-03 DE=-4.43D-05 OVMax= 7.15D-03

 Cycle  66  Pass 1  IDiag  1:
 RMSU=  3.01D-06    CP:  1.00D+00  3.00D+00  1.96D+00  3.00D+00  2.16D+00
 E= -1487.21197482071     Delta-E=       -0.000051957513 Rises=F Damp=F
 DIIS: error= 4.32D-04 at cycle  66 NSaved=  10.
 NSaved=10 IEnMin=10 EnMin= -1487.21197482071     IErMin= 1 ErrMin= 2.03D-04
 ErrMax= 4.32D-04  0.00D+00 EMaxC= 1.00D-01 BMatC= 7.75D-05 BMatP= 1.24D-05
 IDIUse=1 WtCom= 1.00D+00 WtEn= 0.00D+00
 Coeff-Com:  0.875D+00 0.332D+00 0.101D+01-0.169D+01 0.183D+00-0.247D+00
 Coeff-Com:  0.410D+01-0.414D+01 0.225D+01-0.168D+01
 Coeff:      0.875D+00 0.332D+00 0.101D+01-0.169D+01 0.183D+00-0.247D+00
 Coeff:      0.410D+01-0.414D+01 0.225D+01-0.168D+01
 Gap=    -0.019 Goal=   None    Shift=    0.300
 Gap=     0.088 Goal=   None    Shift=    0.300
 RMSDP=1.76D-05 MaxDP=1.73D-03 DE=-5.20D-05 OVMax= 7.60D-03

 Cycle  67  Pass 1  IDiag  1:
 RMSU=  5.65D-06    CP:  1.00D+00  3.00D+00  2.10D+00  3.00D+00  3.00D+00
                    CP:  2.03D+00
 E= -1487.21203342925     Delta-E=       -0.000058608532 Rises=F Damp=F
 DIIS: error= 4.58D-04 at cycle  67 NSaved=  11.
 NSaved=11 IEnMin=11 EnMin= -1487.21203342925     IErMin= 1 ErrMin= 2.03D-04
 ErrMax= 4.58D-04  0.00D+00 EMaxC= 1.00D-01 BMatC= 9.28D-05 BMatP= 1.24D-05
 IDIUse=1 WtCom= 1.00D+00 WtEn= 0.00D+00
 Coeff-Com:  0.441D+00 0.845D+00 0.931D+00-0.170D+01 0.770D+00-0.129D+01
 Coeff-Com:  0.506D+01-0.405D+01-0.728D+00 0.229D+01-0.157D+01
 Coeff:      0.441D+00 0.845D+00 0.931D+00-0.170D+01 0.770D+00-0.129D+01
 Coeff:      0.506D+01-0.405D+01-0.728D+00 0.229D+01-0.157D+01
 Gap=    -0.019 Goal=   None    Shift=    0.300
 Gap=     0.088 Goal=   None    Shift=    0.300
 RMSDP=1.85D-05 MaxDP=1.82D-03 DE=-5.86D-05 OVMax= 8.03D-03

 Cycle  68  Pass 1  IDiag  1:
 RMSU=  7.01D-06    CP:  1.00D+00  3.00D+00  2.16D+00  3.00D+00  3.00D+00
                    CP:  3.00D+00  3.00D+00
 E= -1487.21209921742     Delta-E=       -0.000065788174 Rises=F Damp=F
 DIIS: error= 4.86D-04 at cycle  68 NSaved=  12.
 NSaved=12 IEnMin=12 EnMin= -1487.21209921742     IErMin= 1 ErrMin= 2.03D-04
 ErrMax= 4.86D-04  0.00D+00 EMaxC= 1.00D-01 BMatC= 1.11D-04 BMatP= 1.24D-05
 IDIUse=1 WtCom= 1.00D+00 WtEn= 0.00D+00
 Coeff-Com:  0.514D+00 0.774D+00 0.930D+00-0.169D+01 0.817D+00-0.129D+01
 Coeff-Com:  0.456D+01-0.356D+01-0.240D+00 0.908D+00-0.256D+00-0.473D+00
 Coeff:      0.514D+00 0.774D+00 0.930D+00-0.169D+01 0.817D+00-0.129D+01
 Coeff:      0.456D+01-0.356D+01-0.240D+00 0.908D+00-0.256D+00-0.473D+00
 Gap=    -0.019 Goal=   None    Shift=    0.300
 Gap=     0.088 Goal=   None    Shift=    0.300
 RMSDP=1.98D-05 MaxDP=1.93D-03 DE=-6.58D-05 OVMax= 8.57D-03

 Cycle  69  Pass 1  IDiag  1:
 RMSU=  6.42D-06    CP:  1.00D+00  3.00D+00  2.18D+00  3.00D+00  3.00D+00
                    CP:  3.00D+00  3.00D+00  3.00D+00
 E= -1487.21217442581     Delta-E=       -0.000075208387 Rises=F Damp=F
 DIIS: error= 5.14D-04 at cycle  69 NSaved=  13.
 NSaved=13 IEnMin=13 EnMin= -1487.21217442581     IErMin= 1 ErrMin= 2.03D-04
 ErrMax= 5.14D-04  0.00D+00 EMaxC= 1.00D-01 BMatC= 1.31D-04 BMatP= 1.24D-05
 IDIUse=1 WtCom= 1.00D+00 WtEn= 0.00D+00
 Coeff-Com:  0.301D+00 0.892D+00 0.939D+00-0.168D+01 0.125D+01-0.175D+01
 Coeff-Com:  0.402D+01-0.326D+01-0.185D+00 0.211D+01-0.286D+01 0.332D+01
 Coeff-Com: -0.210D+01
 Coeff:      0.301D+00 0.892D+00 0.939D+00-0.168D+01 0.125D+01-0.175D+01
 Coeff:      0.402D+01-0.326D+01-0.185D+00 0.211D+01-0.286D+01 0.332D+01
 Coeff:     -0.210D+01
 Gap=    -0.019 Goal=   None    Shift=    0.300
 Gap=     0.088 Goal=   None    Shift=    0.300
 RMSDP=2.10D-05 MaxDP=2.04D-03 DE=-7.52D-05 OVMax= 9.08D-03

 Cycle  70  Pass 1  IDiag  1:
 RMSU=  1.02D-05    CP:  1.00D+00  3.00D+00  2.42D+00  3.00D+00  3.00D+00
                    CP:  3.00D+00  3.00D+00  3.00D+00  3.00D+00
 E= -1487.21225742771     Delta-E=       -0.000083001905 Rises=F Damp=F
 DIIS: error= 5.40D-04 at cycle  70 NSaved=  14.
 NSaved=14 IEnMin=14 EnMin= -1487.21225742771     IErMin= 1 ErrMin= 2.03D-04
 ErrMax= 5.40D-04  0.00D+00 EMaxC= 1.00D-01 BMatC= 1.59D-04 BMatP= 1.24D-05
 IDIUse=1 WtCom= 1.00D+00 WtEn= 0.00D+00
 Large coefficients: NSaved= 14 BigCof=   19.01 CofMax=   10.00 Det=-1.21D-09
 Inversion failed.  Reducing to 13 matrices.
 Large coefficients: NSaved= 13 BigCof=   20.37 CofMax=   10.00 Det=-1.37D-09
 Inversion failed.  Reducing to 12 matrices.
 Large coefficients: NSaved= 12 BigCof=   31.45 CofMax=   10.00 Det=-2.39D-09
 Inversion failed.  Reducing to 11 matrices.
 Large coefficients: NSaved= 11 BigCof=   30.49 CofMax=   10.00 Det=-2.39D-09
 Inversion failed.  Reducing to 10 matrices.
 Large coefficients: NSaved= 10 BigCof=   32.82 CofMax=   10.00 Det=-3.23D-09
 Inversion failed.  Reducing to  9 matrices.
 Large coefficients: NSaved=  9 BigCof=   29.60 CofMax=   10.00 Det=-3.56D-09
 Inversion failed.  Reducing to  8 matrices.
 Large coefficients: NSaved=  8 BigCof=   30.05 CofMax=   10.00 Det=-3.73D-09
 Inversion failed.  Reducing to  7 matrices.
 Large coefficients: NSaved=  7 BigCof=   40.60 CofMax=   10.00 Det=-4.40D-09
 Inversion failed.  Reducing to  6 matrices.
 Large coefficients: NSaved=  6 BigCof=   40.02 CofMax=   10.00 Det=-3.73D-09
 Inversion failed.  Reducing to  5 matrices.
 Large coefficients: NSaved=  5 BigCof=   47.21 CofMax=   10.00 Det=-5.12D-09
 Inversion failed.  Reducing to  4 matrices.
 Large coefficients: NSaved=  4 BigCof=   46.77 CofMax=   10.00 Det=-5.09D-09
 Inversion failed.  Reducing to  3 matrices.
 Large coefficients: NSaved=  3 BigCof=   13.97 CofMax=   10.00 Det=-1.80D-08
 Inversion failed.  Reducing to  2 matrices.
 Coeff-Com:  0.907D+01-0.807D+01
 Coeff:      0.907D+01-0.807D+01
 Gap=    -0.018 Goal=   None    Shift=    0.300
 Gap=     0.088 Goal=   None    Shift=    0.300
 RMSDP=3.10D-05 MaxDP=2.85D-03 DE=-8.30D-05 OVMax= 1.30D-02

 Cycle  71  Pass 1  IDiag  1:
 RMSU=  1.84D-05    CP:  1.00D+00  3.00D+00  2.18D+00  3.00D+00  3.00D+00
                    CP:  3.00D+00  3.00D+00  3.00D+00  3.00D+00  3.00D+00
 E= -1487.21239418996     Delta-E=       -0.000136762246 Rises=F Damp=F
 DIIS: error= 5.80D-04 at cycle  71 NSaved=   3.
 NSaved= 3 IEnMin= 3 EnMin= -1487.21239418996     IErMin= 1 ErrMin= 5.14D-04
 ErrMax= 5.80D-04  0.00D+00 EMaxC= 1.00D-01 BMatC= 1.86D-04 BMatP= 1.31D-04
 IDIUse=1 WtCom= 1.00D+00 WtEn= 0.00D+00
 Coeff-Com:  0.966D+01-0.923D+01 0.578D+00
 Coeff:      0.966D+01-0.923D+01 0.578D+00
 Gap=    -0.018 Goal=   None    Shift=    0.300
 Gap=     0.088 Goal=   None    Shift=    0.300
 RMSDP=3.27D-05 MaxDP=3.07D-03 DE=-1.37D-04 OVMax= 1.41D-02

 Cycle  72  Pass 1  IDiag  1:
 RMSU=  2.45D-05    CP:  1.00D+00  3.00D+00  2.08D+00  3.00D+00  3.00D+00
                    CP:  3.00D+00  3.00D+00  3.00D+00  3.00D+00  3.00D+00
                    CP:  2.19D+00
 E= -1487.21255183128     Delta-E=       -0.000157641327 Rises=F Damp=F
 DIIS: error= 6.23D-04 at cycle  72 NSaved=   4.
 NSaved= 4 IEnMin= 4 EnMin= -1487.21255183128     IErMin= 1 ErrMin= 5.14D-04
 ErrMax= 6.23D-04  0.00D+00 EMaxC= 1.00D-01 BMatC= 2.18D-04 BMatP= 1.31D-04
 IDIUse=1 WtCom= 1.00D+00 WtEn= 0.00D+00
 Coeff-Com:  0.902D+01-0.837D+01 0.776D+00-0.419D+00
 Coeff:      0.902D+01-0.837D+01 0.776D+00-0.419D+00
 Gap=    -0.018 Goal=   None    Shift=    0.300
 Gap=     0.088 Goal=   None    Shift=    0.300
 RMSDP=3.42D-05 MaxDP=3.34D-03 DE=-1.58D-04 OVMax= 1.48D-02

 Cycle  73  Pass 1  IDiag  1:
 RMSU=  8.73D-06    CP:  1.00D+00  3.00D+00  2.50D+00  3.00D+00  3.00D+00
                    CP:  3.00D+00  3.00D+00  3.00D+00  3.00D+00  3.00D+00
                    CP:  3.00D+00  2.02D+00
 E= -1487.21271903406     Delta-E=       -0.000167202779 Rises=F Damp=F
 DIIS: error= 6.55D-04 at cycle  73 NSaved=   5.
 NSaved= 5 IEnMin= 5 EnMin= -1487.21271903406     IErMin= 1 ErrMin= 5.14D-04
 ErrMax= 6.55D-04  0.00D+00 EMaxC= 1.00D-01 BMatC= 2.83D-04 BMatP= 1.31D-04
 IDIUse=1 WtCom= 1.00D+00 WtEn= 0.00D+00
 Large coefficients: NSaved=  5 BigCof=   12.88 CofMax=   10.00 Det=-8.68D-08
 Inversion failed.  Reducing to  4 matrices.
 Coeff-Com:  0.200D+01 0.482D+00 0.195D+01-0.343D+01
 Coeff:      0.200D+01 0.482D+00 0.195D+01-0.343D+01
 Gap=    -0.018 Goal=   None    Shift=    0.300
 Gap=     0.087 Goal=   None    Shift=    0.300
 RMSDP=3.65D-05 MaxDP=3.97D-03 DE=-1.67D-04 OVMax= 1.56D-02

 Cycle  74  Pass 1  IDiag  1:
 RMSU=  9.33D-06    CP:  1.00D+00  3.00D+00  3.00D+00  3.00D+00  3.00D+00
                    CP:  3.00D+00  3.00D+00  3.00D+00  3.00D+00  3.00D+00
                    CP:  3.00D+00  3.00D+00  3.00D+00
 E= -1487.21288822509     Delta-E=       -0.000169191022 Rises=F Damp=F
 DIIS: error= 7.83D-04 at cycle  74 NSaved=   5.
 NSaved= 5 IEnMin= 5 EnMin= -1487.21288822509     IErMin= 1 ErrMin= 5.40D-04
 ErrMax= 7.83D-04  0.00D+00 EMaxC= 1.00D-01 BMatC= 3.99D-04 BMatP= 1.59D-04
 IDIUse=1 WtCom= 1.00D+00 WtEn= 0.00D+00
 Coeff-Com:  0.210D+01 0.579D+00 0.357D+01-0.648D+01 0.124D+01
 Coeff:      0.210D+01 0.579D+00 0.357D+01-0.648D+01 0.124D+01
 Gap=    -0.018 Goal=   None    Shift=    0.300
 Gap=     0.086 Goal=   None    Shift=    0.300
 RMSDP=3.73D-05 MaxDP=4.29D-03 DE=-1.69D-04 OVMax= 1.59D-02

 Cycle  75  Pass 1  IDiag  1:
 RMSU=  2.80D-05    CP:  1.00D+00  3.00D+00  3.00D+00  3.00D+00  3.00D+00
                    CP:  3.00D+00  3.00D+00  3.00D+00  3.00D+00  3.00D+00
                    CP:  3.00D+00  3.00D+00  3.00D+00  3.00D+00
 E= -1487.21305964517     Delta-E=       -0.000171420088 Rises=F Damp=F
 DIIS: error= 9.25D-04 at cycle  75 NSaved=   6.
 NSaved= 6 IEnMin= 6 EnMin= -1487.21305964517     IErMin= 1 ErrMin= 5.40D-04
 ErrMax= 9.25D-04  0.00D+00 EMaxC= 1.00D-01 BMatC= 5.55D-04 BMatP= 1.59D-04
 IDIUse=1 WtCom= 1.00D+00 WtEn= 0.00D+00
 Large coefficients: NSaved=  6 BigCof=   16.77 CofMax=   10.00 Det=-4.85D-08
 Inversion failed.  Reducing to  5 matrices.
 Large coefficients: NSaved=  5 BigCof=   23.48 CofMax=   10.00 Det=-7.52D-08
 Inversion failed.  Reducing to  4 matrices.
 Coeff-Com:  0.554D+01-0.483D+01 0.939D+00-0.654D+00
 Coeff:      0.554D+01-0.483D+01 0.939D+00-0.654D+00
 Gap=    -0.016 Goal=   None    Shift=    0.300
 Gap=     0.089 Goal=   None    Shift=    0.300
 RMSDP=4.76D-05 MaxDP=5.33D-03 DE=-1.71D-04 OVMax= 1.97D-02

 Cycle  76  Pass 1  IDiag  1:
 RMSU=  3.07D-05    CP:  1.00D+00  3.00D+00  2.36D+00  3.00D+00  3.00D+00
                    CP:  3.00D+00  3.00D+00  3.00D+00  3.00D+00  3.00D+00
                    CP:  3.00D+00  3.00D+00  3.00D+00  3.00D+00  2.29D+00
 E= -1487.21336364554     Delta-E=       -0.000304000367 Rises=F Damp=F
 DIIS: error= 8.27D-04 at cycle  76 NSaved=   5.
 NSaved= 5 IEnMin= 5 EnMin= -1487.21336364554     IErMin= 1 ErrMin= 6.23D-04
 ErrMax= 8.27D-04  0.00D+00 EMaxC= 1.00D-01 BMatC= 5.81D-04 BMatP= 2.18D-04
 IDIUse=1 WtCom= 1.00D+00 WtEn= 0.00D+00
 Large coefficients: NSaved=  5 BigCof=   12.23 CofMax=   10.00 Det=-1.42D-07
 Inversion failed.  Reducing to  4 matrices.
 Coeff-Com:  0.293D+01 0.495D-01-0.229D+01 0.308D+00
 Coeff:      0.293D+01 0.495D-01-0.229D+01 0.308D+00
 Gap=    -0.015 Goal=   None    Shift=    0.300
 Gap=     0.091 Goal=   None    Shift=    0.300
 RMSDP=5.38D-05 MaxDP=6.82D-03 DE=-3.04D-04 OVMax= 2.28D-02

 Cycle  77  Pass 1  IDiag  1:
 RMSU=  2.53D-05    CP:  1.00D+00  3.00D+00  6.82D-01  3.00D+00  3.00D+00
                    CP:  3.00D+00  3.00D+00  3.00D+00  3.00D+00  3.00D+00
                    CP:  3.00D+00  3.00D+00  3.00D+00  3.00D+00  3.00D+00
                    CP:  2.08D+00
 E= -1487.21374438206     Delta-E=       -0.000380736523 Rises=F Damp=F
 DIIS: error= 8.85D-04 at cycle  77 NSaved=   5.
 NSaved= 5 IEnMin= 5 EnMin= -1487.21374438206     IErMin= 1 ErrMin= 6.55D-04
 ErrMax= 8.85D-04  0.00D+00 EMaxC= 1.00D-01 BMatC= 5.74D-04 BMatP= 2.83D-04
 IDIUse=1 WtCom= 1.00D+00 WtEn= 0.00D+00
 Coeff-Com:  0.293D+01 0.450D-01-0.221D+01 0.389D+00-0.153D+00
 Coeff:      0.293D+01 0.450D-01-0.221D+01 0.389D+00-0.153D+00
 Gap=    -0.014 Goal=   None    Shift=    0.300
 Gap=     0.091 Goal=   None    Shift=    0.300
 RMSDP=5.50D-05 MaxDP=7.98D-03 DE=-3.81D-04 OVMax= 2.37D-02

 Cycle  78  Pass 1  IDiag  1:
 RMSU=  1.88D-05    CP:  1.00D+00  3.00D+00  1.32D+00  3.00D+00  3.00D+00
                    CP:  3.00D+00  3.00D+00  3.00D+00  3.00D+00  3.00D+00
                    CP:  3.00D+00  3.00D+00  3.00D+00  3.00D+00  3.00D+00
                    CP:  3.00D+00  2.62D+00
 E= -1487.21409459123     Delta-E=       -0.000350209168 Rises=F Damp=F
 DIIS: error= 1.07D-03 at cycle  78 NSaved=   6.
 NSaved= 6 IEnMin= 6 EnMin= -1487.21409459123     IErMin= 1 ErrMin= 6.55D-04
 ErrMax= 1.07D-03  0.00D+00 EMaxC= 1.00D-01 BMatC= 7.55D-04 BMatP= 2.83D-04
 IDIUse=1 WtCom= 1.00D+00 WtEn= 0.00D+00
 Coeff-Com:  0.425D+01 0.181D+00-0.400D+01 0.131D+01-0.349D+01 0.276D+01
 Coeff:      0.425D+01 0.181D+00-0.400D+01 0.131D+01-0.349D+01 0.276D+01
 Gap=    -0.013 Goal=   None    Shift=    0.300
 Gap=     0.094 Goal=   None    Shift=    0.300
 RMSDP=5.83D-05 MaxDP=8.77D-03 DE=-3.50D-04 OVMax= 2.49D-02

 Cycle  79  Pass 1  IDiag  1:
 RMSU=  4.59D-05    CP:  1.00D+00  3.00D+00 -8.46D-01  3.00D+00  3.00D+00
                    CP:  3.00D+00  3.00D+00  3.00D+00  3.00D+00  3.00D+00
                    CP:  3.00D+00  3.00D+00  3.00D+00  3.00D+00  3.00D+00
                    CP:  3.00D+00  3.00D+00  2.27D+00
 E= -1487.21451790621     Delta-E=       -0.000423314980 Rises=F Damp=F
 DIIS: error= 1.13D-03 at cycle  79 NSaved=   7.
 NSaved= 7 IEnMin= 7 EnMin= -1487.21451790621     IErMin= 1 ErrMin= 6.55D-04
 ErrMax= 1.13D-03  0.00D+00 EMaxC= 1.00D-01 BMatC= 8.53D-04 BMatP= 2.83D-04
 IDIUse=1 WtCom= 1.00D+00 WtEn= 0.00D+00
 Coeff-Com:  0.493D+01 0.218D+00-0.488D+01 0.167D+01-0.480D+01 0.326D+01
 Coeff-Com:  0.604D+00
 Coeff:      0.493D+01 0.218D+00-0.488D+01 0.167D+01-0.480D+01 0.326D+01
 Coeff:      0.604D+00
 Gap=    -0.011 Goal=   None    Shift=    0.300
 Gap=     0.097 Goal=   None    Shift=    0.300
 RMSDP=6.14D-05 MaxDP=9.84D-03 DE=-4.23D-04 OVMax= 2.62D-02

 Cycle  80  Pass 1  IDiag  1:
 RMSU=  1.36D-05    CP:  1.00D+00  3.00D+00 -3.00D+00  3.00D+00  3.00D+00
                    CP:  3.00D+00  3.00D+00  3.00D+00  3.00D+00  3.00D+00
                    CP:  3.00D+00  3.00D+00  3.00D+00  3.00D+00  3.00D+00
                    CP:  3.00D+00  3.00D+00  3.00D+00  2.20D+00
 E= -1487.21498972299     Delta-E=       -0.000471816776 Rises=F Damp=F
 DIIS: error= 1.20D-03 at cycle  80 NSaved=   8.
 NSaved= 8 IEnMin= 8 EnMin= -1487.21498972299     IErMin= 1 ErrMin= 6.55D-04
 ErrMax= 1.20D-03  0.00D+00 EMaxC= 1.00D-01 BMatC= 9.33D-04 BMatP= 2.83D-04
 IDIUse=1 WtCom= 1.00D+00 WtEn= 0.00D+00
 Coeff-Com:  0.507D+01 0.305D+00-0.524D+01 0.194D+01-0.577D+01 0.398D+01
 Coeff-Com:  0.211D+01-0.139D+01
 Coeff:      0.507D+01 0.305D+00-0.524D+01 0.194D+01-0.577D+01 0.398D+01
 Coeff:      0.211D+01-0.139D+01
 Gap=    -0.011 Goal=   None    Shift=    0.300
 Gap=     0.094 Goal=   None    Shift=    0.300
 RMSDP=6.25D-05 MaxDP=1.15D-02 DE=-4.72D-04 OVMax= 2.68D-02

 Cycle  81  Pass 1  IDiag  1:
 Restarting incremental Fock formation.
 E= -1487.21532376402     Delta-E=       -0.000334041029 Rises=F Damp=F
 DIIS: error= 1.56D-03 at cycle  81 NSaved=   9.
 NSaved= 9 IEnMin= 9 EnMin= -1487.21532376402     IErMin= 1 ErrMin= 6.55D-04
 ErrMax= 1.56D-03  0.00D+00 EMaxC= 1.00D-01 BMatC= 1.42D-03 BMatP= 2.83D-04
 IDIUse=1 WtCom= 1.00D+00 WtEn= 0.00D+00
 Large coefficients: NSaved=  9 BigCof=   12.22 CofMax=   10.00 Det=-1.15D-07
 Inversion failed.  Reducing to  8 matrices.
 Large coefficients: NSaved=  8 BigCof=   13.98 CofMax=   10.00 Det=-1.19D-07
 Inversion failed.  Reducing to  7 matrices.
 Large coefficients: NSaved=  7 BigCof=   12.22 CofMax=   10.00 Det=-1.19D-07
 Inversion failed.  Reducing to  6 matrices.
 Large coefficients: NSaved=  6 BigCof=   14.82 CofMax=   10.00 Det=-2.01D-07
 Inversion failed.  Reducing to  5 matrices.
 Large coefficients: NSaved=  5 BigCof=   13.82 CofMax=   10.00 Det=-2.02D-07
 Inversion failed.  Reducing to  4 matrices.
 Coeff-Com:  0.271D+01 0.763D+01-0.844D+01-0.904D+00
 Coeff:      0.271D+01 0.763D+01-0.844D+01-0.904D+00
 Gap=    -0.018 Goal=   None    Shift=    0.300
 Gap=     0.065 Goal=   None    Shift=    0.300
 RMSDP=1.07D-04 MaxDP=1.64D-02 DE=-3.34D-04 OVMax= 2.86D-02

 Cycle  82  Pass 1  IDiag  1:
 RMSU=  1.07D-04    CP:  1.00D+00
 E= -1487.21428901072     Delta-E=        0.001034753293 Rises=F Damp=F
 DIIS: error= 3.27D-03 at cycle  82 NSaved=   5.
 NSaved= 5 IEnMin= 4 EnMin= -1487.21532376402     IErMin= 1 ErrMin= 1.07D-03
 ErrMax= 3.27D-03  0.00D+00 EMaxC= 1.00D-01 BMatC= 5.47D-03 BMatP= 7.55D-04
 IDIUse=1 WtCom= 1.00D+00 WtEn= 0.00D+00
 Coeff-Com:  0.275D+01 0.438D+01-0.171D+01-0.504D+01 0.618D+00
 Coeff:      0.275D+01 0.438D+01-0.171D+01-0.504D+01 0.618D+00
 Gap=    -0.017 Goal=   None    Shift=    0.000
 Gap=     0.065 Goal=   None    Shift=    0.000
 RMSDP=2.20D-03 MaxDP=6.06D-01 DE= 1.03D-03 OVMax= 9.25D-01

 Cycle  83  Pass 1  IDiag  1:
 RMSU=  2.16D-03    CP:  9.97D-01  3.00D+00
 E= -1487.13627834285     Delta-E=        0.078010667878 Rises=F Damp=F
 DIIS: error= 1.75D-02 at cycle  83 NSaved=   6.
 NSaved= 6 IEnMin= 4 EnMin= -1487.21532376402     IErMin= 1 ErrMin= 1.07D-03
 ErrMax= 1.75D-02  0.00D+00 EMaxC= 1.00D-01 BMatC= 1.63D-01 BMatP= 7.55D-04
 IDIUse=2 WtCom= 0.00D+00 WtEn= 1.00D+00
 Coeff-En:   0.000D+00 0.000D+00 0.997D+00 0.000D+00 0.000D+00 0.288D-02
 Coeff:      0.000D+00 0.000D+00 0.997D+00 0.000D+00 0.000D+00 0.288D-02
 Gap=     0.006 Goal=   None    Shift=    0.000
 Gap=     0.123 Goal=   None    Shift=    0.000
 RMSDP=1.31D-03 MaxDP=2.59D-01 DE= 7.80D-02 OVMax= 5.44D-01

 Cycle  84  Pass 1  IDiag  1:
 RMSU=  7.08D-04    CP:  1.00D+00  3.00D+00  4.88D-01
 E= -1487.20298377905     Delta-E=       -0.066705436203 Rises=F Damp=F
 DIIS: error= 7.99D-03 at cycle  84 NSaved=   7.
 NSaved= 7 IEnMin= 4 EnMin= -1487.21532376402     IErMin= 1 ErrMin= 1.07D-03
 ErrMax= 7.99D-03  0.00D+00 EMaxC= 1.00D-01 BMatC= 3.44D-02 BMatP= 7.55D-04
 IDIUse=1 WtCom= 1.00D+00 WtEn= 0.00D+00
 Coeff-Com:  0.111D+01 0.415D+01-0.950D-01-0.452D+01 0.219D+00-0.495D-01
 Coeff-Com:  0.177D+00
 Coeff:      0.111D+01 0.415D+01-0.950D-01-0.452D+01 0.219D+00-0.495D-01
 Coeff:      0.177D+00
 Gap=     0.012 Goal=   None    Shift=    0.000
 Gap=     0.091 Goal=   None    Shift=    0.000
 RMSDP=1.01D-03 MaxDP=2.19D-01 DE=-6.67D-02 OVMax= 4.25D-01

 Cycle  85  Pass 1  IDiag  1:
 RMSU=  4.87D-05    CP:  9.98D-01  3.00D+00  9.12D-01  3.92D-01
 E= -1487.15251879870     Delta-E=        0.050464980347 Rises=F Damp=F
 DIIS: error= 1.56D-02 at cycle  85 NSaved=   8.
 NSaved= 8 IEnMin= 4 EnMin= -1487.21532376402     IErMin= 1 ErrMin= 1.07D-03
 ErrMax= 1.56D-02  0.00D+00 EMaxC= 1.00D-01 BMatC= 1.29D-01 BMatP= 7.55D-04
 IDIUse=2 WtCom= 0.00D+00 WtEn= 1.00D+00
 EnCoef did   100 forward-backward iterations
 Coeff-En:   0.000D+00 0.000D+00 0.000D+00 0.856D+00 0.000D+00 0.000D+00
 Coeff-En:   0.143D+00 0.479D-03
 Coeff:      0.000D+00 0.000D+00 0.000D+00 0.856D+00 0.000D+00 0.000D+00
 Coeff:      0.143D+00 0.479D-03
 Gap=    -0.003 Goal=   None    Shift=    0.000
 Gap=     0.153 Goal=   None    Shift=    0.000
 RMSDP=1.86D-03 MaxDP=5.08D-01 DE= 5.05D-02 OVMax= 7.76D-01

 Cycle  86  Pass 1  IDiag  1:
 RMSU=  1.17D-04    CP:  1.00D+00  4.18D-01  9.46D-02  6.13D-01 -2.27D+00
 E= -1487.21779563058     Delta-E=       -0.065276831874 Rises=F Damp=F
 DIIS: error= 2.25D-03 at cycle  86 NSaved=   9.
 NSaved= 9 IEnMin= 9 EnMin= -1487.21779563058     IErMin= 1 ErrMin= 1.07D-03
 ErrMax= 2.25D-03  0.00D+00 EMaxC= 1.00D-01 BMatC= 6.09D-03 BMatP= 7.55D-04
 IDIUse=1 WtCom= 1.00D+00 WtEn= 0.00D+00
 Coeff-Com:  0.216D+01 0.305D+01 0.129D+01-0.612D+01 0.525D+00-0.236D+00
 Coeff-Com:  0.392D-01 0.278D+00 0.134D-01
 Coeff:      0.216D+01 0.305D+01 0.129D+01-0.612D+01 0.525D+00-0.236D+00
 Coeff:      0.392D-01 0.278D+00 0.134D-01
 Gap=    -0.007 Goal=   None    Shift=    0.300
 Gap=     0.085 Goal=   None    Shift=    0.300
 RMSDP=2.40D-04 MaxDP=3.09D-02 DE=-6.53D-02 OVMax= 3.62D-02

 Cycle  87  Pass 1  IDiag  1:
 RMSU=  6.51D-05    CP:  1.00D+00  2.38D+00  9.77D-02  5.08D-01 -1.24D+00
                    CP:  7.20D-01
 E= -1487.21791820268     Delta-E=       -0.000122572107 Rises=F Damp=F
 DIIS: error= 3.32D-03 at cycle  87 NSaved=  10.
 NSaved=10 IEnMin=10 EnMin= -1487.21791820268     IErMin= 1 ErrMin= 1.07D-03
 ErrMax= 3.32D-03  0.00D+00 EMaxC= 1.00D-01 BMatC= 5.26D-03 BMatP= 7.55D-04
 IDIUse=1 WtCom= 1.00D+00 WtEn= 0.00D+00
 Coeff-Com:  0.214D+01 0.912D+00 0.546D+01-0.827D+01 0.591D+00-0.206D+00
 Coeff-Com:  0.469D-01 0.234D+00-0.750D-01 0.172D+00
 Coeff:      0.214D+01 0.912D+00 0.546D+01-0.827D+01 0.591D+00-0.206D+00
 Coeff:      0.469D-01 0.234D+00-0.750D-01 0.172D+00
 Gap=    -0.005 Goal=   None    Shift=    0.300
 Gap=     0.084 Goal=   None    Shift=    0.300
 RMSDP=1.15D-04 MaxDP=2.69D-02 DE=-1.23D-04 OVMax= 3.47D-02

 Cycle  88  Pass 1  IDiag  1:
 RMSU=  2.34D-05    CP:  1.00D+00  3.00D+00  1.17D-01  5.21D-01 -7.07D-01
                    CP:  4.22D-01  1.12D+00
 E= -1487.21580698038     Delta-E=        0.002111222305 Rises=F Damp=F
 DIIS: error= 4.99D-03 at cycle  88 NSaved=  11.
 NSaved=11 IEnMin=10 EnMin= -1487.21791820268     IErMin= 1 ErrMin= 1.07D-03
 ErrMax= 4.99D-03  0.00D+00 EMaxC= 1.00D-01 BMatC= 1.13D-02 BMatP= 7.55D-04
 IDIUse=1 WtCom= 1.00D+00 WtEn= 0.00D+00
 Coeff-Com:  0.178D+01 0.151D+01 0.435D+01-0.724D+01 0.549D+00-0.215D+00
 Coeff-Com:  0.103D+00 0.239D+00-0.125D+00 0.360D+00-0.313D+00
 Coeff:      0.178D+01 0.151D+01 0.435D+01-0.724D+01 0.549D+00-0.215D+00
 Coeff:      0.103D+00 0.239D+00-0.125D+00 0.360D+00-0.313D+00
 Gap=    -0.003 Goal=   None    Shift=    0.000
 Gap=     0.085 Goal=   None    Shift=    0.000
 RMSDP=1.79D-03 MaxDP=4.62D-01 DE= 2.11D-03 OVMax= 7.61D-01

 Cycle  89  Pass 1  IDiag  1:
 RMSU=  1.17D-05    CP:  9.98D-01  3.00D+00  9.41D-01  2.88D-01  7.89D-01
                    CP:  7.72D-02  4.65D-02 -1.14D-01
 E= -1487.14896951499     Delta-E=        0.066837465392 Rises=F Damp=F
 DIIS: error= 1.60D-02 at cycle  89 NSaved=  12.
 NSaved=12 IEnMin=10 EnMin= -1487.21791820268     IErMin= 1 ErrMin= 1.07D-03
 ErrMax= 1.60D-02  0.00D+00 EMaxC= 1.00D-01 BMatC= 1.35D-01 BMatP= 7.55D-04
 IDIUse=2 WtCom= 0.00D+00 WtEn= 1.00D+00
 EnCoef did   100 forward-backward iterations
 Coeff-En:   0.000D+00 0.000D+00 0.000D+00 0.000D+00 0.000D+00 0.000D+00
 Coeff-En:   0.199D+00 0.139D-03 0.798D+00 0.129D-02 0.000D+00 0.115D-02
 Coeff:      0.000D+00 0.000D+00 0.000D+00 0.000D+00 0.000D+00 0.000D+00
 Coeff:      0.199D+00 0.139D-03 0.798D+00 0.129D-02 0.000D+00 0.115D-02
 Gap=     0.004 Goal=   None    Shift=    0.000
 Gap=     0.165 Goal=   None    Shift=    0.000
 RMSDP=1.56D-03 MaxDP=3.93D-01 DE= 6.68D-02 OVMax= 6.47D-01

 Cycle  90  Pass 1  IDiag  1:
 RMSU=  1.51D-04    CP:  1.00D+00  2.87D+00  2.60D-01  9.10D-01 -1.20D-01
                    CP:  1.06D+00  2.59D+00  2.02D+00  3.00D+00
 E= -1487.21625116907     Delta-E=       -0.067281654089 Rises=F Damp=F
 DIIS: error= 3.00D-03 at cycle  90 NSaved=  13.
 NSaved=13 IEnMin=10 EnMin= -1487.21791820268     IErMin= 1 ErrMin= 1.07D-03
 ErrMax= 3.00D-03  0.00D+00 EMaxC= 1.00D-01 BMatC= 1.59D-02 BMatP= 7.55D-04
 IDIUse=1 WtCom= 1.00D+00 WtEn= 0.00D+00
 Coeff-Com:  0.166D+01 0.248D+01 0.305D+01-0.668D+01 0.459D+00-0.155D+00
 Coeff-Com:  0.118D+00 0.347D+00-0.128D+00 0.355D+00-0.314D+00-0.174D+00
 Coeff-Com: -0.494D-02
 Coeff:      0.166D+01 0.248D+01 0.305D+01-0.668D+01 0.459D+00-0.155D+00
 Coeff:      0.118D+00 0.347D+00-0.128D+00 0.355D+00-0.314D+00-0.174D+00
 Coeff:     -0.494D-02
 Gap=     0.004 Goal=   None    Shift=    0.000
 Gap=     0.158 Goal=   None    Shift=    0.000
 RMSDP=1.58D-03 MaxDP=3.96D-01 DE=-6.73D-02 OVMax= 6.54D-01

 Cycle  91  Pass 1  IDiag  1:
 RMSU=  1.01D-06    CP:  9.98D-01  3.00D+00  9.47D-01  2.62D-01  7.30D-01
                    CP:  7.91D-02  4.62D-02 -1.11D-01  1.03D+00 -4.16D-04
 E= -1487.14787999200     Delta-E=        0.068371177078 Rises=F Damp=F
 DIIS: error= 1.62D-02 at cycle  91 NSaved=  14.
 NSaved=14 IEnMin=10 EnMin= -1487.21791820268     IErMin= 1 ErrMin= 1.07D-03
 ErrMax= 1.62D-02  0.00D+00 EMaxC= 1.00D-01 BMatC= 1.38D-01 BMatP= 7.55D-04
 IDIUse=2 WtCom= 0.00D+00 WtEn= 1.00D+00
 EnCoef did   100 forward-backward iterations
 Rare condition: small coef for last iteration: -0.544D-16
 Coeff-En:   0.000D+00 0.000D+00 0.000D+00 0.000D+00 0.000D+00 0.000D+00
 Coeff-En:   0.111D+00 0.795D-02 0.831D+00 0.000D+00 0.000D+00 0.000D+00
 Coeff-En:   0.000D+00 0.492D-01
 Coeff:      0.000D+00 0.000D+00 0.000D+00 0.000D+00 0.000D+00 0.000D+00
 Coeff:      0.111D+00 0.795D-02 0.831D+00 0.000D+00 0.000D+00 0.000D+00
 Coeff:      0.000D+00 0.492D-01
 Gap=     0.002 Goal=   None    Shift=    0.000
 Gap=     0.167 Goal=   None    Shift=    0.000
 RMSDP=1.64D-03 MaxDP=4.17D-01 DE= 6.84D-02 OVMax= 6.79D-01

 Cycle  92  Pass 1  IDiag  1:
 RMSU=  1.11D-05    CP:  1.00D+00  2.49D+00  2.32D-01  8.83D-01 -2.77D-01
                    CP:  1.02D+00  2.45D+00  1.94D+00  2.73D+00  9.40D-01
                    CP:  3.00D+00
 E= -1487.21762360775     Delta-E=       -0.069743615755 Rises=F Damp=F
 DIIS: error= 2.62D-03 at cycle  92 NSaved=  15.
 NSaved=15 IEnMin=10 EnMin= -1487.21791820268     IErMin= 1 ErrMin= 1.07D-03
 ErrMax= 2.62D-03  0.00D+00 EMaxC= 1.00D-01 BMatC= 1.18D-02 BMatP= 7.55D-04
 IDIUse=1 WtCom= 1.00D+00 WtEn= 0.00D+00
 Coeff-Com:  0.793D+00 0.582D+01-0.150D+01-0.411D+01 0.388D-01-0.192D+00
 Coeff-Com:  0.173D+00 0.118D+01-0.145D+00 0.443D+00-0.454D+00-0.544D+01
 Coeff-Com:  0.261D+00 0.445D+01-0.307D+00
 Coeff:      0.793D+00 0.582D+01-0.150D+01-0.411D+01 0.388D-01-0.192D+00
 Coeff:      0.173D+00 0.118D+01-0.145D+00 0.443D+00-0.454D+00-0.544D+01
 Coeff:      0.261D+00 0.445D+01-0.307D+00
 Gap=     0.002 Goal=   None    Shift=    0.000
 Gap=     0.158 Goal=   None    Shift=    0.000
 RMSDP=1.66D-03 MaxDP=4.21D-01 DE=-6.97D-02 OVMax= 6.85D-01

 Cycle  93  Pass 1  IDiag  1:
 RMSU=  4.43D-06    CP:  9.98D-01  3.00D+00  9.54D-01  2.33D-01  6.45D-01
                    CP:  4.68D-02  4.26D-02 -9.42D-02  7.87D-01 -8.99D-03
                    CP: -1.75D+00  6.38D-03
 E= -1487.14621099523     Delta-E=        0.071412612520 Rises=F Damp=F
 DIIS: error= 1.64D-02 at cycle  93 NSaved=  16.
 NSaved=16 IEnMin=10 EnMin= -1487.21791820268     IErMin= 1 ErrMin= 1.07D-03
 ErrMax= 1.64D-02  0.00D+00 EMaxC= 1.00D-01 BMatC= 1.41D-01 BMatP= 7.55D-04
 IDIUse=2 WtCom= 0.00D+00 WtEn= 1.00D+00
 EnCoef did   100 forward-backward iterations
 Rare condition: small coef for last iteration:  0.000D+00
 Coeff-En:   0.000D+00 0.000D+00 0.000D+00 0.000D+00 0.000D+00 0.000D+00
 Coeff-En:   0.112D+00 0.103D-01 0.831D+00 0.000D+00 0.000D+00 0.000D+00
 Coeff-En:   0.000D+00 0.000D+00 0.000D+00 0.466D-01
 Coeff:      0.000D+00 0.000D+00 0.000D+00 0.000D+00 0.000D+00 0.000D+00
 Coeff:      0.112D+00 0.103D-01 0.831D+00 0.000D+00 0.000D+00 0.000D+00
 Coeff:      0.000D+00 0.000D+00 0.000D+00 0.466D-01
 Gap=     0.002 Goal=   None    Shift=    0.000
 Gap=     0.167 Goal=   None    Shift=    0.000
 RMSDP=1.66D-03 MaxDP=4.22D-01 DE= 7.14D-02 OVMax= 6.86D-01

 Cycle  94  Pass 1  IDiag  1:
 RMSU=  5.69D-07    CP:  1.00D+00  2.47D+00  2.31D-01  8.82D-01 -2.81D-01
                    CP:  1.02D+00  2.44D+00  1.94D+00  2.71D+00  9.38D-01
                    CP:  3.00D+00  1.01D+00 -6.53D-02
 E= -1487.21766020610     Delta-E=       -0.071449210868 Rises=F Damp=F
 DIIS: error= 2.60D-03 at cycle  94 NSaved=  17.
 NSaved=17 IEnMin=10 EnMin= -1487.21791820268     IErMin= 1 ErrMin= 1.07D-03
 ErrMax= 2.60D-03  0.00D+00 EMaxC= 1.00D-01 BMatC= 1.17D-02 BMatP= 7.55D-04
 IDIUse=1 WtCom= 1.00D+00 WtEn= 0.00D+00
 Coeff-Com:  0.107D+01 0.412D+01 0.126D+01-0.570D+01 0.208D+00-0.108D+00
 Coeff-Com:  0.173D+00 0.848D+00-0.175D+00 0.457D+00-0.395D+00-0.293D+01
 Coeff-Com:  0.116D+00 0.211D+01-0.408D+01 0.659D-01 0.394D+01
 Coeff:      0.107D+01 0.412D+01 0.126D+01-0.570D+01 0.208D+00-0.108D+00
 Coeff:      0.173D+00 0.848D+00-0.175D+00 0.457D+00-0.395D+00-0.293D+01
 Coeff:      0.116D+00 0.211D+01-0.408D+01 0.659D-01 0.394D+01
 Gap=     0.002 Goal=   None    Shift=    0.000
 Gap=     0.158 Goal=   None    Shift=    0.000
 RMSDP=1.64D-03 MaxDP=4.19D-01 DE=-7.14D-02 OVMax= 6.78D-01

 Cycle  95  Pass 1  IDiag  1:
 RMSU=  1.43D-06    CP:  9.98D-01  3.00D+00  9.47D-01  2.64D-01  7.12D-01
                    CP:  4.71D-02  4.75D-02 -9.42D-02  8.18D-01 -7.18D-03
                    CP: -1.79D+00  6.88D-02  1.01D+00 -6.43D-01
 E= -1487.14756922385     Delta-E=        0.070090982248 Rises=F Damp=F
 DIIS: error= 1.62D-02 at cycle  95 NSaved=  18.
 NSaved=18 IEnMin=10 EnMin= -1487.21791820268     IErMin= 1 ErrMin= 1.07D-03
 ErrMax= 1.62D-02  0.00D+00 EMaxC= 1.00D-01 BMatC= 1.38D-01 BMatP= 7.55D-04
 IDIUse=2 WtCom= 0.00D+00 WtEn= 1.00D+00
 EnCoef did   100 forward-backward iterations
 Coeff-En:   0.000D+00 0.000D+00 0.000D+00 0.000D+00 0.000D+00 0.000D+00
 Coeff-En:   0.285D-03 0.646D-04 0.512D+00 0.186D-02 0.000D+00 0.000D+00
 Coeff-En:   0.986D-03 0.000D+00 0.428D+00 0.000D+00 0.563D-01 0.389D-03
 Coeff:      0.000D+00 0.000D+00 0.000D+00 0.000D+00 0.000D+00 0.000D+00
 Coeff:      0.285D-03 0.646D-04 0.512D+00 0.186D-02 0.000D+00 0.000D+00
 Coeff:      0.986D-03 0.000D+00 0.428D+00 0.000D+00 0.563D-01 0.389D-03
 Gap=     0.002 Goal=   None    Shift=    0.000
 Gap=     0.171 Goal=   None    Shift=    0.000
 RMSDP=1.65D-03 MaxDP=4.17D-01 DE= 7.01D-02 OVMax= 6.78D-01

 Cycle  96  Pass 1  IDiag  1:
 RMSU=  6.13D-05    CP:  1.00D+00  2.19D+00  2.34D-01  9.36D-01 -1.63D+00
                    CP:  1.26D+00  1.69D+00 -1.41D-01  3.00D+00  4.04D-01
                    CP:  3.00D+00  1.14D-02 -3.00D+00 -3.00D+00  3.00D+00
 E= -1487.22028169536     Delta-E=       -0.072712471509 Rises=F Damp=F
 DIIS: error= 1.83D-03 at cycle  96 NSaved=  19.
 NSaved=19 IEnMin=19 EnMin= -1487.22028169536     IErMin= 1 ErrMin= 1.07D-03
 ErrMax= 1.83D-03  0.00D+00 EMaxC= 1.00D-01 BMatC= 2.34D-03 BMatP= 7.55D-04
 IDIUse=1 WtCom= 1.00D+00 WtEn= 0.00D+00
 Coeff-Com:  0.121D+01 0.191D+01 0.287D+01-0.550D+01 0.229D+00-0.306D-01
 Coeff-Com:  0.100D+00 0.579D+00-0.116D+00 0.415D+00-0.315D+00-0.188D+01
 Coeff-Com:  0.205D+00 0.114D+01-0.333D+01-0.274D+00 0.319D+01 0.462D+00
 Coeff-Com:  0.144D+00
 Coeff:      0.121D+01 0.191D+01 0.287D+01-0.550D+01 0.229D+00-0.306D-01
 Coeff:      0.100D+00 0.579D+00-0.116D+00 0.415D+00-0.315D+00-0.188D+01
 Coeff:      0.205D+00 0.114D+01-0.333D+01-0.274D+00 0.319D+01 0.462D+00
 Coeff:      0.144D+00
 Gap=     0.006 Goal=   None    Shift=    0.300
 Gap=     0.161 Goal=   None    Shift=    0.300
 RMSDP=2.01D-04 MaxDP=3.20D-02 DE=-7.27D-02 OVMax= 2.97D-02

 Cycle  97  Pass 1  IDiag  1:
 RMSU=  2.16D-05    CP:  1.00D+00  3.00D+00  2.51D-01  8.50D-01 -6.84D-01
                    CP:  6.31D-01  1.57D+00 -9.34D-02  6.01D-01  2.08D-01
                    CP:  3.00D+00  1.73D+00 -3.00D+00 -3.00D+00  2.16D+00
                    CP:  3.99D-01
 E= -1487.21659730414     Delta-E=        0.003684391222 Rises=F Damp=F
 DIIS: error= 5.19D-03 at cycle  97 NSaved=  20.
 NSaved=20 IEnMin=19 EnMin= -1487.22028169536     IErMin= 1 ErrMin= 1.07D-03
 ErrMax= 5.19D-03  0.00D+00 EMaxC= 1.00D-01 BMatC= 1.22D-02 BMatP= 7.55D-04
 IDIUse=1 WtCom= 1.00D+00 WtEn= 0.00D+00
 Coeff-Com:  0.117D+01-0.930D+00 0.772D+01-0.771D+01 0.385D+00 0.203D+00
 Coeff-Com: -0.478D-02 0.261D+00-0.122D-01 0.300D-01-0.186D+00-0.310D+00
 Coeff-Com:  0.900D-01-0.190D+00-0.523D+01-0.144D+01 0.520D+01 0.145D+01
 Coeff-Com: -0.483D-03 0.501D+00
 Coeff:      0.117D+01-0.930D+00 0.772D+01-0.771D+01 0.385D+00 0.203D+00
 Coeff:     -0.478D-02 0.261D+00-0.122D-01 0.300D-01-0.186D+00-0.310D+00
 Coeff:      0.900D-01-0.190D+00-0.523D+01-0.144D+01 0.520D+01 0.145D+01
 Coeff:     -0.483D-03 0.501D+00
 Gap=     0.009 Goal=   None    Shift=    0.000
 Gap=     0.112 Goal=   None    Shift=    0.000
 RMSDP=1.15D-03 MaxDP=3.04D-01 DE= 3.68D-03 OVMax= 4.92D-01

 Cycle  98  Pass 1  IDiag  1:
 RMSU=  1.36D-05    CP:  9.99D-01  3.00D+00  7.80D-01  7.42D-01  1.29D+00
                    CP: -9.32D-03  2.34D-01 -9.33D-02  8.13D-01  6.24D-02
                    CP: -4.78D-01  6.81D-01 -9.60D-01 -3.00D+00  3.00D+00
                    CP:  3.66D-02  2.26D-01
 E= -1487.17320435972     Delta-E=        0.043392944416 Rises=F Damp=F
 DIIS: error= 1.29D-02 at cycle  98 NSaved=  20.
 NSaved=20 IEnMin=18 EnMin= -1487.22028169536     IErMin= 1 ErrMin= 1.07D-03
 ErrMax= 1.29D-02  0.00D+00 EMaxC= 1.00D-01 BMatC= 8.95D-02 BMatP= 7.55D-04
 IDIUse=2 WtCom= 0.00D+00 WtEn= 1.00D+00
 EnCoef did   100 forward-backward iterations
 Rare condition: small coef for last iteration:  0.238D-17
 Coeff-En:   0.000D+00 0.000D+00 0.000D+00 0.000D+00 0.000D+00 0.596D-01
 Coeff-En:   0.000D+00 0.841D+00 0.000D+00 0.000D+00 0.000D+00 0.000D+00
 Coeff-En:   0.000D+00 0.000D+00 0.000D+00 0.000D+00 0.000D+00 0.000D+00
 Coeff-En:   0.000D+00 0.991D-01
 Coeff:      0.000D+00 0.000D+00 0.000D+00 0.000D+00 0.000D+00 0.596D-01
 Coeff:      0.000D+00 0.841D+00 0.000D+00 0.000D+00 0.000D+00 0.000D+00
 Coeff:      0.000D+00 0.000D+00 0.000D+00 0.000D+00 0.000D+00 0.000D+00
 Coeff:      0.000D+00 0.991D-01
 Gap=     0.009 Goal=   None    Shift=    0.000
 Gap=     0.168 Goal=   None    Shift=    0.000
 RMSDP=1.20D-03 MaxDP=3.28D-01 DE= 4.34D-02 OVMax= 5.02D-01

 Cycle  99  Pass 1  IDiag  1:
 RMSU=  1.31D-06    CP:  1.00D+00  2.64D+00  2.44D-01  8.97D-01 -2.52D-01
                    CP:  1.04D+00  2.50D+00  1.92D+00  3.00D+00  9.51D-01
                    CP:  3.00D+00  7.59D-01 -2.24D-01 -1.82D+00 -1.20D-03
                    CP:  3.79D-02  2.08D-03 -1.40D-02
 E= -1487.21731816547     Delta-E=       -0.044113805748 Rises=F Damp=F
 DIIS: error= 2.66D-03 at cycle  99 NSaved=  20.
 NSaved=20 IEnMin=18 EnMin= -1487.22028169536     IErMin= 1 ErrMin= 1.07D-03
 ErrMax= 2.66D-03  0.00D+00 EMaxC= 1.00D-01 BMatC= 1.26D-02 BMatP= 7.55D-04
 IDIUse=1 WtCom= 1.00D+00 WtEn= 0.00D+00
 Coeff-Com:  0.119D+01 0.231D+01 0.126D+01-0.417D+01 0.135D+00-0.213D-01
 Coeff-Com:  0.754D+00-0.533D-01 0.373D+00-0.344D+00-0.441D+01-0.452D-01
 Coeff-Com:  0.350D+01 0.197D+01 0.140D+01-0.200D+01-0.154D+01 0.164D+00
 Coeff-Com:  0.404D+00 0.132D+00
 Coeff:      0.119D+01 0.231D+01 0.126D+01-0.417D+01 0.135D+00-0.213D-01
 Coeff:      0.754D+00-0.533D-01 0.373D+00-0.344D+00-0.441D+01-0.452D-01
 Coeff:      0.350D+01 0.197D+01 0.140D+01-0.200D+01-0.154D+01 0.164D+00
 Coeff:      0.404D+00 0.132D+00
 Gap=     0.007 Goal=   None    Shift=    0.000
 Gap=     0.160 Goal=   None    Shift=    0.000
 RMSDP=1.29D-03 MaxDP=3.47D-01 DE=-4.41D-02 OVMax= 5.39D-01

 Cycle 100  Pass 1  IDiag  1:
 RMSU=  5.00D-06    CP:  9.99D-01  3.00D+00  8.19D-01  6.59D-01  1.27D+00
                    CP:  3.89D-02  1.79D-01 -1.24D-01  7.91D-01  6.29D-02
                    CP: -3.57D-01  4.73D-01 -4.43D-01 -3.00D+00  3.00D+00
                    CP:  5.15D-02  2.01D-01  7.07D-01  1.11D+00
 E= -1487.16801104320     Delta-E=        0.049307122270 Rises=F Damp=F
 DIIS: error= 1.36D-02 at cycle 100 NSaved=  20.
 NSaved=20 IEnMin=17 EnMin= -1487.22028169536     IErMin= 1 ErrMin= 1.07D-03
 ErrMax= 1.36D-02  0.00D+00 EMaxC= 1.00D-01 BMatC= 9.88D-02 BMatP= 7.55D-04
 IDIUse=2 WtCom= 0.00D+00 WtEn= 1.00D+00
 EnCoef did   100 forward-backward iterations
 Rare condition: small coef for last iteration:  0.000D+00
 Coeff-En:   0.000D+00 0.000D+00 0.000D+00 0.000D+00 0.000D+00 0.728D-01
 Coeff-En:   0.000D+00 0.840D+00 0.000D+00 0.000D+00 0.000D+00 0.000D+00
 Coeff-En:   0.000D+00 0.000D+00 0.000D+00 0.000D+00 0.000D+00 0.000D+00
 Coeff-En:   0.000D+00 0.873D-01
 Coeff:      0.000D+00 0.000D+00 0.000D+00 0.000D+00 0.000D+00 0.728D-01
 Coeff:      0.000D+00 0.840D+00 0.000D+00 0.000D+00 0.000D+00 0.000D+00
 Coeff:      0.000D+00 0.000D+00 0.000D+00 0.000D+00 0.000D+00 0.000D+00
 Coeff:      0.000D+00 0.873D-01
 Gap=     0.008 Goal=   None    Shift=    0.000
 Gap=     0.166 Goal=   None    Shift=    0.000
 RMSDP=1.30D-03 MaxDP=3.50D-01 DE= 4.93D-02 OVMax= 5.43D-01

 Cycle 101  Pass 1  IDiag  1:
 Restarting incremental Fock formation.
 E= -1487.21739430927     Delta-E=       -0.049383266074 Rises=F Damp=F
 DIIS: error= 2.65D-03 at cycle 101 NSaved=  20.
 NSaved=20 IEnMin=17 EnMin= -1487.22028169536     IErMin= 1 ErrMin= 1.07D-03
 ErrMax= 2.65D-03  0.00D+00 EMaxC= 1.00D-01 BMatC= 1.24D-02 BMatP= 7.55D-04
 IDIUse=1 WtCom= 1.00D+00 WtEn= 0.00D+00
 Coeff-Com:  0.148D+01 0.116D+01 0.305D+01-0.527D+01 0.287D+00 0.617D-02
 Coeff-Com:  0.684D+00-0.896D-01 0.374D+00-0.331D+00-0.462D+01 0.214D+00
 Coeff-Com:  0.417D+01 0.437D+01-0.296D+01-0.432D+00 0.200D+00 0.495D+00
 Coeff-Com: -0.208D+00-0.159D+01
 Coeff:      0.148D+01 0.116D+01 0.305D+01-0.527D+01 0.287D+00 0.617D-02
 Coeff:      0.684D+00-0.896D-01 0.374D+00-0.331D+00-0.462D+01 0.214D+00
 Coeff:      0.417D+01 0.437D+01-0.296D+01-0.432D+00 0.200D+00 0.495D+00
 Coeff:     -0.208D+00-0.159D+01
 Gap=     0.007 Goal=   None    Shift=    0.000
 Gap=     0.160 Goal=   None    Shift=    0.000
 RMSDP=1.30D-03 MaxDP=3.51D-01 DE=-4.94D-02 OVMax= 5.45D-01

 Cycle 102  Pass 1  IDiag  1:
 RMSU=  1.30D-03    CP:  9.99D-01
 E= -1487.16763106804     Delta-E=        0.049763241233 Rises=F Damp=F
 DIIS: error= 1.36D-02 at cycle 102 NSaved=  20.
 NSaved=20 IEnMin=16 EnMin= -1487.22028169536     IErMin= 1 ErrMin= 1.07D-03
 ErrMax= 1.36D-02  0.00D+00 EMaxC= 1.00D-01 BMatC= 9.94D-02 BMatP= 7.55D-04
 IDIUse=2 WtCom= 0.00D+00 WtEn= 1.00D+00
 EnCoef did   100 forward-backward iterations
 Rare condition: small coef for last iteration:  0.291D-22
 Coeff-En:   0.000D+00 0.000D+00 0.000D+00 0.000D+00 0.000D+00 0.738D-01
 Coeff-En:   0.000D+00 0.840D+00 0.000D+00 0.000D+00 0.000D+00 0.000D+00
 Coeff-En:   0.000D+00 0.000D+00 0.000D+00 0.000D+00 0.000D+00 0.000D+00
 Coeff-En:   0.000D+00 0.865D-01
 Coeff:      0.000D+00 0.000D+00 0.000D+00 0.000D+00 0.000D+00 0.738D-01
 Coeff:      0.000D+00 0.840D+00 0.000D+00 0.000D+00 0.000D+00 0.000D+00
 Coeff:      0.000D+00 0.000D+00 0.000D+00 0.000D+00 0.000D+00 0.000D+00
 Coeff:      0.000D+00 0.865D-01
 Gap=     0.008 Goal=   None    Shift=    0.000
 Gap=     0.166 Goal=   None    Shift=    0.000
 RMSDP=1.30D-03 MaxDP=3.51D-01 DE= 4.98D-02 OVMax= 5.46D-01

 Cycle 103  Pass 1  IDiag  1:
 RMSU=  4.67D-07    CP:  1.00D+00 -3.79D-04
 E= -1487.21739888209     Delta-E=       -0.049767814050 Rises=F Damp=F
 DIIS: error= 2.65D-03 at cycle 103 NSaved=  20.
 NSaved=20 IEnMin=16 EnMin= -1487.22028169536     IErMin= 1 ErrMin= 1.07D-03
 ErrMax= 2.65D-03  0.00D+00 EMaxC= 1.00D-01 BMatC= 1.24D-02 BMatP= 7.55D-04
 IDIUse=1 WtCom= 1.00D+00 WtEn= 0.00D+00
 Coeff-Com:  0.143D+01 0.149D+01 0.300D+01-0.552D+01 0.291D+00 0.170D-01
 Coeff-Com:  0.676D+00-0.958D-01 0.382D+00-0.309D+00-0.377D+01 0.186D+00
 Coeff-Com:  0.298D+01-0.304D+00 0.123D+01 0.179D+00 0.476D+00 0.284D+00
 Coeff-Com: -0.560D+00-0.106D+01
 Coeff:      0.143D+01 0.149D+01 0.300D+01-0.552D+01 0.291D+00 0.170D-01
 Coeff:      0.676D+00-0.958D-01 0.382D+00-0.309D+00-0.377D+01 0.186D+00
 Coeff:      0.298D+01-0.304D+00 0.123D+01 0.179D+00 0.476D+00 0.284D+00
 Coeff:     -0.560D+00-0.106D+01
 Gap=     0.007 Goal=   None    Shift=    0.000
 Gap=     0.160 Goal=   None    Shift=    0.000
 RMSDP=1.34D-03 MaxDP=3.58D-01 DE=-4.98D-02 OVMax= 5.58D-01

 Cycle 104  Pass 1  IDiag  1:
 RMSU=  1.92D-05    CP:  9.99D-01  1.02D+00  3.00D+00
 E= -1487.16563345733     Delta-E=        0.051765424764 Rises=F Damp=F
 DIIS: error= 1.39D-02 at cycle 104 NSaved=  20.
 NSaved=20 IEnMin=15 EnMin= -1487.22028169536     IErMin= 1 ErrMin= 1.07D-03
 ErrMax= 1.39D-02  0.00D+00 EMaxC= 1.00D-01 BMatC= 1.03D-01 BMatP= 7.55D-04
 IDIUse=2 WtCom= 0.00D+00 WtEn= 1.00D+00
 EnCoef did   100 forward-backward iterations
 Rare condition: small coef for last iteration:  0.000D+00
 Coeff-En:   0.000D+00 0.000D+00 0.000D+00 0.000D+00 0.000D+00 0.787D-01
 Coeff-En:   0.000D+00 0.839D+00 0.000D+00 0.000D+00 0.000D+00 0.000D+00
 Coeff-En:   0.000D+00 0.000D+00 0.000D+00 0.000D+00 0.000D+00 0.000D+00
 Coeff-En:   0.000D+00 0.824D-01
 Coeff:      0.000D+00 0.000D+00 0.000D+00 0.000D+00 0.000D+00 0.787D-01
 Coeff:      0.000D+00 0.839D+00 0.000D+00 0.000D+00 0.000D+00 0.000D+00
 Coeff:      0.000D+00 0.000D+00 0.000D+00 0.000D+00 0.000D+00 0.000D+00
 Coeff:      0.000D+00 0.824D-01
 Gap=     0.007 Goal=   None    Shift=    0.000
 Gap=     0.167 Goal=   None    Shift=    0.000
 RMSDP=1.34D-03 MaxDP=3.59D-01 DE= 5.18D-02 OVMax= 5.59D-01

 Cycle 105  Pass 1  IDiag  1:
 RMSU=  5.34D-07    CP:  1.00D+00 -2.10D-03  3.00D+00  4.40D-02
 E= -1487.21742334161     Delta-E=       -0.051789884284 Rises=F Damp=F
 DIIS: error= 2.64D-03 at cycle 105 NSaved=  20.
 NSaved=20 IEnMin=15 EnMin= -1487.22028169536     IErMin= 1 ErrMin= 1.07D-03
 ErrMax= 2.64D-03  0.00D+00 EMaxC= 1.00D-01 BMatC= 1.23D-02 BMatP= 7.55D-04
 IDIUse=1 WtCom= 1.00D+00 WtEn= 0.00D+00
 Coeff-Com:  0.201D+01-0.146D+01 0.758D+01-0.815D+01 0.630D+00 0.150D-01
 Coeff-Com:  0.135D+00-0.133D+00 0.374D+00-0.225D+00-0.101D+00 0.728D-01
 Coeff-Com: -0.257D+01 0.448D+01 0.182D+00 0.379D+00-0.422D-01 0.118D+01
 Coeff-Com: -0.146D+01-0.191D+01
 Coeff:      0.201D+01-0.146D+01 0.758D+01-0.815D+01 0.630D+00 0.150D-01
 Coeff:      0.135D+00-0.133D+00 0.374D+00-0.225D+00-0.101D+00 0.728D-01
 Coeff:     -0.257D+01 0.448D+01 0.182D+00 0.379D+00-0.422D-01 0.118D+01
 Coeff:     -0.146D+01-0.191D+01
 Gap=     0.007 Goal=   None    Shift=    0.000
 Gap=     0.160 Goal=   None    Shift=    0.000
 RMSDP=1.30D-03 MaxDP=3.51D-01 DE=-5.18D-02 OVMax= 5.46D-01

 Cycle 106  Pass 1  IDiag  1:
 RMSU=  2.15D-06    CP:  9.99D-01  9.98D-01 -3.00D+00 -1.89D-02 -7.62D-01
 E= -1487.16787185044     Delta-E=        0.049551491168 Rises=F Damp=F
 DIIS: error= 1.36D-02 at cycle 106 NSaved=  20.
 NSaved=20 IEnMin=14 EnMin= -1487.22028169536     IErMin= 1 ErrMin= 1.07D-03
 ErrMax= 1.36D-02  0.00D+00 EMaxC= 1.00D-01 BMatC= 9.89D-02 BMatP= 7.55D-04
 IDIUse=2 WtCom= 0.00D+00 WtEn= 1.00D+00
 EnCoef did   100 forward-backward iterations
 Rare condition: small coef for last iteration:  0.197D-07
 Coeff-En:   0.000D+00 0.000D+00 0.000D+00 0.000D+00 0.000D+00 0.732D-01
 Coeff-En:   0.000D+00 0.840D+00 0.000D+00 0.000D+00 0.000D+00 0.000D+00
 Coeff-En:   0.000D+00 0.000D+00 0.000D+00 0.000D+00 0.000D+00 0.000D+00
 Coeff-En:   0.000D+00 0.870D-01
 Coeff:      0.000D+00 0.000D+00 0.000D+00 0.000D+00 0.000D+00 0.732D-01
 Coeff:      0.000D+00 0.840D+00 0.000D+00 0.000D+00 0.000D+00 0.000D+00
 Coeff:      0.000D+00 0.000D+00 0.000D+00 0.000D+00 0.000D+00 0.000D+00
 Coeff:      0.000D+00 0.870D-01
 Gap=     0.008 Goal=   None    Shift=    0.000
 Gap=     0.166 Goal=   None    Shift=    0.000
 RMSDP=1.30D-03 MaxDP=3.50D-01 DE= 4.96D-02 OVMax= 5.45D-01

 Cycle 107  Pass 1  IDiag  1:
 RMSU=  1.82D-07    CP:  1.00D+00 -1.39D-04  9.65D-01 -1.11D-02 -3.02D-01
                    CP: -1.29D-02
 E= -1487.21739652833     Delta-E=       -0.049524677886 Rises=F Damp=F
 DIIS: error= 2.65D-03 at cycle 107 NSaved=  20.
 NSaved=20 IEnMin=14 EnMin= -1487.22028169536     IErMin= 1 ErrMin= 1.07D-03
 ErrMax= 2.65D-03  0.00D+00 EMaxC= 1.00D-01 BMatC= 1.24D-02 BMatP= 7.55D-04
 IDIUse=1 WtCom= 1.00D+00 WtEn= 0.00D+00
 Coeff-Com:  0.220D+01-0.244D+01 0.896D+01-0.884D+01 0.724D+00 0.497D-02
 Coeff-Com:  0.409D-01-0.140D+00 0.381D+00-0.220D+00 0.180D+00-0.271D+01
 Coeff-Com:  0.484D+01 0.192D+00 0.330D+00-0.352D+00 0.246D+01-0.219D+01
 Coeff-Com: -0.193D+00-0.223D+01
 Coeff:      0.220D+01-0.244D+01 0.896D+01-0.884D+01 0.724D+00 0.497D-02
 Coeff:      0.409D-01-0.140D+00 0.381D+00-0.220D+00 0.180D+00-0.271D+01
 Coeff:      0.484D+01 0.192D+00 0.330D+00-0.352D+00 0.246D+01-0.219D+01
 Coeff:     -0.193D+00-0.223D+01
 Gap=     0.007 Goal=   None    Shift=    0.000
 Gap=     0.160 Goal=   None    Shift=    0.000
 RMSDP=1.29D-03 MaxDP=3.47D-01 DE=-4.95D-02 OVMax= 5.38D-01

 Cycle 108  Pass 1  IDiag  1:
 RMSU=  1.01D-06    CP:  9.99D-01  9.86D-01 -3.00D+00 -5.16D-01  4.27D-01
                    CP:  8.86D-01 -3.00D+00
 E= -1487.16883613836     Delta-E=        0.048560389970 Rises=F Damp=F
 DIIS: error= 1.35D-02 at cycle 108 NSaved=  20.
 NSaved=20 IEnMin=13 EnMin= -1487.22028169536     IErMin= 1 ErrMin= 1.07D-03
 ErrMax= 1.35D-02  0.00D+00 EMaxC= 1.00D-01 BMatC= 9.71D-02 BMatP= 7.55D-04
 IDIUse=2 WtCom= 0.00D+00 WtEn= 1.00D+00
 EnCoef did   100 forward-backward iterations
 Rare condition: small coef for last iteration:  0.578D-06
 Coeff-En:   0.000D+00 0.000D+00 0.000D+00 0.000D+00 0.000D+00 0.708D-01
 Coeff-En:   0.840D+00 0.000D+00 0.000D+00 0.000D+00 0.000D+00 0.000D+00
 Coeff-En:   0.000D+00 0.000D+00 0.000D+00 0.000D+00 0.000D+00 0.000D+00
 Coeff-En:   0.000D+00 0.890D-01
 Coeff:      0.000D+00 0.000D+00 0.000D+00 0.000D+00 0.000D+00 0.708D-01
 Coeff:      0.840D+00 0.000D+00 0.000D+00 0.000D+00 0.000D+00 0.000D+00
 Coeff:      0.000D+00 0.000D+00 0.000D+00 0.000D+00 0.000D+00 0.000D+00
 Coeff:      0.000D+00 0.890D-01
 Gap=     0.008 Goal=   None    Shift=    0.000
 Gap=     0.166 Goal=   None    Shift=    0.000
 RMSDP=1.28D-03 MaxDP=3.47D-01 DE= 4.86D-02 OVMax= 5.38D-01

 Cycle 109  Pass 1  IDiag  1:
 RMSU=  1.14D-07    CP:  1.00D+00  7.76D-04 -1.75D-01 -3.40D-02 -9.30D-01
                    CP: -2.59D-02  1.32D+00 -1.18D-01
 E= -1487.21738326392     Delta-E=       -0.048547125558 Rises=F Damp=F
 DIIS: error= 2.65D-03 at cycle 109 NSaved=  20.
 NSaved=20 IEnMin=13 EnMin= -1487.22028169536     IErMin= 1 ErrMin= 1.07D-03
 ErrMax= 2.65D-03  0.00D+00 EMaxC= 1.00D-01 BMatC= 1.24D-02 BMatP= 7.55D-04
 IDIUse=1 WtCom= 1.00D+00 WtEn= 0.00D+00
 Coeff-Com:  0.205D+01-0.229D+01 0.878D+01-0.861D+01 0.682D+00 0.343D-02
 Coeff-Com: -0.131D+00 0.414D+00-0.255D+00-0.579D-01-0.247D+01 0.368D+01
 Coeff-Com:  0.166D+00 0.393D+00 0.552D-01 0.827D+00-0.389D+00-0.332D+01
 Coeff-Com:  0.254D+01-0.105D+01
 Coeff:      0.205D+01-0.229D+01 0.878D+01-0.861D+01 0.682D+00 0.343D-02
 Coeff:     -0.131D+00 0.414D+00-0.255D+00-0.579D-01-0.247D+01 0.368D+01
 Coeff:      0.166D+00 0.393D+00 0.552D-01 0.827D+00-0.389D+00-0.332D+01
 Coeff:      0.254D+01-0.105D+01
 Gap=     0.008 Goal=   None    Shift=    0.000
 Gap=     0.160 Goal=   None    Shift=    0.000
 RMSDP=1.27D-03 MaxDP=3.43D-01 DE=-4.85D-02 OVMax= 5.30D-01

 Cycle 110  Pass 1  IDiag  1:
 RMSU=  2.00D-06    CP:  9.99D-01  9.72D-01 -3.00D+00 -1.07D+00  2.35D+00
                    CP: -4.17D-02 -3.00D+00  1.00D+00  3.00D+00
 E= -1487.16979219490     Delta-E=        0.047591069018 Rises=F Damp=F
 DIIS: error= 1.33D-02 at cycle 110 NSaved=  20.
 NSaved=20 IEnMin=13 EnMin= -1487.22028169536     IErMin= 1 ErrMin= 1.07D-03
 ErrMax= 1.33D-02  0.00D+00 EMaxC= 1.00D-01 BMatC= 9.55D-02 BMatP= 7.55D-04
 IDIUse=2 WtCom= 0.00D+00 WtEn= 1.00D+00
 EnCoef did   100 forward-backward iterations
 Rare condition: small coef for last iteration:  0.664D-06
 Coeff-En:   0.000D+00 0.000D+00 0.000D+00 0.000D+00 0.000D+00 0.683D-01
 Coeff-En:   0.840D+00 0.000D+00 0.000D+00 0.000D+00 0.000D+00 0.000D+00
 Coeff-En:   0.000D+00 0.000D+00 0.000D+00 0.000D+00 0.000D+00 0.000D+00
 Coeff-En:   0.000D+00 0.912D-01
 Coeff:      0.000D+00 0.000D+00 0.000D+00 0.000D+00 0.000D+00 0.683D-01
 Coeff:      0.840D+00 0.000D+00 0.000D+00 0.000D+00 0.000D+00 0.000D+00
 Coeff:      0.000D+00 0.000D+00 0.000D+00 0.000D+00 0.000D+00 0.000D+00
 Coeff:      0.000D+00 0.912D-01
 Gap=     0.008 Goal=   None    Shift=    0.000
 Gap=     0.166 Goal=   None    Shift=    0.000
 RMSDP=1.27D-03 MaxDP=3.42D-01 DE= 4.76D-02 OVMax= 5.30D-01

 Cycle 111  Pass 1  IDiag  1:
 RMSU=  2.22D-07    CP:  1.00D+00  1.75D-03 -1.46D+00 -5.57D-02 -1.63D+00
                    CP: -6.35D-02  1.14D+00 -3.92D-02  5.00D-01 -7.03D-02
 E= -1487.21736938524     Delta-E=       -0.047577190345 Rises=F Damp=F
 DIIS: error= 2.65D-03 at cycle 111 NSaved=  20.
 NSaved=20 IEnMin=13 EnMin= -1487.22028169536     IErMin= 1 ErrMin= 1.07D-03
 ErrMax= 2.65D-03  0.00D+00 EMaxC= 1.00D-01 BMatC= 1.25D-02 BMatP= 7.55D-04
 IDIUse=1 WtCom= 1.00D+00 WtEn= 0.00D+00
 Coeff-Com:  0.199D+01-0.164D+01 0.796D+01-0.834D+01 0.659D+00-0.146D-01
 Coeff-Com: -0.114D+00 0.396D+00-0.251D+00-0.175D+00-0.266D+01 0.345D+01
 Coeff-Com:  0.139D+00 0.327D+00 0.449D-01 0.850D+00-0.497D+01 0.342D+01
 Coeff-Com:  0.446D+00-0.527D+00
 Coeff:      0.199D+01-0.164D+01 0.796D+01-0.834D+01 0.659D+00-0.146D-01
 Coeff:     -0.114D+00 0.396D+00-0.251D+00-0.175D+00-0.266D+01 0.345D+01
 Coeff:      0.139D+00 0.327D+00 0.449D-01 0.850D+00-0.497D+01 0.342D+01
 Coeff:      0.446D+00-0.527D+00
 Gap=     0.007 Goal=   None    Shift=    0.000
 Gap=     0.160 Goal=   None    Shift=    0.000
 RMSDP=1.31D-03 MaxDP=3.52D-01 DE=-4.76D-02 OVMax= 5.48D-01

 Cycle 112  Pass 1  IDiag  1:
 RMSU=  1.10D-06    CP:  9.99D-01  1.01D+00  3.00D+00  2.67D-01  1.81D+00
                    CP:  6.90D-01 -3.00D+00  9.35D-02  1.51D-01  1.86D-01
                    CP: -1.69D+00
 E= -1487.16709740021     Delta-E=        0.050271985029 Rises=F Damp=F
 DIIS: error= 1.37D-02 at cycle 112 NSaved=  20.
 NSaved=20 IEnMin=13 EnMin= -1487.22028169536     IErMin= 1 ErrMin= 1.07D-03
 ErrMax= 1.37D-02  0.00D+00 EMaxC= 1.00D-01 BMatC= 1.00D-01 BMatP= 7.55D-04
 IDIUse=2 WtCom= 0.00D+00 WtEn= 1.00D+00
 EnCoef did   100 forward-backward iterations
 Rare condition: small coef for last iteration:  0.000D+00
 Coeff-En:   0.000D+00 0.000D+00 0.000D+00 0.000D+00 0.000D+00 0.751D-01
 Coeff-En:   0.840D+00 0.000D+00 0.000D+00 0.000D+00 0.000D+00 0.000D+00
 Coeff-En:   0.000D+00 0.000D+00 0.000D+00 0.000D+00 0.000D+00 0.000D+00
 Coeff-En:   0.000D+00 0.854D-01
 Coeff:      0.000D+00 0.000D+00 0.000D+00 0.000D+00 0.000D+00 0.751D-01
 Coeff:      0.840D+00 0.000D+00 0.000D+00 0.000D+00 0.000D+00 0.000D+00
 Coeff:      0.000D+00 0.000D+00 0.000D+00 0.000D+00 0.000D+00 0.000D+00
 Coeff:      0.000D+00 0.854D-01
 Gap=     0.007 Goal=   None    Shift=    0.000
 Gap=     0.166 Goal=   None    Shift=    0.000
 RMSDP=1.31D-03 MaxDP=3.53D-01 DE= 5.03D-02 OVMax= 5.50D-01

 Cycle 113  Pass 1  IDiag  1:
 RMSU=  1.01D-07    CP:  1.00D+00 -8.52D-04  1.88D+00  6.93D-03  1.71D-01
                    CP: -2.20D-02  7.13D-01  1.00D-01 -1.90D-01 -1.24D-02
                    CP: -1.08D-02  1.49D-03
 E= -1487.21740591942     Delta-E=       -0.050308519201 Rises=F Damp=F
 DIIS: error= 2.65D-03 at cycle 113 NSaved=  20.
 NSaved=20 IEnMin=13 EnMin= -1487.22028169536     IErMin= 1 ErrMin= 1.07D-03
 ErrMax= 2.65D-03  0.00D+00 EMaxC= 1.00D-01 BMatC= 1.24D-02 BMatP= 7.55D-04
 IDIUse=1 WtCom= 1.00D+00 WtEn= 0.00D+00
 Coeff-Com:  0.175D+01-0.819D+00 0.685D+01-0.773D+01 0.596D+00-0.205D-02
 Coeff-Com: -0.109D+00 0.400D+00-0.279D+00-0.252D+00-0.242D+01 0.310D+01
 Coeff-Com:  0.137D+00 0.280D+00 0.430D+00-0.667D+01 0.429D+01 0.438D+00
 Coeff-Com:  0.134D+01-0.331D+00
 Coeff:      0.175D+01-0.819D+00 0.685D+01-0.773D+01 0.596D+00-0.205D-02
 Coeff:     -0.109D+00 0.400D+00-0.279D+00-0.252D+00-0.242D+01 0.310D+01
 Coeff:      0.137D+00 0.280D+00 0.430D+00-0.667D+01 0.429D+01 0.438D+00
 Coeff:      0.134D+01-0.331D+00
 Gap=     0.007 Goal=   None    Shift=    0.000
 Gap=     0.160 Goal=   None    Shift=    0.000
 RMSDP=1.30D-03 MaxDP=3.51D-01 DE=-5.03D-02 OVMax= 5.46D-01

 Cycle 114  Pass 1  IDiag  1:
 RMSU=  1.26D-06    CP:  9.99D-01  1.00D+00 -9.71D-01  3.50D-02  5.76D-01
                    CP:  2.45D-01  9.85D-01  3.52D-01  3.00D+00  5.70D-02
                    CP: -8.23D-01  7.78D-01  3.00D+00
 E= -1487.16765065168     Delta-E=        0.049755267736 Rises=F Damp=F
 DIIS: error= 1.36D-02 at cycle 114 NSaved=  20.
 NSaved=20 IEnMin=13 EnMin= -1487.22028169536     IErMin= 1 ErrMin= 1.07D-03
 ErrMax= 1.36D-02  0.00D+00 EMaxC= 1.00D-01 BMatC= 9.93D-02 BMatP= 7.55D-04
 IDIUse=2 WtCom= 0.00D+00 WtEn= 1.00D+00
 EnCoef did   100 forward-backward iterations
 Rare condition: small coef for last iteration:  0.489D-06
 Coeff-En:   0.000D+00 0.000D+00 0.000D+00 0.000D+00 0.000D+00 0.737D-01
 Coeff-En:   0.840D+00 0.000D+00 0.000D+00 0.000D+00 0.000D+00 0.000D+00
 Coeff-En:   0.000D+00 0.000D+00 0.000D+00 0.000D+00 0.000D+00 0.000D+00
 Coeff-En:   0.000D+00 0.865D-01
 Coeff:      0.000D+00 0.000D+00 0.000D+00 0.000D+00 0.000D+00 0.737D-01
 Coeff:      0.840D+00 0.000D+00 0.000D+00 0.000D+00 0.000D+00 0.000D+00
 Coeff:      0.000D+00 0.000D+00 0.000D+00 0.000D+00 0.000D+00 0.000D+00
 Coeff:      0.000D+00 0.865D-01
 Gap=     0.008 Goal=   None    Shift=    0.000
 Gap=     0.166 Goal=   None    Shift=    0.000
 RMSDP=1.30D-03 MaxDP=3.51D-01 DE= 4.98D-02 OVMax= 5.46D-01

 Cycle 115  Pass 1  IDiag  1:
 RMSU=  1.33D-07    CP:  1.00D+00 -3.44D-04  1.20D+00 -5.70D-03 -1.48D-01
                    CP: -2.25D-03 -2.18D-01 -2.85D-02 -1.90D-01 -2.78D-02
                    CP:  3.08D-01  7.10D-02 -2.76D-01 -2.20D-02
 E= -1487.21739870145     Delta-E=       -0.049748049771 Rises=F Damp=F
 DIIS: error= 2.65D-03 at cycle 115 NSaved=  20.
 NSaved=20 IEnMin=13 EnMin= -1487.22028169536     IErMin= 1 ErrMin= 1.07D-03
 ErrMax= 2.65D-03  0.00D+00 EMaxC= 1.00D-01 BMatC= 1.24D-02 BMatP= 7.55D-04
 IDIUse=1 WtCom= 1.00D+00 WtEn= 0.00D+00
 Coeff-Com:  0.199D+01-0.179D+01 0.809D+01-0.833D+01 0.660D+00-0.119D-01
 Coeff-Com: -0.115D+00 0.399D+00-0.251D+00-0.109D+00-0.235D+01 0.342D+01
 Coeff-Com:  0.155D+00 0.369D+00 0.320D+00-0.374D+01 0.286D+01 0.403D+00
 Coeff-Com: -0.104D+00-0.867D+00
 Coeff:      0.199D+01-0.179D+01 0.809D+01-0.833D+01 0.660D+00-0.119D-01
 Coeff:     -0.115D+00 0.399D+00-0.251D+00-0.109D+00-0.235D+01 0.342D+01
 Coeff:      0.155D+00 0.369D+00 0.320D+00-0.374D+01 0.286D+01 0.403D+00
 Coeff:     -0.104D+00-0.867D+00
 Gap=     0.007 Goal=   None    Shift=    0.000
 Gap=     0.160 Goal=   None    Shift=    0.000
 RMSDP=1.29D-03 MaxDP=3.48D-01 DE=-4.97D-02 OVMax= 5.39D-01

 Cycle 116  Pass 1  IDiag  1:
 RMSU=  4.58D-07    CP:  9.99D-01  9.88D-01 -3.00D+00 -4.40D-01  8.62D-01
                    CP:  3.14D-01 -1.90D+00  5.00D-01  3.00D+00  3.04D-01
                    CP:  5.32D-01  3.27D-01 -1.67D+00  5.00D-02 -4.02D-01
 E= -1487.16859437039     Delta-E=        0.048804331060 Rises=F Damp=F
 DIIS: error= 1.35D-02 at cycle 116 NSaved=  20.
 NSaved=20 IEnMin=13 EnMin= -1487.22028169536     IErMin= 1 ErrMin= 1.07D-03
 ErrMax= 1.35D-02  0.00D+00 EMaxC= 1.00D-01 BMatC= 9.77D-02 BMatP= 7.55D-04
 IDIUse=2 WtCom= 0.00D+00 WtEn= 1.00D+00
 EnCoef did   100 forward-backward iterations
 Rare condition: small coef for last iteration:  0.435D-06
 Coeff-En:   0.000D+00 0.000D+00 0.000D+00 0.000D+00 0.000D+00 0.713D-01
 Coeff-En:   0.840D+00 0.000D+00 0.000D+00 0.000D+00 0.000D+00 0.000D+00
 Coeff-En:   0.000D+00 0.000D+00 0.000D+00 0.000D+00 0.000D+00 0.000D+00
 Coeff-En:   0.000D+00 0.886D-01
 Coeff:      0.000D+00 0.000D+00 0.000D+00 0.000D+00 0.000D+00 0.713D-01
 Coeff:      0.840D+00 0.000D+00 0.000D+00 0.000D+00 0.000D+00 0.000D+00
 Coeff:      0.000D+00 0.000D+00 0.000D+00 0.000D+00 0.000D+00 0.000D+00
 Coeff:      0.000D+00 0.886D-01
 Gap=     0.008 Goal=   None    Shift=    0.000
 Gap=     0.166 Goal=   None    Shift=    0.000
 RMSDP=1.29D-03 MaxDP=3.47D-01 DE= 4.88D-02 OVMax= 5.39D-01

 Cycle 117  Pass 1  IDiag  1:
 RMSU=  5.40D-08    CP:  1.00D+00  5.66D-04  1.01D-01 -2.84D-02 -8.24D-01
                    CP: -2.34D-02  5.94D-01 -4.53D-02  4.85D-01 -1.96D-02
                    CP:  2.77D-01 -3.08D-02  3.62D-01  1.04D-02  1.05D-01
                    CP: -2.77D-02
 E= -1487.21738627166     Delta-E=       -0.048791901273 Rises=F Damp=F
 DIIS: error= 2.65D-03 at cycle 117 NSaved=  20.
 NSaved=20 IEnMin=13 EnMin= -1487.22028169536     IErMin= 1 ErrMin= 1.07D-03
 ErrMax= 2.65D-03  0.00D+00 EMaxC= 1.00D-01 BMatC= 1.24D-02 BMatP= 7.55D-04
 IDIUse=1 WtCom= 1.00D+00 WtEn= 0.00D+00
 Coeff-Com:  0.186D+01-0.965D+00 0.718D+01-0.805D+01 0.638D+00-0.343D-02
 Coeff-Com: -0.118D+00 0.390D+00-0.269D+00-0.226D+00-0.269D+01 0.362D+01
 Coeff-Com:  0.132D+00 0.225D+00 0.445D+00-0.538D+01 0.304D+01 0.259D+00
 Coeff-Com:  0.153D+01-0.622D+00
 Coeff:      0.186D+01-0.965D+00 0.718D+01-0.805D+01 0.638D+00-0.343D-02
 Coeff:     -0.118D+00 0.390D+00-0.269D+00-0.226D+00-0.269D+01 0.362D+01
 Coeff:      0.132D+00 0.225D+00 0.445D+00-0.538D+01 0.304D+01 0.259D+00
 Coeff:      0.153D+01-0.622D+00
 Gap=     0.007 Goal=   None    Shift=    0.000
 Gap=     0.160 Goal=   None    Shift=    0.000
 RMSDP=1.34D-03 MaxDP=3.59D-01 DE=-4.88D-02 OVMax= 5.61D-01

 Cycle 118  Pass 1  IDiag  1:
 RMSU=  9.43D-07    CP:  9.99D-01  1.03D+00  3.00D+00  1.26D+00 -8.80D-01
                    CP:  1.17D+00 -9.78D-01 -1.60D+00 -2.90D+00 -2.10D-01
                    CP: -1.45D+00  9.37D-01  3.00D+00  6.04D-01  4.89D-01
                    CP: -1.52D+00  3.00D+00
 E= -1487.16534677909     Delta-E=        0.052039492578 Rises=F Damp=F
 DIIS: error= 1.39D-02 at cycle 118 NSaved=  20.
 NSaved=20 IEnMin=13 EnMin= -1487.22028169536     IErMin= 1 ErrMin= 1.07D-03
 ErrMax= 1.39D-02  0.00D+00 EMaxC= 1.00D-01 BMatC= 1.03D-01 BMatP= 7.55D-04
 IDIUse=2 WtCom= 0.00D+00 WtEn= 1.00D+00
 EnCoef did   100 forward-backward iterations
 Rare condition: small coef for last iteration:  0.000D+00
 Coeff-En:   0.000D+00 0.000D+00 0.000D+00 0.000D+00 0.000D+00 0.795D-01
 Coeff-En:   0.839D+00 0.000D+00 0.000D+00 0.000D+00 0.000D+00 0.000D+00
 Coeff-En:   0.000D+00 0.000D+00 0.000D+00 0.000D+00 0.000D+00 0.000D+00
 Coeff-En:   0.000D+00 0.817D-01
 Coeff:      0.000D+00 0.000D+00 0.000D+00 0.000D+00 0.000D+00 0.795D-01
 Coeff:      0.839D+00 0.000D+00 0.000D+00 0.000D+00 0.000D+00 0.000D+00
 Coeff:      0.000D+00 0.000D+00 0.000D+00 0.000D+00 0.000D+00 0.000D+00
 Coeff:      0.000D+00 0.817D-01
 Gap=     0.007 Goal=   None    Shift=    0.000
 Gap=     0.167 Goal=   None    Shift=    0.000
 RMSDP=1.35D-03 MaxDP=3.60D-01 DE= 5.20D-02 OVMax= 5.63D-01

 Cycle 119  Pass 1  IDiag  1:
 RMSU=  1.14D-07    CP:  1.00D+00 -2.41D-03  3.00D+00  5.78D-02  9.25D-01
                    CP: -2.38D-02  1.17D+00  1.10D-01 -1.10D+00 -1.72D-02
                    CP:  2.61D-01  3.24D-02  5.81D-01 -1.26D-02  4.24D-01
                    CP:  7.91D-02 -2.56D+00 -2.43D-02
 E= -1487.21742646418     Delta-E=       -0.052079685091 Rises=F Damp=F
 DIIS: error= 2.65D-03 at cycle 119 NSaved=  20.
 NSaved=20 IEnMin=13 EnMin= -1487.22028169536     IErMin= 1 ErrMin= 1.07D-03
 ErrMax= 2.65D-03  0.00D+00 EMaxC= 1.00D-01 BMatC= 1.23D-02 BMatP= 7.55D-04
 IDIUse=1 WtCom= 1.00D+00 WtEn= 0.00D+00
 Coeff-Com:  0.223D+01-0.269D+01 0.924D+01-0.891D+01 0.754D+00-0.613D-02
 Coeff-Com: -0.138D+00 0.406D+00-0.263D+00 0.103D+00-0.255D+01 0.467D+01
 Coeff-Com:  0.180D+00 0.407D+00 0.294D+00 0.957D-01 0.172D+00 0.227D+00
 Coeff-Com: -0.109D+01-0.214D+01
 Coeff:      0.223D+01-0.269D+01 0.924D+01-0.891D+01 0.754D+00-0.613D-02
 Coeff:     -0.138D+00 0.406D+00-0.263D+00 0.103D+00-0.255D+01 0.467D+01
 Coeff:      0.180D+00 0.407D+00 0.294D+00 0.957D-01 0.172D+00 0.227D+00
 Coeff:     -0.109D+01-0.214D+01
 Gap=     0.007 Goal=   None    Shift=    0.000
 Gap=     0.160 Goal=   None    Shift=    0.000
 RMSDP=1.30D-03 MaxDP=3.50D-01 DE=-5.21D-02 OVMax= 5.43D-01

 Cycle 120  Pass 1  IDiag  1:
 RMSU=  8.59D-07    CP:  9.99D-01  9.93D-01 -3.00D+00 -2.48D-01  3.04D-02
                    CP:  3.71D-01 -3.00D+00  1.28D-01  2.74D+00  4.27D-01
                    CP:  2.12D+00 -6.24D-01 -3.00D+00 -8.55D-02 -3.00D+00
                    CP: -4.74D-01  3.00D+00  1.28D+00 -3.00D+00
 E= -1487.16817650727     Delta-E=        0.049249956902 Rises=F Damp=F
 DIIS: error= 1.36D-02 at cycle 120 NSaved=  20.
 NSaved=20 IEnMin=13 EnMin= -1487.22028169536     IErMin= 1 ErrMin= 1.07D-03
 ErrMax= 1.36D-02  0.00D+00 EMaxC= 1.00D-01 BMatC= 9.84D-02 BMatP= 7.55D-04
 IDIUse=2 WtCom= 0.00D+00 WtEn= 1.00D+00
 EnCoef did   100 forward-backward iterations
 Rare condition: small coef for last iteration:  0.151D-05
 Coeff-En:   0.000D+00 0.000D+00 0.000D+00 0.000D+00 0.000D+00 0.724D-01
 Coeff-En:   0.840D+00 0.000D+00 0.000D+00 0.000D+00 0.000D+00 0.000D+00
 Coeff-En:   0.000D+00 0.000D+00 0.000D+00 0.000D+00 0.000D+00 0.000D+00
 Coeff-En:   0.000D+00 0.877D-01
 Coeff:      0.000D+00 0.000D+00 0.000D+00 0.000D+00 0.000D+00 0.724D-01
 Coeff:      0.840D+00 0.000D+00 0.000D+00 0.000D+00 0.000D+00 0.000D+00
 Coeff:      0.000D+00 0.000D+00 0.000D+00 0.000D+00 0.000D+00 0.000D+00
 Coeff:      0.000D+00 0.877D-01
 Gap=     0.008 Goal=   None    Shift=    0.000
 Gap=     0.166 Goal=   None    Shift=    0.000
 RMSDP=1.29D-03 MaxDP=3.49D-01 DE= 4.92D-02 OVMax= 5.42D-01

 Cycle 121  Pass 1  IDiag  1:
 Restarting incremental Fock formation.
 E= -1487.21739119774     Delta-E=       -0.049214690463 Rises=F Damp=F
 DIIS: error= 2.65D-03 at cycle 121 NSaved=  20.
 NSaved=20 IEnMin=13 EnMin= -1487.22028169536     IErMin= 1 ErrMin= 1.07D-03
 ErrMax= 2.65D-03  0.00D+00 EMaxC= 1.00D-01 BMatC= 1.24D-02 BMatP= 7.55D-04
 IDIUse=1 WtCom= 1.00D+00 WtEn= 0.00D+00
 Large coefficients: NSaved= 20 BigCof=   10.90 CofMax=   10.00 Det=-4.73D-08
 Inversion failed.  Reducing to 19 matrices.
 Large coefficients: NSaved= 19 BigCof=   10.55 CofMax=   10.00 Det=-4.90D-08
 Inversion failed.  Reducing to 18 matrices.
 Large coefficients: NSaved= 18 BigCof=   10.68 CofMax=   10.00 Det=-4.91D-08
 Inversion failed.  Reducing to 17 matrices.
 Large coefficients: NSaved= 17 BigCof=   10.40 CofMax=   10.00 Det=-5.06D-08
 Inversion failed.  Reducing to 16 matrices.
 Large coefficients: NSaved= 16 BigCof=   10.76 CofMax=   10.00 Det=-5.12D-08
 Inversion failed.  Reducing to 15 matrices.
 Large coefficients: NSaved= 15 BigCof=   11.22 CofMax=   10.00 Det=-5.13D-08
 Inversion failed.  Reducing to 14 matrices.
 Large coefficients: NSaved= 14 BigCof=   11.39 CofMax=   10.00 Det=-5.14D-08
 Inversion failed.  Reducing to 13 matrices.
 Coeff-Com: -0.144D+01 0.776D+01-0.626D+01 0.162D+00 0.191D-01 0.469D+00
 Coeff-Com: -0.112D+00-0.481D-01 0.124D+01-0.353D+01 0.210D+00-0.539D-01
 Coeff-Com:  0.258D+01
 Coeff:     -0.144D+01 0.776D+01-0.626D+01 0.162D+00 0.191D-01 0.469D+00
 Coeff:     -0.112D+00-0.481D-01 0.124D+01-0.353D+01 0.210D+00-0.539D-01
 Coeff:      0.258D+01
 Gap=     0.015 Goal=   None    Shift=    0.000
 Gap=     0.163 Goal=   None    Shift=    0.000
 RMSDP=6.40D-04 MaxDP=1.83D-01 DE=-4.92D-02 OVMax= 2.69D-01

 Cycle 122  Pass 1  IDiag  1:
 RMSU=  6.40D-04    CP:  1.00D+00
 E= -1487.20338699700     Delta-E=        0.014004200741 Rises=F Damp=F
 DIIS: error= 7.83D-03 at cycle 122 NSaved=  14.
 NSaved=14 IEnMin=11 EnMin= -1487.22028169536     IErMin= 1 ErrMin= 1.13D-03
 ErrMax= 7.83D-03  0.00D+00 EMaxC= 1.00D-01 BMatC= 3.49D-02 BMatP= 8.53D-04
 IDIUse=1 WtCom= 1.00D+00 WtEn= 0.00D+00
 Coeff-Com:  0.133D+01 0.504D+01-0.608D+01 0.295D+00-0.134D+00 0.604D+00
 Coeff-Com: -0.488D+00-0.474D+00-0.165D+01 0.192D+01 0.115D+00-0.127D+00
 Coeff-Com:  0.276D+00 0.366D+00
 Coeff:      0.133D+01 0.504D+01-0.608D+01 0.295D+00-0.134D+00 0.604D+00
 Coeff:     -0.488D+00-0.474D+00-0.165D+01 0.192D+01 0.115D+00-0.127D+00
 Coeff:      0.276D+00 0.366D+00
 Gap=     0.015 Goal=   None    Shift=    0.000
 Gap=     0.122 Goal=   None    Shift=    0.000
 RMSDP=4.30D-04 MaxDP=1.08D-01 DE= 1.40D-02 OVMax= 1.80D-01

 Cycle 123  Pass 1  IDiag  1:
 RMSU=  1.92D-04    CP:  1.00D+00  1.60D+00
 E= -1487.18310844159     Delta-E=        0.020278555402 Rises=F Damp=F
 DIIS: error= 1.15D-02 at cycle 123 NSaved=  15.
 NSaved=15 IEnMin=11 EnMin= -1487.22028169536     IErMin= 1 ErrMin= 1.13D-03
 ErrMax= 1.15D-02  0.00D+00 EMaxC= 1.00D-01 BMatC= 7.17D-02 BMatP= 8.53D-04
 IDIUse=2 WtCom= 0.00D+00 WtEn= 1.00D+00
 EnCoef did   100 forward-backward iterations
 Rare condition: small coef for last iteration:  0.140D-06
 Coeff-En:   0.000D+00 0.000D+00 0.000D+00 0.000D+00 0.870D+00 0.000D+00
 Coeff-En:   0.000D+00 0.000D+00 0.000D+00 0.000D+00 0.000D+00 0.000D+00
 Coeff-En:   0.000D+00 0.000D+00 0.130D+00
 Coeff:      0.000D+00 0.000D+00 0.000D+00 0.000D+00 0.870D+00 0.000D+00
 Coeff:      0.000D+00 0.000D+00 0.000D+00 0.000D+00 0.000D+00 0.000D+00
 Coeff:      0.000D+00 0.000D+00 0.130D+00
 Gap=     0.014 Goal=   None    Shift=    0.000
 Gap=     0.163 Goal=   None    Shift=    0.000
 RMSDP=8.67D-04 MaxDP=2.37D-01 DE= 2.03D-02 OVMax= 3.62D-01

 Cycle 124  Pass 1  IDiag  1:
 RMSU=  4.72D-05    CP:  1.00D+00  2.90D-01 -1.13D-01
 E= -1487.21350898549     Delta-E=       -0.030400543898 Rises=F Damp=F
 DIIS: error= 3.71D-03 at cycle 124 NSaved=  16.
 NSaved=16 IEnMin=11 EnMin= -1487.22028169536     IErMin= 1 ErrMin= 1.13D-03
 ErrMax= 3.71D-03  0.00D+00 EMaxC= 1.00D-01 BMatC= 2.24D-02 BMatP= 8.53D-04
 IDIUse=1 WtCom= 1.00D+00 WtEn= 0.00D+00
 Coeff-Com:  0.197D+01 0.452D+01-0.622D+01 0.317D+00-0.148D+00 0.552D+00
 Coeff-Com: -0.442D+00-0.464D+00-0.150D+01 0.103D+00 0.762D-01-0.163D+00
 Coeff-Com:  0.243D+01 0.374D+00 0.796D-01-0.478D+00
 Coeff:      0.197D+01 0.452D+01-0.622D+01 0.317D+00-0.148D+00 0.552D+00
 Coeff:     -0.442D+00-0.464D+00-0.150D+01 0.103D+00 0.762D-01-0.163D+00
 Coeff:      0.243D+01 0.374D+00 0.796D-01-0.478D+00
 Gap=     0.011 Goal=   None    Shift=    0.000
 Gap=     0.159 Goal=   None    Shift=    0.000
 RMSDP=9.22D-04 MaxDP=2.50D-01 DE=-3.04D-02 OVMax= 3.86D-01

 Cycle 125  Pass 1  IDiag  1:
 RMSU=  5.56D-06    CP:  1.00D+00  1.67D+00  1.19D+00 -8.59D-02
 E= -1487.18032845706     Delta-E=        0.033180528434 Rises=F Damp=F
 DIIS: error= 1.19D-02 at cycle 125 NSaved=  17.
 NSaved=17 IEnMin=11 EnMin= -1487.22028169536     IErMin= 1 ErrMin= 1.13D-03
 ErrMax= 1.19D-02  0.00D+00 EMaxC= 1.00D-01 BMatC= 7.64D-02 BMatP= 8.53D-04
 IDIUse=2 WtCom= 0.00D+00 WtEn= 1.00D+00
 EnCoef did   100 forward-backward iterations
 Rare condition: small coef for last iteration:  0.000D+00
 Coeff-En:   0.000D+00 0.000D+00 0.000D+00 0.000D+00 0.878D+00 0.000D+00
 Coeff-En:   0.000D+00 0.000D+00 0.000D+00 0.000D+00 0.000D+00 0.000D+00
 Coeff-En:   0.000D+00 0.000D+00 0.000D+00 0.000D+00 0.122D+00
 Coeff:      0.000D+00 0.000D+00 0.000D+00 0.000D+00 0.878D+00 0.000D+00
 Coeff:      0.000D+00 0.000D+00 0.000D+00 0.000D+00 0.000D+00 0.000D+00
 Coeff:      0.000D+00 0.000D+00 0.000D+00 0.000D+00 0.122D+00
 Gap=     0.013 Goal=   None    Shift=    0.000
 Gap=     0.163 Goal=   None    Shift=    0.000
 RMSDP=8.93D-04 MaxDP=2.41D-01 DE= 3.32D-02 OVMax= 3.73D-01

 Cycle 126  Pass 1  IDiag  1:
 RMSU=  9.19D-07    CP:  1.00D+00  3.37D-01 -1.14D-01  1.17D+00 -1.84D-01
 E= -1487.21258029783     Delta-E=       -0.032251840776 Rises=F Damp=F
 DIIS: error= 4.02D-03 at cycle 126 NSaved=  18.
 NSaved=18 IEnMin=11 EnMin= -1487.22028169536     IErMin= 1 ErrMin= 1.13D-03
 ErrMax= 4.02D-03  0.00D+00 EMaxC= 1.00D-01 BMatC= 2.48D-02 BMatP= 8.53D-04
 IDIUse=1 WtCom= 1.00D+00 WtEn= 0.00D+00
 Coeff-Com:  0.218D+01 0.440D+01-0.635D+01 0.328D+00-0.127D+00 0.504D+00
 Coeff-Com: -0.373D+00-0.329D+00-0.978D+00-0.275D+01 0.488D-01-0.303D+00
 Coeff-Com:  0.527D+01 0.429D+00-0.913D+00-0.267D+01 0.108D+01 0.155D+01
 Coeff:      0.218D+01 0.440D+01-0.635D+01 0.328D+00-0.127D+00 0.504D+00
 Coeff:     -0.373D+00-0.329D+00-0.978D+00-0.275D+01 0.488D-01-0.303D+00
 Coeff:      0.527D+01 0.429D+00-0.913D+00-0.267D+01 0.108D+01 0.155D+01
 Gap=     0.011 Goal=   None    Shift=    0.000
 Gap=     0.140 Goal=   None    Shift=    0.000
 RMSDP=8.98D-04 MaxDP=2.42D-01 DE=-3.23D-02 OVMax= 3.76D-01

 Cycle 127  Pass 1  IDiag  1:
 RMSU=  2.74D-06    CP:  1.00D+00  1.68D+00  1.20D+00 -8.70D-02  1.36D+00
                    CP:  1.22D+00
 E= -1487.18023167285     Delta-E=        0.032348624987 Rises=F Damp=F
 DIIS: error= 1.19D-02 at cycle 127 NSaved=  19.
 NSaved=19 IEnMin=11 EnMin= -1487.22028169536     IErMin= 1 ErrMin= 1.13D-03
 ErrMax= 1.19D-02  0.00D+00 EMaxC= 1.00D-01 BMatC= 7.65D-02 BMatP= 8.53D-04
 IDIUse=2 WtCom= 0.00D+00 WtEn= 1.00D+00
 EnCoef did   100 forward-backward iterations
 Rare condition: small coef for last iteration:  0.000D+00
 Coeff-En:   0.000D+00 0.000D+00 0.000D+00 0.000D+00 0.878D+00 0.000D+00
 Coeff-En:   0.000D+00 0.000D+00 0.000D+00 0.000D+00 0.000D+00 0.000D+00
 Coeff-En:   0.000D+00 0.000D+00 0.000D+00 0.000D+00 0.000D+00 0.000D+00
 Coeff-En:   0.122D+00
 Coeff:      0.000D+00 0.000D+00 0.000D+00 0.000D+00 0.878D+00 0.000D+00
 Coeff:      0.000D+00 0.000D+00 0.000D+00 0.000D+00 0.000D+00 0.000D+00
 Coeff:      0.000D+00 0.000D+00 0.000D+00 0.000D+00 0.000D+00 0.000D+00
 Coeff:      0.122D+00
 Gap=     0.013 Goal=   None    Shift=    0.000
 Gap=     0.163 Goal=   None    Shift=    0.000
 RMSDP=8.96D-04 MaxDP=2.42D-01 DE= 3.23D-02 OVMax= 3.75D-01

 Cycle 128  Pass 1  IDiag  1:
 RMSU=  2.94D-07    CP:  1.00D+00  3.40D-01 -1.14D-01  1.18D+00 -1.56D-01
                    CP:  1.05D+00 -2.53D-02
 E= -1487.21254075765     Delta-E=       -0.032309084800 Rises=F Damp=F
 DIIS: error= 4.04D-03 at cycle 128 NSaved=  20.
 NSaved=20 IEnMin=11 EnMin= -1487.22028169536     IErMin= 1 ErrMin= 1.13D-03
 ErrMax= 4.04D-03  0.00D+00 EMaxC= 1.00D-01 BMatC= 2.49D-02 BMatP= 8.53D-04
 IDIUse=1 WtCom= 1.00D+00 WtEn= 0.00D+00
 Coeff-Com:  0.277D+01 0.361D+01-0.613D+01 0.323D+00-0.138D+00 0.522D+00
 Coeff-Com: -0.407D+00-0.463D+00-0.132D+01-0.127D+01 0.615D-01-0.251D+00
 Coeff-Com:  0.404D+01 0.409D+00-0.661D+00-0.239D+01 0.269D+01 0.629D+01
 Coeff-Com: -0.189D+01-0.480D+01
 Coeff:      0.277D+01 0.361D+01-0.613D+01 0.323D+00-0.138D+00 0.522D+00
 Coeff:     -0.407D+00-0.463D+00-0.132D+01-0.127D+01 0.615D-01-0.251D+00
 Coeff:      0.404D+01 0.409D+00-0.661D+00-0.239D+01 0.269D+01 0.629D+01
 Coeff:     -0.189D+01-0.480D+01
 Gap=     0.011 Goal=   None    Shift=    0.000
 Gap=     0.137 Goal=   None    Shift=    0.000
 RMSDP=9.49D-04 MaxDP=2.54D-01 DE=-3.23D-02 OVMax= 3.97D-01

 >>>>>>>>>> Convergence criterion not met.
 SCF Done:  E(UPBE1PBE) =  -1487.21254076     A.U. after  129 cycles
            NFock=128  Conv=0.95D-03     -V/T= 2.0744
 <Sx>= 0.0000 <Sy>= 0.0000 <Sz>= 0.5000 <S**2>= 0.7715 S= 0.5107
 <L.S>= 0.000000000000E+00
 KE= 1.384208705676D+03 PE=-8.661391861259D+03 EE= 3.172571446127D+03
 Annihilation of the first spin contaminant:
 S**2 before annihilation     0.7715,   after     0.7504
 Leave Link  502 at Fri Sep 11 22:20:07 2026, MaxMem=  6442450944 cpu:            3328.0 elap:            3327.5
 (Enter C:\G16W\l508.exe)
 Two-electron integral symmetry not used.
 Tight linear equation convergence will be used.
 UPBE1PBE wavefunction.
 Quadratic Convergence SCF Method.
 Line search only if initial step raises energy.
 Fock matrices will be formed incrementally for  20 cycles.
 FoFJK:  IHMeth= 1 ICntrl=       0 DoSepK=F KAlg= 0 I1Cent=           0 FoldK=F
 IRaf= 720000000 NMat=       1 IRICut=       1 DoRegI=T DoRafI=F ISym2E= 0 IDoP0=0 IntGTp=1.
 FoFCou: FMM=F IPFlag=           0 FMFlag=      100000 FMFlg1=           0
         NFxFlg=           0 DoJE=F BraDBF=F KetDBF=F FulRan=T
         wScrn=  0.000000 ICntrl=         0 IOpCl=  1 I1Cent=           0 NGrid=           0
         NMat0=    1 NMatS0=      1 NMatT0=    0 NMatD0=    1 NMtDS0=    0 NMtDT0=    0
 Symmetry not used in FoFCou.
 Defaulting to unpruned grid for atomic number  47.
 Defaulting to unpruned grid for atomic number  47.
 Defaulting to unpruned grid for atomic number  47.
 Defaulting to unpruned grid for atomic number  47.
 Defaulting to unpruned grid for atomic number  47.
 Defaulting to unpruned grid for atomic number  47.
 Defaulting to unpruned grid for atomic number  47.
 Defaulting to unpruned grid for atomic number  47.
 Iteration   1 EE= -1487.17721985314                                    Grad=2.024D-01 Max rot=    2.2980 deg.
 Gradient too large for Newton-Raphson -- use scaled steepest descent instead.
     ILin= 1 X=0.000D+00 Y=-1.487177219853D+03 DE= 0.00D+00 F= -8.34D-02
 RMSU=  2.89D-04    CP:  1.00D+00
     ILin= 2 X=3.000D-01 Y=-1.487196643337D+03 DE=-1.94D-02 F= -4.60D-02 OKLS=F
 RMSU=  7.23D-06    CP:  1.00D+00  1.67D+00
     ILin= 3 X=5.000D-01 Y=-1.487203338509D+03 DE=-2.61D-02 F= -2.09D-02
 RMSU=  1.03D-04    CP:  1.00D+00  3.00D+00  3.00D+00
     ILin= 4 X=1.000D+00 Y=-1.487197957551D+03 DE=-2.07D-02 F=  4.25D-02
     An  expanding polynomial of degree  4 produced  0.6655
 RMSU=  4.93D-08    CP:  1.00D+00  2.22D+00  2.43D+00  1.99D-06
 Iteration   2 EE= -1487.20506748126     Delta-E=       -0.027847628116 Grad=8.217D-02 Max rot=    1.0980 deg.
 Gradient too large for Newton-Raphson -- use scaled steepest descent instead.
     ILin= 1 X=0.000D+00 Y=-1.487205067481D+03 DE= 0.00D+00 F= -1.12D-02
 RMSU=  1.15D-04    CP:  1.00D+00  2.28D+00  4.18D-01 -1.74D-03 -3.00D+00
     ILin= 2 X=4.000D-01 Y=-1.487208331505D+03 DE=-3.26D-03 F= -5.15D-03 OKLS=F
 RMSU=  2.89D-06    CP:  1.00D+00  2.35D+00 -1.82D+00 -3.92D-03 -3.00D+00
                    CP:  2.25D+00
     ILin= 3 X=9.000D-01 Y=-1.487209028348D+03 DE=-3.96D-03 F=  2.36D-03
     Accept linear search using points  2 and  3.
     An  expanding polynomial of degree  3 produced  0.6745
 RMSU=  3.28D-08    CP:  1.00D+00  2.32D+00 -8.51D-01 -2.94D-03 -3.00D+00
                    CP:  1.69D+00  4.12D-01
 Iteration   3 EE= -1487.20917887556     Delta-E=       -0.004111394302 Grad=4.055D-02 Max rot=    1.1184 deg.
 Gradient too large for Newton-Raphson -- use scaled steepest descent instead.
     ILin= 1 X=0.000D+00 Y=-1.487209178876D+03 DE= 0.00D+00 F= -3.87D-03
 RMSU=  8.37D-05    CP:  1.00D+00  2.49D+00 -2.45D+00 -5.25D-03 -3.00D+00
                    CP:  2.05D+00  1.59D-01  3.00D+00
     ILin= 2 X=7.000D-01 Y=-1.487210796525D+03 DE=-1.62D-03 F= -7.49D-04 OKLS=T
     Reject lnstep IMin12=  1  2 Big=T Turn=F Min= 1.268D+00 FVal=-1.487211272206D+03 Lims=  0.00D+00  7.00D-01
 RMSU=  4.41D-06    CP:  1.00D+00  2.63D+00 -3.00D+00 -1.88D-02 -3.00D+00
                    CP:  2.37D+00  2.65D-01  3.00D+00  1.86D+00
     ILin= 3 X=1.300D+00 Y=-1.487210438040D+03 DE=-1.26D-03 F=  1.95D-03
     An  expanding polynomial of degree  3 produced  0.8665
 RMSU=  2.82D-07    CP:  1.00D+00  2.53D+00 -2.79D+00 -5.80D-03 -3.00D+00
                    CP:  2.14D+00  1.58D-01  3.00D+00  1.24D+00  2.56D-02
 Iteration   4 EE= -1487.21085919285     Delta-E=       -0.001680317293 Grad=3.636D-02 Max rot=    0.8981 deg.
 Gradient too large for Newton-Raphson -- use scaled steepest descent instead.
     ILin= 1 X=0.000D+00 Y=-1.487210859193D+03 DE= 0.00D+00 F= -2.62D-03
 RMSU=  5.03D-05    CP:  1.00D+00  2.43D+00 -3.00D+00 -4.03D-02 -3.00D+00
                    CP:  2.74D+00  1.31D+00  3.00D+00  1.23D+00  2.46D+00
                    CP: -3.00D+00
     ILin= 2 X=8.000D-01 Y=-1.487211722162D+03 DE=-8.63D-04 F=  4.65D-04 OKLS=T
     Accept linear search using points  1 and  2.
     An  expanding polynomial of degree  2 produced  0.6243
 RMSU=  3.15D-07    CP:  1.00D+00  2.45D+00 -3.00D+00 -3.20D-02 -3.00D+00
                    CP:  2.61D+00  1.03D+00  3.00D+00  1.23D+00  1.87D+00
                    CP: -3.00D+00  7.80D-01
 Iteration   5 EE= -1487.21174426663     Delta-E=       -0.000885073775 Grad=2.293D-02 Max rot=    0.9419 deg.
 Gradient too large for Newton-Raphson -- use scaled steepest descent instead.
     ILin= 1 X=0.000D+00 Y=-1.487211744267D+03 DE= 0.00D+00 F= -1.13D-03
 RMSU=  1.81D-05    CP:  1.00D+00  2.47D+00 -3.00D+00 -4.10D-02 -3.00D+00
                    CP:  2.66D+00  9.90D-01  3.00D+00  1.72D+00  2.34D+00
                    CP: -3.00D+00  1.05D+00 -3.00D+00
     ILin= 2 X=7.000D-01 Y=-1.487212314182D+03 DE=-5.70D-04 F= -4.95D-04 OKLS=F
 RMSU=  1.19D-06    CP:  1.00D+00  2.49D+00 -3.00D+00 -5.03D-02 -3.00D+00
                    CP:  2.71D+00  1.07D+00  3.00D+00  2.29D+00  2.88D+00
                    CP: -3.00D+00  1.36D+00 -3.00D+00  2.15D+00
     ILin= 3 X=1.500D+00 Y=-1.487212416084D+03 DE=-6.72D-04 F=  2.41D-04
     Accept linear search using points  2 and  3.
     An  expanding polynomial of degree  3 produced  1.2001
 RMSU=  1.24D-07    CP:  1.00D+00  2.48D+00 -3.00D+00 -4.69D-02 -3.00D+00
                    CP:  2.69D+00  1.02D+00  3.00D+00  2.08D+00  2.68D+00
                    CP: -3.00D+00  1.24D+00 -3.00D+00  1.72D+00  6.10D-01
 Iteration   6 EE= -1487.21244686781     Delta-E=       -0.000702601184 Grad=2.877D-02 Max rot=    0.8257 deg.
 Gradient too large for Newton-Raphson -- use scaled steepest descent instead.
     ILin= 1 X=0.000D+00 Y=-1.487212446868D+03 DE= 0.00D+00 F= -1.65D-03
 RMSU=  1.80D-05    CP:  1.00D+00  2.38D+00 -3.00D+00 -6.81D-02 -3.00D+00
                    CP:  3.00D+00  2.02D+00  3.00D+00  1.84D+00  3.00D+00
                    CP: -3.00D+00  2.17D+00 -3.00D+00  1.99D+00  1.17D+00
                    CP:  6.76D-02
     ILin= 2 X=9.000D-01 Y=-1.487212881434D+03 DE=-4.35D-04 F=  6.85D-04 OKLS=T
     Accept linear search using points  1 and  2.
     An  expanding polynomial of degree  2 produced  0.6118
 RMSU=  1.24D-06    CP:  1.00D+00  2.42D+00 -3.00D+00 -6.14D-02 -3.00D+00
                    CP:  2.91D+00  1.69D+00  3.00D+00  1.91D+00  3.00D+00
                    CP: -3.00D+00  1.87D+00 -3.00D+00  1.90D+00  9.54D-01
                    CP:  1.08D+00  6.67D-01
 Iteration   7 EE= -1487.21297121236     Delta-E=       -0.000524344548 Grad=1.906D-02 Max rot=    0.8771 deg.
 Gradient too large for Newton-Raphson -- use scaled steepest descent instead.
     ILin= 1 X=0.000D+00 Y=-1.487212971212D+03 DE= 0.00D+00 F= -7.26D-04
 RMSU=  9.12D-06    CP:  1.00D+00  2.42D+00 -3.00D+00 -6.11D-02 -3.00D+00
                    CP:  2.84D+00  1.60D+00  3.00D+00  2.28D+00  3.00D+00
                    CP: -3.00D+00  2.08D+00 -3.00D+00  3.00D+00  2.26D+00
                    CP: -1.69D+00  1.15D+00  2.59D+00
     ILin= 2 X=9.000D-01 Y=-1.487213417040D+03 DE=-4.46D-04 F= -2.64D-04 OKLS=T
     Reject lnstep IMin12=  1  2 Big=T Turn=F Min= 3.109D+00 FVal=-1.487213846373D+03 Lims=  0.00D+00  9.00D-01
 RMSU=  1.26D-05    CP:  1.00D+00  2.43D+00 -3.00D+00 -6.05D-02 -3.00D+00
                    CP:  2.78D+00  1.59D+00  3.00D+00  2.61D+00  3.00D+00
                    CP: -3.00D+00  2.27D+00 -3.00D+00  3.00D+00  3.00D+00
                    CP: -3.00D+00  1.58D+00  3.00D+00  3.00D+00
     ILin= 3 X=1.700D+00 Y=-1.487213462997D+03 DE=-4.92D-04 F=  1.50D-04
     Accept linear search using points  2 and  3.
     An  expanding polynomial of degree  3 produced  1.3794
 Restarting incremental Fock formation.
 Iteration   8 EE= -1487.21348432947     Delta-E=       -0.000513117107 Grad=2.753D-02 Max rot=    0.7901 deg.
 Gradient too large for Newton-Raphson -- use scaled steepest descent instead.
     ILin= 1 X=0.000D+00 Y=-1.487213484329D+03 DE= 0.00D+00 F= -2.39D-03
 RMSU=  1.09D-04    CP:  1.00D+00
     ILin= 2 X=9.000D-01 Y=-1.487214682889D+03 DE=-1.20D-03 F= -2.74D-04 OKLS=T
     Reject lnstep IMin12=  1  2 Big=T Turn=F Min= 1.100D+00 FVal=-1.487214712149D+03 Lims=  0.00D+00  9.00D-01
 RMSU=  6.41D-06    CP:  9.99D-01  1.89D+00
     ILin= 3 X=1.700D+00 Y=-1.487214145868D+03 DE=-6.62D-04 F=  1.62D-03
     An  expanding polynomial of degree  3 produced  1.0151
 RMSU=  6.28D-09    CP:  1.00D+00  1.13D+00  8.60D-02
 Iteration   9 EE= -1487.21469879516     Delta-E=       -0.001214465698 Grad=3.467D-02 Max rot=    0.7898 deg.
 Gradient too large for Newton-Raphson -- use scaled steepest descent instead.
     ILin= 1 X=0.000D+00 Y=-1.487214698795D+03 DE= 0.00D+00 F= -3.02D-03
 RMSU=  1.51D-04    CP:  9.99D-01  1.60D+00  1.47D+00  3.00D+00
     ILin= 2 X=1.200D+00 Y=-1.487215203774D+03 DE=-5.05D-04 F=  2.19D-03 OKLS=T
     Accept linear search using points  1 and  2.
     An  expanding polynomial of degree  2 produced  0.7256
 RMSU=  4.39D-07    CP:  1.00D+00  1.41D+00  6.83D-01  3.00D+00  6.05D-01
 Iteration  10 EE= -1487.21575202041     Delta-E=       -0.001053225245 Grad=2.586D-02 Max rot=    0.6490 deg.
 Gradient too large for Newton-Raphson -- use scaled steepest descent instead.
     ILin= 1 X=0.000D+00 Y=-1.487215752020D+03 DE= 0.00D+00 F= -1.97D-03
 RMSU=  2.68D-05    CP:  9.99D-01  2.27D+00  2.05D+00  3.00D+00  5.80D-01
                    CP: -2.97D+00
     ILin= 2 X=9.000D-01 Y=-1.487216644164D+03 DE=-8.92D-04 F= -1.15D-05 OKLS=T
     Reject lnstep IMin12=  1  2 Big=T Turn=F Min= 9.075D-01 FVal=-1.487216644211D+03 Lims=  0.00D+00  9.00D-01
 RMSU=  4.38D-06    CP:  9.99D-01  2.93D+00  3.00D+00  3.00D+00  5.59D-01
                    CP: -3.00D+00  1.78D+00
     ILin= 3 X=1.600D+00 Y=-1.487216119468D+03 DE=-3.67D-04 F=  1.51D-03
     An  expanding polynomial of degree  3 produced  0.9055
     Minimum is close to point  2 DX=  5.54D-03 DF= -3.34D-08 DXR=  6.12D-03 DFR=  3.74D-05 which will be used.
 Iteration  11 EE= -1487.21664416370     Delta-E=       -0.000892143291 Grad=2.763D-02 Max rot=    0.6926 deg.
 Gradient too large for Newton-Raphson -- use scaled steepest descent instead.
     ILin= 1 X=0.000D+00 Y=-1.487216644164D+03 DE= 0.00D+00 F= -2.02D-03
 RMSU=  9.99D-06    CP:  9.99D-01  2.55D+00  3.00D+00  3.00D+00  1.12D+00
                    CP: -3.00D+00  1.07D+00  1.43D+00
     ILin= 2 X=8.000D-01 Y=-1.487217408426D+03 DE=-7.64D-04 F=  1.18D-04 OKLS=T
     Accept linear search using points  1 and  2.
     An  expanding polynomial of degree  2 produced  0.7211
 RMSU=  2.31D-07    CP:  9.99D-01  2.52D+00  3.00D+00  3.00D+00  1.07D+00
                    CP: -3.00D+00  1.06D+00  1.12D+00  8.99D-01
 Iteration  12 EE= -1487.21740933868     Delta-E=       -0.000765174978 Grad=2.078D-02 Max rot=    0.5488 deg.
 Gradient too large for Newton-Raphson -- use scaled steepest descent instead.
     ILin= 1 X=0.000D+00 Y=-1.487217409339D+03 DE= 0.00D+00 F= -1.33D-03
 RMSU=  1.57D-05    CP:  9.99D-01  3.00D+00  3.00D+00  3.00D+00  1.06D+00
                    CP: -3.00D+00  1.94D+00  3.00D+00  1.18D+00 -3.00D+00
     ILin= 2 X=8.000D-01 Y=-1.487218048749D+03 DE=-6.39D-04 F= -2.74D-04 OKLS=T
     Reject lnstep IMin12=  1  2 Big=T Turn=F Min= 1.931D+00 FVal=-1.487218328696D+03 Lims=  0.00D+00  8.00D-01
 RMSU=  3.73D-05    CP:  9.98D-01  3.00D+00  3.00D+00  3.00D+00  1.06D+00
                    CP: -3.00D+00  2.81D+00  3.00D+00  1.45D+00 -3.00D+00
                    CP:  3.00D+00
     ILin= 3 X=1.600D+00 Y=-1.487217847473D+03 DE=-4.38D-04 F=  7.76D-04
     An  expanding polynomial of degree  3 produced  1.0085
 RMSU=  2.67D-06    CP:  9.99D-01  3.00D+00  3.00D+00  3.00D+00  1.06D+00
                    CP: -3.00D+00  2.16D+00  3.00D+00  1.25D+00 -3.00D+00
                    CP:  2.12D+00  2.04D-02
 Iteration  13 EE= -1487.21807723582     Delta-E=       -0.000667897141 Grad=2.550D-02 Max rot=    0.5835 deg.
 Gradient too large for Newton-Raphson -- use scaled steepest descent instead.
     ILin= 1 X=0.000D+00 Y=-1.487218077236D+03 DE= 0.00D+00 F= -1.62D-03
 RMSU=  1.22D-05    CP:  9.98D-01  3.00D+00  3.00D+00  3.00D+00  1.60D+00
                    CP: -3.00D+00  2.23D+00  3.00D+00  2.62D+00 -3.00D+00
                    CP:  3.00D+00  3.63D-01 -6.66D-01
     ILin= 2 X=9.000D-01 Y=-1.487218578750D+03 DE=-5.02D-04 F=  5.10D-04 OKLS=T
     Accept linear search using points  1 and  2.
     An  expanding polynomial of degree  2 produced  0.6580
 RMSU=  7.26D-08    CP:  9.99D-01  3.00D+00  3.00D+00  3.00D+00  1.45D+00
                    CP: -3.00D+00  2.22D+00  3.00D+00  2.25D+00 -3.00D+00
                    CP:  3.00D+00  1.76D-01  2.17D-01  7.10D-01
 Iteration  14 EE= -1487.21863253564     Delta-E=       -0.000555299822 Grad=1.616D-02 Max rot=    0.4529 deg.
 Gradient too large for Newton-Raphson -- use scaled steepest descent instead.
     ILin= 1 X=0.000D+00 Y=-1.487218632536D+03 DE= 0.00D+00 F= -8.39D-04
 RMSU=  1.25D-06    CP:  9.98D-01  3.00D+00  3.00D+00  3.00D+00  1.47D+00
                    CP: -3.00D+00  2.97D+00  3.00D+00  2.63D+00 -3.00D+00
                    CP:  3.00D+00  1.60D+00 -3.00D+00  8.06D-01 -3.81D-01
     ILin= 2 X=8.000D-01 Y=-1.487219069212D+03 DE=-4.37D-04 F= -2.53D-04 OKLS=T
     Reject lnstep IMin12=  1  2 Big=T Turn=F Min= 1.800D+00 FVal=-1.487219318267D+03 Lims=  0.00D+00  8.00D-01
 RMSU=  2.14D-05    CP:  9.98D-01  3.00D+00  3.00D+00  3.00D+00  1.48D+00
                    CP: -3.00D+00  3.00D+00  3.00D+00  3.00D+00 -3.00D+00
                    CP:  3.00D+00  3.00D+00 -3.00D+00  1.03D+00  2.61D-02
                    CP:  3.00D+00
     ILin= 3 X=1.600D+00 Y=-1.487219037138D+03 DE=-4.05D-04 F=  3.33D-04
     An  expanding polynomial of degree  3 produced  1.1453
 RMSU=  1.41D-06    CP:  9.98D-01  3.00D+00  3.00D+00  3.00D+00  1.47D+00
                    CP: -3.00D+00  3.00D+00  3.00D+00  2.79D+00 -3.00D+00
                    CP:  3.00D+00  2.22D+00 -3.00D+00  8.88D-01 -4.23D-01
                    CP:  3.00D+00  3.99D-01
 Iteration  15 EE= -1487.21911283375     Delta-E=       -0.000480298105 Grad=2.274D-02 Max rot=    0.4755 deg.
 Gradient too large for Newton-Raphson -- use scaled steepest descent instead.
     ILin= 1 X=0.000D+00 Y=-1.487219112834D+03 DE= 0.00D+00 F= -1.23D-03
 RMSU=  1.31D-05    CP:  9.98D-01  3.00D+00  3.00D+00  3.00D+00  1.93D+00
                    CP: -3.00D+00  3.00D+00  3.00D+00  3.00D+00 -3.00D+00
                    CP:  3.00D+00  2.68D+00 -3.00D+00  2.09D+00  3.00D+00
                    CP:  3.00D+00  5.99D-01 -1.97D+00
     ILin= 2 X=9.000D-01 Y=-1.487219430220D+03 DE=-3.17D-04 F=  5.22D-04 OKLS=T
     Accept linear search using points  1 and  2.
     An  expanding polynomial of degree  2 produced  0.6079
 RMSU=  2.93D-07    CP:  9.98D-01  3.00D+00  3.00D+00  3.00D+00  1.78D+00
                    CP: -3.00D+00  3.00D+00  3.00D+00  3.00D+00 -3.00D+00
                    CP:  3.00D+00  2.53D+00 -3.00D+00  1.68D+00  3.00D+00
                    CP:  3.00D+00  5.32D-01 -9.81D-01  6.28D-01
 Iteration  16 EE= -1487.21949971661     Delta-E=       -0.000386882864 Grad=1.221D-02 Max rot=    0.3642 deg.
 Gradient too large for Newton-Raphson -- use scaled steepest descent instead.
     ILin= 1 X=0.000D+00 Y=-1.487219499717D+03 DE= 0.00D+00 F= -5.03D-04
 Restarting incremental Fock formation.
     ILin= 2 X=8.000D-01 Y=-1.487219780955D+03 DE=-2.81D-04 F= -2.00D-04 OKLS=T
     Reject lnstep IMin12=  1  2 Big=T Turn=F Min= 1.606D+00 FVal=-1.487219935609D+03 Lims=  0.00D+00  8.00D-01
 RMSU=  5.11D-05    CP:  1.00D+00
     ILin= 3 X=1.700D+00 Y=-1.487219807425D+03 DE=-3.08D-04 F=  1.41D-04
     Accept linear search using points  2 and  3.
     An  expanding polynomial of degree  3 produced  1.3162
 RMSU=  1.81D-07    CP:  1.00D+00  5.74D-01
 Iteration  17 EE= -1487.21983366281     Delta-E=       -0.000333946197 Grad=1.958D-02 Max rot=    0.3754 deg.
 Gradient too large for Newton-Raphson -- use scaled steepest descent instead.
     ILin= 1 X=0.000D+00 Y=-1.487219833663D+03 DE= 0.00D+00 F= -8.73D-04
 RMSU=  5.87D-05    CP:  1.00D+00  9.11D-01 -3.00D+00
     ILin= 2 X=9.000D-01 Y=-1.487220021052D+03 DE=-1.87D-04 F=  4.57D-04 OKLS=T
     Accept linear search using points  1 and  2.
     An  expanding polynomial of degree  2 produced  0.5714
 RMSU=  4.43D-07    CP:  1.00D+00  7.88D-01 -3.00D+00  6.35D-01
 Iteration  18 EE= -1487.22009142062     Delta-E=       -0.000257757809 Grad=9.058D-03 Max rot=    0.2842 deg.
 QCNR:  CnvC1=2.70D-08 CnvC2=2.70D-07
 LinEq1:  Iter=  0 NonCon=     1 RMS=9.45D-04 Max=2.54D-01 NDo=     1
 AX will form     1 AO Fock derivatives at one time.
 LinEq1:  Iter=  1 NonCon=     1 RMS=7.04D-04 Max=4.64D-02 NDo=     1
 LinEq1:  Iter=  2 NonCon=     1 RMS=7.23D-04 Max=6.12D-02 NDo=     1
 LinEq1:  Iter=  3 NonCon=     1 RMS=6.16D-04 Max=4.96D-02 NDo=     1
 LinEq1:  Iter=  4 NonCon=     1 RMS=5.58D-04 Max=6.37D-02 NDo=     1
 LinEq1:  Iter=  5 NonCon=     1 RMS=6.04D-04 Max=9.13D-02 NDo=     1
 LinEq1:  Iter=  6 NonCon=     1 RMS=3.67D-04 Max=2.47D-02 NDo=     1
 LinEq1:  Iter=  7 NonCon=     1 RMS=5.14D-04 Max=5.69D-02 NDo=     1
 LinEq1:  Iter=  8 NonCon=     1 RMS=3.90D-04 Max=1.91D-02 NDo=     1
 LinEq1:  Iter=  9 NonCon=     1 RMS=3.94D-04 Max=1.75D-02 NDo=     1
 LinEq1:  Iter= 10 NonCon=     1 RMS=3.80D-04 Max=2.75D-02 NDo=     1
 LinEq1:  Iter= 11 NonCon=     1 RMS=3.03D-04 Max=1.94D-02 NDo=     1
 LinEq1:  Iter= 12 NonCon=     1 RMS=2.59D-04 Max=1.79D-02 NDo=     1
 LinEq1:  Iter= 13 NonCon=     1 RMS=2.65D-04 Max=1.72D-02 NDo=     1
 LinEq1:  Iter= 14 NonCon=     1 RMS=1.61D-04 Max=8.57D-03 NDo=     1
 LinEq1:  Iter= 15 NonCon=     1 RMS=1.37D-04 Max=5.57D-03 NDo=     1
 LinEq1:  Iter= 16 NonCon=     1 RMS=1.41D-04 Max=7.50D-03 NDo=     1
 LinEq1:  Iter= 17 NonCon=     1 RMS=1.02D-04 Max=4.26D-03 NDo=     1
 LinEq1:  Iter= 18 NonCon=     1 RMS=7.69D-05 Max=3.43D-03 NDo=     1
 LinEq1:  Iter= 19 NonCon=     1 RMS=7.35D-05 Max=3.03D-03 NDo=     1
 LinEq1:  Iter= 20 NonCon=     1 RMS=6.85D-05 Max=4.48D-03 NDo=     1
 LinEq1:  Iter= 21 NonCon=     1 RMS=5.93D-05 Max=5.01D-03 NDo=     1
 LinEq1:  Iter= 22 NonCon=     1 RMS=5.52D-05 Max=3.61D-03 NDo=     1
 LinEq1:  Iter= 23 NonCon=     1 RMS=5.26D-05 Max=3.95D-03 NDo=     1
 LinEq1:  Iter= 24 NonCon=     1 RMS=4.52D-05 Max=3.99D-03 NDo=     1
 LinEq1:  Iter= 25 NonCon=     1 RMS=2.70D-05 Max=1.78D-03 NDo=     1
 LinEq1:  Iter= 26 NonCon=     1 RMS=2.17D-05 Max=1.06D-03 NDo=     1
 LinEq1:  Iter= 27 NonCon=     1 RMS=1.56D-05 Max=9.24D-04 NDo=     1
 LinEq1:  Iter= 28 NonCon=     1 RMS=1.29D-05 Max=4.81D-04 NDo=     1
 LinEq1:  Iter= 29 NonCon=     1 RMS=9.43D-06 Max=3.63D-04 NDo=     1
 LinEq1:  Iter= 30 NonCon=     1 RMS=7.98D-06 Max=3.03D-04 NDo=     1
 LinEq1:  Iter= 31 NonCon=     1 RMS=5.88D-06 Max=2.73D-04 NDo=     1
 LinEq1:  Iter= 32 NonCon=     1 RMS=4.55D-06 Max=2.15D-04 NDo=     1
 LinEq1:  Iter= 33 NonCon=     1 RMS=3.96D-06 Max=1.99D-04 NDo=     1
 LinEq1:  Iter= 34 NonCon=     1 RMS=3.43D-06 Max=1.33D-04 NDo=     1
 LinEq1:  Iter= 35 NonCon=     1 RMS=2.65D-06 Max=1.37D-04 NDo=     1
 LinEq1:  Iter= 36 NonCon=     1 RMS=1.38D-06 Max=5.65D-05 NDo=     1
 LinEq1:  Iter= 37 NonCon=     1 RMS=7.67D-07 Max=3.35D-05 NDo=     1
 LinEq1:  Iter= 38 NonCon=     1 RMS=5.38D-07 Max=2.17D-05 NDo=     1
 LinEq1:  Iter= 39 NonCon=     1 RMS=3.66D-07 Max=1.60D-05 NDo=     1
 LinEq1:  Iter= 40 NonCon=     1 RMS=2.04D-07 Max=7.87D-06 NDo=     1
 LinEq1:  Iter= 41 NonCon=     1 RMS=1.44D-07 Max=5.43D-06 NDo=     1
 LinEq1:  Iter= 42 NonCon=     1 RMS=6.17D-08 Max=2.96D-06 NDo=     1
 LinEq1:  Iter= 43 NonCon=     1 RMS=4.64D-08 Max=1.99D-06 NDo=     1
 LinEq1:  Iter= 44 NonCon=     1 RMS=2.22D-08 Max=9.62D-07 NDo=     1
 LinEq1:  Iter= 45 NonCon=     1 RMS=1.42D-08 Max=7.07D-07 NDo=     1
 LinEq1:  Iter= 46 NonCon=     1 RMS=8.75D-09 Max=3.36D-07 NDo=     1
 LinEq1:  Iter= 47 NonCon=     0 RMS=5.36D-09 Max=2.41D-07 NDo=     1
 Linear equations converged to 2.700D-08 2.700D-07 after    47 iterations.
 Angle between quadratic step and gradient=  87.71 degrees.
     ILin= 1 X=0.000D+00 Y=-1.487220091421D+03 DE= 0.00D+00 F= -2.61D-03
 RMSU=  1.42D-03    CP:  9.96D-01  2.83D+00 -3.00D+00  1.90D+00 -3.00D+00
     ILin= 2 X=2.000D-01 Y=-1.487211180005D+03 DE= 8.91D-03 F=  1.57D-01 OKLS=F
 RMSU=  1.74D-04    CP:  9.97D-01  2.46D+00 -3.00D+00  1.60D+00 -3.00D+00
                    CP:  8.02D-01
     ILin= 3 X=1.571D-01 Y=-1.487216447060D+03 DE= 3.64D-03 F=  9.03D-02
 RMSU=  5.55D-06    CP:  9.98D-01  1.99D+00 -3.00D+00  1.27D+00 -3.00D+00
                    CP:  5.60D-01  1.49D+00
     ILin= 4 X=1.111D-01 Y=-1.487219254228D+03 DE= 8.37D-04 F=  3.55D-02
 RMSU=  1.42D-07    CP:  9.99D-01  1.63D+00 -3.00D+00  1.05D+00 -3.00D+00
                    CP:  3.84D-01  1.43D+00  1.65D+00
     ILin= 5 X=7.857D-02 Y=-1.487219993857D+03 DE= 9.76D-05 F=  1.21D-02
 RMSU=  1.61D-08    CP:  9.99D-01  1.37D+00 -3.00D+00  9.12D-01 -3.00D+00
                    CP:  2.62D-01  1.20D+00  1.78D+00  2.57D+00
     ILin= 6 X=5.556D-02 Y=-1.487220155577D+03 DE=-6.42D-05 F=  2.91D-03
     A contracting polynomial of degree  6 produced  0.0423
 RMSU=  1.25D-07    CP:  1.00D+00  1.22D+00 -3.00D+00  8.37D-01 -3.00D+00
                    CP:  1.95D-01  9.92D-01  1.67D+00  3.00D+00  2.40D+00
 Iteration  19 EE= -1487.22017288696     Delta-E=       -0.000081466341 Grad=1.012D-02 Max rot=    0.2029 deg.
 Gradient too large for Newton-Raphson -- use scaled steepest descent instead.
     ILin= 1 X=0.000D+00 Y=-1.487220172887D+03 DE= 0.00D+00 F= -2.92D-04
 RMSU=  1.89D-05    CP:  9.99D-01  1.92D+00 -3.00D+00  7.85D-01 -3.00D+00
                    CP:  1.93D-01  9.90D-01  1.14D+00  1.12D+00 -3.00D+00
                    CP:  1.92D-03
     ILin= 2 X=9.000D-01 Y=-1.487220318845D+03 DE=-1.46D-04 F= -3.25D-05 OKLS=T
     Reject lnstep IMin12=  1  2 Big=T Turn=F Min= 1.093D+00 FVal=-1.487220322200D+03 Lims=  0.00D+00  9.00D-01
 RMSU=  2.23D-07    CP:  9.99D-01  2.53D+00 -3.00D+00  7.40D-01 -3.00D+00
                    CP:  1.92D-01  9.87D-01  6.50D-01 -3.00D+00 -3.00D+00
                    CP: -1.02D+00  1.89D+00
     ILin= 3 X=1.700D+00 Y=-1.487220252757D+03 DE=-7.99D-05 F=  1.98D-04
     An  expanding polynomial of degree  3 produced  1.0131
 RMSU=  3.80D-09    CP:  9.99D-01  2.01D+00 -3.00D+00  7.79D-01 -3.00D+00
                    CP:  1.93D-01  9.90D-01  1.07D+00  5.60D-01 -3.00D+00
                    CP:  2.16D-03  1.13D+00  9.45D-02
 Iteration  20 EE= -1487.22032067770     Delta-E=       -0.000147790740 Grad=1.120D-02 Max rot=    0.2534 deg.
 Gradient too large for Newton-Raphson -- use scaled steepest descent instead.
     ILin= 1 X=0.000D+00 Y=-1.487220320678D+03 DE= 0.00D+00 F= -3.09D-04
 RMSU=  8.63D-06    CP:  9.99D-01  2.25D+00 -3.00D+00  1.29D+00 -3.00D+00
                    CP:  1.93D-01  9.81D-01  1.30D+00 -3.00D+00 -3.00D+00
                    CP: -3.00D+00  8.12D-01 -3.40D-01  3.00D+00
     ILin= 2 X=8.000D-01 Y=-1.487220428653D+03 DE=-1.08D-04 F=  3.90D-05 OKLS=T
     Accept linear search using points  1 and  2.
     An  expanding polynomial of degree  2 produced  0.6591
 RMSU=  1.89D-07    CP:  9.99D-01  2.21D+00 -3.00D+00  1.20D+00 -3.00D+00
                    CP:  1.93D-01  9.83D-01  1.26D+00 -3.00D+00 -3.00D+00
                    CP: -3.00D+00  8.67D-01 -2.56D-01  3.00D+00  8.22D-01
 Iteration  21 EE= -1487.22042982911     Delta-E=       -0.000109151416 Grad=6.875D-03 Max rot=    0.1871 deg.
 QCNR:  CnvC1=2.70D-08 CnvC2=2.70D-07
 LinEq1:  Iter=  0 NonCon=     1 RMS=5.94D-04 Max=1.58D-01 NDo=     1
 LinEq1:  Iter=  1 NonCon=     1 RMS=5.38D-04 Max=8.15D-02 NDo=     1
 LinEq1:  Iter=  2 NonCon=     1 RMS=6.36D-04 Max=9.84D-02 NDo=     1
 LinEq1:  Iter=  3 NonCon=     1 RMS=6.54D-04 Max=8.44D-02 NDo=     1
 LinEq1:  Iter=  4 NonCon=     1 RMS=5.53D-04 Max=3.50D-02 NDo=     1
 LinEq1:  Iter=  5 NonCon=     1 RMS=5.52D-04 Max=7.23D-02 NDo=     1
 LinEq1:  Iter=  6 NonCon=     1 RMS=3.10D-04 Max=2.05D-02 NDo=     1
 LinEq1:  Iter=  7 NonCon=     1 RMS=2.90D-04 Max=2.36D-02 NDo=     1
 LinEq1:  Iter=  8 NonCon=     1 RMS=2.83D-04 Max=3.08D-02 NDo=     1
 LinEq1:  Iter=  9 NonCon=     1 RMS=2.58D-04 Max=1.13D-02 NDo=     1
 LinEq1:  Iter= 10 NonCon=     1 RMS=2.37D-04 Max=2.15D-02 NDo=     1
 LinEq1:  Iter= 11 NonCon=     1 RMS=1.90D-04 Max=1.29D-02 NDo=     1
 LinEq1:  Iter= 12 NonCon=     1 RMS=1.49D-04 Max=9.87D-03 NDo=     1
 LinEq1:  Iter= 13 NonCon=     1 RMS=1.50D-04 Max=8.50D-03 NDo=     1
 LinEq1:  Iter= 14 NonCon=     1 RMS=1.01D-04 Max=5.17D-03 NDo=     1
 LinEq1:  Iter= 15 NonCon=     1 RMS=8.85D-05 Max=4.90D-03 NDo=     1
 LinEq1:  Iter= 16 NonCon=     1 RMS=8.69D-05 Max=5.66D-03 NDo=     1
 LinEq1:  Iter= 17 NonCon=     1 RMS=6.11D-05 Max=2.99D-03 NDo=     1
 LinEq1:  Iter= 18 NonCon=     1 RMS=4.89D-05 Max=2.63D-03 NDo=     1
 LinEq1:  Iter= 19 NonCon=     1 RMS=4.96D-05 Max=1.93D-03 NDo=     1
 LinEq1:  Iter= 20 NonCon=     1 RMS=4.91D-05 Max=3.80D-03 NDo=     1
 LinEq1:  Iter= 21 NonCon=     1 RMS=4.14D-05 Max=3.12D-03 NDo=     1
 LinEq1:  Iter= 22 NonCon=     1 RMS=3.55D-05 Max=2.13D-03 NDo=     1
 LinEq1:  Iter= 23 NonCon=     1 RMS=3.24D-05 Max=1.83D-03 NDo=     1
 LinEq1:  Iter= 24 NonCon=     1 RMS=2.60D-05 Max=1.56D-03 NDo=     1
 LinEq1:  Iter= 25 NonCon=     1 RMS=1.54D-05 Max=8.21D-04 NDo=     1
 LinEq1:  Iter= 26 NonCon=     1 RMS=1.29D-05 Max=4.62D-04 NDo=     1
 LinEq1:  Iter= 27 NonCon=     1 RMS=8.24D-06 Max=3.67D-04 NDo=     1
 LinEq1:  Iter= 28 NonCon=     1 RMS=6.24D-06 Max=2.73D-04 NDo=     1
 LinEq1:  Iter= 29 NonCon=     1 RMS=5.77D-06 Max=2.53D-04 NDo=     1
 LinEq1:  Iter= 30 NonCon=     1 RMS=5.23D-06 Max=2.40D-04 NDo=     1
 LinEq1:  Iter= 31 NonCon=     1 RMS=3.90D-06 Max=1.96D-04 NDo=     1
 LinEq1:  Iter= 32 NonCon=     1 RMS=3.00D-06 Max=1.29D-04 NDo=     1
 LinEq1:  Iter= 33 NonCon=     1 RMS=2.17D-06 Max=1.07D-04 NDo=     1
 LinEq1:  Iter= 34 NonCon=     1 RMS=1.58D-06 Max=5.48D-05 NDo=     1
 LinEq1:  Iter= 35 NonCon=     1 RMS=1.43D-06 Max=7.90D-05 NDo=     1
 LinEq1:  Iter= 36 NonCon=     1 RMS=8.95D-07 Max=3.81D-05 NDo=     1
 LinEq1:  Iter= 37 NonCon=     1 RMS=5.76D-07 Max=2.15D-05 NDo=     1
 LinEq1:  Iter= 38 NonCon=     1 RMS=4.23D-07 Max=1.61D-05 NDo=     1
 LinEq1:  Iter= 39 NonCon=     1 RMS=2.32D-07 Max=9.02D-06 NDo=     1
 LinEq1:  Iter= 40 NonCon=     1 RMS=1.27D-07 Max=5.03D-06 NDo=     1
 LinEq1:  Iter= 41 NonCon=     1 RMS=9.65D-08 Max=2.96D-06 NDo=     1
 LinEq1:  Iter= 42 NonCon=     1 RMS=4.61D-08 Max=2.11D-06 NDo=     1
 LinEq1:  Iter= 43 NonCon=     1 RMS=3.42D-08 Max=1.44D-06 NDo=     1
 LinEq1:  Iter= 44 NonCon=     1 RMS=1.78D-08 Max=6.76D-07 NDo=     1
 LinEq1:  Iter= 45 NonCon=     1 RMS=1.12D-08 Max=5.51D-07 NDo=     1
 LinEq1:  Iter= 46 NonCon=     1 RMS=6.12D-09 Max=3.02D-07 NDo=     1
 LinEq1:  Iter= 47 NonCon=     0 RMS=3.61D-09 Max=1.06D-07 NDo=     1
 Linear equations converged to 2.700D-08 2.700D-07 after    47 iterations.
 Angle between quadratic step and gradient=  75.92 degrees.
     ILin= 1 X=0.000D+00 Y=-1.487220429829D+03 DE= 0.00D+00 F= -1.78D-03
 RMSU=  3.56D-04    CP:  9.98D-01  3.00D+00 -3.00D+00  3.00D+00 -3.00D+00
                    CP: -2.22D-01 -3.00D+00 -3.00D+00 -3.00D+00 -3.00D+00
                    CP: -3.00D+00 -3.00D+00  3.00D+00  3.00D+00 -3.00D+00
                    CP: -3.00D+00
     ILin= 2 X=1.000D+00 Y=-1.487217861413D+03 DE= 2.57D-03 F=  1.12D-02 OKLS=T
     Reject lnstep IMin12=  1  2 Big=F Turn=F Min= 3.487D-01 FVal=-1.487220797821D+03 Lims=  0.00D+00  1.00D+00
 RMSU=  4.08D-05    CP:  9.99D-01  3.00D+00 -3.00D+00  2.04D+00 -3.00D+00
                    CP:  7.94D-03 -4.20D-02  8.01D-01 -3.00D+00 -3.00D+00
                    CP: -3.00D+00 -7.32D-01 -6.93D-01  3.00D+00 -3.80D-01
                    CP: -3.00D+00  1.60D-01
     ILin= 3 X=3.000D-01 Y=-1.487220821876D+03 DE=-3.92D-04 F= -5.64D-04
     A contracting polynomial of degree  3 produced  0.2680
 RMSU=  2.04D-06    CP:  9.99D-01  3.00D+00 -3.00D+00  1.95D+00 -3.00D+00
                    CP:  2.57D-02  8.83D-02  9.67D-01 -3.00D+00 -3.00D+00
                    CP: -3.00D+00 -5.49D-01 -9.36D-01  3.00D+00 -1.50D-01
                    CP: -3.00D+00  1.32D-01  8.63D-01
 Iteration  22 EE= -1487.22080030064     Delta-E=       -0.000370471524 Grad=6.631D-03 Max rot=    0.0834 deg.
 QCNR:  CnvC1=2.70D-08 CnvC2=2.70D-07
 LinEq1:  Iter=  0 NonCon=     1 RMS=2.64D-04 Max=6.95D-02 NDo=     1
 LinEq1:  Iter=  1 NonCon=     1 RMS=1.99D-04 Max=1.95D-02 NDo=     1
 LinEq1:  Iter=  2 NonCon=     1 RMS=3.28D-04 Max=2.48D-02 NDo=     1
 LinEq1:  Iter=  3 NonCon=     1 RMS=2.52D-04 Max=1.57D-02 NDo=     1
 LinEq1:  Iter=  4 NonCon=     1 RMS=2.59D-04 Max=2.55D-02 NDo=     1
 LinEq1:  Iter=  5 NonCon=     1 RMS=2.12D-04 Max=1.26D-02 NDo=     1
 LinEq1:  Iter=  6 NonCon=     1 RMS=2.33D-04 Max=4.28D-02 NDo=     1
 LinEq1:  Iter=  7 NonCon=     1 RMS=1.93D-04 Max=1.43D-02 NDo=     1
 LinEq1:  Iter=  8 NonCon=     1 RMS=1.76D-04 Max=1.31D-02 NDo=     1
 LinEq1:  Iter=  9 NonCon=     1 RMS=1.68D-04 Max=1.29D-02 NDo=     1
 LinEq1:  Iter= 10 NonCon=     1 RMS=1.32D-04 Max=1.48D-02 NDo=     1
 LinEq1:  Iter= 11 NonCon=     1 RMS=1.02D-04 Max=7.99D-03 NDo=     1
 LinEq1:  Iter= 12 NonCon=     1 RMS=9.15D-05 Max=4.12D-03 NDo=     1
 LinEq1:  Iter= 13 NonCon=     1 RMS=9.76D-05 Max=5.81D-03 NDo=     1
 LinEq1:  Iter= 14 NonCon=     1 RMS=5.73D-05 Max=2.23D-03 NDo=     1
 LinEq1:  Iter= 15 NonCon=     1 RMS=6.20D-05 Max=2.99D-03 NDo=     1
 LinEq1:  Iter= 16 NonCon=     1 RMS=5.18D-05 Max=2.98D-03 NDo=     1
 LinEq1:  Iter= 17 NonCon=     1 RMS=4.39D-05 Max=1.81D-03 NDo=     1
 LinEq1:  Iter= 18 NonCon=     1 RMS=4.21D-05 Max=1.82D-03 NDo=     1
 LinEq1:  Iter= 19 NonCon=     1 RMS=3.66D-05 Max=1.89D-03 NDo=     1
 LinEq1:  Iter= 20 NonCon=     1 RMS=2.90D-05 Max=1.12D-03 NDo=     1
 LinEq1:  Iter= 21 NonCon=     1 RMS=2.11D-05 Max=9.04D-04 NDo=     1
 LinEq1:  Iter= 22 NonCon=     1 RMS=1.98D-05 Max=9.65D-04 NDo=     1
 LinEq1:  Iter= 23 NonCon=     1 RMS=1.69D-05 Max=6.13D-04 NDo=     1
 LinEq1:  Iter= 24 NonCon=     1 RMS=1.25D-05 Max=4.36D-04 NDo=     1
 LinEq1:  Iter= 25 NonCon=     1 RMS=9.17D-06 Max=4.84D-04 NDo=     1
 LinEq1:  Iter= 26 NonCon=     1 RMS=7.20D-06 Max=3.01D-04 NDo=     1
 LinEq1:  Iter= 27 NonCon=     1 RMS=4.69D-06 Max=2.02D-04 NDo=     1
 LinEq1:  Iter= 28 NonCon=     1 RMS=4.01D-06 Max=2.11D-04 NDo=     1
 LinEq1:  Iter= 29 NonCon=     1 RMS=2.85D-06 Max=1.09D-04 NDo=     1
 LinEq1:  Iter= 30 NonCon=     1 RMS=2.13D-06 Max=9.52D-05 NDo=     1
 LinEq1:  Iter= 31 NonCon=     1 RMS=1.74D-06 Max=7.26D-05 NDo=     1
 LinEq1:  Iter= 32 NonCon=     1 RMS=1.03D-06 Max=4.14D-05 NDo=     1
 LinEq1:  Iter= 33 NonCon=     1 RMS=7.19D-07 Max=3.58D-05 NDo=     1
 LinEq1:  Iter= 34 NonCon=     1 RMS=4.65D-07 Max=1.95D-05 NDo=     1
 LinEq1:  Iter= 35 NonCon=     1 RMS=3.28D-07 Max=1.30D-05 NDo=     1
 LinEq1:  Iter= 36 NonCon=     1 RMS=3.33D-07 Max=1.38D-05 NDo=     1
 LinEq1:  Iter= 37 NonCon=     1 RMS=2.50D-07 Max=8.60D-06 NDo=     1
 LinEq1:  Iter= 38 NonCon=     1 RMS=1.66D-07 Max=6.63D-06 NDo=     1
 LinEq1:  Iter= 39 NonCon=     1 RMS=1.13D-07 Max=5.24D-06 NDo=     1
 LinEq1:  Iter= 40 NonCon=     1 RMS=8.21D-08 Max=2.59D-06 NDo=     1
 LinEq1:  Iter= 41 NonCon=     1 RMS=4.94D-08 Max=2.07D-06 NDo=     1
 LinEq1:  Iter= 42 NonCon=     1 RMS=2.43D-08 Max=1.52D-06 NDo=     1
 LinEq1:  Iter= 43 NonCon=     1 RMS=1.32D-08 Max=5.55D-07 NDo=     1
 LinEq1:  Iter= 44 NonCon=     1 RMS=5.85D-09 Max=2.93D-07 NDo=     1
 LinEq1:  Iter= 45 NonCon=     0 RMS=3.79D-09 Max=2.58D-07 NDo=     1
 Linear equations converged to 2.700D-08 2.700D-07 after    45 iterations.
 Angle between quadratic step and gradient=  62.05 degrees.
     ILin= 1 X=0.000D+00 Y=-1.487220800301D+03 DE= 0.00D+00 F= -3.70D-04
 RMSU=  3.31D-05    CP:  9.99D-01  3.00D+00 -3.00D+00  2.83D+00 -3.00D+00
                    CP:  2.51D-02 -1.97D-02 -8.70D-01 -3.00D+00 -3.00D+00
                    CP: -3.00D+00  1.37D-01  3.00D+00  3.00D+00  7.74D-01
                    CP: -3.00D+00  4.26D-01  2.34D+00 -3.00D+00
     ILin= 2 X=1.000D+00 Y=-1.487220985400D+03 DE=-1.85D-04 F= -1.20D-06 OKLS=T
     Reject lnstep IMin12=  1  2 Big=T Turn=F Min= 1.003D+00 FVal=-1.487220985402D+03 Lims=  0.00D+00  1.00D+00
 Restarting incremental Fock formation.
     ILin= 3 X=1.800D+00 Y=-1.487220869940D+03 DE=-6.96D-05 F=  2.89D-04
     An  expanding polynomial of degree  3 produced  1.0057
     Minimum is close to point  2 DX=  5.70D-03 DF= -5.94D-09 DXR=  5.67D-03 DFR=  3.21D-05 which will be used.
 Iteration  23 EE= -1487.22098539966     Delta-E=       -0.000185099018 Grad=2.006D-04 Max rot=    0.0019 deg.
 QCNR:  CnvC1=2.01D-09 CnvC2=2.01D-08
 LinEq1:  Iter=  0 NonCon=     1 RMS=3.01D-06 Max=6.54D-04 NDo=     1
 LinEq1:  Iter=  1 NonCon=     1 RMS=5.15D-06 Max=7.20D-04 NDo=     1
 LinEq1:  Iter=  2 NonCon=     1 RMS=7.41D-06 Max=8.94D-04 NDo=     1
 LinEq1:  Iter=  3 NonCon=     1 RMS=4.72D-06 Max=4.59D-04 NDo=     1
 LinEq1:  Iter=  4 NonCon=     1 RMS=4.65D-06 Max=6.00D-04 NDo=     1
 LinEq1:  Iter=  5 NonCon=     1 RMS=4.12D-06 Max=4.64D-04 NDo=     1
 LinEq1:  Iter=  6 NonCon=     1 RMS=3.99D-06 Max=3.80D-04 NDo=     1
 LinEq1:  Iter=  7 NonCon=     1 RMS=3.53D-06 Max=2.01D-04 NDo=     1
 LinEq1:  Iter=  8 NonCon=     1 RMS=3.48D-06 Max=3.48D-04 NDo=     1
 LinEq1:  Iter=  9 NonCon=     1 RMS=2.69D-06 Max=3.25D-04 NDo=     1
 LinEq1:  Iter= 10 NonCon=     1 RMS=2.43D-06 Max=2.52D-04 NDo=     1
 LinEq1:  Iter= 11 NonCon=     1 RMS=1.75D-06 Max=9.13D-05 NDo=     1
 LinEq1:  Iter= 12 NonCon=     1 RMS=1.42D-06 Max=8.21D-05 NDo=     1
 LinEq1:  Iter= 13 NonCon=     1 RMS=1.26D-06 Max=5.87D-05 NDo=     1
 LinEq1:  Iter= 14 NonCon=     1 RMS=1.05D-06 Max=4.93D-05 NDo=     1
 LinEq1:  Iter= 15 NonCon=     1 RMS=8.55D-07 Max=3.97D-05 NDo=     1
 LinEq1:  Iter= 16 NonCon=     1 RMS=6.86D-07 Max=3.01D-05 NDo=     1
 LinEq1:  Iter= 17 NonCon=     1 RMS=5.63D-07 Max=2.28D-05 NDo=     1
 LinEq1:  Iter= 18 NonCon=     1 RMS=5.36D-07 Max=3.13D-05 NDo=     1
 LinEq1:  Iter= 19 NonCon=     1 RMS=4.49D-07 Max=1.78D-05 NDo=     1
 LinEq1:  Iter= 20 NonCon=     1 RMS=3.80D-07 Max=2.26D-05 NDo=     1
 LinEq1:  Iter= 21 NonCon=     1 RMS=2.26D-07 Max=1.03D-05 NDo=     1
 LinEq1:  Iter= 22 NonCon=     1 RMS=1.96D-07 Max=1.02D-05 NDo=     1
 LinEq1:  Iter= 23 NonCon=     1 RMS=2.32D-07 Max=1.38D-05 NDo=     1
 LinEq1:  Iter= 24 NonCon=     1 RMS=1.70D-07 Max=6.77D-06 NDo=     1
 LinEq1:  Iter= 25 NonCon=     1 RMS=1.44D-07 Max=5.64D-06 NDo=     1
 LinEq1:  Iter= 26 NonCon=     1 RMS=1.04D-07 Max=6.42D-06 NDo=     1
 LinEq1:  Iter= 27 NonCon=     1 RMS=7.54D-08 Max=3.72D-06 NDo=     1
 LinEq1:  Iter= 28 NonCon=     1 RMS=5.62D-08 Max=2.75D-06 NDo=     1
 LinEq1:  Iter= 29 NonCon=     1 RMS=4.26D-08 Max=1.72D-06 NDo=     1
 LinEq1:  Iter= 30 NonCon=     1 RMS=3.18D-08 Max=1.33D-06 NDo=     1
 LinEq1:  Iter= 31 NonCon=     1 RMS=3.05D-08 Max=1.27D-06 NDo=     1
 LinEq1:  Iter= 32 NonCon=     1 RMS=2.61D-08 Max=1.25D-06 NDo=     1
 LinEq1:  Iter= 33 NonCon=     1 RMS=2.17D-08 Max=1.27D-06 NDo=     1
 LinEq1:  Iter= 34 NonCon=     1 RMS=1.94D-08 Max=1.50D-06 NDo=     1
 LinEq1:  Iter= 35 NonCon=     1 RMS=1.46D-08 Max=6.83D-07 NDo=     1
 LinEq1:  Iter= 36 NonCon=     1 RMS=8.89D-09 Max=3.88D-07 NDo=     1
 LinEq1:  Iter= 37 NonCon=     1 RMS=6.26D-09 Max=2.21D-07 NDo=     1
 LinEq1:  Iter= 38 NonCon=     1 RMS=3.53D-09 Max=1.58D-07 NDo=     1
 LinEq1:  Iter= 39 NonCon=     1 RMS=2.21D-09 Max=1.38D-07 NDo=     1
 LinEq1:  Iter= 40 NonCon=     1 RMS=1.37D-09 Max=5.77D-08 NDo=     1
 LinEq1:  Iter= 41 NonCon=     1 RMS=8.99D-10 Max=3.29D-08 NDo=     1
 LinEq1:  Iter= 42 NonCon=     1 RMS=6.60D-10 Max=2.37D-08 NDo=     1
 LinEq1:  Iter= 43 NonCon=     0 RMS=3.41D-10 Max=1.08D-08 NDo=     1
 Linear equations converged to 2.006D-09 2.006D-08 after    43 iterations.
 Angle between quadratic step and gradient=  58.37 degrees.
     ILin= 1 X=0.000D+00 Y=-1.487220985400D+03 DE= 0.00D+00 F= -1.25D-07
 RMSU=  1.11D-04    CP:  1.00D+00
     ILin= 2 X=1.000D+00 Y=-1.487220985462D+03 DE=-6.24D-08
 Iteration  24 EE= -1487.22098546207     Delta-E=       -0.000000062419 Grad=4.785D-08 Max rot=    0.0000 deg.
 Rotation gradient small -- convergence achieved.
 SCF Done:  E(UPBE1PBE) =  -1487.22098546     a.u. after   24 cycles
            Convg  =    0.4785D-07                   244 Fock formations.
              S**2 =  0.7594                  -V/T =  2.0739
 <Sx>= 0.0000 <Sy>= 0.0000 <Sz>= 0.5000 <S**2>= 0.7594 S= 0.5047
 <L.S>= 0.000000000000E+00
 Annihilation of the first spin contaminant:
 S**2 before annihilation     0.7594,   after     0.7501
 Leave Link  508 at Fri Sep 11 23:43:00 2026, MaxMem=  6442450944 cpu:            4973.0 elap:            4972.8
 (Enter C:\G16W\l601.exe)
 Copying SCF densities to generalized density rwf, IOpCl= 1 IROHF=0.

 **********************************************************************

            Population analysis using the SCF Density.

 **********************************************************************

 Alpha  occ. eigenvalues --  -14.48112 -14.47721 -14.47620 -14.46783 -14.46463
 Alpha  occ. eigenvalues --  -14.46351 -14.46070 -14.44002 -14.43706 -14.43577
 Alpha  occ. eigenvalues --  -14.42894 -14.42467 -10.37716 -10.37650 -10.37472
 Alpha  occ. eigenvalues --  -10.36794 -10.36632 -10.36355 -10.36138 -10.35345
 Alpha  occ. eigenvalues --  -10.35290 -10.34861 -10.34528 -10.34144 -10.34092
 Alpha  occ. eigenvalues --  -10.31758 -10.31434 -10.31282 -10.30629 -10.30223
 Alpha  occ. eigenvalues --   -3.83063  -2.41180  -2.41173  -2.41102  -1.08403
 Alpha  occ. eigenvalues --   -1.06476  -1.06021  -1.00536  -0.99621  -0.98845
 Alpha  occ. eigenvalues --   -0.97517  -0.96903  -0.96321  -0.95636  -0.95551
 Alpha  occ. eigenvalues --   -0.94634  -0.93900  -0.88281  -0.87921  -0.82281
 Alpha  occ. eigenvalues --   -0.79982  -0.79903  -0.74556  -0.73463  -0.73289
 Alpha  occ. eigenvalues --   -0.67203  -0.66020  -0.65909  -0.64635  -0.63185
 Alpha  occ. eigenvalues --   -0.62689  -0.59448  -0.59022  -0.57081  -0.56658
 Alpha  occ. eigenvalues --   -0.54954  -0.52708  -0.51939  -0.51369  -0.51106
 Alpha  occ. eigenvalues --   -0.50837  -0.46741  -0.45082  -0.44292  -0.44201
 Alpha  occ. eigenvalues --   -0.42959  -0.41992  -0.41731  -0.41425  -0.41122
 Alpha  occ. eigenvalues --   -0.41094  -0.40586  -0.40492  -0.40491  -0.40393
 Alpha  occ. eigenvalues --   -0.40178  -0.40108  -0.39905  -0.39870  -0.39500
 Alpha  occ. eigenvalues --   -0.39005  -0.38750  -0.38529  -0.38330  -0.38231
 Alpha  occ. eigenvalues --   -0.37303  -0.36707  -0.36671  -0.36341  -0.34898
 Alpha  occ. eigenvalues --   -0.33499  -0.32699  -0.32564  -0.32303  -0.32186
 Alpha  occ. eigenvalues --   -0.19307
 Alpha virt. eigenvalues --   -0.17201  -0.15467  -0.15183  -0.10301  -0.09041
 Alpha virt. eigenvalues --   -0.08729  -0.06147  -0.03981  -0.02200  -0.01849
 Alpha virt. eigenvalues --   -0.00922   0.00095   0.00357   0.00551   0.00959
 Alpha virt. eigenvalues --    0.01410   0.02341   0.02730   0.04454   0.05330
 Alpha virt. eigenvalues --    0.05774   0.09011   0.09755   0.10288   0.10464
 Alpha virt. eigenvalues --    0.10727   0.14439   0.14629   0.14772   0.15605
 Alpha virt. eigenvalues --    0.16292   0.16554   0.18090   0.19698   0.20207
 Alpha virt. eigenvalues --    0.21675   0.21708   0.22792   0.23048   0.23504
 Alpha virt. eigenvalues --    0.23892   0.24536   0.25383   0.26396   0.26825
 Alpha virt. eigenvalues --    0.27359   0.27853   0.27988   0.29534   0.30581
 Alpha virt. eigenvalues --    0.30875   0.31153   0.35016   0.35272   0.38930
 Alpha virt. eigenvalues --    0.39353   0.39750   0.40149   0.40522   0.40523
 Alpha virt. eigenvalues --    0.40940   0.41237   0.41704   0.42072   0.42264
 Alpha virt. eigenvalues --    0.42396   0.42434   0.44181   0.46565   0.47437
 Alpha virt. eigenvalues --    0.47985   0.48015   0.48320   0.48379   0.51040
 Alpha virt. eigenvalues --    0.51100   0.51220   0.51252   0.51772   0.52113
 Alpha virt. eigenvalues --    0.52271   0.52969   0.53964   0.54831   0.54905
 Alpha virt. eigenvalues --    0.55201   0.55391   0.55997   0.56009   0.56391
 Alpha virt. eigenvalues --    0.56493   0.57143   0.57674   0.59879   0.60395
 Alpha virt. eigenvalues --    0.63236   0.63678   0.64361   0.65602   0.65615
 Alpha virt. eigenvalues --    0.65779   0.65955   0.66472   0.66702   0.67015
 Alpha virt. eigenvalues --    0.67267   0.67471   0.68330   0.68981   0.69077
 Alpha virt. eigenvalues --    0.69246   0.69605   0.69774   0.70694   0.71155
 Alpha virt. eigenvalues --    0.75055   0.75390   0.76575   0.76750   0.78260
 Alpha virt. eigenvalues --    0.79339   0.79879   0.80496   0.80590   0.83936
 Alpha virt. eigenvalues --    0.84164   0.84498   0.84605   0.84994   0.86128
 Alpha virt. eigenvalues --    0.86916   0.89176   0.90025   0.90132   0.90914
 Alpha virt. eigenvalues --    0.91214   0.91579   0.93289   0.94173   0.94478
 Alpha virt. eigenvalues --    0.94668   0.95215   0.96225   0.96625   0.97007
 Alpha virt. eigenvalues --    0.97461   0.97612   0.98930   1.00292   1.00789
 Alpha virt. eigenvalues --    1.01163   1.02398   1.03159   1.04120   1.04495
 Alpha virt. eigenvalues --    1.04989   1.05896   1.06580   1.08118   1.08860
 Alpha virt. eigenvalues --    1.09355   1.14205   1.15424   1.16016   1.16414
 Alpha virt. eigenvalues --    1.18418   1.19585   1.19795   1.19967   1.22533
 Alpha virt. eigenvalues --    1.23019   1.23059   1.24755   1.25266   1.26154
 Alpha virt. eigenvalues --    1.26847   1.27606   1.28262   1.30423   1.32884
 Alpha virt. eigenvalues --    1.32929   1.33926   1.34293   1.36004   1.37145
 Alpha virt. eigenvalues --    1.37454   1.40277   1.41996   1.42310   1.42704
 Alpha virt. eigenvalues --    1.42838   1.44269   1.44694   1.44763   1.45713
 Alpha virt. eigenvalues --    1.47087   1.47567   1.54668   1.55802   1.56937
 Alpha virt. eigenvalues --    1.57405   1.57887   1.59130   1.59400   1.60103
 Alpha virt. eigenvalues --    1.60603   1.61149   1.61565   1.62076   1.63069
 Alpha virt. eigenvalues --    1.66129   1.67002   1.67423   1.68672   1.71693
 Alpha virt. eigenvalues --    1.72351   1.72956   1.75747   1.76287   1.77519
 Alpha virt. eigenvalues --    1.78004   1.81473   1.81805   1.82103   1.82418
 Alpha virt. eigenvalues --    1.82800   1.88002   1.88353   1.88626   1.88736
 Alpha virt. eigenvalues --    1.88956   1.89894   1.90613   1.90787   1.91025
 Alpha virt. eigenvalues --    1.91306   1.91525   1.91718   1.94980   1.95158
 Alpha virt. eigenvalues --    1.95678   1.97704   2.03251   2.03802   2.05182
 Alpha virt. eigenvalues --    2.08023   2.08164   2.14821   2.14932   2.14999
 Alpha virt. eigenvalues --    2.15050   2.17433   2.19984   2.20339   2.21007
 Alpha virt. eigenvalues --    2.21268   2.21901   2.23543   2.24425   2.24573
 Alpha virt. eigenvalues --    2.24639   2.25422   2.25487   2.25493   2.26311
 Alpha virt. eigenvalues --    2.26338   2.27208   2.30031   2.30420   2.34276
 Alpha virt. eigenvalues --    2.37166   2.37291   2.37324   2.41030   2.41130
 Alpha virt. eigenvalues --    2.42197   2.47211   2.49642   2.50215   2.50437
 Alpha virt. eigenvalues --    2.50447   2.52103   2.53710   2.54060   2.54063
 Alpha virt. eigenvalues --    2.54099   2.54103   2.54218   2.54503   2.54774
 Alpha virt. eigenvalues --    2.54888   2.57330   2.57365   2.57626   2.58904
 Alpha virt. eigenvalues --    2.61010   2.61162   2.65731   2.67336   2.67580
 Alpha virt. eigenvalues --    2.69176   2.76717   2.77208   2.77346   2.77893
 Alpha virt. eigenvalues --    2.80150   2.82953   2.86530   2.86619   2.87533
 Alpha virt. eigenvalues --    2.87838   2.90099   2.90349   2.90755   2.93395
 Alpha virt. eigenvalues --    2.94315   2.96181   2.96574   2.99664   3.00262
 Alpha virt. eigenvalues --    3.00702   3.01195   3.01793   3.01953   3.02912
 Alpha virt. eigenvalues --    3.09272   3.12737   3.13351   3.16369   3.25041
 Alpha virt. eigenvalues --    3.25302   3.25578   3.35563   3.36043   3.42559
 Alpha virt. eigenvalues --    3.43603   3.44033   3.44502   3.46388   3.46533
 Alpha virt. eigenvalues --    3.63492   3.64196   3.72361   3.74268  53.74300
  Beta  occ. eigenvalues --  -14.47877 -14.47758 -14.47587 -14.46849 -14.46327
  Beta  occ. eigenvalues --  -14.46035 -14.45839 -14.44028 -14.43687 -14.43589
  Beta  occ. eigenvalues --  -14.42917 -14.42389 -10.37732 -10.37623 -10.37543
  Beta  occ. eigenvalues --  -10.36852 -10.36468 -10.36213 -10.36145 -10.35333
  Beta  occ. eigenvalues --  -10.35282 -10.34940 -10.34458 -10.34093 -10.33976
  Beta  occ. eigenvalues --  -10.31743 -10.31443 -10.31275 -10.30616 -10.30263
  Beta  occ. eigenvalues --   -3.82988  -2.41124  -2.41123  -2.41072  -1.08293
  Beta  occ. eigenvalues --   -1.06309  -1.05804  -1.00257  -0.99558  -0.98583
  Beta  occ. eigenvalues --   -0.97399  -0.96779  -0.96274  -0.95561  -0.95532
  Beta  occ. eigenvalues --   -0.94570  -0.93804  -0.88158  -0.87779  -0.82138
  Beta  occ. eigenvalues --   -0.79949  -0.79622  -0.74448  -0.73380  -0.73128
  Beta  occ. eigenvalues --   -0.67133  -0.65926  -0.65827  -0.64568  -0.63093
  Beta  occ. eigenvalues --   -0.62646  -0.59381  -0.58930  -0.56990  -0.56616
  Beta  occ. eigenvalues --   -0.54601  -0.52293  -0.51479  -0.51025  -0.50986
  Beta  occ. eigenvalues --   -0.50650  -0.46246  -0.44671  -0.44118  -0.44044
  Beta  occ. eigenvalues --   -0.42514  -0.41765  -0.41655  -0.41407  -0.41101
  Beta  occ. eigenvalues --   -0.41012  -0.40605  -0.40239  -0.40238  -0.40074
  Beta  occ. eigenvalues --   -0.40024  -0.39989  -0.39895  -0.39680  -0.39493
  Beta  occ. eigenvalues --   -0.39001  -0.38494  -0.38261  -0.37900  -0.37805
  Beta  occ. eigenvalues --   -0.37237  -0.36557  -0.36227  -0.36079  -0.34747
  Beta  occ. eigenvalues --   -0.33457  -0.32526  -0.32182  -0.32141  -0.31718
  Beta virt. eigenvalues --   -0.15395  -0.15115  -0.14375  -0.13628  -0.09434
  Beta virt. eigenvalues --   -0.08738  -0.08160  -0.05573  -0.02518  -0.01899
  Beta virt. eigenvalues --   -0.01158  -0.00876   0.00387   0.01130   0.01349
  Beta virt. eigenvalues --    0.01413   0.01608   0.02359   0.03281   0.04469
  Beta virt. eigenvalues --    0.05449   0.07342   0.09033   0.09830   0.10367
  Beta virt. eigenvalues --    0.10716   0.11064   0.14516   0.14875   0.15040
  Beta virt. eigenvalues --    0.15856   0.16367   0.16669   0.18153   0.20164
  Beta virt. eigenvalues --    0.20315   0.21747   0.21864   0.22912   0.23156
  Beta virt. eigenvalues --    0.23733   0.23997   0.24599   0.25507   0.26675
  Beta virt. eigenvalues --    0.26936   0.27542   0.29237   0.29262   0.30315
  Beta virt. eigenvalues --    0.30757   0.31064   0.31580   0.35128   0.35374
  Beta virt. eigenvalues --    0.39150   0.39613   0.40267   0.40290   0.41064
  Beta virt. eigenvalues --    0.41491   0.41499   0.41545   0.41818   0.42174
  Beta virt. eigenvalues --    0.42401   0.42661   0.42789   0.44421   0.46631
  Beta virt. eigenvalues --    0.47448   0.48145   0.48187   0.48347   0.48492
  Beta virt. eigenvalues --    0.51152   0.51211   0.51257   0.51360   0.51847
  Beta virt. eigenvalues --    0.52167   0.52369   0.53105   0.54868   0.54994
  Beta virt. eigenvalues --    0.54999   0.55440   0.55464   0.56042   0.56152
  Beta virt. eigenvalues --    0.56446   0.56672   0.57294   0.57764   0.59938
  Beta virt. eigenvalues --    0.60489   0.63292   0.63726   0.64470   0.65606
  Beta virt. eigenvalues --    0.65692   0.65968   0.66033   0.66481   0.66765
  Beta virt. eigenvalues --    0.67028   0.67304   0.67525   0.68395   0.69048
  Beta virt. eigenvalues --    0.69146   0.69306   0.69677   0.69988   0.70762
  Beta virt. eigenvalues --    0.71233   0.75475   0.75487   0.76621   0.76800
  Beta virt. eigenvalues --    0.78322   0.79401   0.79940   0.80650   0.80662
  Beta virt. eigenvalues --    0.84046   0.84474   0.84649   0.85022   0.85056
  Beta virt. eigenvalues --    0.86165   0.87038   0.89239   0.90055   0.90139
  Beta virt. eigenvalues --    0.90942   0.91273   0.91759   0.93401   0.94195
  Beta virt. eigenvalues --    0.94709   0.94953   0.95228   0.96276   0.96694
  Beta virt. eigenvalues --    0.97204   0.97539   0.98107   0.99075   1.00411
  Beta virt. eigenvalues --    1.00854   1.01224   1.02520   1.03257   1.04166
  Beta virt. eigenvalues --    1.04859   1.05089   1.05958   1.06639   1.08148
  Beta virt. eigenvalues --    1.08894   1.09398   1.14380   1.15535   1.16118
  Beta virt. eigenvalues --    1.16447   1.18477   1.19692   1.19972   1.20127
  Beta virt. eigenvalues --    1.22707   1.23235   1.23292   1.24848   1.25320
  Beta virt. eigenvalues --    1.26305   1.26946   1.27804   1.28408   1.30484
  Beta virt. eigenvalues --    1.32967   1.33049   1.34014   1.34608   1.36125
  Beta virt. eigenvalues --    1.37201   1.37489   1.40438   1.42136   1.42380
  Beta virt. eigenvalues --    1.42866   1.42900   1.44430   1.44782   1.44919
  Beta virt. eigenvalues --    1.45770   1.47265   1.47752   1.54746   1.55882
  Beta virt. eigenvalues --    1.56935   1.57449   1.57878   1.59159   1.59506
  Beta virt. eigenvalues --    1.60120   1.60605   1.61174   1.61559   1.62096
  Beta virt. eigenvalues --    1.63079   1.66199   1.67038   1.67489   1.68781
  Beta virt. eigenvalues --    1.71759   1.72451   1.73066   1.75804   1.76359
  Beta virt. eigenvalues --    1.77584   1.78074   1.81695   1.81999   1.82217
  Beta virt. eigenvalues --    1.82525   1.83009   1.88337   1.88420   1.88686
  Beta virt. eigenvalues --    1.88879   1.89028   1.90007   1.90693   1.90860
  Beta virt. eigenvalues --    1.91090   1.91484   1.91672   1.91871   1.95082
  Beta virt. eigenvalues --    1.95314   1.95796   1.98336   2.03338   2.03862
  Beta virt. eigenvalues --    2.05247   2.08114   2.08346   2.14878   2.15127
  Beta virt. eigenvalues --    2.15173   2.15242   2.17936   2.20033   2.20878
  Beta virt. eigenvalues --    2.21187   2.21396   2.21969   2.23555   2.24512
  Beta virt. eigenvalues --    2.24554   2.24631   2.25418   2.25528   2.25635
  Beta virt. eigenvalues --    2.26353   2.26475   2.27349   2.30148   2.30514
  Beta virt. eigenvalues --    2.34374   2.37284   2.37490   2.37574   2.41283
  Beta virt. eigenvalues --    2.41503   2.42418   2.47404   2.49730   2.50443
  Beta virt. eigenvalues --    2.50508   2.50769   2.52491   2.53813   2.54065
  Beta virt. eigenvalues --    2.54069   2.54118   2.54122   2.54292   2.54582
  Beta virt. eigenvalues --    2.54831   2.54969   2.57521   2.57552   2.58078
  Beta virt. eigenvalues --    2.59019   2.61056   2.61255   2.65842   2.67438
  Beta virt. eigenvalues --    2.67888   2.69419   2.76886   2.77562   2.77644
  Beta virt. eigenvalues --    2.78076   2.80255   2.83065   2.86741   2.86850
  Beta virt. eigenvalues --    2.87582   2.87888   2.90307   2.90687   2.90841
  Beta virt. eigenvalues --    2.93403   2.94372   2.96234   2.96676   2.99846
  Beta virt. eigenvalues --    3.00395   3.00748   3.01238   3.01961   3.01964
  Beta virt. eigenvalues --    3.02992   3.09313   3.12796   3.13406   3.16410
  Beta virt. eigenvalues --    3.25054   3.25387   3.25593   3.35637   3.36114
  Beta virt. eigenvalues --    3.42644   3.43623   3.44055   3.44541   3.46421
  Beta virt. eigenvalues --    3.46570   3.63534   3.64222   3.72403   3.74307
  Beta virt. eigenvalues --   53.74377
          Condensed to atoms (all electrons):
               1          2          3          4          5          6
     1  N    6.190787   0.755701  -0.041166  -0.005774   0.000059   0.000015
     2  C    0.755701   5.196895   0.275109  -0.118414   0.014553   0.000857
     3  C   -0.041166   0.275109   5.095472   0.544079  -0.031368   0.015070
     4  N   -0.005774  -0.118414   0.544079   6.339765   0.635883  -0.100948
     5  C    0.000059   0.014553  -0.031368   0.635883   5.592591   0.035546
     6  C    0.000015   0.000857   0.015070  -0.100948   0.035546   5.621522
     7  N    0.000000  -0.000043   0.000114   0.005130  -0.096976   0.615022
     8  C    0.000000  -0.000004   0.000025   0.000158   0.014263  -0.028665
     9  C    0.000000   0.000000  -0.000004  -0.000033   0.001326   0.014570
    10  N    0.000000   0.000000   0.000000   0.000000   0.000018   0.000046
    11  C    0.000000   0.000000   0.000002  -0.000035   0.001721  -0.076937
    12  C    0.000000   0.000000   0.000000  -0.000001   0.000401  -0.000377
    13  N    0.000000   0.000000   0.000000   0.000000   0.000001  -0.000040
    14  N    0.000000   0.000000  -0.000001   0.000022   0.005362  -0.116685
    15  C    0.000000  -0.000017  -0.000157   0.008764  -0.069539   0.218201
    16  C    0.000000   0.000003  -0.000253  -0.001748  -0.089819  -0.076370
    17  N    0.000000   0.000000   0.000001  -0.000002  -0.001698   0.008380
    18  C    0.000000   0.000000   0.000001   0.000001  -0.000251  -0.000123
    19  C    0.000000   0.000000   0.000000   0.000000   0.000002  -0.000013
    20  N    0.000000   0.000000   0.000000   0.000000   0.000000   0.000000
    21  C    0.000000   0.000000   0.000002  -0.000001  -0.000103  -0.000245
    22  C    0.000000   0.000000   0.000000   0.000000  -0.000009   0.000001
    23  N    0.000000   0.000000   0.000000   0.000000   0.000000   0.000000
    24  N    0.000000  -0.000001  -0.000040   0.000026   0.008641  -0.001774
    25  C    0.000001   0.000442   0.002377   0.005476  -0.075044  -0.089916
    26  C   -0.000028   0.001596  -0.069842  -0.125388   0.217244  -0.064445
    27  N   -0.000019   0.000526  -0.057528  -0.043101  -0.116601   0.005689
    28  C   -0.005331  -0.134896   0.521022  -0.050065  -0.075485   0.002684
    29  C   -0.001874  -0.030129  -0.134720   0.000532   0.000181   0.000446
    30  N   -0.000292  -0.001309  -0.005691  -0.000028  -0.000036   0.000001
    31  Ag   0.094043  -0.013237  -0.000713  -0.000063   0.000067  -0.000018
               7          8          9         10         11         12
     1  N    0.000000   0.000000   0.000000   0.000000   0.000000   0.000000
     2  C   -0.000043  -0.000004   0.000000   0.000000   0.000000   0.000000
     3  C    0.000114   0.000025  -0.000004   0.000000   0.000002   0.000000
     4  N    0.005130   0.000158  -0.000033   0.000000  -0.000035  -0.000001
     5  C   -0.096976   0.014263   0.001326   0.000018   0.001721   0.000401
     6  C    0.615022  -0.028665   0.014570   0.000046  -0.076937  -0.000377
     7  N    6.277918   0.582083  -0.115167  -0.005733  -0.051707   0.000327
     8  C    0.582083   5.057937   0.214798  -0.036898   0.517872  -0.122436
     9  C   -0.115167   0.214798   5.234472   0.869282  -0.119661  -0.039250
    10  N   -0.005733  -0.036898   0.869282   6.056559  -0.004377  -0.002438
    11  C   -0.051707   0.517872  -0.119661  -0.004377   5.050920   0.212023
    12  C    0.000327  -0.122436  -0.039250  -0.002438   0.212023   5.239392
    13  N   -0.000027  -0.004526  -0.002363  -0.000374  -0.037197   0.867860
    14  N   -0.042602  -0.051822   0.000409  -0.000026   0.585391  -0.116756
    15  C   -0.118371  -0.076925  -0.000115  -0.000039  -0.026719   0.014966
    16  C    0.005413   0.001540   0.000396   0.000000   0.014450   0.001434
    17  N    0.000022  -0.000030  -0.000001   0.000000   0.000104  -0.000044
    18  C   -0.000001   0.000002   0.000000   0.000000   0.000030  -0.000004
    19  C    0.000000   0.000000   0.000000   0.000000  -0.000004   0.000000
    20  N    0.000000   0.000000   0.000000   0.000000   0.000000   0.000000
    21  C    0.000001   0.000001   0.000000   0.000000   0.000002   0.000000
    22  C    0.000000   0.000000   0.000000   0.000000   0.000000   0.000000
    23  N    0.000000   0.000000   0.000000   0.000000   0.000000   0.000000
    24  N   -0.000002   0.000001   0.000000   0.000000  -0.000001   0.000000
    25  C   -0.001773  -0.000314   0.000000   0.000000  -0.000008  -0.000006
    26  C    0.008435  -0.000017  -0.000006   0.000000  -0.000313   0.000000
    27  N    0.000022  -0.000001   0.000000   0.000000   0.000001   0.000000
    28  C   -0.000030   0.000002   0.000000   0.000000   0.000001   0.000000
    29  C   -0.000001   0.000000   0.000000   0.000000   0.000000   0.000000
    30  N    0.000000   0.000000   0.000000   0.000000   0.000000   0.000000
    31  Ag   0.000010   0.000000   0.000000   0.000000   0.000000   0.000000
              13         14         15         16         17         18
     1  N    0.000000   0.000000   0.000000   0.000000   0.000000   0.000000
     2  C    0.000000   0.000000  -0.000017   0.000003   0.000000   0.000000
     3  C    0.000000  -0.000001  -0.000157  -0.000253   0.000001   0.000001
     4  N    0.000000   0.000022   0.008764  -0.001748  -0.000002   0.000001
     5  C    0.000001   0.005362  -0.069539  -0.089819  -0.001698  -0.000251
     6  C   -0.000040  -0.116685   0.218201  -0.076370   0.008380  -0.000123
     7  N   -0.000027  -0.042602  -0.118371   0.005413   0.000022  -0.000001
     8  C   -0.004526  -0.051822  -0.076925   0.001540  -0.000030   0.000002
     9  C   -0.002363   0.000409  -0.000115   0.000396  -0.000001   0.000000
    10  N   -0.000374  -0.000026  -0.000039   0.000000   0.000000   0.000000
    11  C   -0.037197   0.585391  -0.026719   0.014450   0.000104   0.000030
    12  C    0.867860  -0.116756   0.014966   0.001434  -0.000044  -0.000004
    13  N    6.053543  -0.005794   0.000050   0.000018   0.000000   0.000000
    14  N   -0.005794   6.271337   0.613926  -0.097972   0.005069   0.000140
    15  C    0.000050   0.613926   5.606458   0.047409  -0.099641   0.014088
    16  C    0.000018  -0.097972   0.047409   5.624660   0.623664  -0.032402
    17  N    0.000000   0.005069  -0.099641   0.623664   6.277115   0.576008
    18  C    0.000000   0.000140   0.014088  -0.032402   0.576008   5.074084
    19  C    0.000000  -0.000058   0.001209   0.014858  -0.114217   0.218275
    20  N    0.000000  -0.000001   0.000017   0.000056  -0.005605  -0.036909
    21  C    0.000000  -0.000025   0.001921  -0.074941  -0.050309   0.513415
    22  C    0.000000  -0.000001   0.000417   0.000074   0.000434  -0.119882
    23  N    0.000000   0.000000   0.000001  -0.000038  -0.000027  -0.004330
    24  N    0.000000   0.000020   0.005571  -0.116601  -0.042913  -0.053427
    25  C    0.000000   0.008262  -0.075046   0.209463  -0.119484  -0.072706
    26  C    0.000000  -0.001718  -0.091011  -0.078007   0.005199   0.001880
    27  N    0.000000  -0.000002  -0.001816   0.009009   0.000024  -0.000039
    28  C    0.000000   0.000001  -0.000257  -0.000145  -0.000001   0.000002
    29  C    0.000000   0.000000   0.000001  -0.000011   0.000000   0.000000
    30  N    0.000000   0.000000   0.000000   0.000000   0.000000   0.000000
    31  Ag   0.000000   0.000000  -0.000001   0.000000   0.000000   0.000000
              19         20         21         22         23         24
     1  N    0.000000   0.000000   0.000000   0.000000   0.000000   0.000000
     2  C    0.000000   0.000000   0.000000   0.000000   0.000000  -0.000001
     3  C    0.000000   0.000000   0.000002   0.000000   0.000000  -0.000040
     4  N    0.000000   0.000000  -0.000001   0.000000   0.000000   0.000026
     5  C    0.000002   0.000000  -0.000103  -0.000009   0.000000   0.008641
     6  C   -0.000013   0.000000  -0.000245   0.000001   0.000000  -0.001774
     7  N    0.000000   0.000000   0.000001   0.000000   0.000000  -0.000002
     8  C    0.000000   0.000000   0.000001   0.000000   0.000000   0.000001
     9  C    0.000000   0.000000   0.000000   0.000000   0.000000   0.000000
    10  N    0.000000   0.000000   0.000000   0.000000   0.000000   0.000000
    11  C   -0.000004   0.000000   0.000002   0.000000   0.000000  -0.000001
    12  C    0.000000   0.000000   0.000000   0.000000   0.000000   0.000000
    13  N    0.000000   0.000000   0.000000   0.000000   0.000000   0.000000
    14  N   -0.000058  -0.000001  -0.000025  -0.000001   0.000000   0.000020
    15  C    0.001209   0.000017   0.001921   0.000417   0.000001   0.005571
    16  C    0.014858   0.000056  -0.074941   0.000074  -0.000038  -0.116601
    17  N   -0.114217  -0.005605  -0.050309   0.000434  -0.000027  -0.042913
    18  C    0.218275  -0.036909   0.513415  -0.119882  -0.004330  -0.053427
    19  C    5.229300   0.871097  -0.117367  -0.039426  -0.002445   0.000565
    20  N    0.871097   6.059421  -0.004168  -0.002372  -0.000377  -0.000025
    21  C   -0.117367  -0.004168   5.044410   0.212088  -0.036818   0.589820
    22  C   -0.039426  -0.002372   0.212088   5.235138   0.868804  -0.115268
    23  N   -0.002445  -0.000377  -0.036818   0.868804   6.057257  -0.005762
    24  N    0.000565  -0.000025   0.589820  -0.115268  -0.005762   6.292893
    25  C    0.000184  -0.000038  -0.028777   0.014860   0.000049   0.602915
    26  C    0.000402   0.000000   0.014102   0.001305   0.000018  -0.101184
    27  N   -0.000001   0.000000   0.000169  -0.000048   0.000000   0.006263
    28  C    0.000000   0.000000   0.000029  -0.000004   0.000000   0.000134
    29  C    0.000000   0.000000  -0.000004   0.000000   0.000000  -0.000049
    30  N    0.000000   0.000000   0.000000   0.000000   0.000000   0.000000
    31  Ag   0.000000   0.000000   0.000000   0.000000   0.000000   0.000000
              25         26         27         28         29         30
     1  N    0.000001  -0.000028  -0.000019  -0.005331  -0.001874  -0.000292
     2  C    0.000442   0.001596   0.000526  -0.134896  -0.030129  -0.001309
     3  C    0.002377  -0.069842  -0.057528   0.521022  -0.134720  -0.005691
     4  N    0.005476  -0.125388  -0.043101  -0.050065   0.000532  -0.000028
     5  C   -0.075044   0.217244  -0.116601  -0.075485   0.000181  -0.000036
     6  C   -0.089916  -0.064445   0.005689   0.002684   0.000446   0.000001
     7  N   -0.001773   0.008435   0.000022  -0.000030  -0.000001   0.000000
     8  C   -0.000314  -0.000017  -0.000001   0.000002   0.000000   0.000000
     9  C    0.000000  -0.000006   0.000000   0.000000   0.000000   0.000000
    10  N    0.000000   0.000000   0.000000   0.000000   0.000000   0.000000
    11  C   -0.000008  -0.000313   0.000001   0.000001   0.000000   0.000000
    12  C   -0.000006   0.000000   0.000000   0.000000   0.000000   0.000000
    13  N    0.000000   0.000000   0.000000   0.000000   0.000000   0.000000
    14  N    0.008262  -0.001718  -0.000002   0.000001   0.000000   0.000000
    15  C   -0.075046  -0.091011  -0.001816  -0.000257   0.000001   0.000000
    16  C    0.209463  -0.078007   0.009009  -0.000145  -0.000011   0.000000
    17  N   -0.119484   0.005199   0.000024  -0.000001   0.000000   0.000000
    18  C   -0.072706   0.001880  -0.000039   0.000002   0.000000   0.000000
    19  C    0.000184   0.000402  -0.000001   0.000000   0.000000   0.000000
    20  N   -0.000038   0.000000   0.000000   0.000000   0.000000   0.000000
    21  C   -0.028777   0.014102   0.000169   0.000029  -0.000004   0.000000
    22  C    0.014860   0.001305  -0.000048  -0.000004   0.000000   0.000000
    23  N    0.000049   0.000018   0.000000   0.000000   0.000000   0.000000
    24  N    0.602915  -0.101184   0.006263   0.000134  -0.000049   0.000000
    25  C    5.619096   0.071658  -0.103427   0.014722   0.001251   0.000018
    26  C    0.071658   5.621976   0.592117  -0.028608   0.015121   0.000049
    27  N   -0.103427   0.592117   6.315807   0.598836  -0.116392  -0.005833
    28  C    0.014722  -0.028608   0.598836   5.038812   0.201586  -0.035365
    29  C    0.001251   0.015121  -0.116392   0.201586   5.261363   0.873707
    30  N    0.000018   0.000049  -0.005833  -0.035365   0.873707   6.056497
    31  Ag   0.000001   0.000033   0.000045  -0.000159   0.000534   0.000836
              31
     1  N    0.094043
     2  C   -0.013237
     3  C   -0.000713
     4  N   -0.000063
     5  C    0.000067
     6  C   -0.000018
     7  N    0.000010
     8  C    0.000000
     9  C    0.000000
    10  N    0.000000
    11  C    0.000000
    12  C    0.000000
    13  N    0.000000
    14  N    0.000000
    15  C   -0.000001
    16  C    0.000000
    17  N    0.000000
    18  C    0.000000
    19  C    0.000000
    20  N    0.000000
    21  C    0.000000
    22  C    0.000000
    23  N    0.000000
    24  N    0.000000
    25  C    0.000001
    26  C    0.000033
    27  N    0.000045
    28  C   -0.000159
    29  C    0.000534
    30  N    0.000836
    31  Ag  18.547976
          Atomic-Atomic Spin Densities.
               1          2          3          4          5          6
     1  N    0.157475  -0.033224  -0.003739   0.000190   0.000006   0.000000
     2  C   -0.033224  -0.000666   0.025408  -0.006609  -0.000211   0.000116
     3  C   -0.003739   0.025408   0.147854  -0.046223  -0.003101   0.000882
     4  N    0.000190  -0.006609  -0.046223   0.181971   0.012397  -0.004610
     5  C    0.000006  -0.000211  -0.003101   0.012397  -0.068591   0.003727
     6  C    0.000000   0.000116   0.000882  -0.004610   0.003727   0.038081
     7  N    0.000000   0.000001   0.000001   0.000093   0.001281  -0.000024
     8  C    0.000000   0.000000  -0.000002   0.000030  -0.000039  -0.001945
     9  C    0.000000   0.000000   0.000000  -0.000010  -0.000038  -0.000026
    10  N    0.000000   0.000000   0.000000   0.000000   0.000000   0.000002
    11  C    0.000000   0.000000   0.000000   0.000005   0.000014   0.000409
    12  C    0.000000   0.000000   0.000000   0.000000   0.000003   0.000019
    13  N    0.000000   0.000000   0.000000   0.000000   0.000000   0.000000
    14  N    0.000000   0.000000   0.000000  -0.000002  -0.000061   0.000215
    15  C    0.000000   0.000002   0.000016  -0.000302  -0.001882  -0.001919
    16  C    0.000000  -0.000001  -0.000030   0.000138   0.003760  -0.004443
    17  N    0.000000   0.000000   0.000000   0.000000   0.000016  -0.000081
    18  C    0.000000   0.000000   0.000000   0.000000  -0.000010   0.000025
    19  C    0.000000   0.000000   0.000000   0.000000   0.000000   0.000000
    20  N    0.000000   0.000000   0.000000   0.000000   0.000000   0.000000
    21  C    0.000000   0.000000   0.000000   0.000000  -0.000009   0.000003
    22  C    0.000000   0.000000   0.000000   0.000000   0.000000   0.000000
    23  N    0.000000   0.000000   0.000000   0.000000   0.000000   0.000000
    24  N    0.000000   0.000000  -0.000005   0.000003   0.000003  -0.000017
    25  C    0.000000   0.000001   0.000092  -0.000641  -0.006414   0.001674
    26  C   -0.000003  -0.000087   0.003956  -0.004758  -0.006449   0.002687
    27  N    0.000002  -0.000407  -0.006167   0.002901   0.003277  -0.000407
    28  C    0.000001  -0.003937  -0.004275   0.001945   0.001257  -0.000136
    29  C   -0.000033   0.001159  -0.001881  -0.000140  -0.000156  -0.000011
    30  N    0.000004   0.000016  -0.000171  -0.000001  -0.000001   0.000000
    31  Ag  -0.042274   0.005089  -0.000418   0.000065   0.000005  -0.000002
               7          8          9         10         11         12
     1  N    0.000000   0.000000   0.000000   0.000000   0.000000   0.000000
     2  C    0.000001   0.000000   0.000000   0.000000   0.000000   0.000000
     3  C    0.000001  -0.000002   0.000000   0.000000   0.000000   0.000000
     4  N    0.000093   0.000030  -0.000010   0.000000   0.000005   0.000000
     5  C    0.001281  -0.000039  -0.000038   0.000000   0.000014   0.000003
     6  C   -0.000024  -0.001945  -0.000026   0.000002   0.000409   0.000019
     7  N   -0.019964  -0.000821   0.000461   0.000017   0.000415  -0.000002
     8  C   -0.000821   0.027665   0.001019  -0.000224  -0.001944  -0.000281
     9  C    0.000461   0.001019  -0.008744  -0.000070   0.000340   0.000041
    10  N    0.000017  -0.000224  -0.000070   0.009183   0.000042  -0.000004
    11  C    0.000415  -0.001944   0.000340   0.000042  -0.017494  -0.000509
    12  C   -0.000002  -0.000281   0.000041  -0.000004  -0.000509   0.006249
    13  N    0.000000  -0.000011   0.000004   0.000000   0.000037  -0.000235
    14  N    0.000020  -0.000626  -0.000016   0.000000   0.001811  -0.000447
    15  C    0.000110   0.000292   0.000056   0.000000   0.000670  -0.000016
    16  C   -0.000018   0.000099   0.000002   0.000000  -0.000088  -0.000001
    17  N    0.000000   0.000000   0.000000   0.000000  -0.000013   0.000001
    18  C    0.000000   0.000000   0.000000   0.000000   0.000001   0.000000
    19  C    0.000000   0.000000   0.000000   0.000000   0.000000   0.000000
    20  N    0.000000   0.000000   0.000000   0.000000   0.000000   0.000000
    21  C    0.000000   0.000000   0.000000   0.000000   0.000000   0.000000
    22  C    0.000000   0.000000   0.000000   0.000000   0.000000   0.000000
    23  N    0.000000   0.000000   0.000000   0.000000   0.000000   0.000000
    24  N    0.000000   0.000000   0.000000   0.000000   0.000000   0.000000
    25  C   -0.000008  -0.000004   0.000000   0.000000   0.000005   0.000000
    26  C    0.000084  -0.000037  -0.000002   0.000000   0.000012   0.000000
    27  N    0.000000   0.000000   0.000000   0.000000   0.000000   0.000000
    28  C   -0.000003   0.000000   0.000000   0.000000   0.000000   0.000000
    29  C    0.000000   0.000000   0.000000   0.000000   0.000000   0.000000
    30  N    0.000000   0.000000   0.000000   0.000000   0.000000   0.000000
    31  Ag   0.000000   0.000000   0.000000   0.000000   0.000000   0.000000
              13         14         15         16         17         18
     1  N    0.000000   0.000000   0.000000   0.000000   0.000000   0.000000
     2  C    0.000000   0.000000   0.000002  -0.000001   0.000000   0.000000
     3  C    0.000000   0.000000   0.000016  -0.000030   0.000000   0.000000
     4  N    0.000000  -0.000002  -0.000302   0.000138   0.000000   0.000000
     5  C    0.000000  -0.000061  -0.001882   0.003760   0.000016  -0.000010
     6  C    0.000000   0.000215  -0.001919  -0.004443  -0.000081   0.000025
     7  N    0.000000   0.000020   0.000110  -0.000018   0.000000   0.000000
     8  C   -0.000011  -0.000626   0.000292   0.000099   0.000000   0.000000
     9  C    0.000004  -0.000016   0.000056   0.000002   0.000000   0.000000
    10  N    0.000000   0.000000   0.000000   0.000000   0.000000   0.000000
    11  C    0.000037   0.001811   0.000670  -0.000088  -0.000013   0.000001
    12  C   -0.000235  -0.000447  -0.000016  -0.000001   0.000001   0.000000
    13  N   -0.005474  -0.000019  -0.000001   0.000000   0.000000   0.000000
    14  N   -0.000019   0.017044  -0.001096  -0.001285  -0.000035   0.000014
    15  C   -0.000001  -0.001096  -0.021361   0.009085   0.001326  -0.000049
    16  C    0.000000  -0.001285   0.009085   0.053215   0.006414  -0.005565
    17  N    0.000000  -0.000035   0.001326   0.006414  -0.033048  -0.009878
    18  C    0.000000   0.000014  -0.000049  -0.005565  -0.009878   0.116164
    19  C    0.000000   0.000000  -0.000022  -0.000021   0.000902   0.003980
    20  N    0.000000   0.000000   0.000000   0.000006   0.000070  -0.001338
    21  C    0.000000  -0.000001  -0.000031   0.001223   0.001023  -0.008548
    22  C    0.000000   0.000000  -0.000003  -0.000034   0.000012  -0.001075
    23  N    0.000000   0.000000   0.000000  -0.000001   0.000000  -0.000037
    24  N    0.000000   0.000000  -0.000076   0.002650   0.000609  -0.004061
    25  C    0.000000   0.000084  -0.001683  -0.017272  -0.000413   0.002447
    26  C    0.000000   0.000010  -0.001158  -0.006997  -0.000121   0.000207
    27  N    0.000000   0.000000   0.000045   0.000187   0.000001  -0.000006
    28  C    0.000000   0.000000   0.000003   0.000012   0.000000   0.000000
    29  C    0.000000   0.000000   0.000000   0.000001   0.000000   0.000000
    30  N    0.000000   0.000000   0.000000   0.000000   0.000000   0.000000
    31  Ag   0.000000   0.000000   0.000000   0.000000   0.000000   0.000000
              19         20         21         22         23         24
     1  N    0.000000   0.000000   0.000000   0.000000   0.000000   0.000000
     2  C    0.000000   0.000000   0.000000   0.000000   0.000000   0.000000
     3  C    0.000000   0.000000   0.000000   0.000000   0.000000  -0.000005
     4  N    0.000000   0.000000   0.000000   0.000000   0.000000   0.000003
     5  C    0.000000   0.000000  -0.000009   0.000000   0.000000   0.000003
     6  C    0.000000   0.000000   0.000003   0.000000   0.000000  -0.000017
     7  N    0.000000   0.000000   0.000000   0.000000   0.000000   0.000000
     8  C    0.000000   0.000000   0.000000   0.000000   0.000000   0.000000
     9  C    0.000000   0.000000   0.000000   0.000000   0.000000   0.000000
    10  N    0.000000   0.000000   0.000000   0.000000   0.000000   0.000000
    11  C    0.000000   0.000000   0.000000   0.000000   0.000000   0.000000
    12  C    0.000000   0.000000   0.000000   0.000000   0.000000   0.000000
    13  N    0.000000   0.000000   0.000000   0.000000   0.000000   0.000000
    14  N    0.000000   0.000000  -0.000001   0.000000   0.000000   0.000000
    15  C   -0.000022   0.000000  -0.000031  -0.000003   0.000000  -0.000076
    16  C   -0.000021   0.000006   0.001223  -0.000034  -0.000001   0.002650
    17  N    0.000902   0.000070   0.001023   0.000012   0.000000   0.000609
    18  C    0.003980  -0.001338  -0.008548  -0.001075  -0.000037  -0.004061
    19  C   -0.032976  -0.000672   0.000153   0.000405   0.000015  -0.000086
    20  N   -0.000672   0.038400   0.000102  -0.000004  -0.000002   0.000001
    21  C    0.000153   0.000102  -0.038228  -0.001826  -0.000221   0.009221
    22  C    0.000405  -0.000004  -0.001826   0.013947  -0.000584  -0.002160
    23  N    0.000015  -0.000002  -0.000221  -0.000584  -0.010009  -0.000097
    24  N   -0.000086   0.000001   0.009221  -0.002160  -0.000097   0.078133
    25  C   -0.000002  -0.000001  -0.000991   0.000248   0.000004  -0.017304
    26  C    0.000001   0.000000  -0.000158   0.000031   0.000000  -0.005446
    27  N    0.000000   0.000000   0.000035  -0.000007   0.000000   0.001345
    28  C    0.000000   0.000000   0.000001   0.000000   0.000000   0.000018
    29  C    0.000000   0.000000   0.000000   0.000000   0.000000  -0.000006
    30  N    0.000000   0.000000   0.000000   0.000000   0.000000   0.000000
    31  Ag   0.000000   0.000000   0.000000   0.000000   0.000000   0.000000
              25         26         27         28         29         30
     1  N    0.000000  -0.000003   0.000002   0.000001  -0.000033   0.000004
     2  C    0.000001  -0.000087  -0.000407  -0.003937   0.001159   0.000016
     3  C    0.000092   0.003956  -0.006167  -0.004275  -0.001881  -0.000171
     4  N   -0.000641  -0.004758   0.002901   0.001945  -0.000140  -0.000001
     5  C   -0.006414  -0.006449   0.003277   0.001257  -0.000156  -0.000001
     6  C    0.001674   0.002687  -0.000407  -0.000136  -0.000011   0.000000
     7  N   -0.000008   0.000084   0.000000  -0.000003   0.000000   0.000000
     8  C   -0.000004  -0.000037   0.000000   0.000000   0.000000   0.000000
     9  C    0.000000  -0.000002   0.000000   0.000000   0.000000   0.000000
    10  N    0.000000   0.000000   0.000000   0.000000   0.000000   0.000000
    11  C    0.000005   0.000012   0.000000   0.000000   0.000000   0.000000
    12  C    0.000000   0.000000   0.000000   0.000000   0.000000   0.000000
    13  N    0.000000   0.000000   0.000000   0.000000   0.000000   0.000000
    14  N    0.000084   0.000010   0.000000   0.000000   0.000000   0.000000
    15  C   -0.001683  -0.001158   0.000045   0.000003   0.000000   0.000000
    16  C   -0.017272  -0.006997   0.000187   0.000012   0.000001   0.000000
    17  N   -0.000413  -0.000121   0.000001   0.000000   0.000000   0.000000
    18  C    0.002447   0.000207  -0.000006   0.000000   0.000000   0.000000
    19  C   -0.000002   0.000001   0.000000   0.000000   0.000000   0.000000
    20  N   -0.000001   0.000000   0.000000   0.000000   0.000000   0.000000
    21  C   -0.000991  -0.000158   0.000035   0.000001   0.000000   0.000000
    22  C    0.000248   0.000031  -0.000007   0.000000   0.000000   0.000000
    23  N    0.000004   0.000000   0.000000   0.000000   0.000000   0.000000
    24  N   -0.017304  -0.005446   0.001345   0.000018  -0.000006   0.000000
    25  C    0.041097   0.023861  -0.005771  -0.000093   0.000085   0.000001
    26  C    0.023861   0.120084  -0.034210  -0.002183   0.000442   0.000006
    27  N   -0.005771  -0.034210   0.137046   0.010027  -0.003135  -0.000119
    28  C   -0.000093  -0.002183   0.010027  -0.049391  -0.000585  -0.000346
    29  C    0.000085   0.000442  -0.003135  -0.000585   0.014853  -0.000926
    30  N    0.000001   0.000006  -0.000119  -0.000346  -0.000926  -0.010516
    31  Ag   0.000000  -0.000003   0.000007   0.000007   0.000015   0.000008
              31
     1  N   -0.042274
     2  C    0.005089
     3  C   -0.000418
     4  N    0.000065
     5  C    0.000005
     6  C   -0.000002
     7  N    0.000000
     8  C    0.000000
     9  C    0.000000
    10  N    0.000000
    11  C    0.000000
    12  C    0.000000
    13  N    0.000000
    14  N    0.000000
    15  C    0.000000
    16  C    0.000000
    17  N    0.000000
    18  C    0.000000
    19  C    0.000000
    20  N    0.000000
    21  C    0.000000
    22  C    0.000000
    23  N    0.000000
    24  N    0.000000
    25  C    0.000000
    26  C   -0.000003
    27  N    0.000007
    28  C    0.000007
    29  C    0.000015
    30  N    0.000008
    31  Ag   0.469387
 Mulliken charges and spin densities:
               1          2
     1  N    0.013879   0.078407
     2  C    0.052367  -0.013351
     3  C   -0.111793   0.112196
     4  N   -0.094231   0.136441
     5  C    0.029073  -0.061216
     6  C    0.018506   0.034221
     7  N   -0.062066  -0.018358
     8  C   -0.067045   0.023170
     9  C   -0.058653  -0.006981
    10  N    0.123981   0.008946
    11  C   -0.065559  -0.016288
    12  C   -0.055090   0.004817
    13  N    0.128848  -0.005700
    14  N   -0.056477   0.015609
    15  C    0.026655  -0.017993
    16  C    0.015861   0.041035
    17  N   -0.062050  -0.033213
    18  C   -0.077852   0.092272
    19  C   -0.062362  -0.028324
    20  N    0.118904   0.036562
    21  C   -0.063203  -0.038252
    22  C   -0.056112   0.008948
    23  N    0.123668  -0.010932
    24  N   -0.069804   0.062724
    25  C    0.015763   0.019000
    26  C    0.009431   0.089768
    27  N   -0.083703   0.104646
    28  C   -0.047486  -0.047678
    29  C   -0.071542   0.009682
    30  N    0.117446  -0.012046
    31  Ag   0.370646   0.431886
 Sum of Mulliken charges =   0.00000   1.00000
 Mulliken charges and spin densities with hydrogens summed into heavy atoms:
               1          2
     1  N    0.013879   0.078407
     2  C    0.052367  -0.013351
     3  C   -0.111793   0.112196
     4  N   -0.094231   0.136441
     5  C    0.029073  -0.061216
     6  C    0.018506   0.034221
     7  N   -0.062066  -0.018358
     8  C   -0.067045   0.023170
     9  C   -0.058653  -0.006981
    10  N    0.123981   0.008946
    11  C   -0.065559  -0.016288
    12  C   -0.055090   0.004817
    13  N    0.128848  -0.005700
    14  N   -0.056477   0.015609
    15  C    0.026655  -0.017993
    16  C    0.015861   0.041035
    17  N   -0.062050  -0.033213
    18  C   -0.077852   0.092272
    19  C   -0.062362  -0.028324
    20  N    0.118904   0.036562
    21  C   -0.063203  -0.038252
    22  C   -0.056112   0.008948
    23  N    0.123668  -0.010932
    24  N   -0.069804   0.062724
    25  C    0.015763   0.019000
    26  C    0.009431   0.089768
    27  N   -0.083703   0.104646
    28  C   -0.047486  -0.047678
    29  C   -0.071542   0.009682
    30  N    0.117446  -0.012046
    31  Ag   0.370646   0.431886
 Electronic spatial extent (au):  <R**2>=          17056.2390
 Charge=              0.0000 electrons
 Dipole moment (field-independent basis, Debye):
    X=             -7.1441    Y=             10.9383    Z=             -2.1866  Tot=             13.2464
 Quadrupole moment (field-independent basis, Debye-Ang):
   XX=           -234.3340   YY=           -174.1791   ZZ=           -176.0548
   XY=            -46.4754   XZ=              4.2224   YZ=             -0.9368
 Traceless Quadrupole moment (field-independent basis, Debye-Ang):
   XX=            -39.4780   YY=             20.6769   ZZ=             18.8012
   XY=            -46.4754   XZ=              4.2224   YZ=             -0.9368
 Octapole moment (field-independent basis, Debye-Ang**2):
  XXX=             90.8473  YYY=            133.4608  ZZZ=             83.5655  XYY=           -248.0803
  XXY=            123.7881  XXZ=            -20.7539  XZZ=             59.3875  YZZ=           -112.5380
  YYZ=            -72.3397  XYZ=             65.4543
 Hexadecapole moment (field-independent basis, Debye-Ang**3):
 XXXX=         -12919.6829 YYYY=         -12508.1183 ZZZZ=           -747.4984 XXXY=            808.9692
 XXXZ=           -618.6781 YYYX=           -834.7754 YYYZ=           1120.2227 ZZZX=           -561.7294
 ZZZY=           1351.1263 XXYY=          -3720.8311 XXZZ=          -1798.3065 YYZZ=          -2365.1297
 XXYZ=            405.9160 YYXZ=            199.1678 ZZXY=            451.5937
 N-N= 2.617399168698D+03 E-N=-8.664353020154D+03  KE= 1.384929091783D+03
                          Isotropic Fermi Contact Couplings
        Atom                 a.u.       MegaHertz       Gauss      10(-4) cm-1
     1  N(14)              0.11010      35.57409      12.69372      11.86624
     2  C(13)             -0.00300      -3.37424      -1.20401      -1.12552
     3  C(13)              0.01468      16.50192       5.88829       5.50445
     4  N(14)              0.04119      13.30935       4.74911       4.43952
     5  C(13)             -0.01527     -17.17198      -6.12739      -5.72796
     6  C(13)              0.00576       6.47304       2.30974       2.15917
     7  N(14)             -0.00565      -1.82616      -0.65162      -0.60914
     8  C(13)              0.00500       5.61974       2.00526       1.87454
     9  C(13)             -0.00247      -2.77294      -0.98945      -0.92495
    10  N(14)              0.00196       0.63258       0.22572       0.21101
    11  C(13)             -0.00394      -4.43007      -1.58076      -1.47771
    12  C(13)              0.00157       1.76493       0.62977       0.58872
    13  N(14)             -0.00121      -0.39200      -0.13988      -0.13076
    14  N(14)              0.00456       1.47311       0.52564       0.49138
    15  C(13)             -0.00502      -5.64660      -2.01485      -1.88350
    16  C(13)              0.00767       8.61796       3.07510       2.87464
    17  N(14)             -0.01080      -3.48901      -1.24496      -1.16381
    18  C(13)              0.01765      19.84672       7.08180       6.62015
    19  C(13)             -0.01013     -11.38368      -4.06198      -3.79719
    20  N(14)              0.00806       2.60579       0.92981       0.86920
    21  C(13)             -0.01087     -12.22011      -4.36044      -4.07619
    22  C(13)              0.00282       3.16754       1.13026       1.05658
    23  N(14)             -0.00236      -0.76160      -0.27176      -0.25404
    24  N(14)              0.01708       5.51998       1.96967       1.84127
    25  C(13)             -0.00215      -2.41207      -0.86069      -0.80458
    26  C(13)              0.00926      10.41313       3.71566       3.47345
    27  N(14)              0.03005       9.71085       3.46507       3.23919
    28  C(13)             -0.01464     -16.45786      -5.87257      -5.48975
    29  C(13)              0.00262       2.94419       1.05056       0.98208
    30  N(14)             -0.00267      -0.86273      -0.30784      -0.28778
    31  Ag(107             0.00013      -0.02438      -0.00870      -0.00813
 --------------------------------------------------------
       Center         ----  Spin Dipole Couplings  ----
                      3XX-RR        3YY-RR        3ZZ-RR
 --------------------------------------------------------
     1   Atom       -0.056793     -0.014959      0.071752
     2   Atom       -0.008845      0.006273      0.002572
     3   Atom       -0.064266     -0.055858      0.120125
     4   Atom       -0.163093     -0.145797      0.308890
     5   Atom        0.022306      0.021256     -0.043562
     6   Atom       -0.012863     -0.009847      0.022709
     7   Atom        0.016600      0.016673     -0.033273
     8   Atom       -0.010949     -0.010872      0.021821
     9   Atom        0.004051      0.000002     -0.004053
    10   Atom       -0.010045     -0.005849      0.015894
    11   Atom        0.008462      0.007102     -0.015564
    12   Atom       -0.000384     -0.001881      0.002265
    13   Atom        0.004296      0.005839     -0.010135
    14   Atom       -0.015937     -0.013841      0.029778
    15   Atom        0.005123      0.005157     -0.010280
    16   Atom       -0.025131     -0.020174      0.045305
    17   Atom        0.027199      0.024578     -0.051776
    18   Atom       -0.049026     -0.041637      0.090663
    19   Atom        0.003895      0.010484     -0.014379
    20   Atom       -0.032394     -0.033954      0.066348
    21   Atom        0.015049      0.017829     -0.032878
    22   Atom       -0.004020     -0.000180      0.004201
    23   Atom        0.013118      0.005636     -0.018753
    24   Atom       -0.066498     -0.061874      0.128372
    25   Atom       -0.019212     -0.017982      0.037194
    26   Atom       -0.048527     -0.040583      0.089110
    27   Atom       -0.117220     -0.103493      0.220713
    28   Atom        0.022158      0.017029     -0.039187
    29   Atom       -0.000373     -0.002910      0.003283
    30   Atom        0.008172      0.012046     -0.020217
    31   Atom       -0.000653     -0.005129      0.005782
 --------------------------------------------------------
                        XY            XZ            YZ
 --------------------------------------------------------
     1   Atom       -0.034697     -0.086824      0.129452
     2   Atom       -0.021564     -0.006637      0.011991
     3   Atom        0.000538      0.002693      0.018488
     4   Atom       -0.005352     -0.017705      0.083609
     5   Atom       -0.005773      0.004866     -0.012717
     6   Atom       -0.000694     -0.001954      0.006362
     7   Atom        0.001785      0.002650     -0.009627
     8   Atom        0.000107     -0.001931      0.006299
     9   Atom        0.000629      0.000338     -0.000761
    10   Atom       -0.000181     -0.001519      0.004243
    11   Atom        0.000316      0.001371     -0.004408
    12   Atom       -0.000610     -0.000046      0.000769
    13   Atom        0.001220      0.000637     -0.003030
    14   Atom        0.000252     -0.002849      0.008827
    15   Atom        0.001168      0.000602     -0.002764
    16   Atom       -0.000387     -0.004053      0.012669
    17   Atom       -0.000552      0.004736     -0.014730
    18   Atom       -0.003669     -0.007525      0.025415
    19   Atom       -0.007694      0.002544     -0.005290
    20   Atom        0.004570     -0.006727      0.019747
    21   Atom       -0.001639      0.003114     -0.009940
    22   Atom       -0.001483     -0.000193      0.000762
    23   Atom        0.000786      0.001708     -0.004688
    24   Atom       -0.004602     -0.009947      0.037349
    25   Atom       -0.002977     -0.002265      0.009779
    26   Atom       -0.002958     -0.008466      0.024071
    27   Atom       -0.007704     -0.030500      0.065501
    28   Atom       -0.003932      0.003856     -0.010581
    29   Atom       -0.002268      0.000244      0.001140
    30   Atom        0.003553      0.000833     -0.005857
    31   Atom        0.011686     -0.009179      0.011755
 --------------------------------------------------------


 ---------------------------------------------------------------------------------
              Anisotropic Spin Dipole Couplings in Principal Axis System
 ---------------------------------------------------------------------------------

       Atom             a.u.   MegaHertz   Gauss  10(-4) cm-1        Axes

              Baa    -0.1220    -4.707    -1.680    -1.570  0.5180 -0.5857  0.6234
     1 N(14)  Bbb    -0.0755    -2.911    -1.039    -0.971  0.7858  0.6138 -0.0763
              Bcc     0.1975     7.617     2.718     2.541 -0.3379  0.5293  0.7782
 
              Baa    -0.0242    -3.253    -1.161    -1.085  0.8023  0.5932 -0.0667
     2 C(13)  Bbb    -0.0044    -0.596    -0.213    -0.199  0.3235 -0.3380  0.8838
              Bcc     0.0287     3.849     1.373     1.284 -0.5018  0.7306  0.4631
 
              Baa    -0.0643    -8.631    -3.080    -2.879  0.9991 -0.0406 -0.0105
     3 C(13)  Bbb    -0.0578    -7.752    -2.766    -2.586  0.0393  0.9938 -0.1039
              Bcc     0.1221    16.383     5.846     5.465  0.0147  0.1034  0.9945
 
              Baa    -0.1649    -6.360    -2.269    -2.121  0.8889  0.4556 -0.0472
     4 N(14)  Bbb    -0.1596    -6.154    -2.196    -2.053 -0.4565  0.8727 -0.1730
              Bcc     0.3245    12.514     4.465     4.174 -0.0376  0.1753  0.9838
 
              Baa    -0.0462    -6.196    -2.211    -2.067 -0.0546  0.1805  0.9821
     5 C(13)  Bbb     0.0165     2.213     0.790     0.738  0.7362  0.6717 -0.0826
              Bcc     0.0297     3.982     1.421     1.328 -0.6746  0.7185 -0.1696
 
              Baa    -0.0130    -1.748    -0.624    -0.583  0.9857  0.1666  0.0242
     6 C(13)  Bbb    -0.0110    -1.475    -0.526    -0.492 -0.1589  0.9684 -0.1920
              Bcc     0.0240     3.224     1.150     1.075 -0.0555  0.1854  0.9811
 
              Baa    -0.0352    -1.359    -0.485    -0.453 -0.0565  0.1840  0.9813
     7 N(14)  Bbb     0.0161     0.620     0.221     0.207  0.8807 -0.4537  0.1358
              Bcc     0.0191     0.738     0.263     0.246  0.4702  0.8720 -0.1364
 
              Baa    -0.0122    -1.640    -0.585    -0.547 -0.3635  0.9121 -0.1894
     8 C(13)  Bbb    -0.0109    -1.459    -0.521    -0.487  0.9300  0.3673 -0.0158
              Bcc     0.0231     3.099     1.106     1.034 -0.0551  0.1819  0.9818
 
              Baa    -0.0042    -0.566    -0.202    -0.189 -0.0542  0.1852  0.9812
     9 C(13)  Bbb     0.0001     0.008     0.003     0.003 -0.1371  0.9720 -0.1910
              Bcc     0.0042     0.557     0.199     0.186  0.9891  0.1448  0.0273
 
              Baa    -0.0101    -0.391    -0.139    -0.130  0.9980 -0.0185  0.0612
    10 N(14)  Bbb    -0.0066    -0.256    -0.091    -0.085  0.0294  0.9827 -0.1830
              Bcc     0.0168     0.647     0.231     0.216 -0.0568  0.1844  0.9812
 
              Baa    -0.0165    -2.210    -0.789    -0.737 -0.0563  0.1843  0.9813
    11 C(13)  Bbb     0.0079     1.063     0.379     0.355 -0.0921  0.9777 -0.1889
              Bcc     0.0085     1.147     0.409     0.383  0.9942  0.1011  0.0381
 
              Baa    -0.0022    -0.297    -0.106    -0.099  0.3091  0.9378 -0.1580
    12 C(13)  Bbb    -0.0002    -0.027    -0.010    -0.009  0.9494 -0.2944  0.1095
              Bcc     0.0024     0.324     0.115     0.108 -0.0562  0.1838  0.9814
 
              Baa    -0.0107    -0.414    -0.148    -0.138 -0.0565  0.1835  0.9814
    13 N(14)  Bbb     0.0039     0.150     0.053     0.050  0.9170 -0.3791  0.1237
              Bcc     0.0069     0.265     0.094     0.088  0.3948  0.9070 -0.1469
 
              Baa    -0.0167    -0.643    -0.229    -0.214  0.8114 -0.5630  0.1568
    14 N(14)  Bbb    -0.0150    -0.578    -0.206    -0.193  0.5816  0.8043 -0.1216
              Bcc     0.0317     1.221     0.436     0.407 -0.0577  0.1898  0.9801
 
              Baa    -0.0108    -1.449    -0.517    -0.483 -0.0499  0.1740  0.9835
    15 C(13)  Bbb     0.0043     0.581     0.207     0.194  0.7804 -0.6077  0.1471
              Bcc     0.0065     0.869     0.310     0.290  0.6233  0.7749 -0.1054
 
              Baa    -0.0254    -3.409    -1.216    -1.137  0.9905 -0.1136  0.0771
    16 C(13)  Bbb    -0.0225    -3.018    -1.077    -1.007  0.1256  0.9765 -0.1750
              Bcc     0.0479     6.427     2.293     2.144 -0.0554  0.1830  0.9815
 
              Baa    -0.0548    -2.112    -0.754    -0.705 -0.0555  0.1819  0.9818
    17 N(14)  Bbb     0.0260     1.002     0.357     0.334  0.6894  0.7182 -0.0941
              Bcc     0.0288     1.111     0.396     0.370  0.7222 -0.6716  0.1652
 
              Baa    -0.0506    -6.795    -2.425    -2.267  0.8856  0.4630 -0.0361
    18 C(13)  Bbb    -0.0452    -6.064    -2.164    -2.023 -0.4611  0.8673 -0.1878
              Bcc     0.0958    12.859     4.588     4.289 -0.0556  0.1830  0.9815
 
              Baa    -0.0155    -2.081    -0.743    -0.694 -0.0561  0.1831  0.9815
    19 C(13)  Bbb    -0.0011    -0.153    -0.055    -0.051  0.8434  0.5348 -0.0516
              Bcc     0.0167     2.234     0.797     0.745 -0.5343  0.8249 -0.1844
 
              Baa    -0.0415    -1.599    -0.571    -0.533 -0.5476  0.8163 -0.1837
    20 N(14)  Bbb    -0.0290    -1.117    -0.398    -0.373  0.8349  0.5478 -0.0546
              Bcc     0.0704     2.716     0.969     0.906 -0.0561  0.1832  0.9815
 
              Baa    -0.0349    -4.684    -1.672    -1.563 -0.0552  0.1833  0.9815
    21 C(13)  Bbb     0.0143     1.921     0.685     0.641  0.9253  0.3787 -0.0187
              Bcc     0.0206     2.764     0.986     0.922 -0.3751  0.9072 -0.1905
 
              Baa    -0.0045    -0.607    -0.217    -0.203  0.9460  0.3241 -0.0074
    22 C(13)  Bbb     0.0002     0.023     0.008     0.008 -0.3195  0.9281 -0.1910
              Bcc     0.0044     0.584     0.208     0.195 -0.0550  0.1831  0.9816
 
              Baa    -0.0197    -0.761    -0.271    -0.254 -0.0554  0.1832  0.9815
    23 N(14)  Bbb     0.0065     0.250     0.089     0.083 -0.0680  0.9801 -0.1867
              Bcc     0.0133     0.511     0.182     0.170  0.9961  0.0771  0.0419
 
              Baa    -0.0708    -2.732    -0.975    -0.911  0.5765  0.8079 -0.1227
    24 N(14)  Bbb    -0.0652    -2.513    -0.897    -0.838  0.8154 -0.5591  0.1498
              Bcc     0.1360     5.245     1.872     1.750 -0.0524  0.1864  0.9811
 
              Baa    -0.0221    -2.960    -1.056    -0.987  0.6837  0.7238 -0.0933
    25 C(13)  Bbb    -0.0169    -2.275    -0.812    -0.759  0.7283 -0.6684  0.1512
              Bcc     0.0390     5.234     1.868     1.746 -0.0471  0.1713  0.9841
 
              Baa    -0.0495    -6.644    -2.371    -2.216  0.9542  0.2990  0.0064
    26 C(13)  Bbb    -0.0445    -5.968    -2.130    -1.991 -0.2926  0.9377 -0.1875
              Bcc     0.0940    12.612     4.500     4.207 -0.0620  0.1771  0.9822
 
              Baa    -0.1207    -4.655    -1.661    -1.553  0.9283  0.3717  0.0116
    27 N(14)  Bbb    -0.1156    -4.457    -1.590    -1.487 -0.3612  0.9086 -0.2097
              Bcc     0.2362     9.111     3.251     3.039 -0.0885  0.1905  0.9777
 
              Baa    -0.0413    -5.537    -1.976    -1.847 -0.0489  0.1752  0.9833
    28 C(13)  Bbb     0.0158     2.117     0.756     0.706  0.5712  0.8125 -0.1163
              Bcc     0.0255     3.420     1.220     1.141  0.8194 -0.5560  0.1398
 
              Baa    -0.0044    -0.590    -0.211    -0.197  0.4922  0.8586 -0.1430
    29 C(13)  Bbb     0.0009     0.122     0.043     0.041  0.8690 -0.4750  0.1386
              Bcc     0.0035     0.469     0.167     0.156 -0.0511  0.1925  0.9800
 
              Baa    -0.0213    -0.822    -0.293    -0.274 -0.0492  0.1778  0.9828
    30 N(14)  Bbb     0.0065     0.252     0.090     0.084  0.8891 -0.4406  0.1242
              Bcc     0.0148     0.570     0.204     0.190  0.4551  0.8799 -0.1364
 
              Baa    -0.0226     0.491     0.175     0.164 -0.5594  0.6863 -0.4649
    31 Ag(107 Bbb     0.0090    -0.195    -0.070    -0.065  0.7952  0.6026 -0.0672
              Bcc     0.0136    -0.296    -0.106    -0.099 -0.2340  0.4072  0.8828
 

 ---------------------------------------------------------------------------------

 No NMR shielding tensors so no spin-rotation constants.
 Leave Link  601 at Fri Sep 11 23:43:02 2026, MaxMem=  6442450944 cpu:               2.0 elap:               2.4
 (Enter C:\G16W\l9999.exe)
 Unable to Open any file for archive entry.
 1|1|UNPC-DESKTOP-2JKEGCA|SP|UPBE1PBE|def2SVP|C18Ag1N12(2)|JHKIM|11-Sep
 -2026|0||#P PBE1PBE/Def2SVP EmpiricalDispersion=GD3BJ SP SCF=(XQC,MaxC
 ycle=128,VShift=300) NoSymm||HATCN t=0.000 dz=+0.00 class=site2site||0
 ,2|N,0,-2.611348,5.399985,-1.155538|C,0,-1.91032,4.498728,-0.947808|C,
 0,-1.020781,3.405143,-0.693573|N,0,-1.60315,2.191496,-0.499794|C,0,-0.
 81575,1.110993,-0.253581|C,0,-1.393339,-0.141391,-0.052273|N,0,-2.7444
 45,-0.283235,-0.102199|C,0,-3.289096,-1.51343,0.096812|C,0,-4.717936,-
 1.589392,0.03004|N,0,-5.874228,-1.675402,-0.019378|C,0,-2.494073,-2.60
 3514,0.345437|C,0,-3.019195,-3.918595,0.561413|N,0,-3.467734,-4.975035
 ,0.733469|N,0,-1.140539,-2.482394,0.399369|C,0,-0.576747,-1.261039,0.2
 03066|C,0,0.80853,-1.116108,0.254224|N,0,1.59673,-2.195985,0.500607|C,
 0,2.946318,-2.03432,0.546556|C,0,3.714722,-3.214024,0.810558|N,0,4.358
 155,-4.156189,1.023098|C,0,3.51485,-0.801628,0.348106|C,0,4.929519,-0.
 580153,0.386379|N,0,6.079085,-0.424992,0.422118|N,0,2.743704,0.29089,0
 .100372|C,0,1.392486,0.150039,0.050519|C,0,0.584785,1.257497,-0.201933
 |N,0,1.147692,2.479234,-0.398398|C,0,0.342769,3.547761,-0.64334|C,0,1.
 003212,4.803441,-0.840583|N,0,1.516124,5.83162,-1.003743|Ag,0,-4.00066
 9,7.186127,-1.567223||Version=EM64W-G16RevC.01|HF=-1487.2209855|S2=0.7
 59358|S2-1=0.|S2A=0.750079|RMSD=1.772e-010|Dipole=-2.8106899,4.3034702
 ,-0.8602747|Quadrupole=-29.3509498,15.3727341,13.9782157,-34.5532865,3
 .1392538,-0.6964905|PG=C01 [X(C18Ag1N12)]||@
 The archive entry for this job was punched.


 MOM AND DAD WENT TO ALPHA CENTAURI AND ALL
 I GOT WAS THIS DUMB T-SHIRT.
 Job cpu time:       0 days  2 hours 18 minutes 50.0 seconds.
 Elapsed time:       0 days  2 hours 18 minutes 48.3 seconds.
 File lengths (MBytes):  RWF=    264 Int=      0 D2E=      0 Chk=     15 Scr=      1
 Normal termination of Gaussian 16 at Fri Sep 11 23:43:03 2026.
