 Entering Gaussian System, Link 0=C:\G16W\g16.exe
 Input=HATCN_t1_z0.gjf
 Output=HATCN_t1_z0.out
 Initial command:
 C:\G16W\l1.exe ".\Gau-74724.inp" "HATCN_t1_z0.out" /scrdir=".\"
 Entering Link 1 = C:\G16W\l1.exe PID=    104988.
  
 Copyright (c) 1988-2019, Gaussian, Inc.  All Rights Reserved.
  
 This is part of the Gaussian(R) 16 program.  It is based on
 the Gaussian(R) 09 system (copyright 2009, Gaussian, Inc.),
 the Gaussian(R) 03 system (copyright 2003, Gaussian, Inc.),
 the Gaussian(R) 98 system (copyright 1998, Gaussian, Inc.),
 the Gaussian(R) 94 system (copyright 1995, Gaussian, Inc.),
 the Gaussian 92(TM) system (copyright 1992, Gaussian, Inc.),
 the Gaussian 90(TM) system (copyright 1990, Gaussian, Inc.),
 the Gaussian 88(TM) system (copyright 1988, Gaussian, Inc.),
 the Gaussian 86(TM) system (copyright 1986, Carnegie Mellon
 University), and the Gaussian 82(TM) system (copyright 1983,
 Carnegie Mellon University). Gaussian is a federally registered
 trademark of Gaussian, Inc.
  
 This software contains proprietary and confidential information,
 including trade secrets, belonging to Gaussian, Inc.
  
 This software is provided under written license and may be
 used, copied, transmitted, or stored only in accord with that
 written license.
  
 The following legend is applicable only to US Government
 contracts under FAR:
  
                    RESTRICTED RIGHTS LEGEND
  
 Use, reproduction and disclosure by the US Government is
 subject to restrictions as set forth in subparagraphs (a)
 and (c) of the Commercial Computer Software - Restricted
 Rights clause in FAR 52.227-19.
  
 Gaussian, Inc.
 340 Quinnipiac St., Bldg. 40, Wallingford CT 06492
  
  
 ---------------------------------------------------------------
 Warning -- This program may not be used in any manner that
 competes with the business of Gaussian, Inc. or will provide
 assistance to any competitor of Gaussian, Inc.  The licensee
 of this program is prohibited from giving any competitor of
 Gaussian, Inc. access to this program.  By using this program,
 the user acknowledges that Gaussian, Inc. is engaged in the
 business of creating and licensing software in the field of
 computational chemistry and represents and warrants to the
 licensee that it is not a competitor of Gaussian, Inc. and that
 it will not use this program in any manner prohibited above.
 ---------------------------------------------------------------
  

 Cite this work as:
 Gaussian 16, Revision C.01,
 M. J. Frisch, G. W. Trucks, H. B. Schlegel, G. E. Scuseria, 
 M. A. Robb, J. R. Cheeseman, G. Scalmani, V. Barone, 
 G. A. Petersson, H. Nakatsuji, X. Li, M. Caricato, A. V. Marenich, 
 J. Bloino, B. G. Janesko, R. Gomperts, B. Mennucci, H. P. Hratchian, 
 J. V. Ortiz, A. F. Izmaylov, J. L. Sonnenberg, D. Williams-Young, 
 F. Ding, F. Lipparini, F. Egidi, J. Goings, B. Peng, A. Petrone, 
 T. Henderson, D. Ranasinghe, V. G. Zakrzewski, J. Gao, N. Rega, 
 G. Zheng, W. Liang, M. Hada, M. Ehara, K. Toyota, R. Fukuda, 
 J. Hasegawa, M. Ishida, T. Nakajima, Y. Honda, O. Kitao, H. Nakai, 
 T. Vreven, K. Throssell, J. A. Montgomery, Jr., J. E. Peralta, 
 F. Ogliaro, M. J. Bearpark, J. J. Heyd, E. N. Brothers, K. N. Kudin, 
 V. N. Staroverov, T. A. Keith, R. Kobayashi, J. Normand, 
 K. Raghavachari, A. P. Rendell, J. C. Burant, S. S. Iyengar, 
 J. Tomasi, M. Cossi, J. M. Millam, M. Klene, C. Adamo, R. Cammi, 
 J. W. Ochterski, R. L. Martin, K. Morokuma, O. Farkas, 
 J. B. Foresman, and D. J. Fox, Gaussian, Inc., Wallingford CT, 2019.
 
 ******************************************
 Gaussian 16:  EM64W-G16RevC.01 30-May-2019
                11-Sep-2026 
 ******************************************
 %Chk=HATCN.chk
 %NProcShared=8
 Will use up to    8 processors via shared memory.
 %Mem=48GB
 ----------------------------------------------------------------------
 #P PBE1PBE/Def2SVP EmpiricalDispersion=GD3BJ SP SCF=(XQC,MaxCycle=128)
  NoSymm Guess=Read
 ----------------------------------------------------------------------
 1/38=1,172=1/1;
 2/12=2,15=1,17=6,18=5,40=1/2;
 3/5=43,7=101,11=2,25=1,30=1,74=-13,116=-2,124=41/1,2,3;
 4/5=1/1;
 5/5=2,7=128,8=3,13=1,38=6/2,8;
 6/7=2,8=2,9=2,10=2,28=1/1;
 99/5=1,9=1/99;
 Leave Link    1 at Fri Sep 11 23:58:08 2026, MaxMem=  6442450944 cpu:               0.0 elap:               0.3
 (Enter C:\G16W\l101.exe)
 --------------------------------------
 HATCN t=0.250 dz=+0.00 class=site2site
 --------------------------------------
 Symbolic Z-matrix:
 Charge =  0 Multiplicity = 2
 N                    -2.61135   5.39999  -1.15554 
 C                    -1.91032   4.49873  -0.94781 
 C                    -1.02078   3.40514  -0.69357 
 N                    -1.60315   2.1915   -0.49979 
 C                    -0.81575   1.11099  -0.25358 
 C                    -1.39334  -0.14139  -0.05227 
 N                    -2.74445  -0.28324  -0.1022 
 C                    -3.2891   -1.51343   0.09681 
 C                    -4.71794  -1.58939   0.03004 
 N                    -5.87423  -1.6754   -0.01938 
 C                    -2.49407  -2.60351   0.34544 
 C                    -3.01919  -3.9186    0.56141 
 N                    -3.46773  -4.97504   0.73347 
 N                    -1.14054  -2.48239   0.39937 
 C                    -0.57675  -1.26104   0.20307 
 C                     0.80853  -1.11611   0.25422 
 N                     1.59673  -2.19599   0.50061 
 C                     2.94632  -2.03432   0.54656 
 C                     3.71472  -3.21402   0.81056 
 N                     4.35816  -4.15619   1.0231 
 C                     3.51485  -0.80163   0.34811 
 C                     4.92952  -0.58015   0.38638 
 N                     6.07909  -0.42499   0.42212 
 N                     2.7437    0.29089   0.10037 
 C                     1.39249   0.15004   0.05052 
 C                     0.58479   1.2575   -0.20193 
 N                     1.14769   2.47923  -0.3984 
 C                     0.34277   3.54776  -0.64334 
 C                     1.00321   4.80344  -0.84058 
 N                     1.51612   5.83162  -1.00374 
 Ag                   -4.28637   6.73126  -0.61083 
 
 ITRead=  0  0  0  0  0  0  0  0  0  0  0  0  0  0  0  0  0  0  0  0
 ITRead=  0  0  0  0  0  0  0  0  0  0  0
 MicOpt= -1 -1 -1 -1 -1 -1 -1 -1 -1 -1 -1 -1 -1 -1 -1 -1 -1 -1 -1 -1
 MicOpt= -1 -1 -1 -1 -1 -1 -1 -1 -1 -1 -1
 NAtoms=     31 NQM=       31 NQMF=       0 NMMI=      0 NMMIF=      0
                NMic=       0 NMicF=      0.
                    Isotopes and Nuclear Properties:
 (Nuclear quadrupole moments (NQMom) in fm**2, nuclear magnetic moments (NMagM)
  in nuclear magnetons)

  Atom         1           2           3           4           5           6           7           8           9          10
 IAtWgt=          14          12          12          14          12          12          14          12          12          14
 AtmWgt=  14.0030740  12.0000000  12.0000000  14.0030740  12.0000000  12.0000000  14.0030740  12.0000000  12.0000000  14.0030740
 NucSpn=           2           0           0           2           0           0           2           0           0           2
 AtZEff=   0.0000000   0.0000000   0.0000000   0.0000000   0.0000000   0.0000000   0.0000000   0.0000000   0.0000000   0.0000000
 NQMom=    2.0440000   0.0000000   0.0000000   2.0440000   0.0000000   0.0000000   2.0440000   0.0000000   0.0000000   2.0440000
 NMagM=    0.4037610   0.0000000   0.0000000   0.4037610   0.0000000   0.0000000   0.4037610   0.0000000   0.0000000   0.4037610
 AtZNuc=   7.0000000   6.0000000   6.0000000   7.0000000   6.0000000   6.0000000   7.0000000   6.0000000   6.0000000   7.0000000

  Atom        11          12          13          14          15          16          17          18          19          20
 IAtWgt=          12          12          14          14          12          12          14          12          12          14
 AtmWgt=  12.0000000  12.0000000  14.0030740  14.0030740  12.0000000  12.0000000  14.0030740  12.0000000  12.0000000  14.0030740
 NucSpn=           0           0           2           2           0           0           2           0           0           2
 AtZEff=   0.0000000   0.0000000   0.0000000   0.0000000   0.0000000   0.0000000   0.0000000   0.0000000   0.0000000   0.0000000
 NQMom=    0.0000000   0.0000000   2.0440000   2.0440000   0.0000000   0.0000000   2.0440000   0.0000000   0.0000000   2.0440000
 NMagM=    0.0000000   0.0000000   0.4037610   0.4037610   0.0000000   0.0000000   0.4037610   0.0000000   0.0000000   0.4037610
 AtZNuc=   6.0000000   6.0000000   7.0000000   7.0000000   6.0000000   6.0000000   7.0000000   6.0000000   6.0000000   7.0000000

  Atom        21          22          23          24          25          26          27          28          29          30
 IAtWgt=          12          12          14          14          12          12          14          12          12          14
 AtmWgt=  12.0000000  12.0000000  14.0030740  14.0030740  12.0000000  12.0000000  14.0030740  12.0000000  12.0000000  14.0030740
 NucSpn=           0           0           2           2           0           0           2           0           0           2
 AtZEff=   0.0000000   0.0000000   0.0000000   0.0000000   0.0000000   0.0000000   0.0000000   0.0000000   0.0000000   0.0000000
 NQMom=    0.0000000   0.0000000   2.0440000   2.0440000   0.0000000   0.0000000   2.0440000   0.0000000   0.0000000   2.0440000
 NMagM=    0.0000000   0.0000000   0.4037610   0.4037610   0.0000000   0.0000000   0.4037610   0.0000000   0.0000000   0.4037610
 AtZNuc=   6.0000000   6.0000000   7.0000000   7.0000000   6.0000000   6.0000000   7.0000000   6.0000000   6.0000000   7.0000000

  Atom        31
 IAtWgt=         107
 AtmWgt= 106.9050900
 NucSpn=           1
 AtZEff=   0.0000000
 NQMom=    0.0000000
 NMagM=   -0.1135700
 AtZNuc=  47.0000000
 Leave Link  101 at Fri Sep 11 23:58:09 2026, MaxMem=  6442450944 cpu:               1.0 elap:               0.3
 (Enter C:\G16W\l202.exe)
                          Input orientation:                          
 ---------------------------------------------------------------------
 Center     Atomic      Atomic             Coordinates (Angstroms)
 Number     Number       Type             X           Y           Z
 ---------------------------------------------------------------------
      1          7           0       -2.611348    5.399985   -1.155538
      2          6           0       -1.910320    4.498728   -0.947808
      3          6           0       -1.020781    3.405143   -0.693573
      4          7           0       -1.603150    2.191496   -0.499794
      5          6           0       -0.815750    1.110993   -0.253581
      6          6           0       -1.393339   -0.141391   -0.052273
      7          7           0       -2.744445   -0.283235   -0.102199
      8          6           0       -3.289096   -1.513430    0.096812
      9          6           0       -4.717936   -1.589392    0.030040
     10          7           0       -5.874228   -1.675402   -0.019378
     11          6           0       -2.494073   -2.603514    0.345437
     12          6           0       -3.019195   -3.918595    0.561413
     13          7           0       -3.467734   -4.975035    0.733469
     14          7           0       -1.140539   -2.482394    0.399369
     15          6           0       -0.576747   -1.261039    0.203066
     16          6           0        0.808530   -1.116108    0.254224
     17          7           0        1.596730   -2.195985    0.500607
     18          6           0        2.946318   -2.034320    0.546556
     19          6           0        3.714722   -3.214024    0.810558
     20          7           0        4.358155   -4.156189    1.023098
     21          6           0        3.514850   -0.801628    0.348106
     22          6           0        4.929519   -0.580153    0.386379
     23          7           0        6.079085   -0.424992    0.422118
     24          7           0        2.743704    0.290890    0.100372
     25          6           0        1.392486    0.150039    0.050519
     26          6           0        0.584785    1.257497   -0.201933
     27          7           0        1.147692    2.479234   -0.398398
     28          6           0        0.342769    3.547761   -0.643340
     29          6           0        1.003212    4.803441   -0.840583
     30          7           0        1.516124    5.831620   -1.003743
     31         47           0       -4.286371    6.731264   -0.610825
 ---------------------------------------------------------------------
                    Distance matrix (angstroms):
                    1          2          3          4          5
     1  N    0.000000
     2  C    1.160541   0.000000
     3  C    2.592819   1.432426   0.000000
     4  N    3.426495   2.370314   1.360016   0.000000
     5  C    4.736365   3.627228   2.344942   1.359451   0.000000
     6  C    5.779930   4.753941   3.623254   2.384671   1.393772
     7  N    5.781542   4.927270   4.113985   2.754075   2.384670
     8  C    7.058543   6.256061   5.473785   4.113980   3.623232
     9  C    7.395586   6.775256   6.256033   4.927244   4.753901
    10  N    7.873903   7.395568   7.058500   5.781506   5.779883
    11  C    8.143874   7.242589   6.273284   4.949776   4.119849
    12  C    9.484208   8.623148   7.694530   6.361176   5.551229
    13  N   10.580302   9.747021   8.845983   7.507115   6.711708
    14  N    8.167797   7.151469   5.989320   4.782024   3.666642
    15  C    7.096101   6.023109   4.772251   3.669811   2.427382
    16  C    7.492827   6.353220   4.968542   4.162330   2.802879
    17  N    8.840220   7.695225   6.296830   5.521777   4.162327
    18  C    9.436825   8.276519   6.845696   6.296827   4.968538
    19  C   10.866731   9.706673   8.276519   7.695221   6.353215
    20  N   12.026674  10.866731   9.436824   8.840218   7.492824
    21  C    8.845974   7.694520   6.273274   5.989295   4.772237
    22  C    9.747012   8.623137   7.242579   7.151441   6.023092
    23  N   10.580311   9.484214   8.143881   8.167782   7.096095
    24  N    7.507113   6.361173   4.949775   4.782012   3.669818
    25  C    6.711721   5.551241   4.119858   3.666637   2.427389
    26  C    5.318349   4.157819   2.726158   2.397527   1.409124
    27  N    4.820210   3.705623   2.376281   2.767708   2.397532
    28  C    3.524186   2.464437   1.371908   2.376270   2.726154
    29  C    3.676970   2.931385   2.464426   3.705606   4.157808
    30  N    4.152755   3.676989   3.524185   4.820201   5.318336
    31  Ag   2.207876   3.277712   4.661975   5.274609   6.615155
                    6          7          8          9         10
     6  C    0.000000
     7  N    1.359448   0.000000
     8  C    2.344912   1.360011   0.000000
     9  C    3.627179   2.370274   1.432415   0.000000
    10  N    4.736311   3.426446   2.592806   1.160539   0.000000
    11  C    2.726140   2.376291   1.371918   2.464444   3.524192
    12  C    4.157798   3.705632   2.464451   2.931427   3.677016
    13  N    5.318329   4.820215   3.524195   3.677009   4.152779
    14  N    2.397537   2.767740   2.376285   3.705621   4.820207
    15  C    1.409125   2.397541   2.726138   4.157788   5.318316
    16  C    2.427394   3.666653   4.119852   5.551224   6.711700
    17  N    3.669815   4.782028   4.949770   6.361163   7.507104
    18  C    4.772253   5.989321   6.273275   7.694514   8.845967
    19  C    6.023109   7.151468   7.242577   8.623129   9.747005
    20  N    7.096105   8.167802   8.143871   9.484199  10.580299
    21  C    4.968555   6.296847   6.845691   8.276503   9.436806
    22  C    6.353224   7.695232   8.276502   9.706644  10.866700
    23  N    7.492836   8.840231   9.436808  10.866702  12.026643
    24  N    4.162366   5.521814   6.296845   7.695224   8.840215
    25  C    2.802913   4.162361   4.968549   6.353212   7.492813
    26  C    2.427398   3.669819   4.772236   6.023075   7.096060
    27  N    3.666649   4.782018   5.989298   7.151424   8.167742
    28  C    4.119863   4.949773   6.273270   7.242549   8.143820
    29  C    5.551239   6.361165   7.694510   8.623099   9.484143
    30  N    6.711716   7.507109   8.845966   9.746981  10.580248
    31  Ag   7.477634   7.199961   8.334884   8.356451   8.575730
                   11         12         13         14         15
    11  C    0.000000
    12  C    1.432423   0.000000
    13  N    2.592816   1.160541   0.000000
    14  N    1.360012   2.370291   3.426473   0.000000
    15  C    2.344920   3.627198   4.736338   1.359450   0.000000
    16  C    3.623242   4.753922   5.779916   2.384675   1.393777
    17  N    4.113979   4.927255   5.781534   2.754073   2.384671
    18  C    5.473782   6.256042   7.058527   4.113980   3.623249
    19  C    6.256053   6.775259   7.395592   4.927263   4.753936
    20  N    7.058545   7.395600   7.873940   5.781545   5.779931
    21  C    6.273273   7.242564   8.143851   4.949773   4.119862
    22  C    7.694504   8.623102   9.484161   6.361155   5.551232
    23  N    8.845953   9.746967  10.580245   7.507089   6.711711
    24  N    5.989319   7.151456   8.167787   4.782034   3.666664
    25  C    4.772250   6.023099   7.096093   3.669825   2.427404
    26  C    4.968540   6.353212   7.492819   4.162342   2.802892
    27  N    6.296830   7.695219   8.840215   5.521792   4.162342
    28  C    6.845695   8.276515   9.436821   6.296842   4.968548
    29  C    8.276511   9.706661  10.866719   7.695228   6.353219
    30  N    9.436814  10.866716  12.026659   8.840216   7.492817
    31  Ag   9.553264  10.788854  11.811636   9.788169   8.848765
                   16         17         18         19         20
    16  C    0.000000
    17  N    1.359448   0.000000
    18  C    2.344933   1.360013   0.000000
    19  C    3.627218   2.370309   1.432426   0.000000
    20  N    4.736359   3.426495   2.592818   1.160540   0.000000
    21  C    2.726147   2.376273   1.371911   2.464440   3.524182
    22  C    4.157795   3.705596   2.464416   2.931371   3.676942
    23  N    5.318325   4.820175   3.524152   3.676928   4.152663
    24  N    2.397543   2.767722   2.376286   3.705626   4.820206
    25  C    1.409123   2.397524   2.726146   4.157807   5.318336
    26  C    2.427373   3.666624   4.119846   5.551229   6.711708
    27  N    3.669800   4.781999   4.949764   6.361164   7.507101
    28  C    4.772235   5.989295   6.273273   7.694519   8.845970
    29  C    6.023086   7.151435   7.242568   8.623126   9.746995
    30  N    7.096062   8.167742   8.143826   9.484155  10.580244
    31  Ag   9.396147  10.749043  11.423081  12.843153  13.997649
                   21         22         23         24         25
    21  C    0.000000
    22  C    1.432412   0.000000
    23  N    2.592804   1.160540   0.000000
    24  N    1.360012   2.370296   3.426481   0.000000
    25  C    2.344922   3.627201   4.736344   1.359454   0.000000
    26  C    3.623233   4.753923   5.779926   2.384670   1.393763
    27  N    4.113971   4.927265   5.781558   2.754065   2.384659
    28  C    5.473778   6.256059   7.058561   4.113977   3.623239
    29  C    6.256046   6.775279   7.395635   4.927253   4.753919
    30  N    7.058497   7.395576   7.873937   5.781497   5.779889
    31  Ag  10.886830  11.806094  12.638103   9.560658   8.717759
                   26         27         28         29         30
    26  C    0.000000
    27  N    1.359450   0.000000
    28  C    2.344935   1.360017   0.000000
    29  C    3.627213   2.370304   1.432418   0.000000
    30  N    4.736337   3.426467   2.592810   1.160540   0.000000
    31  Ag   7.338766   6.903182   5.618246   5.634623   5.884955
                   31
    31  Ag   0.000000
 Symmetry turned off by external request.
 Stoichiometry    C18AgN12(2)
 Framework group  C1[X(C18AgN12)]
 Deg. of freedom    87
 Full point group                 C1      NOp   1
 Rotational constants (GHZ):           0.1509758           0.0582250           0.0421911
 Leave Link  202 at Fri Sep 11 23:58:09 2026, MaxMem=  6442450944 cpu:               0.0 elap:               0.1
 (Enter C:\G16W\l301.exe)
 Standard basis: def2SVP (5D, 7F)
 Ernie: Thresh=  0.10000D-02 Tol=  0.10000D-05 Strict=F.
   451 basis functions,   815 primitive gaussians,   486 cartesian basis functions
   106 alpha electrons      105 beta electrons
       nuclear repulsion energy      2627.6023987008 Hartrees.
 IExCor= 1009 DFT=T Ex+Corr=PBE1PBE ExCW=0 ScaHFX=  0.250000
 ScaDFX=  0.750000  0.750000  1.000000  1.000000 ScalE2=  1.000000  1.000000
 IRadAn=      5 IRanWt=     -1 IRanGd=            0 ICorTp=0 IEmpDi=141
 NAtoms=   31 NActive=   31 NUniq=   31 SFac= 1.00D+00 NAtFMM=   60 NAOKFM=F Big=F
 Integral buffers will be    131072 words long.
 Raffenetti 2 integral format.
 Two-electron integral symmetry is turned off.
 R6Disp:  Grimme-D3(BJ) Dispersion energy=       -0.0483415304 Hartrees.
 Nuclear repulsion after empirical dispersion term =     2627.5540571704 Hartrees.
 Leave Link  301 at Fri Sep 11 23:58:10 2026, MaxMem=  6442450944 cpu:               1.0 elap:               0.2
 (Enter C:\G16W\l302.exe)
 NPDir=0 NMtPBC=     1 NCelOv=     1 NCel=       1 NClECP=     1 NCelD=      1
         NCelK=      1 NCelE2=     1 NClLst=     1 CellRange=     0.0.
 One-electron integrals computed using PRISM.
   1 Symmetry operations used in ECPInt.
 ECPInt:  NShTT=   18336 NPrTT=   72415 LenC2=   14910 LenP2D=   37848.
 LDataN:  DoStor=T MaxTD1= 7 Len=  274
 NBasis=   451 RedAO= T EigKep=  2.13D-05  NBF=   451
 NBsUse=   451 1.00D-06 EigRej= -1.00D+00 NBFU=   451
 Precomputing XC quadrature grid using
 IXCGrd= 4 IRadAn=           5 IRanWt=          -1 IRanGd=           0 AccXCQ= 0.00D+00.
 Defaulting to unpruned grid for atomic number  47.
 Generated NRdTot=       0 NPtTot=           0 NUsed=           0 NTot=          32
 NSgBfM=   475   475   475   475   475 MxSgAt=    31 MxSgA2=    31.
 Leave Link  302 at Fri Sep 11 23:58:22 2026, MaxMem=  6442450944 cpu:              12.0 elap:              12.0
 (Enter C:\G16W\l303.exe)
 DipDrv:  MaxL=1.
 Leave Link  303 at Fri Sep 11 23:58:24 2026, MaxMem=  6442450944 cpu:               2.0 elap:               1.5
 (Enter C:\G16W\l401.exe)
 Initial guess from the checkpoint file:  "HATCN.chk"
 B after Tr=     0.063145   -0.277644    0.162664
         Rot=    0.999358   -0.028811   -0.018216   -0.011012 Ang=  -4.11 deg.
 Guess basis will be translated and rotated to current coordinates.
 JPrj=2 DoOrth=T DoCkMO=T.
 Initial guess <Sx>= 0.0000 <Sy>= 0.0000 <Sz>= 0.5000 <S**2>= 0.7539 S= 0.5020
 Leave Link  401 at Fri Sep 11 23:59:01 2026, MaxMem=  6442450944 cpu:              37.0 elap:              36.7
 (Enter C:\G16W\l502.exe)
 Two-electron integral symmetry not used.
 UHF open shell SCF:
 Using DIIS extrapolation, IDIIS=  1040.
 NGot=  6442450944 LenX=  6441970456 LenY=  6441733774
 Requested convergence on RMS density matrix=1.00D-08 within 128 cycles.
 Requested convergence on MAX density matrix=1.00D-06.
 Requested convergence on             energy=1.00D-06.
 No special actions if energy rises.
 Fock matrices will be formed incrementally for  20 cycles.

 Cycle   1  Pass 1  IDiag  1:
 FoFJK:  IHMeth= 1 ICntrl=       0 DoSepK=F KAlg= 0 I1Cent=           0 FoldK=F
 IRaf= 720000000 NMat=       1 IRICut=       1 DoRegI=T DoRafI=F ISym2E= 0 IDoP0=0 IntGTp=1.
 FoFCou: FMM=F IPFlag=           0 FMFlag=      100000 FMFlg1=           0
         NFxFlg=           0 DoJE=F BraDBF=F KetDBF=F FulRan=T
         wScrn=  0.000000 ICntrl=         0 IOpCl=  1 I1Cent=           0 NGrid=           0
         NMat0=    1 NMatS0=      1 NMatT0=    0 NMatD0=    1 NMtDS0=    0 NMtDT0=    0
 Symmetry not used in FoFCou.
 Defaulting to unpruned grid for atomic number  47.
 Defaulting to unpruned grid for atomic number  47.
 Defaulting to unpruned grid for atomic number  47.
 Defaulting to unpruned grid for atomic number  47.
 Defaulting to unpruned grid for atomic number  47.
 Defaulting to unpruned grid for atomic number  47.
 Defaulting to unpruned grid for atomic number  47.
 Defaulting to unpruned grid for atomic number  47.
 E= -1487.13768109840    
 DIIS: error= 2.09D-02 at cycle   1 NSaved=   1.
 NSaved= 1 IEnMin= 1 EnMin= -1487.13768109840     IErMin= 1 ErrMin= 2.09D-02
 ErrMax= 2.09D-02  0.00D+00 EMaxC= 1.00D-01 BMatC= 5.00D-01 BMatP= 5.00D-01
 IDIUse=3 WtCom= 7.91D-01 WtEn= 2.09D-01
 Coeff-Com:  0.100D+01
 Coeff-En:   0.100D+01
 Coeff:      0.100D+01
 Gap=     0.055 Goal=   None    Shift=    0.000
 Gap=     0.226 Goal=   None    Shift=    0.000
 GapD=    0.055 DampG=0.500 DampE=0.250 DampFc=0.1250 IDamp=-1.
 Damping current iteration by 1.25D-01
 RMSDP=1.67D-03 MaxDP=3.82D-01              OVMax= 6.04D-01

 Cycle   2  Pass 1  IDiag  1:
 RMSU=  2.09D-04    CP:  9.99D-01
 E= -1487.14670329339     Delta-E=       -0.009022194990 Rises=F Damp=T
 DIIS: error= 1.83D-02 at cycle   2 NSaved=   2.
 NSaved= 2 IEnMin= 2 EnMin= -1487.14670329339     IErMin= 2 ErrMin= 1.83D-02
 ErrMax= 1.83D-02  0.00D+00 EMaxC= 1.00D-01 BMatC= 3.86D-01 BMatP= 5.00D-01
 IDIUse=3 WtCom= 8.17D-01 WtEn= 1.83D-01
 Coeff-Com: -0.634D+01 0.734D+01
 Coeff-En:   0.000D+00 0.100D+01
 Coeff:     -0.518D+01 0.618D+01
 Gap=    -0.021 Goal=   None    Shift=    0.000
 Gap=     0.167 Goal=   None    Shift=    0.000
 RMSDP=1.80D-03 MaxDP=3.47D-01 DE=-9.02D-03 OVMax= 9.39D-01

 Cycle   3  Pass 1  IDiag  1:
 RMSU=  1.79D-03    CP:  9.95D-01  5.12D-01
 E= -1487.11402256106     Delta-E=        0.032680732327 Rises=F Damp=F
 DIIS: error= 1.67D-02 at cycle   3 NSaved=   3.
 NSaved= 3 IEnMin= 2 EnMin= -1487.14670329339     IErMin= 3 ErrMin= 1.67D-02
 ErrMax= 1.67D-02  0.00D+00 EMaxC= 1.00D-01 BMatC= 2.52D-01 BMatP= 3.86D-01
 IDIUse=3 WtCom= 8.33D-01 WtEn= 1.67D-01
 Coeff-Com: -0.488D+01 0.557D+01 0.304D+00
 Coeff-En:   0.000D+00 0.727D+00 0.273D+00
 Coeff:     -0.407D+01 0.477D+01 0.299D+00
 Gap=    -0.006 Goal=   None    Shift=    0.000
 Gap=     0.191 Goal=   None    Shift=    0.000
 RMSDP=2.48D-03 MaxDP=7.15D-01 DE= 3.27D-02 OVMax= 9.94D-01

 Cycle   4  Pass 1  IDiag  1:
 RMSU=  1.46D-03    CP:  9.91D-01  3.00D+00  1.51D-01
 E= -1487.19125605486     Delta-E=       -0.077233493799 Rises=F Damp=F
 DIIS: error= 6.13D-03 at cycle   4 NSaved=   4.
 NSaved= 4 IEnMin= 4 EnMin= -1487.19125605486     IErMin= 4 ErrMin= 6.13D-03
 ErrMax= 6.13D-03  0.00D+00 EMaxC= 1.00D-01 BMatC= 6.14D-02 BMatP= 2.52D-01
 IDIUse=3 WtCom= 9.39D-01 WtEn= 6.13D-02
 Coeff-Com: -0.227D+01 0.259D+01 0.304D+00 0.380D+00
 Coeff-En:   0.000D+00 0.000D+00 0.309D+00 0.691D+00
 Coeff:     -0.213D+01 0.243D+01 0.304D+00 0.399D+00
 Gap=    -0.003 Goal=   None    Shift=    0.000
 Gap=     0.161 Goal=   None    Shift=    0.000
 RMSDP=2.05D-03 MaxDP=4.89D-01 DE=-7.72D-02 OVMax= 8.88D-01

 Cycle   5  Pass 1  IDiag  1:
 RMSU=  1.02D-03    CP:  9.92D-01  3.00D+00  9.99D-01  3.74D-01
 E= -1487.20872340921     Delta-E=       -0.017467354346 Rises=F Damp=F
 DIIS: error= 5.61D-03 at cycle   5 NSaved=   5.
 NSaved= 5 IEnMin= 5 EnMin= -1487.20872340921     IErMin= 5 ErrMin= 5.61D-03
 ErrMax= 5.61D-03  0.00D+00 EMaxC= 1.00D-01 BMatC= 2.78D-02 BMatP= 6.14D-02
 IDIUse=3 WtCom= 9.44D-01 WtEn= 5.61D-02
 Coeff-Com: -0.171D+01 0.195D+01 0.198D+00 0.354D+00 0.210D+00
 Coeff-En:   0.000D+00 0.000D+00 0.000D+00 0.370D+00 0.630D+00
 Coeff:     -0.161D+01 0.184D+01 0.187D+00 0.355D+00 0.233D+00
 Gap=     0.007 Goal=   None    Shift=    0.000
 Gap=     0.166 Goal=   None    Shift=    0.000
 RMSDP=8.97D-04 MaxDP=2.46D-01 DE=-1.75D-02 OVMax= 3.88D-01

 Cycle   6  Pass 1  IDiag  1:
 RMSU=  1.97D-04    CP:  9.89D-01  3.00D+00  7.67D-01  8.97D-01  9.14D-01
 E= -1487.22536907360     Delta-E=       -0.016645664398 Rises=F Damp=F
 DIIS: error= 7.82D-04 at cycle   6 NSaved=   6.
 NSaved= 6 IEnMin= 6 EnMin= -1487.22536907360     IErMin= 6 ErrMin= 7.82D-04
 ErrMax= 7.82D-04  0.00D+00 EMaxC= 1.00D-01 BMatC= 9.10D-04 BMatP= 2.78D-02
 IDIUse=3 WtCom= 9.92D-01 WtEn= 7.82D-03
 Coeff-Com:  0.664D-01-0.768D-01 0.317D-01 0.139D+00 0.103D+00 0.737D+00
 Coeff-En:   0.000D+00 0.000D+00 0.000D+00 0.000D+00 0.000D+00 0.100D+01
 Coeff:      0.658D-01-0.762D-01 0.314D-01 0.138D+00 0.102D+00 0.739D+00
 Gap=     0.026 Goal=   None    Shift=    0.000
 Gap=     0.162 Goal=   None    Shift=    0.000
 RMSDP=2.03D-04 MaxDP=5.04D-02 DE=-1.66D-02 OVMax= 8.26D-02

 Cycle   7  Pass 1  IDiag  1:
 RMSU=  9.30D-05    CP:  9.90D-01  3.00D+00  8.24D-01  8.10D-01  9.81D-01
                    CP:  8.25D-01
 E= -1487.22576942704     Delta-E=       -0.000400353435 Rises=F Damp=F
 DIIS: error= 8.72D-04 at cycle   7 NSaved=   7.
 NSaved= 7 IEnMin= 7 EnMin= -1487.22576942704     IErMin= 6 ErrMin= 7.82D-04
 ErrMax= 8.72D-04  0.00D+00 EMaxC= 1.00D-01 BMatC= 7.74D-04 BMatP= 9.10D-04
 IDIUse=3 WtCom= 9.92D-01 WtEn= 7.82D-03
 Coeff-Com: -0.511D-01 0.580D-01 0.187D-04 0.958D-03-0.748D-01 0.360D+00
 Coeff-Com:  0.707D+00
 Coeff-En:   0.000D+00 0.000D+00 0.000D+00 0.000D+00 0.000D+00 0.131D+00
 Coeff-En:   0.869D+00
 Coeff:     -0.507D-01 0.576D-01 0.186D-04 0.950D-03-0.743D-01 0.359D+00
 Coeff:      0.708D+00
 Gap=     0.032 Goal=   None    Shift=    0.000
 Gap=     0.163 Goal=   None    Shift=    0.000
 RMSDP=6.12D-05 MaxDP=3.82D-03 DE=-4.00D-04 OVMax= 2.02D-02

 Cycle   8  Pass 1  IDiag  1:
 RMSU=  5.36D-05    CP:  9.90D-01  3.00D+00  8.18D-01  8.11D-01  9.88D-01
                    CP:  8.23D-01  1.28D+00
 E= -1487.22596724127     Delta-E=       -0.000197814233 Rises=F Damp=F
 DIIS: error= 6.68D-04 at cycle   8 NSaved=   8.
 NSaved= 8 IEnMin= 8 EnMin= -1487.22596724127     IErMin= 8 ErrMin= 6.68D-04
 ErrMax= 6.68D-04  0.00D+00 EMaxC= 1.00D-01 BMatC= 5.33D-04 BMatP= 7.74D-04
 IDIUse=3 WtCom= 9.93D-01 WtEn= 6.68D-03
 Coeff-Com: -0.175D+00 0.199D+00 0.320D-02-0.219D-01-0.134D+00 0.889D-01
 Coeff-Com:  0.505D+00 0.534D+00
 Coeff-En:   0.000D+00 0.000D+00 0.000D+00 0.000D+00 0.000D+00 0.000D+00
 Coeff-En:   0.000D+00 0.100D+01
 Coeff:     -0.174D+00 0.198D+00 0.317D-02-0.217D-01-0.133D+00 0.883D-01
 Coeff:      0.501D+00 0.538D+00
 Gap=     0.033 Goal=   None    Shift=    0.000
 Gap=     0.163 Goal=   None    Shift=    0.000
 RMSDP=3.79D-05 MaxDP=2.12D-03 DE=-1.98D-04 OVMax= 1.16D-02

 Cycle   9  Pass 1  IDiag  1:
 RMSU=  2.59D-05    CP:  9.90D-01  3.00D+00  8.13D-01  8.13D-01  9.91D-01
                    CP:  8.42D-01  1.56D+00  9.82D-01
 E= -1487.22608644832     Delta-E=       -0.000119207052 Rises=F Damp=F
 DIIS: error= 5.43D-04 at cycle   9 NSaved=   9.
 NSaved= 9 IEnMin= 9 EnMin= -1487.22608644832     IErMin= 9 ErrMin= 5.43D-04
 ErrMax= 5.43D-04  0.00D+00 EMaxC= 1.00D-01 BMatC= 2.95D-04 BMatP= 5.33D-04
 IDIUse=3 WtCom= 9.95D-01 WtEn= 5.43D-03
 Coeff-Com: -0.138D+00 0.157D+00 0.117D-01 0.930D-03-0.124D+00-0.148D-01
 Coeff-Com:  0.800D-01 0.346D+00 0.681D+00
 Coeff-En:   0.000D+00 0.000D+00 0.000D+00 0.000D+00 0.000D+00 0.000D+00
 Coeff-En:   0.000D+00 0.000D+00 0.100D+01
 Coeff:     -0.137D+00 0.156D+00 0.117D-01 0.925D-03-0.124D+00-0.147D-01
 Coeff:      0.795D-01 0.344D+00 0.683D+00
 Gap=     0.033 Goal=   None    Shift=    0.000
 Gap=     0.163 Goal=   None    Shift=    0.000
 RMSDP=2.84D-05 MaxDP=2.95D-03 DE=-1.19D-04 OVMax= 9.81D-03

 Cycle  10  Pass 1  IDiag  1:
 RMSU=  1.61D-05    CP:  9.90D-01  3.00D+00  8.08D-01  8.18D-01  9.89D-01
                    CP:  8.65D-01  1.74D+00  1.19D+00  1.10D+00
 E= -1487.22616762070     Delta-E=       -0.000081172380 Rises=F Damp=F
 DIIS: error= 4.46D-04 at cycle  10 NSaved=  10.
 NSaved=10 IEnMin=10 EnMin= -1487.22616762070     IErMin=10 ErrMin= 4.46D-04
 ErrMax= 4.46D-04  0.00D+00 EMaxC= 1.00D-01 BMatC= 1.59D-04 BMatP= 2.95D-04
 IDIUse=3 WtCom= 9.96D-01 WtEn= 4.46D-03
 Coeff-Com: -0.294D-01 0.334D-01 0.726D-02 0.162D-01-0.704D-01 0.405D-02
 Coeff-Com: -0.144D+00 0.396D-02 0.383D+00 0.796D+00
 Coeff-En:   0.000D+00 0.000D+00 0.000D+00 0.000D+00 0.000D+00 0.000D+00
 Coeff-En:   0.000D+00 0.000D+00 0.000D+00 0.100D+01
 Coeff:     -0.293D-01 0.332D-01 0.723D-02 0.162D-01-0.701D-01 0.404D-02
 Coeff:     -0.143D+00 0.394D-02 0.381D+00 0.797D+00
 Gap=     0.033 Goal=   None    Shift=    0.000
 Gap=     0.163 Goal=   None    Shift=    0.000
 RMSDP=2.98D-05 MaxDP=4.27D-03 DE=-8.12D-05 OVMax= 1.21D-02

 Cycle  11  Pass 1  IDiag  1:
 RMSU=  1.03D-05    CP:  9.90D-01  3.00D+00  8.01D-01  8.25D-01  9.88D-01
                    CP:  8.81D-01  1.88D+00  1.39D+00  1.62D+00  1.44D+00
 E= -1487.22623018319     Delta-E=       -0.000062562491 Rises=F Damp=F
 DIIS: error= 2.72D-04 at cycle  11 NSaved=  11.
 NSaved=11 IEnMin=11 EnMin= -1487.22623018319     IErMin=11 ErrMin= 2.72D-04
 ErrMax= 2.72D-04  0.00D+00 EMaxC= 1.00D-01 BMatC= 6.10D-05 BMatP= 1.59D-04
 IDIUse=3 WtCom= 9.97D-01 WtEn= 2.72D-03
 Coeff-Com:  0.481D-02-0.560D-02 0.323D-02 0.141D-01-0.359D-01 0.344D-01
 Coeff-Com: -0.107D+00-0.667D-01 0.410D-01 0.453D+00 0.665D+00
 Coeff-En:   0.000D+00 0.000D+00 0.000D+00 0.000D+00 0.000D+00 0.000D+00
 Coeff-En:   0.000D+00 0.000D+00 0.000D+00 0.000D+00 0.100D+01
 Coeff:      0.479D-02-0.559D-02 0.322D-02 0.140D-01-0.358D-01 0.343D-01
 Coeff:     -0.106D+00-0.665D-01 0.409D-01 0.451D+00 0.666D+00
 Gap=     0.033 Goal=   None    Shift=    0.000
 Gap=     0.163 Goal=   None    Shift=    0.000
 RMSDP=1.56D-05 MaxDP=1.76D-03 DE=-6.26D-05 OVMax= 6.30D-03

 Cycle  12  Pass 1  IDiag  1:
 RMSU=  5.06D-06    CP:  9.90D-01  3.00D+00  7.99D-01  8.27D-01  9.88D-01
                    CP:  8.86D-01  1.94D+00  1.48D+00  1.89D+00  1.95D+00
                    CP:  1.30D+00
 E= -1487.22624971860     Delta-E=       -0.000019535409 Rises=F Damp=F
 DIIS: error= 1.92D-04 at cycle  12 NSaved=  12.
 NSaved=12 IEnMin=12 EnMin= -1487.22624971860     IErMin=12 ErrMin= 1.92D-04
 ErrMax= 1.92D-04  0.00D+00 EMaxC= 1.00D-01 BMatC= 3.38D-05 BMatP= 6.10D-05
 IDIUse=3 WtCom= 9.98D-01 WtEn= 1.92D-03
 Coeff-Com:  0.846D-02-0.970D-02-0.490D-03 0.593D-02-0.641D-02 0.488D-01
 Coeff-Com: -0.118D-01-0.475D-01-0.214D+00-0.119D+00 0.588D+00 0.758D+00
 Coeff-En:   0.000D+00 0.000D+00 0.000D+00 0.000D+00 0.000D+00 0.000D+00
 Coeff-En:   0.000D+00 0.000D+00 0.000D+00 0.000D+00 0.000D+00 0.100D+01
 Coeff:      0.844D-02-0.968D-02-0.489D-03 0.592D-02-0.640D-02 0.487D-01
 Coeff:     -0.118D-01-0.474D-01-0.214D+00-0.119D+00 0.587D+00 0.758D+00
 Gap=     0.033 Goal=   None    Shift=    0.000
 Gap=     0.163 Goal=   None    Shift=    0.000
 RMSDP=1.83D-05 MaxDP=1.57D-03 DE=-1.95D-05 OVMax= 7.66D-03

 Cycle  13  Pass 1  IDiag  1:
 RMSU=  3.84D-06    CP:  9.90D-01  3.00D+00  7.96D-01  8.29D-01  9.88D-01
                    CP:  8.92D-01  1.99D+00  1.58D+00  2.25D+00  2.57D+00
                    CP:  1.97D+00  1.49D+00
 E= -1487.22626488933     Delta-E=       -0.000015170727 Rises=F Damp=F
 DIIS: error= 1.23D-04 at cycle  13 NSaved=  13.
 NSaved=13 IEnMin=13 EnMin= -1487.22626488933     IErMin=13 ErrMin= 1.23D-04
 ErrMax= 1.23D-04  0.00D+00 EMaxC= 1.00D-01 BMatC= 1.47D-05 BMatP= 3.38D-05
 IDIUse=3 WtCom= 9.99D-01 WtEn= 1.23D-03
 Coeff-Com: -0.581D-02 0.661D-02-0.182D-02-0.125D-02 0.687D-02 0.360D-01
 Coeff-Com:  0.497D-01 0.359D-02-0.234D+00-0.421D+00 0.144D+00 0.661D+00
 Coeff-Com:  0.756D+00
 Coeff-En:   0.000D+00 0.000D+00 0.000D+00 0.000D+00 0.000D+00 0.000D+00
 Coeff-En:   0.000D+00 0.000D+00 0.000D+00 0.000D+00 0.000D+00 0.000D+00
 Coeff-En:   0.100D+01
 Coeff:     -0.581D-02 0.660D-02-0.182D-02-0.125D-02 0.686D-02 0.360D-01
 Coeff:      0.497D-01 0.358D-02-0.233D+00-0.421D+00 0.144D+00 0.660D+00
 Coeff:      0.757D+00
 Gap=     0.033 Goal=   None    Shift=    0.000
 Gap=     0.164 Goal=   None    Shift=    0.000
 RMSDP=1.87D-05 MaxDP=1.12D-03 DE=-1.52D-05 OVMax= 7.90D-03

 Cycle  14  Pass 1  IDiag  1:
 RMSU=  4.63D-06    CP:  9.90D-01  3.00D+00  7.94D-01  8.29D-01  9.88D-01
                    CP:  8.95D-01  2.04D+00  1.68D+00  2.62D+00  3.00D+00
                    CP:  2.72D+00  2.32D+00  1.55D+00
 E= -1487.22627410414     Delta-E=       -0.000009214806 Rises=F Damp=F
 DIIS: error= 7.25D-05 at cycle  14 NSaved=  14.
 NSaved=14 IEnMin=14 EnMin= -1487.22627410414     IErMin=14 ErrMin= 7.25D-05
 ErrMax= 7.25D-05  0.00D+00 EMaxC= 1.00D-01 BMatC= 4.15D-06 BMatP= 1.47D-05
 IDIUse=1 WtCom= 1.00D+00 WtEn= 0.00D+00
 Coeff-Com: -0.944D-02 0.107D-01-0.478D-03-0.146D-02-0.753D-03 0.762D-02
 Coeff-Com:  0.261D-01 0.248D-01-0.378D-01-0.189D+00-0.135D+00 0.296D-01
 Coeff-Com:  0.350D+00 0.925D+00
 Coeff:     -0.944D-02 0.107D-01-0.478D-03-0.146D-02-0.753D-03 0.762D-02
 Coeff:      0.261D-01 0.248D-01-0.378D-01-0.189D+00-0.135D+00 0.296D-01
 Coeff:      0.350D+00 0.925D+00
 Gap=     0.034 Goal=   None    Shift=    0.000
 Gap=     0.164 Goal=   None    Shift=    0.000
 RMSDP=1.41D-05 MaxDP=8.35D-04 DE=-9.21D-06 OVMax= 6.15D-03

 Cycle  15  Pass 1  IDiag  1:
 RMSU=  5.01D-06    CP:  9.90D-01  3.00D+00  7.93D-01  8.29D-01  9.89D-01
                    CP:  8.97D-01  2.07D+00  1.75D+00  2.90D+00  3.00D+00
                    CP:  3.00D+00  3.00D+00  2.32D+00  2.40D+00
 E= -1487.22627776913     Delta-E=       -0.000003664996 Rises=F Damp=F
 DIIS: error= 3.33D-05 at cycle  15 NSaved=  15.
 NSaved=15 IEnMin=15 EnMin= -1487.22627776913     IErMin=15 ErrMin= 3.33D-05
 ErrMax= 3.33D-05  0.00D+00 EMaxC= 1.00D-01 BMatC= 1.31D-06 BMatP= 4.15D-06
 IDIUse=1 WtCom= 1.00D+00 WtEn= 0.00D+00
 Coeff-Com: -0.470D-02 0.535D-02 0.689D-03 0.207D-03-0.679D-02-0.785D-02
 Coeff-Com: -0.385D-02 0.193D-01 0.750D-01 0.456D-01-0.144D+00-0.282D+00
 Coeff-Com: -0.141D+00 0.717D+00 0.726D+00
 Coeff:     -0.470D-02 0.535D-02 0.689D-03 0.207D-03-0.679D-02-0.785D-02
 Coeff:     -0.385D-02 0.193D-01 0.750D-01 0.456D-01-0.144D+00-0.282D+00
 Coeff:     -0.141D+00 0.717D+00 0.726D+00
 Gap=     0.034 Goal=   None    Shift=    0.000
 Gap=     0.164 Goal=   None    Shift=    0.000
 RMSDP=9.65D-06 MaxDP=5.78D-04 DE=-3.66D-06 OVMax= 4.23D-03

 Cycle  16  Pass 1  IDiag  1:
 RMSU=  4.87D-06    CP:  9.90D-01  3.00D+00  7.92D-01  8.29D-01  9.89D-01
                    CP:  8.99D-01  2.09D+00  1.80D+00  3.00D+00  3.00D+00
                    CP:  3.00D+00  3.00D+00  2.89D+00  3.00D+00  1.73D+00
 E= -1487.22627915246     Delta-E=       -0.000001383331 Rises=F Damp=F
 DIIS: error= 1.60D-05 at cycle  16 NSaved=  16.
 NSaved=16 IEnMin=16 EnMin= -1487.22627915246     IErMin=16 ErrMin= 1.60D-05
 ErrMax= 1.60D-05  0.00D+00 EMaxC= 1.00D-01 BMatC= 3.05D-07 BMatP= 1.31D-06
 IDIUse=1 WtCom= 1.00D+00 WtEn= 0.00D+00
 Coeff-Com:  0.194D-02-0.221D-02 0.440D-03 0.115D-02-0.475D-02-0.822D-02
 Coeff-Com: -0.148D-01 0.306D-02 0.611D-01 0.110D+00-0.245D-01-0.208D+00
 Coeff-Com: -0.261D+00 0.145D+00 0.383D+00 0.818D+00
 Coeff:      0.194D-02-0.221D-02 0.440D-03 0.115D-02-0.475D-02-0.822D-02
 Coeff:     -0.148D-01 0.306D-02 0.611D-01 0.110D+00-0.245D-01-0.208D+00
 Coeff:     -0.261D+00 0.145D+00 0.383D+00 0.818D+00
 Gap=     0.034 Goal=   None    Shift=    0.000
 Gap=     0.164 Goal=   None    Shift=    0.000
 RMSDP=6.65D-06 MaxDP=4.06D-04 DE=-1.38D-06 OVMax= 2.93D-03

 Cycle  17  Pass 1  IDiag  1:
 RMSU=  2.49D-06    CP:  9.90D-01  3.00D+00  7.92D-01  8.29D-01  9.89D-01
                    CP:  9.00D-01  2.11D+00  1.83D+00  3.00D+00  3.00D+00
                    CP:  3.00D+00  3.00D+00  3.00D+00  3.00D+00  2.28D+00
                    CP:  1.99D+00
 E= -1487.22627966356     Delta-E=       -0.000000511100 Rises=F Damp=F
 DIIS: error= 6.91D-06 at cycle  17 NSaved=  17.
 NSaved=17 IEnMin=17 EnMin= -1487.22627966356     IErMin=17 ErrMin= 6.91D-06
 ErrMax= 6.91D-06  0.00D+00 EMaxC= 1.00D-01 BMatC= 9.26D-08 BMatP= 3.05D-07
 IDIUse=1 WtCom= 1.00D+00 WtEn= 0.00D+00
 Coeff-Com:  0.385D-02-0.438D-02 0.952D-04 0.119D-02-0.997D-03-0.180D-02
 Coeff-Com: -0.942D-02-0.550D-02 0.734D-02 0.685D-01 0.708D-01-0.189D-01
 Coeff-Com: -0.144D+00-0.230D+00-0.155D+00 0.650D+00 0.768D+00
 Coeff:      0.385D-02-0.438D-02 0.952D-04 0.119D-02-0.997D-03-0.180D-02
 Coeff:     -0.942D-02-0.550D-02 0.734D-02 0.685D-01 0.708D-01-0.189D-01
 Coeff:     -0.144D+00-0.230D+00-0.155D+00 0.650D+00 0.768D+00
 Gap=     0.034 Goal=   None    Shift=    0.000
 Gap=     0.164 Goal=   None    Shift=    0.000
 RMSDP=3.94D-06 MaxDP=2.58D-04 DE=-5.11D-07 OVMax= 1.76D-03

 Cycle  18  Pass 1  IDiag  1:
 RMSU=  9.62D-07    CP:  9.90D-01  3.00D+00  7.92D-01  8.29D-01  9.89D-01
                    CP:  9.00D-01  2.12D+00  1.85D+00  3.00D+00  3.00D+00
                    CP:  3.00D+00  3.00D+00  3.00D+00  3.00D+00  2.57D+00
                    CP:  2.60D+00  1.60D+00
 E= -1487.22627984190     Delta-E=       -0.000000178340 Rises=F Damp=F
 DIIS: error= 4.46D-06 at cycle  18 NSaved=  18.
 NSaved=18 IEnMin=18 EnMin= -1487.22627984190     IErMin=18 ErrMin= 4.46D-06
 ErrMax= 4.46D-06  0.00D+00 EMaxC= 1.00D-01 BMatC= 3.04D-08 BMatP= 9.26D-08
 IDIUse=1 WtCom= 1.00D+00 WtEn= 0.00D+00
 Coeff-Com:  0.115D-02-0.131D-02-0.962D-04 0.260D-03 0.109D-02 0.197D-02
 Coeff-Com:  0.419D-04-0.331D-02-0.197D-01 0.319D-02 0.558D-01 0.629D-01
 Coeff-Com:  0.153D-02-0.177D+00-0.286D+00 0.752D-01 0.502D+00 0.783D+00
 Coeff:      0.115D-02-0.131D-02-0.962D-04 0.260D-03 0.109D-02 0.197D-02
 Coeff:      0.419D-04-0.331D-02-0.197D-01 0.319D-02 0.558D-01 0.629D-01
 Coeff:      0.153D-02-0.177D+00-0.286D+00 0.752D-01 0.502D+00 0.783D+00
 Gap=     0.034 Goal=   None    Shift=    0.000
 Gap=     0.164 Goal=   None    Shift=    0.000
 RMSDP=2.61D-06 MaxDP=1.79D-04 DE=-1.78D-07 OVMax= 1.15D-03

 Cycle  19  Pass 1  IDiag  1:
 RMSU=  4.00D-07    CP:  9.90D-01  3.00D+00  7.92D-01  8.29D-01  9.89D-01
                    CP:  9.00D-01  2.12D+00  1.86D+00  3.00D+00  3.00D+00
                    CP:  3.00D+00  3.00D+00  3.00D+00  3.00D+00  2.77D+00
                    CP:  3.00D+00  2.01D+00  1.50D+00
 E= -1487.22627990304     Delta-E=       -0.000000061139 Rises=F Damp=F
 DIIS: error= 2.97D-06 at cycle  19 NSaved=  19.
 NSaved=19 IEnMin=19 EnMin= -1487.22627990304     IErMin=19 ErrMin= 2.97D-06
 ErrMax= 2.97D-06  0.00D+00 EMaxC= 1.00D-01 BMatC= 1.13D-08 BMatP= 3.04D-08
 IDIUse=1 WtCom= 1.00D+00 WtEn= 0.00D+00
 Coeff-Com: -0.439D-03 0.502D-03-0.130D-03-0.201D-03 0.925D-03 0.159D-02
 Coeff-Com:  0.228D-02-0.208D-03-0.133D-01-0.158D-01 0.130D-01 0.386D-01
 Coeff-Com:  0.355D-01-0.280D-01-0.136D+00-0.150D+00 0.918D-01 0.488D+00
 Coeff-Com:  0.672D+00
 Coeff:     -0.439D-03 0.502D-03-0.130D-03-0.201D-03 0.925D-03 0.159D-02
 Coeff:      0.228D-02-0.208D-03-0.133D-01-0.158D-01 0.130D-01 0.386D-01
 Coeff:      0.355D-01-0.280D-01-0.136D+00-0.150D+00 0.918D-01 0.488D+00
 Coeff:      0.672D+00
 Gap=     0.034 Goal=   None    Shift=    0.000
 Gap=     0.164 Goal=   None    Shift=    0.000
 RMSDP=1.27D-06 MaxDP=8.04D-05 DE=-6.11D-08 OVMax= 5.64D-04

 Cycle  20  Pass 1  IDiag  1:
 RMSU=  9.41D-07    CP:  9.90D-01  3.00D+00  7.92D-01  8.28D-01  9.89D-01
                    CP:  9.00D-01  2.12D+00  1.86D+00  3.00D+00  3.00D+00
                    CP:  3.00D+00  3.00D+00  3.00D+00  3.00D+00  2.86D+00
                    CP:  3.00D+00  2.22D+00  1.72D+00  1.18D+00
 E= -1487.22627991824     Delta-E=       -0.000000015201 Rises=F Damp=F
 DIIS: error= 1.68D-06 at cycle  20 NSaved=  20.
 NSaved=20 IEnMin=20 EnMin= -1487.22627991824     IErMin=20 ErrMin= 1.68D-06
 ErrMax= 1.68D-06  0.00D+00 EMaxC= 1.00D-01 BMatC= 4.36D-09 BMatP= 1.13D-08
 IDIUse=1 WtCom= 1.00D+00 WtEn= 0.00D+00
 Coeff-Com: -0.695D-03 0.791D-03-0.127D-04-0.132D-03 0.582D-04 0.598D-03
 Coeff-Com:  0.117D-02 0.822D-03-0.281D-02-0.981D-02-0.526D-02 0.684D-02
 Coeff-Com:  0.195D-01 0.319D-01-0.111D-01-0.110D+00-0.732D-01 0.638D-01
 Coeff-Com:  0.431D+00 0.656D+00
 Coeff:     -0.695D-03 0.791D-03-0.127D-04-0.132D-03 0.582D-04 0.598D-03
 Coeff:      0.117D-02 0.822D-03-0.281D-02-0.981D-02-0.526D-02 0.684D-02
 Coeff:      0.195D-01 0.319D-01-0.111D-01-0.110D+00-0.732D-01 0.638D-01
 Coeff:      0.431D+00 0.656D+00
 Gap=     0.034 Goal=   None    Shift=    0.000
 Gap=     0.164 Goal=   None    Shift=    0.000
 RMSDP=4.47D-07 MaxDP=3.19D-05 DE=-1.52D-08 OVMax= 1.92D-04

 Cycle  21  Pass 1  IDiag  1:
 Restarting incremental Fock formation.
 E= -1487.22627992111     Delta-E=       -0.000000002869 Rises=F Damp=F
 DIIS: error= 1.71D-06 at cycle  21 NSaved=  20.
 NSaved=20 IEnMin=20 EnMin= -1487.22627992111     IErMin=19 ErrMin= 1.68D-06
 ErrMax= 1.71D-06  0.00D+00 EMaxC= 1.00D-01 BMatC= 3.39D-09 BMatP= 4.36D-09
 IDIUse=1 WtCom= 1.00D+00 WtEn= 0.00D+00
 Coeff-Com: -0.117D-03 0.133D-03-0.777D-05-0.257D-03 0.837D-04 0.670D-04
 Coeff-Com:  0.559D-03 0.179D-02-0.238D-02-0.727D-02-0.689D-02 0.162D-02
 Coeff-Com:  0.306D-01 0.340D-01-0.259D-01-0.771D-01-0.131D+00 0.675D-01
 Coeff-Com:  0.465D+00 0.650D+00
 Coeff:     -0.117D-03 0.133D-03-0.777D-05-0.257D-03 0.837D-04 0.670D-04
 Coeff:      0.559D-03 0.179D-02-0.238D-02-0.727D-02-0.689D-02 0.162D-02
 Coeff:      0.306D-01 0.340D-01-0.259D-01-0.771D-01-0.131D+00 0.675D-01
 Coeff:      0.465D+00 0.650D+00
 Gap=     0.034 Goal=   None    Shift=    0.000
 Gap=     0.164 Goal=   None    Shift=    0.000
 RMSDP=3.46D-07 MaxDP=2.15D-05 DE=-2.87D-09 OVMax= 1.51D-04

 Cycle  22  Pass 1  IDiag  1:
 RMSU=  3.46D-07    CP:  1.00D+00
 E= -1487.22627992317     Delta-E=       -0.000000002055 Rises=F Damp=F
 DIIS: error= 1.15D-06 at cycle  22 NSaved=  20.
 NSaved=20 IEnMin=20 EnMin= -1487.22627992317     IErMin=20 ErrMin= 1.15D-06
 ErrMax= 1.15D-06  0.00D+00 EMaxC= 1.00D-01 BMatC= 1.52D-09 BMatP= 3.39D-09
 IDIUse=1 WtCom= 1.00D+00 WtEn= 0.00D+00
 Coeff-Com: -0.428D-06 0.330D-04-0.256D-03 0.602D-05-0.249D-04 0.365D-03
 Coeff-Com:  0.181D-02 0.404D-04-0.408D-02-0.652D-02-0.365D-02 0.144D-01
 Coeff-Com:  0.274D-01 0.129D-01-0.290D-01-0.114D+00-0.103D+00 0.985D-01
 Coeff-Com:  0.452D+00 0.653D+00
 Coeff:     -0.428D-06 0.330D-04-0.256D-03 0.602D-05-0.249D-04 0.365D-03
 Coeff:      0.181D-02 0.404D-04-0.408D-02-0.652D-02-0.365D-02 0.144D-01
 Coeff:      0.274D-01 0.129D-01-0.290D-01-0.114D+00-0.103D+00 0.985D-01
 Coeff:      0.452D+00 0.653D+00
 Gap=     0.034 Goal=   None    Shift=    0.000
 Gap=     0.164 Goal=   None    Shift=    0.000
 RMSDP=1.64D-07 MaxDP=1.05D-05 DE=-2.05D-09 OVMax= 6.71D-05

 Cycle  23  Pass 1  IDiag  1:
 RMSU=  6.16D-08    CP:  1.00D+00  1.44D+00
 E= -1487.22627992406     Delta-E=       -0.000000000889 Rises=F Damp=F
 DIIS: error= 8.47D-07 at cycle  23 NSaved=  20.
 NSaved=20 IEnMin=20 EnMin= -1487.22627992406     IErMin=20 ErrMin= 8.47D-07
 ErrMax= 8.47D-07  0.00D+00 EMaxC= 1.00D-01 BMatC= 7.54D-10 BMatP= 1.52D-09
 IDIUse=1 WtCom= 1.00D+00 WtEn= 0.00D+00
 Coeff-Com:  0.300D-04-0.117D-03 0.159D-03 0.302D-04-0.756D-04-0.297D-03
 Coeff-Com:  0.206D-03 0.170D-02 0.673D-03-0.172D-02-0.466D-02-0.159D-02
 Coeff-Com:  0.136D-01 0.213D-01-0.496D-02-0.824D-01-0.128D+00-0.180D-01
 Coeff-Com:  0.408D+00 0.796D+00
 Coeff:      0.300D-04-0.117D-03 0.159D-03 0.302D-04-0.756D-04-0.297D-03
 Coeff:      0.206D-03 0.170D-02 0.673D-03-0.172D-02-0.466D-02-0.159D-02
 Coeff:      0.136D-01 0.213D-01-0.496D-02-0.824D-01-0.128D+00-0.180D-01
 Coeff:      0.408D+00 0.796D+00
 Gap=     0.034 Goal=   None    Shift=    0.000
 Gap=     0.164 Goal=   None    Shift=    0.000
 RMSDP=6.55D-08 MaxDP=4.08D-06 DE=-8.89D-10 OVMax= 1.79D-05

 Cycle  24  Pass 1  IDiag  1:
 RMSU=  4.75D-08    CP:  1.00D+00  1.56D+00  1.25D+00
 E= -1487.22627992427     Delta-E=       -0.000000000213 Rises=F Damp=F
 DIIS: error= 6.87D-07 at cycle  24 NSaved=  20.
 NSaved=20 IEnMin=20 EnMin= -1487.22627992427     IErMin=20 ErrMin= 6.87D-07
 ErrMax= 6.87D-07  0.00D+00 EMaxC= 1.00D-01 BMatC= 4.67D-10 BMatP= 7.54D-10
 IDIUse=1 WtCom= 1.00D+00 WtEn= 0.00D+00
 Coeff-Com: -0.546D-05 0.186D-03 0.958D-05-0.308D-03-0.126D-02 0.104D-03
 Coeff-Com:  0.369D-02 0.391D-02 0.154D-03-0.115D-01-0.164D-01 0.453D-03
 Coeff-Com:  0.332D-01 0.582D-01-0.559D-02-0.135D+00-0.278D+00-0.781D-01
 Coeff-Com:  0.563D+00 0.863D+00
 Coeff:     -0.546D-05 0.186D-03 0.958D-05-0.308D-03-0.126D-02 0.104D-03
 Coeff:      0.369D-02 0.391D-02 0.154D-03-0.115D-01-0.164D-01 0.453D-03
 Coeff:      0.332D-01 0.582D-01-0.559D-02-0.135D+00-0.278D+00-0.781D-01
 Coeff:      0.563D+00 0.863D+00
 Gap=     0.034 Goal=   None    Shift=    0.000
 Gap=     0.164 Goal=   None    Shift=    0.000
 RMSDP=1.25D-07 MaxDP=7.36D-06 DE=-2.13D-10 OVMax= 5.26D-05

 Cycle  25  Pass 1  IDiag  1:
 RMSU=  3.16D-08    CP:  1.00D+00  1.90D+00  1.64D+00  1.37D+00
 E= -1487.22627992455     Delta-E=       -0.000000000277 Rises=F Damp=F
 DIIS: error= 3.43D-07 at cycle  25 NSaved=  20.
 NSaved=20 IEnMin=20 EnMin= -1487.22627992455     IErMin=20 ErrMin= 3.43D-07
 ErrMax= 3.43D-07  0.00D+00 EMaxC= 1.00D-01 BMatC= 1.10D-10 BMatP= 4.67D-10
 IDIUse=1 WtCom= 1.00D+00 WtEn= 0.00D+00
 Coeff-Com:  0.132D-03-0.161D-04-0.149D-03-0.659D-03-0.169D-04 0.181D-02
 Coeff-Com:  0.222D-02 0.494D-03-0.487D-02-0.933D-02-0.432D-02 0.145D-01
 Coeff-Com:  0.362D-01 0.211D-01-0.353D-01-0.168D+00-0.178D+00 0.107D+00
 Coeff-Com:  0.509D+00 0.708D+00
 Coeff:      0.132D-03-0.161D-04-0.149D-03-0.659D-03-0.169D-04 0.181D-02
 Coeff:      0.222D-02 0.494D-03-0.487D-02-0.933D-02-0.432D-02 0.145D-01
 Coeff:      0.362D-01 0.211D-01-0.353D-01-0.168D+00-0.178D+00 0.107D+00
 Coeff:      0.509D+00 0.708D+00
 Gap=     0.034 Goal=   None    Shift=    0.000
 Gap=     0.164 Goal=   None    Shift=    0.000
 RMSDP=2.94D-08 MaxDP=2.15D-06 DE=-2.77D-10 OVMax= 5.82D-06

 Cycle  26  Pass 1  IDiag  1:
 RMSU=  1.37D-08    CP:  1.00D+00  1.93D+00  1.83D+00  1.78D+00  1.12D+00
 E= -1487.22627992472     Delta-E=       -0.000000000173 Rises=F Damp=F
 DIIS: error= 2.22D-07 at cycle  26 NSaved=  20.
 NSaved=20 IEnMin=20 EnMin= -1487.22627992472     IErMin=20 ErrMin= 2.22D-07
 ErrMax= 2.22D-07  0.00D+00 EMaxC= 1.00D-01 BMatC= 5.66D-11 BMatP= 1.10D-10
 IDIUse=1 WtCom= 1.00D+00 WtEn= 0.00D+00
 Coeff-Com: -0.213D-04 0.831D-04 0.218D-03-0.288D-03-0.106D-02-0.646D-03
 Coeff-Com:  0.370D-03 0.371D-02 0.259D-02-0.469D-02-0.923D-02-0.804D-02
 Coeff-Com:  0.214D-01 0.622D-01 0.362D-01-0.105D+00-0.244D+00-0.176D+00
 Coeff-Com:  0.470D+00 0.952D+00
 Coeff:     -0.213D-04 0.831D-04 0.218D-03-0.288D-03-0.106D-02-0.646D-03
 Coeff:      0.370D-03 0.371D-02 0.259D-02-0.469D-02-0.923D-02-0.804D-02
 Coeff:      0.214D-01 0.622D-01 0.362D-01-0.105D+00-0.244D+00-0.176D+00
 Coeff:      0.470D+00 0.952D+00
 Gap=     0.034 Goal=   None    Shift=    0.000
 Gap=     0.164 Goal=   None    Shift=    0.000
 RMSDP=5.96D-08 MaxDP=4.74D-06 DE=-1.73D-10 OVMax= 2.47D-05

 Cycle  27  Pass 1  IDiag  1:
 RMSU=  1.18D-08    CP:  1.00D+00  2.08D+00  2.02D+00  2.06D+00  1.73D+00
                    CP:  1.22D+00
 E= -1487.22627992469     Delta-E=        0.000000000024 Rises=F Damp=F
 DIIS: error= 6.97D-08 at cycle  27 NSaved=  20.
 NSaved=20 IEnMin=19 EnMin= -1487.22627992472     IErMin=20 ErrMin= 6.97D-08
 ErrMax= 6.97D-08  0.00D+00 EMaxC= 1.00D-01 BMatC= 7.82D-12 BMatP= 5.66D-11
 IDIUse=1 WtCom= 1.00D+00 WtEn= 0.00D+00
 Coeff-Com:  0.780D-04 0.164D-03-0.288D-03-0.887D-03-0.496D-03 0.436D-03
 Coeff-Com:  0.322D-02 0.275D-02-0.358D-02-0.896D-02-0.106D-01 0.122D-01
 Coeff-Com:  0.474D-01 0.513D-01-0.403D-01-0.165D+00-0.208D+00 0.148D+00
 Coeff-Com:  0.620D+00 0.553D+00
 Coeff:      0.780D-04 0.164D-03-0.288D-03-0.887D-03-0.496D-03 0.436D-03
 Coeff:      0.322D-02 0.275D-02-0.358D-02-0.896D-02-0.106D-01 0.122D-01
 Coeff:      0.474D-01 0.513D-01-0.403D-01-0.165D+00-0.208D+00 0.148D+00
 Coeff:      0.620D+00 0.553D+00
 Gap=     0.034 Goal=   None    Shift=    0.000
 Gap=     0.164 Goal=   None    Shift=    0.000
 RMSDP=1.41D-08 MaxDP=8.76D-07 DE= 2.36D-11 OVMax= 4.53D-06

 Cycle  28  Pass 1  IDiag  1:
 RMSU=  8.18D-09    CP:  1.00D+00  2.11D+00  2.09D+00  2.11D+00  1.71D+00
                    CP:  1.50D+00  9.52D-01
 E= -1487.22627992460     Delta-E=        0.000000000093 Rises=F Damp=F
 DIIS: error= 4.76D-08 at cycle  28 NSaved=  20.
 NSaved=20 IEnMin=18 EnMin= -1487.22627992472     IErMin=20 ErrMin= 4.76D-08
 ErrMax= 4.76D-08  0.00D+00 EMaxC= 1.00D-01 BMatC= 3.12D-12 BMatP= 7.82D-12
 IDIUse=1 WtCom= 1.00D+00 WtEn= 0.00D+00
 Coeff-Com: -0.206D-04 0.158D-06 0.192D-04 0.226D-04-0.925D-05 0.236D-04
 Coeff-Com:  0.234D-03 0.441D-03-0.585D-03-0.234D-02-0.229D-02-0.265D-05
 Coeff-Com:  0.127D-01 0.193D-01 0.162D-01-0.515D-01-0.138D+00-0.439D-01
 Coeff-Com:  0.391D+00 0.798D+00
 Coeff:     -0.206D-04 0.158D-06 0.192D-04 0.226D-04-0.925D-05 0.236D-04
 Coeff:      0.234D-03 0.441D-03-0.585D-03-0.234D-02-0.229D-02-0.265D-05
 Coeff:      0.127D-01 0.193D-01 0.162D-01-0.515D-01-0.138D+00-0.439D-01
 Coeff:      0.391D+00 0.798D+00
 Gap=     0.034 Goal=   None    Shift=    0.000
 Gap=     0.164 Goal=   None    Shift=    0.000
 RMSDP=9.82D-09 MaxDP=5.64D-07 DE= 9.28D-11 OVMax= 3.30D-06

 SCF Done:  E(UPBE1PBE) =  -1487.22627992     A.U. after   28 cycles
            NFock= 28  Conv=0.98D-08     -V/T= 2.0739
 <Sx>= 0.0000 <Sy>= 0.0000 <Sz>= 0.5000 <S**2>= 0.7611 S= 0.5055
 <L.S>= 0.000000000000E+00
 KE= 1.384931151436D+03 PE=-8.684639522693D+03 EE= 3.184928034162D+03
 Annihilation of the first spin contaminant:
 S**2 before annihilation     0.7611,   after     0.7501
 Leave Link  502 at Sat Sep 12 00:11:34 2026, MaxMem=  6442450944 cpu:             753.0 elap:             752.9
 (Enter C:\G16W\l508.exe)
 QCSCF skips out because SCF is already converged.
 Leave Link  508 at Sat Sep 12 00:11:34 2026, MaxMem=  6442450944 cpu:               0.0 elap:               0.1
 (Enter C:\G16W\l601.exe)
 Copying SCF densities to generalized density rwf, IOpCl= 1 IROHF=0.

 **********************************************************************

            Population analysis using the SCF Density.

 **********************************************************************

 Alpha  occ. eigenvalues --  -14.47938 -14.47753 -14.47658 -14.46796 -14.46448
 Alpha  occ. eigenvalues --  -14.46291 -14.46183 -14.43833 -14.43786 -14.43619
 Alpha  occ. eigenvalues --  -14.42910 -14.42489 -10.37764 -10.37704 -10.37356
 Alpha  occ. eigenvalues --  -10.36814 -10.36457 -10.36376 -10.35790 -10.35396
 Alpha  occ. eigenvalues --  -10.35340 -10.34782 -10.34553 -10.34201 -10.33941
 Alpha  occ. eigenvalues --  -10.31573 -10.31513 -10.31325 -10.30646 -10.30242
 Alpha  occ. eigenvalues --   -3.83346  -2.41494  -2.41401  -2.41365  -1.08413
 Alpha  occ. eigenvalues --   -1.06471  -1.06004  -1.00472  -0.99646  -0.98825
 Alpha  occ. eigenvalues --   -0.97487  -0.96920  -0.96259  -0.95633  -0.95581
 Alpha  occ. eigenvalues --   -0.94651  -0.93895  -0.88248  -0.87918  -0.82262
 Alpha  occ. eigenvalues --   -0.79987  -0.79872  -0.74523  -0.73471  -0.73266
 Alpha  occ. eigenvalues --   -0.67191  -0.66008  -0.65890  -0.64620  -0.63177
 Alpha  occ. eigenvalues --   -0.62681  -0.59457  -0.59007  -0.57107  -0.56657
 Alpha  occ. eigenvalues --   -0.54957  -0.53216  -0.51901  -0.51385  -0.51142
 Alpha  occ. eigenvalues --   -0.50822  -0.46828  -0.45152  -0.44569  -0.44207
 Alpha  occ. eigenvalues --   -0.43054  -0.42048  -0.41555  -0.41500  -0.41141
 Alpha  occ. eigenvalues --   -0.41115  -0.40658  -0.40655  -0.40596  -0.40523
 Alpha  occ. eigenvalues --   -0.40196  -0.40093  -0.39953  -0.39756  -0.39543
 Alpha  occ. eigenvalues --   -0.39017  -0.38827  -0.38545  -0.38201  -0.38027
 Alpha  occ. eigenvalues --   -0.37320  -0.36703  -0.36660  -0.36312  -0.34901
 Alpha  occ. eigenvalues --   -0.33530  -0.32680  -0.32555  -0.32303  -0.32190
 Alpha  occ. eigenvalues --   -0.19872
 Alpha virt. eigenvalues --   -0.16514  -0.15441  -0.15216  -0.10286  -0.09033
 Alpha virt. eigenvalues --   -0.08719  -0.05969  -0.03845  -0.02269  -0.01904
 Alpha virt. eigenvalues --   -0.00939   0.00032   0.00315   0.00884   0.00968
 Alpha virt. eigenvalues --    0.01351   0.02324   0.02551   0.04398   0.05314
 Alpha virt. eigenvalues --    0.06599   0.08971   0.09750   0.10301   0.10497
 Alpha virt. eigenvalues --    0.10957   0.14454   0.14671   0.14770   0.15587
 Alpha virt. eigenvalues --    0.16382   0.16657   0.18150   0.19699   0.20231
 Alpha virt. eigenvalues --    0.21691   0.21797   0.22784   0.23104   0.23744
 Alpha virt. eigenvalues --    0.23933   0.24540   0.25383   0.26641   0.26811
 Alpha virt. eigenvalues --    0.27188   0.27609   0.27988   0.30423   0.30613
 Alpha virt. eigenvalues --    0.30947   0.32065   0.35010   0.35188   0.37854
 Alpha virt. eigenvalues --    0.38970   0.39412   0.40076   0.40183   0.40445
 Alpha virt. eigenvalues --    0.40886   0.41080   0.41652   0.42003   0.42159
 Alpha virt. eigenvalues --    0.42388   0.42911   0.44189   0.46692   0.47385
 Alpha virt. eigenvalues --    0.47878   0.48167   0.48417   0.48585   0.50790
 Alpha virt. eigenvalues --    0.51190   0.51208   0.51394   0.51794   0.52081
 Alpha virt. eigenvalues --    0.52282   0.53356   0.54899   0.54969   0.55070
 Alpha virt. eigenvalues --    0.55560   0.55785   0.55953   0.56333   0.56545
 Alpha virt. eigenvalues --    0.56679   0.57684   0.59322   0.59923   0.61172
 Alpha virt. eigenvalues --    0.63336   0.63835   0.64487   0.65627   0.65674
 Alpha virt. eigenvalues --    0.65956   0.66117   0.66436   0.66800   0.67027
 Alpha virt. eigenvalues --    0.67274   0.67469   0.68411   0.69001   0.69110
 Alpha virt. eigenvalues --    0.69333   0.69627   0.69953   0.70795   0.71331
 Alpha virt. eigenvalues --    0.75067   0.75408   0.76659   0.76802   0.78318
 Alpha virt. eigenvalues --    0.79354   0.79868   0.80498   0.80625   0.84155
 Alpha virt. eigenvalues --    0.84194   0.84506   0.84575   0.84975   0.86120
 Alpha virt. eigenvalues --    0.86826   0.89095   0.89554   0.90027   0.90107
 Alpha virt. eigenvalues --    0.90902   0.91572   0.92540   0.93553   0.94221
 Alpha virt. eigenvalues --    0.94661   0.95179   0.96249   0.96417   0.96839
 Alpha virt. eigenvalues --    0.97023   0.97460   0.98551   1.00070   1.00734
 Alpha virt. eigenvalues --    1.01217   1.01997   1.03465   1.03965   1.04432
 Alpha virt. eigenvalues --    1.05449   1.06061   1.07318   1.08264   1.08913
 Alpha virt. eigenvalues --    1.09403   1.14165   1.14926   1.16129   1.16425
 Alpha virt. eigenvalues --    1.18275   1.19182   1.19800   1.19937   1.20737
 Alpha virt. eigenvalues --    1.22795   1.23639   1.24750   1.25268   1.25445
 Alpha virt. eigenvalues --    1.27095   1.28170   1.30435   1.31059   1.32840
 Alpha virt. eigenvalues --    1.33143   1.34009   1.34897   1.35942   1.37236
 Alpha virt. eigenvalues --    1.37387   1.40742   1.42256   1.42372   1.42673
 Alpha virt. eigenvalues --    1.43389   1.44299   1.44675   1.44783   1.45803
 Alpha virt. eigenvalues --    1.47104   1.47576   1.55477   1.55942   1.56876
 Alpha virt. eigenvalues --    1.57440   1.57869   1.59150   1.59652   1.60119
 Alpha virt. eigenvalues --    1.60545   1.61207   1.61547   1.62101   1.63066
 Alpha virt. eigenvalues --    1.66272   1.66991   1.67432   1.68675   1.71679
 Alpha virt. eigenvalues --    1.72312   1.72987   1.75750   1.76249   1.77524
 Alpha virt. eigenvalues --    1.78007   1.81502   1.81806   1.82090   1.82439
 Alpha virt. eigenvalues --    1.82798   1.88046   1.88443   1.88663   1.88751
 Alpha virt. eigenvalues --    1.88906   1.89931   1.90587   1.90800   1.91064
 Alpha virt. eigenvalues --    1.91294   1.91491   1.91709   1.94837   1.95068
 Alpha virt. eigenvalues --    1.95778   1.96935   2.03328   2.03821   2.05181
 Alpha virt. eigenvalues --    2.07983   2.08178   2.14811   2.14962   2.15006
 Alpha virt. eigenvalues --    2.15068   2.18588   2.19963   2.21116   2.21210
 Alpha virt. eigenvalues --    2.21316   2.22059   2.23485   2.24411   2.24525
 Alpha virt. eigenvalues --    2.24766   2.25384   2.25472   2.25643   2.26271
 Alpha virt. eigenvalues --    2.26321   2.27199   2.30042   2.30428   2.34280
 Alpha virt. eigenvalues --    2.37159   2.37293   2.37323   2.41022   2.41142
 Alpha virt. eigenvalues --    2.42204   2.47202   2.49586   2.50179   2.50412
 Alpha virt. eigenvalues --    2.50454   2.52101   2.53517   2.53827   2.53839
 Alpha virt. eigenvalues --    2.53956   2.53956   2.54087   2.54555   2.54689
 Alpha virt. eigenvalues --    2.54958   2.57243   2.57390   2.57631   2.60289
 Alpha virt. eigenvalues --    2.60763   2.61171   2.65626   2.67403   2.67580
 Alpha virt. eigenvalues --    2.69227   2.76704   2.77232   2.77467   2.77898
 Alpha virt. eigenvalues --    2.80187   2.82864   2.86536   2.86704   2.87402
 Alpha virt. eigenvalues --    2.87826   2.90132   2.90701   2.91170   2.93336
 Alpha virt. eigenvalues --    2.94299   2.96158   2.96546   2.99657   3.00461
 Alpha virt. eigenvalues --    3.00800   3.01158   3.01754   3.01899   3.02896
 Alpha virt. eigenvalues --    3.09246   3.12755   3.13338   3.16370   3.25050
 Alpha virt. eigenvalues --    3.25331   3.25575   3.35576   3.36031   3.42651
 Alpha virt. eigenvalues --    3.43573   3.44027   3.44526   3.46385   3.46539
 Alpha virt. eigenvalues --    3.63554   3.64198   3.72362   3.74284  53.73514
  Beta  occ. eigenvalues --  -14.47793 -14.47727 -14.47617 -14.46869 -14.46288
  Beta  occ. eigenvalues --  -14.46040 -14.45952 -14.43845 -14.43766 -14.43634
  Beta  occ. eigenvalues --  -14.42939 -14.42407 -10.37780 -10.37682 -10.37394
  Beta  occ. eigenvalues --  -10.36884 -10.36305 -10.36227 -10.35724 -10.35391
  Beta  occ. eigenvalues --  -10.35335 -10.34873 -10.34474 -10.34188 -10.33765
  Beta  occ. eigenvalues --  -10.31567 -10.31523 -10.31317 -10.30629 -10.30284
  Beta  occ. eigenvalues --   -3.83285  -2.41470  -2.41366  -2.41336  -1.08311
  Beta  occ. eigenvalues --   -1.06317  -1.05772  -1.00208  -0.99590  -0.98572
  Beta  occ. eigenvalues --   -0.97352  -0.96800  -0.96219  -0.95598  -0.95526
  Beta  occ. eigenvalues --   -0.94587  -0.93798  -0.88120  -0.87771  -0.82125
  Beta  occ. eigenvalues --   -0.79957  -0.79554  -0.74405  -0.73380  -0.73091
  Beta  occ. eigenvalues --   -0.67112  -0.65906  -0.65804  -0.64551  -0.63059
  Beta  occ. eigenvalues --   -0.62635  -0.59394  -0.58908  -0.56999  -0.56613
  Beta  occ. eigenvalues --   -0.54611  -0.52867  -0.51459  -0.51107  -0.50927
  Beta  occ. eigenvalues --   -0.50648  -0.46185  -0.44692  -0.44370  -0.44052
  Beta  occ. eigenvalues --   -0.42528  -0.41726  -0.41569  -0.41480  -0.41153
  Beta  occ. eigenvalues --   -0.40998  -0.40622  -0.40405  -0.40402  -0.40133
  Beta  occ. eigenvalues --   -0.40089  -0.39977  -0.39877  -0.39649  -0.39529
  Beta  occ. eigenvalues --   -0.39014  -0.38509  -0.38260  -0.37872  -0.37643
  Beta  occ. eigenvalues --   -0.37259  -0.36564  -0.36172  -0.36090  -0.34757
  Beta  occ. eigenvalues --   -0.33492  -0.32518  -0.32148  -0.32122  -0.31756
  Beta virt. eigenvalues --   -0.15389  -0.15132  -0.14505  -0.13516  -0.09313
  Beta virt. eigenvalues --   -0.08755  -0.08158  -0.05336  -0.02449  -0.01960
  Beta virt. eigenvalues --   -0.01223  -0.00894   0.00433   0.01075   0.01313
  Beta virt. eigenvalues --    0.01352   0.01799   0.02342   0.03226   0.04408
  Beta virt. eigenvalues --    0.05432   0.08059   0.08989   0.09815   0.10364
  Beta virt. eigenvalues --    0.10799   0.11288   0.14536   0.14880   0.15105
  Beta virt. eigenvalues --    0.15865   0.16411   0.16852   0.18244   0.20176
  Beta virt. eigenvalues --    0.20334   0.21748   0.21954   0.22907   0.23208
  Beta virt. eigenvalues --    0.23806   0.24157   0.24601   0.25513   0.26777
  Beta virt. eigenvalues --    0.27077   0.27535   0.28671   0.29230   0.30654
  Beta virt. eigenvalues --    0.30740   0.31159   0.33112   0.35121   0.35321
  Beta virt. eigenvalues --    0.38471   0.39193   0.39849   0.40262   0.40717
  Beta virt. eigenvalues --    0.40973   0.41383   0.41528   0.41780   0.42125
  Beta virt. eigenvalues --    0.42276   0.42735   0.43109   0.44401   0.46776
  Beta virt. eigenvalues --    0.47394   0.48032   0.48244   0.48522   0.48777
  Beta virt. eigenvalues --    0.51013   0.51216   0.51243   0.51563   0.51868
  Beta virt. eigenvalues --    0.52143   0.52379   0.53568   0.54988   0.55087
  Beta virt. eigenvalues --    0.55375   0.55641   0.55970   0.56044   0.56458
  Beta virt. eigenvalues --    0.56738   0.56930   0.57801   0.59636   0.59968
  Beta virt. eigenvalues --    0.61448   0.63410   0.63913   0.64558   0.65651
  Beta virt. eigenvalues --    0.65714   0.65974   0.66442   0.66447   0.66856
  Beta virt. eigenvalues --    0.67042   0.67315   0.67526   0.68475   0.69063
  Beta virt. eigenvalues --    0.69184   0.69406   0.69698   0.70177   0.70853
  Beta virt. eigenvalues --    0.71445   0.75456   0.75514   0.76711   0.76852
  Beta virt. eigenvalues --    0.78384   0.79431   0.79930   0.80633   0.80725
  Beta virt. eigenvalues --    0.84317   0.84444   0.84619   0.84990   0.85078
  Beta virt. eigenvalues --    0.86181   0.87047   0.89222   0.89799   0.90062
  Beta virt. eigenvalues --    0.90165   0.90930   0.91719   0.92699   0.93702
  Beta virt. eigenvalues --    0.94285   0.94729   0.95192   0.96320   0.96636
  Beta virt. eigenvalues --    0.96960   0.97369   0.97540   0.98777   1.00203
  Beta virt. eigenvalues --    1.00801   1.01276   1.02068   1.03609   1.04011
  Beta virt. eigenvalues --    1.04750   1.05506   1.06132   1.07376   1.08307
  Beta virt. eigenvalues --    1.08954   1.09457   1.14342   1.15050   1.16225
  Beta virt. eigenvalues --    1.16487   1.18348   1.19379   1.19937   1.20075
  Beta virt. eigenvalues --    1.20907   1.22925   1.23949   1.24836   1.25328
  Beta virt. eigenvalues --    1.25543   1.27127   1.28284   1.30493   1.31236
  Beta virt. eigenvalues --    1.32937   1.33279   1.34079   1.35240   1.36065
  Beta virt. eigenvalues --    1.37287   1.37431   1.40857   1.42349   1.42470
  Beta virt. eigenvalues --    1.42800   1.43652   1.44470   1.44757   1.44947
  Beta virt. eigenvalues --    1.45880   1.47290   1.47786   1.55739   1.56105
  Beta virt. eigenvalues --    1.56875   1.57515   1.57861   1.59216   1.59803
  Beta virt. eigenvalues --    1.60139   1.60548   1.61244   1.61541   1.62151
  Beta virt. eigenvalues --    1.63074   1.66342   1.67034   1.67502   1.68787
  Beta virt. eigenvalues --    1.71756   1.72414   1.73104   1.75809   1.76332
  Beta virt. eigenvalues --    1.77593   1.78080   1.81687   1.82035   1.82203
  Beta virt. eigenvalues --    1.82555   1.83021   1.88353   1.88551   1.88746
  Beta virt. eigenvalues --    1.88876   1.88993   1.90078   1.90659   1.90894
  Beta virt. eigenvalues --    1.91136   1.91465   1.91648   1.91871   1.95020
  Beta virt. eigenvalues --    1.95183   1.95888   1.97490   2.03402   2.03897
  Beta virt. eigenvalues --    2.05252   2.08090   2.08354   2.14869   2.15157
  Beta virt. eigenvalues --    2.15198   2.15253   2.19032   2.20020   2.21304
  Beta virt. eigenvalues --    2.21457   2.21751   2.22198   2.23492   2.24495
  Beta virt. eigenvalues --    2.24543   2.24757   2.25379   2.25503   2.25822
  Beta virt. eigenvalues --    2.26316   2.26460   2.27336   2.30158   2.30536
  Beta virt. eigenvalues --    2.34382   2.37282   2.37477   2.37562   2.41280
  Beta virt. eigenvalues --    2.41472   2.42438   2.47392   2.49684   2.50400
  Beta virt. eigenvalues --    2.50484   2.50751   2.52471   2.53638   2.53841
  Beta virt. eigenvalues --    2.53850   2.53969   2.53969   2.54134   2.54609
  Beta virt. eigenvalues --    2.54748   2.55035   2.57417   2.57573   2.58071
  Beta virt. eigenvalues --    2.60385   2.60838   2.61237   2.65746   2.67503
  Beta virt. eigenvalues --    2.67861   2.69472   2.76855   2.77667   2.77680
  Beta virt. eigenvalues --    2.78071   2.80280   2.82991   2.86810   2.86854
  Beta virt. eigenvalues --    2.87462   2.87877   2.90327   2.90803   2.91561
  Beta virt. eigenvalues --    2.93341   2.94353   2.96217   2.96642   2.99826
  Beta virt. eigenvalues --    3.00609   3.00886   3.01231   3.01899   3.01928
  Beta virt. eigenvalues --    3.02973   3.09292   3.12812   3.13395   3.16412
  Beta virt. eigenvalues --    3.25064   3.25414   3.25598   3.35643   3.36113
  Beta virt. eigenvalues --    3.42755   3.43592   3.44048   3.44569   3.46421
  Beta virt. eigenvalues --    3.46577   3.63597   3.64230   3.72404   3.74325
  Beta virt. eigenvalues --   53.73585
          Condensed to atoms (all electrons):
               1          2          3          4          5          6
     1  N    6.243157   0.714366  -0.040235  -0.005386   0.000067   0.000014
     2  C    0.714366   5.198733   0.301336  -0.116998   0.014184   0.000663
     3  C   -0.040235   0.301336   5.084988   0.539487  -0.032838   0.014790
     4  N   -0.005386  -0.116998   0.539487   6.339199   0.638176  -0.100204
     5  C    0.000067   0.014184  -0.032838   0.638176   5.590574   0.035779
     6  C    0.000014   0.000663   0.014790  -0.100204   0.035779   5.619451
     7  N    0.000000  -0.000028   0.000121   0.005032  -0.096721   0.614953
     8  C    0.000000  -0.000004   0.000025   0.000152   0.014237  -0.028544
     9  C    0.000000   0.000000  -0.000004  -0.000032   0.001310   0.014509
    10  N    0.000000   0.000000   0.000000   0.000000   0.000018   0.000044
    11  C    0.000000   0.000000   0.000002  -0.000035   0.001748  -0.077046
    12  C    0.000000   0.000000   0.000000  -0.000001   0.000401  -0.000390
    13  N    0.000000   0.000000   0.000000   0.000000   0.000001  -0.000040
    14  N    0.000000   0.000000  -0.000001   0.000022   0.005355  -0.116461
    15  C    0.000000  -0.000018  -0.000162   0.008735  -0.069508   0.219441
    16  C    0.000000   0.000004  -0.000239  -0.001743  -0.089601  -0.076275
    17  N    0.000000   0.000000   0.000001  -0.000002  -0.001695   0.008382
    18  C    0.000000   0.000000   0.000001   0.000001  -0.000252  -0.000126
    19  C    0.000000   0.000000   0.000000   0.000000   0.000002  -0.000013
    20  N    0.000000   0.000000   0.000000   0.000000   0.000000   0.000000
    21  C    0.000000   0.000000   0.000002  -0.000001  -0.000103  -0.000245
    22  C    0.000000   0.000000   0.000000   0.000000  -0.000008   0.000001
    23  N    0.000000   0.000000   0.000000   0.000000   0.000000   0.000000
    24  N    0.000000  -0.000001  -0.000041   0.000025   0.008637  -0.001767
    25  C    0.000000   0.000433   0.002334   0.005598  -0.075061  -0.090000
    26  C   -0.000023   0.002195  -0.068055  -0.126436   0.216458  -0.065099
    27  N   -0.000017   0.000880  -0.056480  -0.043497  -0.116656   0.005633
    28  C   -0.004346  -0.132734   0.503712  -0.048227  -0.073932   0.002789
    29  C   -0.002184  -0.033551  -0.130574   0.000917   0.000415   0.000456
    30  N   -0.000320  -0.001543  -0.005342  -0.000027  -0.000035   0.000001
    31  Ag   0.125379  -0.027551  -0.002940   0.000755   0.000134  -0.000076
               7          8          9         10         11         12
     1  N    0.000000   0.000000   0.000000   0.000000   0.000000   0.000000
     2  C   -0.000028  -0.000004   0.000000   0.000000   0.000000   0.000000
     3  C    0.000121   0.000025  -0.000004   0.000000   0.000002   0.000000
     4  N    0.005032   0.000152  -0.000032   0.000000  -0.000035  -0.000001
     5  C   -0.096721   0.014237   0.001310   0.000018   0.001748   0.000401
     6  C    0.614953  -0.028544   0.014509   0.000044  -0.077046  -0.000390
     7  N    6.279024   0.581667  -0.115167  -0.005736  -0.051752   0.000330
     8  C    0.581667   5.057654   0.214384  -0.036961   0.518741  -0.122534
     9  C   -0.115167   0.214384   5.235052   0.869370  -0.119654  -0.039280
    10  N   -0.005736  -0.036961   0.869370   6.056819  -0.004386  -0.002447
    11  C   -0.051752   0.518741  -0.119654  -0.004386   5.050481   0.211849
    12  C    0.000330  -0.122534  -0.039280  -0.002447   0.211849   5.239820
    13  N   -0.000027  -0.004538  -0.002359  -0.000374  -0.037211   0.867880
    14  N   -0.042605  -0.051840   0.000413  -0.000026   0.585072  -0.116839
    15  C   -0.118391  -0.076973  -0.000078  -0.000039  -0.026674   0.014970
    16  C    0.005423   0.001537   0.000397   0.000000   0.014498   0.001437
    17  N    0.000022  -0.000030  -0.000001   0.000000   0.000107  -0.000044
    18  C   -0.000001   0.000002   0.000000   0.000000   0.000029  -0.000004
    19  C    0.000000   0.000000   0.000000   0.000000  -0.000004   0.000000
    20  N    0.000000   0.000000   0.000000   0.000000   0.000000   0.000000
    21  C    0.000001   0.000001   0.000000   0.000000   0.000002   0.000000
    22  C    0.000000   0.000000   0.000000   0.000000   0.000000   0.000000
    23  N    0.000000   0.000000   0.000000   0.000000   0.000000   0.000000
    24  N   -0.000002   0.000001   0.000000   0.000000  -0.000001   0.000000
    25  C   -0.001773  -0.000312   0.000000   0.000000  -0.000010  -0.000006
    26  C    0.008443  -0.000016  -0.000006   0.000000  -0.000316   0.000000
    27  N    0.000022  -0.000001   0.000000   0.000000   0.000001   0.000000
    28  C   -0.000031   0.000002   0.000000   0.000000   0.000001   0.000000
    29  C   -0.000001   0.000000   0.000000   0.000000   0.000000   0.000000
    30  N    0.000000   0.000000   0.000000   0.000000   0.000000   0.000000
    31  Ag   0.000048   0.000001  -0.000001   0.000000   0.000000   0.000000
              13         14         15         16         17         18
     1  N    0.000000   0.000000   0.000000   0.000000   0.000000   0.000000
     2  C    0.000000   0.000000  -0.000018   0.000004   0.000000   0.000000
     3  C    0.000000  -0.000001  -0.000162  -0.000239   0.000001   0.000001
     4  N    0.000000   0.000022   0.008735  -0.001743  -0.000002   0.000001
     5  C    0.000001   0.005355  -0.069508  -0.089601  -0.001695  -0.000252
     6  C   -0.000040  -0.116461   0.219441  -0.076275   0.008382  -0.000126
     7  N   -0.000027  -0.042605  -0.118391   0.005423   0.000022  -0.000001
     8  C   -0.004538  -0.051840  -0.076973   0.001537  -0.000030   0.000002
     9  C   -0.002359   0.000413  -0.000078   0.000397  -0.000001   0.000000
    10  N   -0.000374  -0.000026  -0.000039   0.000000   0.000000   0.000000
    11  C   -0.037211   0.585072  -0.026674   0.014498   0.000107   0.000029
    12  C    0.867880  -0.116839   0.014970   0.001437  -0.000044  -0.000004
    13  N    6.053458  -0.005795   0.000050   0.000018   0.000000   0.000000
    14  N   -0.005795   6.271548   0.614167  -0.098086   0.005067   0.000142
    15  C    0.000050   0.614167   5.606328   0.045333  -0.099845   0.014128
    16  C    0.000018  -0.098086   0.045333   5.626939   0.623844  -0.032347
    17  N    0.000000   0.005067  -0.099845   0.623844   6.277456   0.575982
    18  C    0.000000   0.000142   0.014128  -0.032347   0.575982   5.072774
    19  C    0.000000  -0.000058   0.001205   0.014873  -0.114215   0.217961
    20  N    0.000000  -0.000001   0.000017   0.000057  -0.005603  -0.036832
    21  C    0.000000  -0.000025   0.001927  -0.075154  -0.050437   0.515155
    22  C    0.000000  -0.000001   0.000418   0.000055   0.000424  -0.120004
    23  N    0.000000   0.000000   0.000001  -0.000038  -0.000027  -0.004357
    24  N    0.000000   0.000020   0.005553  -0.116549  -0.042911  -0.053404
    25  C    0.000000   0.008237  -0.074830   0.210781  -0.119331  -0.073109
    26  C    0.000000  -0.001711  -0.090696  -0.078606   0.005174   0.001883
    27  N    0.000000  -0.000002  -0.001814   0.008981   0.000024  -0.000038
    28  C    0.000000   0.000001  -0.000247  -0.000159  -0.000001   0.000002
    29  C    0.000000   0.000000   0.000001  -0.000013   0.000000   0.000000
    30  N    0.000000   0.000000   0.000000   0.000000   0.000000   0.000000
    31  Ag   0.000000   0.000000  -0.000002   0.000001   0.000000   0.000000
              19         20         21         22         23         24
     1  N    0.000000   0.000000   0.000000   0.000000   0.000000   0.000000
     2  C    0.000000   0.000000   0.000000   0.000000   0.000000  -0.000001
     3  C    0.000000   0.000000   0.000002   0.000000   0.000000  -0.000041
     4  N    0.000000   0.000000  -0.000001   0.000000   0.000000   0.000025
     5  C    0.000002   0.000000  -0.000103  -0.000008   0.000000   0.008637
     6  C   -0.000013   0.000000  -0.000245   0.000001   0.000000  -0.001767
     7  N    0.000000   0.000000   0.000001   0.000000   0.000000  -0.000002
     8  C    0.000000   0.000000   0.000001   0.000000   0.000000   0.000001
     9  C    0.000000   0.000000   0.000000   0.000000   0.000000   0.000000
    10  N    0.000000   0.000000   0.000000   0.000000   0.000000   0.000000
    11  C   -0.000004   0.000000   0.000002   0.000000   0.000000  -0.000001
    12  C    0.000000   0.000000   0.000000   0.000000   0.000000   0.000000
    13  N    0.000000   0.000000   0.000000   0.000000   0.000000   0.000000
    14  N   -0.000058  -0.000001  -0.000025  -0.000001   0.000000   0.000020
    15  C    0.001205   0.000017   0.001927   0.000418   0.000001   0.005553
    16  C    0.014873   0.000057  -0.075154   0.000055  -0.000038  -0.116549
    17  N   -0.114215  -0.005603  -0.050437   0.000424  -0.000027  -0.042911
    18  C    0.217961  -0.036832   0.515155  -0.120004  -0.004357  -0.053404
    19  C    5.229259   0.871221  -0.117271  -0.039395  -0.002439   0.000572
    20  N    0.871221   6.059092  -0.004181  -0.002372  -0.000377  -0.000025
    21  C   -0.117271  -0.004181   5.042822   0.212037  -0.036781   0.588742
    22  C   -0.039395  -0.002372   0.212037   5.235360   0.868654  -0.115358
    23  N   -0.002439  -0.000377  -0.036781   0.868654   6.057053  -0.005760
    24  N    0.000572  -0.000025   0.588742  -0.115358  -0.005760   6.294076
    25  C    0.000181  -0.000038  -0.028153   0.014878   0.000048   0.604183
    26  C    0.000402   0.000000   0.014128   0.001314   0.000018  -0.101657
    27  N   -0.000001   0.000000   0.000156  -0.000048   0.000000   0.006137
    28  C    0.000000   0.000000   0.000029  -0.000004   0.000000   0.000154
    29  C    0.000000   0.000000  -0.000004   0.000000   0.000000  -0.000049
    30  N    0.000000   0.000000   0.000000   0.000000   0.000000   0.000000
    31  Ag   0.000000   0.000000   0.000000   0.000000   0.000000   0.000000
              25         26         27         28         29         30
     1  N    0.000000  -0.000023  -0.000017  -0.004346  -0.002184  -0.000320
     2  C    0.000433   0.002195   0.000880  -0.132734  -0.033551  -0.001543
     3  C    0.002334  -0.068055  -0.056480   0.503712  -0.130574  -0.005342
     4  N    0.005598  -0.126436  -0.043497  -0.048227   0.000917  -0.000027
     5  C   -0.075061   0.216458  -0.116656  -0.073932   0.000415  -0.000035
     6  C   -0.090000  -0.065099   0.005633   0.002789   0.000456   0.000001
     7  N   -0.001773   0.008443   0.000022  -0.000031  -0.000001   0.000000
     8  C   -0.000312  -0.000016  -0.000001   0.000002   0.000000   0.000000
     9  C    0.000000  -0.000006   0.000000   0.000000   0.000000   0.000000
    10  N    0.000000   0.000000   0.000000   0.000000   0.000000   0.000000
    11  C   -0.000010  -0.000316   0.000001   0.000001   0.000000   0.000000
    12  C   -0.000006   0.000000   0.000000   0.000000   0.000000   0.000000
    13  N    0.000000   0.000000   0.000000   0.000000   0.000000   0.000000
    14  N    0.008237  -0.001711  -0.000002   0.000001   0.000000   0.000000
    15  C   -0.074830  -0.090696  -0.001814  -0.000247   0.000001   0.000000
    16  C    0.210781  -0.078606   0.008981  -0.000159  -0.000013   0.000000
    17  N   -0.119331   0.005174   0.000024  -0.000001   0.000000   0.000000
    18  C   -0.073109   0.001883  -0.000038   0.000002   0.000000   0.000000
    19  C    0.000181   0.000402  -0.000001   0.000000   0.000000   0.000000
    20  N   -0.000038   0.000000   0.000000   0.000000   0.000000   0.000000
    21  C   -0.028153   0.014128   0.000156   0.000029  -0.000004   0.000000
    22  C    0.014878   0.001314  -0.000048  -0.000004   0.000000   0.000000
    23  N    0.000048   0.000018   0.000000   0.000000   0.000000   0.000000
    24  N    0.604183  -0.101657   0.006137   0.000154  -0.000049   0.000000
    25  C    5.611717   0.071828  -0.102543   0.014501   0.001226   0.000017
    26  C    0.071828   5.631317   0.591764  -0.032027   0.015004   0.000052
    27  N   -0.102543   0.591764   6.305797   0.603470  -0.117067  -0.005862
    28  C    0.014501  -0.032027   0.603470   5.056917   0.196648  -0.036679
    29  C    0.001226   0.015004  -0.117067   0.196648   5.266017   0.873207
    30  N    0.000017   0.000052  -0.005862  -0.036679   0.873207   6.057774
    31  Ag  -0.000003   0.000082   0.000074   0.000371   0.000222   0.000462
              31
     1  N    0.125379
     2  C   -0.027551
     3  C   -0.002940
     4  N    0.000755
     5  C    0.000134
     6  C   -0.000076
     7  N    0.000048
     8  C    0.000001
     9  C   -0.000001
    10  N    0.000000
    11  C    0.000000
    12  C    0.000000
    13  N    0.000000
    14  N    0.000000
    15  C   -0.000002
    16  C    0.000001
    17  N    0.000000
    18  C    0.000000
    19  C    0.000000
    20  N    0.000000
    21  C    0.000000
    22  C    0.000000
    23  N    0.000000
    24  N    0.000000
    25  C   -0.000003
    26  C    0.000082
    27  N    0.000074
    28  C    0.000371
    29  C    0.000222
    30  N    0.000462
    31  Ag  18.517806
          Atomic-Atomic Spin Densities.
               1          2          3          4          5          6
     1  N    0.139136  -0.036483  -0.003214   0.000164   0.000007   0.000000
     2  C   -0.036483   0.049039   0.033076  -0.008796  -0.000380   0.000121
     3  C   -0.003214   0.033076   0.146145  -0.047055  -0.003348   0.000869
     4  N    0.000164  -0.008796  -0.047055   0.191857   0.015035  -0.004489
     5  C    0.000007  -0.000380  -0.003348   0.015035  -0.078052   0.003482
     6  C    0.000000   0.000121   0.000869  -0.004489   0.003482   0.037447
     7  N    0.000000   0.000001   0.000004   0.000062   0.001446   0.000212
     8  C    0.000000   0.000000  -0.000002   0.000024  -0.000048  -0.001810
     9  C    0.000000   0.000000   0.000000  -0.000011  -0.000040  -0.000033
    10  N    0.000000   0.000000   0.000000   0.000000   0.000000   0.000001
    11  C    0.000000   0.000000   0.000000   0.000006   0.000013   0.000260
    12  C    0.000000   0.000000   0.000000   0.000000   0.000003   0.000015
    13  N    0.000000   0.000000   0.000000   0.000000   0.000000   0.000000
    14  N    0.000000   0.000000   0.000000  -0.000002  -0.000078   0.000215
    15  C    0.000000   0.000002   0.000018  -0.000369  -0.001783  -0.000650
    16  C    0.000000  -0.000001  -0.000030   0.000144   0.004015  -0.004266
    17  N    0.000000   0.000000   0.000000   0.000000   0.000019  -0.000078
    18  C    0.000000   0.000000   0.000000   0.000000  -0.000015   0.000025
    19  C    0.000000   0.000000   0.000000   0.000000   0.000000   0.000000
    20  N    0.000000   0.000000   0.000000   0.000000   0.000000   0.000000
    21  C    0.000000   0.000000   0.000000   0.000000  -0.000002   0.000002
    22  C    0.000000   0.000000   0.000000   0.000000   0.000000   0.000000
    23  N    0.000000   0.000000   0.000000   0.000000   0.000000   0.000000
    24  N    0.000000   0.000000  -0.000005   0.000003   0.000009  -0.000013
    25  C    0.000000   0.000004   0.000085  -0.000619  -0.007074   0.001975
    26  C   -0.000003  -0.000014   0.004454  -0.005858  -0.009883   0.002807
    27  N    0.000002  -0.000435  -0.005219   0.002664   0.003575  -0.000354
    28  C    0.000054  -0.006941  -0.015329   0.003107   0.001756  -0.000134
    29  C   -0.000007   0.001027  -0.001560  -0.000171  -0.000126  -0.000011
    30  N    0.000004  -0.000042  -0.000091  -0.000001  -0.000001   0.000000
    31  Ag  -0.026041  -0.002046  -0.001979   0.000284   0.000017  -0.000005
               7          8          9         10         11         12
     1  N    0.000000   0.000000   0.000000   0.000000   0.000000   0.000000
     2  C    0.000001   0.000000   0.000000   0.000000   0.000000   0.000000
     3  C    0.000004  -0.000002   0.000000   0.000000   0.000000   0.000000
     4  N    0.000062   0.000024  -0.000011   0.000000   0.000006   0.000000
     5  C    0.001446  -0.000048  -0.000040   0.000000   0.000013   0.000003
     6  C    0.000212  -0.001810  -0.000033   0.000001   0.000260   0.000015
     7  N   -0.021409  -0.001178   0.000524   0.000020   0.000511  -0.000001
     8  C   -0.001178   0.027547   0.000965  -0.000197  -0.000938  -0.000308
     9  C    0.000524   0.000965  -0.008967   0.000003   0.000409   0.000019
    10  N    0.000020  -0.000197   0.000003   0.009070   0.000039  -0.000004
    11  C    0.000511  -0.000938   0.000409   0.000039  -0.022208  -0.000600
    12  C   -0.000001  -0.000308   0.000019  -0.000004  -0.000600   0.007650
    13  N    0.000000  -0.000019   0.000003   0.000000   0.000078  -0.000271
    14  N    0.000022  -0.000645  -0.000018   0.000000   0.001455  -0.000514
    15  C    0.000068   0.000194   0.000061   0.000001   0.000974  -0.000025
    16  C   -0.000012   0.000096   0.000002   0.000000  -0.000045   0.000002
    17  N    0.000000   0.000000   0.000000   0.000000  -0.000010   0.000001
    18  C    0.000000   0.000000   0.000000   0.000000   0.000001   0.000000
    19  C    0.000000   0.000000   0.000000   0.000000   0.000000   0.000000
    20  N    0.000000   0.000000   0.000000   0.000000   0.000000   0.000000
    21  C    0.000000   0.000000   0.000000   0.000000   0.000000   0.000000
    22  C    0.000000   0.000000   0.000000   0.000000   0.000000   0.000000
    23  N    0.000000   0.000000   0.000000   0.000000   0.000000   0.000000
    24  N    0.000000   0.000000   0.000000   0.000000   0.000000   0.000000
    25  C   -0.000008  -0.000002   0.000000   0.000000   0.000002   0.000000
    26  C    0.000117  -0.000039  -0.000002   0.000000   0.000011   0.000000
    27  N   -0.000001   0.000000   0.000000   0.000000   0.000000   0.000000
    28  C   -0.000003   0.000000   0.000000   0.000000   0.000000   0.000000
    29  C    0.000000   0.000000   0.000000   0.000000   0.000000   0.000000
    30  N    0.000000   0.000000   0.000000   0.000000   0.000000   0.000000
    31  Ag   0.000000   0.000001   0.000000   0.000000   0.000000   0.000000
              13         14         15         16         17         18
     1  N    0.000000   0.000000   0.000000   0.000000   0.000000   0.000000
     2  C    0.000000   0.000000   0.000002  -0.000001   0.000000   0.000000
     3  C    0.000000   0.000000   0.000018  -0.000030   0.000000   0.000000
     4  N    0.000000  -0.000002  -0.000369   0.000144   0.000000   0.000000
     5  C    0.000000  -0.000078  -0.001783   0.004015   0.000019  -0.000015
     6  C    0.000000   0.000215  -0.000650  -0.004266  -0.000078   0.000025
     7  N    0.000000   0.000022   0.000068  -0.000012   0.000000   0.000000
     8  C   -0.000019  -0.000645   0.000194   0.000096   0.000000   0.000000
     9  C    0.000003  -0.000018   0.000061   0.000002   0.000000   0.000000
    10  N    0.000000   0.000000   0.000001   0.000000   0.000000   0.000000
    11  C    0.000078   0.001455   0.000974  -0.000045  -0.000010   0.000001
    12  C   -0.000271  -0.000514  -0.000025   0.000002   0.000001   0.000000
    13  N   -0.006872  -0.000020  -0.000001   0.000000   0.000000   0.000000
    14  N   -0.000020   0.021068  -0.000668  -0.001494  -0.000040   0.000016
    15  C   -0.000001  -0.000668  -0.028089   0.007310   0.001335  -0.000012
    16  C    0.000000  -0.001494   0.007310   0.061498   0.006437  -0.005816
    17  N    0.000000  -0.000040   0.001335   0.006437  -0.037080  -0.010120
    18  C    0.000000   0.000016  -0.000012  -0.005816  -0.010120   0.120167
    19  C    0.000000   0.000000  -0.000024  -0.000010   0.001057   0.003766
    20  N    0.000000   0.000000   0.000000   0.000006   0.000075  -0.001326
    21  C    0.000000  -0.000001  -0.000043   0.001045   0.001035  -0.006574
    22  C    0.000000   0.000000  -0.000003  -0.000049   0.000012  -0.001230
    23  N    0.000000   0.000000   0.000000  -0.000001   0.000000  -0.000060
    24  N    0.000000   0.000000  -0.000093   0.002684   0.000620  -0.004211
    25  C    0.000000   0.000059  -0.001255  -0.015240  -0.000079   0.002099
    26  C    0.000000   0.000014  -0.001540  -0.007132  -0.000125   0.000231
    27  N    0.000000   0.000000   0.000037   0.000196   0.000001  -0.000007
    28  C    0.000000   0.000000   0.000002   0.000020   0.000000   0.000000
    29  C    0.000000   0.000000   0.000000   0.000000   0.000000   0.000000
    30  N    0.000000   0.000000   0.000000   0.000000   0.000000   0.000000
    31  Ag   0.000000   0.000000   0.000000   0.000000   0.000000   0.000000
              19         20         21         22         23         24
     1  N    0.000000   0.000000   0.000000   0.000000   0.000000   0.000000
     2  C    0.000000   0.000000   0.000000   0.000000   0.000000   0.000000
     3  C    0.000000   0.000000   0.000000   0.000000   0.000000  -0.000005
     4  N    0.000000   0.000000   0.000000   0.000000   0.000000   0.000003
     5  C    0.000000   0.000000  -0.000002   0.000000   0.000000   0.000009
     6  C    0.000000   0.000000   0.000002   0.000000   0.000000  -0.000013
     7  N    0.000000   0.000000   0.000000   0.000000   0.000000   0.000000
     8  C    0.000000   0.000000   0.000000   0.000000   0.000000   0.000000
     9  C    0.000000   0.000000   0.000000   0.000000   0.000000   0.000000
    10  N    0.000000   0.000000   0.000000   0.000000   0.000000   0.000000
    11  C    0.000000   0.000000   0.000000   0.000000   0.000000   0.000000
    12  C    0.000000   0.000000   0.000000   0.000000   0.000000   0.000000
    13  N    0.000000   0.000000   0.000000   0.000000   0.000000   0.000000
    14  N    0.000000   0.000000  -0.000001   0.000000   0.000000   0.000000
    15  C   -0.000024   0.000000  -0.000043  -0.000003   0.000000  -0.000093
    16  C   -0.000010   0.000006   0.001045  -0.000049  -0.000001   0.002684
    17  N    0.001057   0.000075   0.001035   0.000012   0.000000   0.000620
    18  C    0.003766  -0.001326  -0.006574  -0.001230  -0.000060  -0.004211
    19  C   -0.034936  -0.000418   0.000273   0.000377   0.000015  -0.000087
    20  N   -0.000418   0.039784   0.000094  -0.000007  -0.000001   0.000001
    21  C    0.000273   0.000094  -0.046778  -0.002131  -0.000191   0.008077
    22  C    0.000377  -0.000007  -0.002131   0.016797  -0.000663  -0.002375
    23  N    0.000015  -0.000001  -0.000191  -0.000663  -0.012420  -0.000098
    24  N   -0.000087   0.000001   0.008077  -0.002375  -0.000098   0.090268
    25  C   -0.000004   0.000000  -0.000186   0.000234   0.000003  -0.015401
    26  C    0.000001   0.000000  -0.000092   0.000041   0.000000  -0.006493
    27  N    0.000000   0.000000   0.000027  -0.000004   0.000000   0.001228
    28  C    0.000000   0.000000   0.000001   0.000000   0.000000   0.000034
    29  C    0.000000   0.000000   0.000000   0.000000   0.000000  -0.000006
    30  N    0.000000   0.000000   0.000000   0.000000   0.000000   0.000000
    31  Ag   0.000000   0.000000   0.000000   0.000000   0.000000   0.000000
              25         26         27         28         29         30
     1  N    0.000000  -0.000003   0.000002   0.000054  -0.000007   0.000004
     2  C    0.000004  -0.000014  -0.000435  -0.006941   0.001027  -0.000042
     3  C    0.000085   0.004454  -0.005219  -0.015329  -0.001560  -0.000091
     4  N   -0.000619  -0.005858   0.002664   0.003107  -0.000171  -0.000001
     5  C   -0.007074  -0.009883   0.003575   0.001756  -0.000126  -0.000001
     6  C    0.001975   0.002807  -0.000354  -0.000134  -0.000011   0.000000
     7  N   -0.000008   0.000117  -0.000001  -0.000003   0.000000   0.000000
     8  C   -0.000002  -0.000039   0.000000   0.000000   0.000000   0.000000
     9  C    0.000000  -0.000002   0.000000   0.000000   0.000000   0.000000
    10  N    0.000000   0.000000   0.000000   0.000000   0.000000   0.000000
    11  C    0.000002   0.000011   0.000000   0.000000   0.000000   0.000000
    12  C    0.000000   0.000000   0.000000   0.000000   0.000000   0.000000
    13  N    0.000000   0.000000   0.000000   0.000000   0.000000   0.000000
    14  N    0.000059   0.000014   0.000000   0.000000   0.000000   0.000000
    15  C   -0.001255  -0.001540   0.000037   0.000002   0.000000   0.000000
    16  C   -0.015240  -0.007132   0.000196   0.000020   0.000000   0.000000
    17  N   -0.000079  -0.000125   0.000001   0.000000   0.000000   0.000000
    18  C    0.002099   0.000231  -0.000007   0.000000   0.000000   0.000000
    19  C   -0.000004   0.000001   0.000000   0.000000   0.000000   0.000000
    20  N    0.000000   0.000000   0.000000   0.000000   0.000000   0.000000
    21  C   -0.000186  -0.000092   0.000027   0.000001   0.000000   0.000000
    22  C    0.000234   0.000041  -0.000004   0.000000   0.000000   0.000000
    23  N    0.000003   0.000000   0.000000   0.000000   0.000000   0.000000
    24  N   -0.015401  -0.006493   0.001228   0.000034  -0.000006   0.000000
    25  C    0.013606   0.023309  -0.004029  -0.000275   0.000057   0.000000
    26  C    0.023309   0.164022  -0.034732  -0.004629   0.000460   0.000008
    27  N   -0.004029  -0.034732   0.088826   0.016160  -0.002372  -0.000124
    28  C   -0.000275  -0.004629   0.016160  -0.021827   0.000972  -0.000538
    29  C    0.000057   0.000460  -0.002372   0.000972   0.007111  -0.000841
    30  N    0.000000   0.000008  -0.000124  -0.000538  -0.000841  -0.004119
    31  Ag  -0.000001  -0.000012   0.000010   0.000066   0.000010   0.000004
              31
     1  N   -0.026041
     2  C   -0.002046
     3  C   -0.001979
     4  N    0.000284
     5  C    0.000017
     6  C   -0.000005
     7  N    0.000000
     8  C    0.000001
     9  C    0.000000
    10  N    0.000000
    11  C    0.000000
    12  C    0.000000
    13  N    0.000000
    14  N    0.000000
    15  C    0.000000
    16  C    0.000000
    17  N    0.000000
    18  C    0.000000
    19  C    0.000000
    20  N    0.000000
    21  C    0.000000
    22  C    0.000000
    23  N    0.000000
    24  N    0.000000
    25  C   -0.000001
    26  C   -0.000012
    27  N    0.000010
    28  C    0.000066
    29  C    0.000010
    30  N    0.000004
    31  Ag   0.428732
 Mulliken charges and spin densities:
               1          2
     1  N   -0.030472   0.073618
     2  C    0.079633   0.028132
     3  C   -0.109890   0.106818
     4  N   -0.095511   0.145979
     5  C    0.028911  -0.071457
     6  C    0.019379   0.035589
     7  N   -0.062852  -0.019626
     8  C   -0.066650   0.023642
     9  C   -0.058851  -0.007085
    10  N    0.123718   0.008932
    11  C   -0.065443  -0.020042
    12  C   -0.055144   0.005966
    13  N    0.128937  -0.007101
    14  N   -0.056593   0.019371
    15  C    0.027002  -0.024553
    16  C    0.014631   0.049360
    17  N   -0.062340  -0.036940
    18  C   -0.077586   0.096934
    19  C   -0.062280  -0.029991
    20  N    0.119041   0.038208
    21  C   -0.062647  -0.045443
    22  C   -0.055949   0.011000
    23  N    0.124005  -0.013417
    24  N   -0.070576   0.074141
    25  C    0.019206  -0.002741
    26  C    0.004587   0.124921
    27  N   -0.078915   0.065450
    28  C   -0.050211  -0.027505
    29  C   -0.070671   0.004542
    30  N    0.118294  -0.005741
    31  Ag   0.385237   0.399039
 Sum of Mulliken charges =   0.00000   1.00000
 Mulliken charges and spin densities with hydrogens summed into heavy atoms:
               1          2
     1  N   -0.030472   0.073618
     2  C    0.079633   0.028132
     3  C   -0.109890   0.106818
     4  N   -0.095511   0.145979
     5  C    0.028911  -0.071457
     6  C    0.019379   0.035589
     7  N   -0.062852  -0.019626
     8  C   -0.066650   0.023642
     9  C   -0.058851  -0.007085
    10  N    0.123718   0.008932
    11  C   -0.065443  -0.020042
    12  C   -0.055144   0.005966
    13  N    0.128937  -0.007101
    14  N   -0.056593   0.019371
    15  C    0.027002  -0.024553
    16  C    0.014631   0.049360
    17  N   -0.062340  -0.036940
    18  C   -0.077586   0.096934
    19  C   -0.062280  -0.029991
    20  N    0.119041   0.038208
    21  C   -0.062647  -0.045443
    22  C   -0.055949   0.011000
    23  N    0.124005  -0.013417
    24  N   -0.070576   0.074141
    25  C    0.019206  -0.002741
    26  C    0.004587   0.124921
    27  N   -0.078915   0.065450
    28  C   -0.050211  -0.027505
    29  C   -0.070671   0.004542
    30  N    0.118294  -0.005741
    31  Ag   0.385237   0.399039
 Electronic spatial extent (au):  <R**2>=          16647.4593
 Charge=              0.0000 electrons
 Dipole moment (field-independent basis, Debye):
    X=             -7.8624    Y=             10.4711    Z=             -1.1600  Tot=             13.1456
 Quadrupole moment (field-independent basis, Debye-Ang):
   XX=           -227.7978   YY=           -180.3646   ZZ=           -178.3426
   XY=            -49.9172   XZ=              1.1018   YZ=              6.4608
 Traceless Quadrupole moment (field-independent basis, Debye-Ang):
   XX=            -32.2961   YY=             15.1371   ZZ=             17.1591
   XY=            -49.9172   XZ=              1.1018   YZ=              6.4608
 Octapole moment (field-independent basis, Debye-Ang**2):
  XXX=             67.0255  YYY=             94.2206  ZZZ=             32.7298  XYY=           -253.9368
  XXY=            168.7408  XXZ=            -31.0239  XZZ=             72.0834  YZZ=           -119.6522
  YYZ=            -37.9599  XYZ=             42.9916
 Hexadecapole moment (field-independent basis, Debye-Ang**3):
 XXXX=         -12946.2265 YYYY=         -12384.4293 ZZZZ=           -514.7641 XXXY=            564.0564
 XXXZ=           -420.0709 YYYX=           -827.0220 YYYZ=           1083.5443 ZZZX=           -362.7636
 ZZZY=            966.7337 XXYY=          -3442.9367 XXZZ=          -1824.2166 YYZZ=          -2312.7308
 XXYZ=            327.6100 YYXZ=            110.1774 ZZXY=            502.8516
 N-N= 2.627554057170D+03 E-N=-8.684639526082D+03  KE= 1.384931151436D+03
                          Isotropic Fermi Contact Couplings
        Atom                 a.u.       MegaHertz       Gauss      10(-4) cm-1
     1  N(14)              0.11591      37.45179      13.36373      12.49257
     2  C(13)              0.00287       3.22932       1.15230       1.07718
     3  C(13)              0.01112      12.49702       4.45925       4.16856
     4  N(14)              0.04451      14.38138       5.13163       4.79711
     5  C(13)             -0.01736     -19.52149      -6.96575      -6.51167
     6  C(13)              0.00609       6.84674       2.44309       2.28383
     7  N(14)             -0.00593      -1.91608      -0.68370      -0.63913
     8  C(13)              0.00519       5.83754       2.08298       1.94719
     9  C(13)             -0.00248      -2.78287      -0.99300      -0.92827
    10  N(14)              0.00194       0.62835       0.22421       0.20959
    11  C(13)             -0.00471      -5.29167      -1.88820      -1.76511
    12  C(13)              0.00196       2.20831       0.78798       0.73661
    13  N(14)             -0.00152      -0.49046      -0.17501      -0.16360
    14  N(14)              0.00575       1.85757       0.66283       0.61962
    15  C(13)             -0.00620      -6.97530      -2.48896      -2.32671
    16  C(13)              0.00939      10.55999       3.76807       3.52243
    17  N(14)             -0.01185      -3.82796      -1.36591      -1.27687
    18  C(13)              0.01874      21.06452       7.51634       7.02637
    19  C(13)             -0.01061     -11.92315      -4.25448      -3.97713
    20  N(14)              0.00838       2.70838       0.96642       0.90342
    21  C(13)             -0.01260     -14.16925      -5.05594      -4.72635
    22  C(13)              0.00352       3.95980       1.41295       1.32085
    23  N(14)             -0.00290      -0.93618      -0.33405      -0.31228
    24  N(14)              0.02053       6.63483       2.36747       2.21314
    25  C(13)             -0.00660      -7.41771      -2.64682      -2.47428
    26  C(13)              0.01640      18.43838       6.57927       6.15038
    27  N(14)              0.01773       5.72790       2.04386       1.91062
    28  C(13)             -0.00939     -10.55634      -3.76676      -3.52122
    29  C(13)              0.00077       0.86902       0.31009       0.28987
    30  N(14)             -0.00125      -0.40314      -0.14385      -0.13447
    31  Ag(107             0.00013      -0.02439      -0.00870      -0.00813
 --------------------------------------------------------
       Center         ----  Spin Dipole Couplings  ----
                      3XX-RR        3YY-RR        3ZZ-RR
 --------------------------------------------------------
     1   Atom       -0.078278     -0.076134      0.154413
     2   Atom       -0.033804     -0.027298      0.061102
     3   Atom       -0.059834     -0.043428      0.103263
     4   Atom       -0.172079     -0.147106      0.319185
     5   Atom        0.025738      0.023722     -0.049461
     6   Atom       -0.012569     -0.009443      0.022013
     7   Atom        0.017782      0.018182     -0.035964
     8   Atom       -0.011069     -0.010879      0.021947
     9   Atom        0.004065      0.000125     -0.004190
    10   Atom       -0.010052     -0.005716      0.015768
    11   Atom        0.010420      0.008766     -0.019186
    12   Atom       -0.000473     -0.002382      0.002855
    13   Atom        0.005422      0.007253     -0.012675
    14   Atom       -0.019608     -0.017355      0.036963
    15   Atom        0.008013      0.007907     -0.015920
    16   Atom       -0.027751     -0.022560      0.050311
    17   Atom        0.030686      0.027662     -0.058348
    18   Atom       -0.051436     -0.043623      0.095059
    19   Atom        0.004247      0.011165     -0.015412
    20   Atom       -0.033701     -0.035368      0.069069
    21   Atom        0.018254      0.021169     -0.039423
    22   Atom       -0.005106     -0.000175      0.005280
    23   Atom        0.015968      0.007211     -0.023179
    24   Atom       -0.077454     -0.072453      0.149907
    25   Atom       -0.009658     -0.009993      0.019650
    26   Atom       -0.064179     -0.056018      0.120197
    27   Atom       -0.077836     -0.067181      0.145017
    28   Atom        0.012123      0.007233     -0.019356
    29   Atom        0.000575     -0.001342      0.000767
    30   Atom        0.003713      0.005681     -0.009394
    31   Atom       -0.001488      0.002023     -0.000534
 --------------------------------------------------------
                        XY            XZ            YZ
 --------------------------------------------------------
     1   Atom        0.002960      0.084692     -0.078286
     2   Atom       -0.011190     -0.010188     -0.021295
     3   Atom       -0.006022     -0.021843      0.044702
     4   Atom       -0.009889     -0.035190      0.106464
     5   Atom       -0.006212      0.006339     -0.015742
     6   Atom       -0.000738     -0.002037      0.005654
     7   Atom        0.001736      0.002509     -0.010101
     8   Atom        0.000092     -0.001986      0.006557
     9   Atom        0.000643      0.000377     -0.000755
    10   Atom       -0.000145     -0.001429      0.004195
    11   Atom        0.000323      0.001674     -0.005370
    12   Atom       -0.000839     -0.000040      0.000979
    13   Atom        0.001440      0.000777     -0.003764
    14   Atom        0.000191     -0.003104      0.009774
    15   Atom        0.001392      0.001233     -0.004802
    16   Atom       -0.000578     -0.004509      0.014053
    17   Atom       -0.000379      0.005322     -0.016693
    18   Atom       -0.003842     -0.007830      0.026758
    19   Atom       -0.008023      0.002675     -0.005639
    20   Atom        0.004863     -0.006978      0.020610
    21   Atom       -0.001714      0.003712     -0.011902
    22   Atom       -0.001683     -0.000292      0.000973
    23   Atom        0.000997      0.002076     -0.005875
    24   Atom       -0.004967     -0.012821      0.043093
    25   Atom       -0.003362     -0.001338      0.005962
    26   Atom       -0.004443     -0.009264      0.034535
    27   Atom       -0.004204     -0.012500      0.040827
    28   Atom       -0.003489      0.002058     -0.005736
    29   Atom       -0.000718      0.000256      0.000227
    30   Atom        0.002267     -0.000895     -0.002472
    31   Atom        0.005418      0.013893     -0.010639
 --------------------------------------------------------


 ---------------------------------------------------------------------------------
              Anisotropic Spin Dipole Couplings in Principal Axis System
 ---------------------------------------------------------------------------------

       Atom             a.u.   MegaHertz   Gauss  10(-4) cm-1        Axes

              Baa    -0.1274    -4.915    -1.754    -1.640  0.6894 -0.6175 -0.3787
     1 N(14)  Bbb    -0.0742    -2.860    -1.021    -0.954  0.6692  0.7431  0.0066
              Bcc     0.2016     7.776     2.774     2.594  0.2773 -0.2579  0.9255
 
              Baa    -0.0464    -6.233    -2.224    -2.079  0.7343  0.6493  0.1981
     2 C(13)  Bbb    -0.0201    -2.694    -0.961    -0.899 -0.6747  0.7303  0.1069
              Bcc     0.0665     8.927     3.185     2.978 -0.0753 -0.2122  0.9743
 
              Baa    -0.0627    -8.415    -3.003    -2.807  0.9919  0.0191  0.1254
     3 C(13)  Bbb    -0.0560    -7.511    -2.680    -2.506  0.0154  0.9632 -0.2683
              Bcc     0.1187    15.927     5.683     5.313 -0.1259  0.2680  0.9551
 
              Baa    -0.1756    -6.771    -2.416    -2.258  0.9223  0.3860 -0.0175
     4 N(14)  Bbb    -0.1694    -6.532    -2.331    -2.179 -0.3799  0.8977 -0.2230
              Bcc     0.3449    13.303     4.747     4.437 -0.0704  0.2123  0.9747
 
              Baa    -0.0530    -7.114    -2.539    -2.373 -0.0633  0.1956  0.9786
     5 C(13)  Bbb     0.0191     2.569     0.917     0.857  0.7271  0.6807 -0.0890
              Bcc     0.0339     4.545     1.622     1.516 -0.6836  0.7059 -0.1854
 
              Baa    -0.0128    -1.712    -0.611    -0.571  0.9854  0.1673  0.0305
     6 C(13)  Bbb    -0.0104    -1.391    -0.496    -0.464 -0.1592  0.9708 -0.1795
              Bcc     0.0231     3.103     1.107     1.035 -0.0597  0.1721  0.9833
 
              Baa    -0.0379    -1.463    -0.522    -0.488 -0.0498  0.1785  0.9827
     7 N(14)  Bbb     0.0173     0.668     0.238     0.223  0.9036 -0.4111  0.1205
              Bcc     0.0206     0.794     0.283     0.265  0.4255  0.8939 -0.1408
 
              Baa    -0.0123    -1.654    -0.590    -0.552 -0.3739  0.9067 -0.1951
     8 C(13)  Bbb    -0.0110    -1.475    -0.526    -0.492  0.9257  0.3776 -0.0194
              Bcc     0.0233     3.129     1.116     1.044 -0.0561  0.1879  0.9806
 
              Baa    -0.0043    -0.583    -0.208    -0.195 -0.0574  0.1742  0.9830
     9 C(13)  Bbb     0.0002     0.023     0.008     0.008 -0.1431  0.9731 -0.1808
              Bcc     0.0042     0.560     0.200     0.187  0.9880  0.1511  0.0309
 
              Baa    -0.0101    -0.391    -0.139    -0.130  0.9980 -0.0232  0.0588
    10 N(14)  Bbb    -0.0065    -0.251    -0.089    -0.084  0.0336  0.9825 -0.1829
              Bcc     0.0166     0.642     0.229     0.214 -0.0536  0.1846  0.9814
 
              Baa    -0.0203    -2.721    -0.971    -0.908 -0.0554  0.1821  0.9817
    11 C(13)  Bbb     0.0098     1.310     0.467     0.437 -0.0163  0.9829 -0.1833
              Bcc     0.0105     1.411     0.503     0.471  0.9983  0.0261  0.0515
 
              Baa    -0.0028    -0.381    -0.136    -0.127  0.3272  0.9317 -0.1578
    12 C(13)  Bbb    -0.0002    -0.027    -0.010    -0.009  0.9433 -0.3122  0.1124
              Bcc     0.0030     0.408     0.146     0.136 -0.0555  0.1856  0.9811
 
              Baa    -0.0134    -0.518    -0.185    -0.173 -0.0544  0.1826  0.9817
    13 N(14)  Bbb     0.0049     0.190     0.068     0.064  0.9191 -0.3751  0.1207
              Bcc     0.0085     0.327     0.117     0.109  0.3903  0.9088 -0.1474
 
              Baa    -0.0202    -0.780    -0.278    -0.260  0.8471 -0.5142  0.1339
    14 N(14)  Bbb    -0.0186    -0.718    -0.256    -0.239  0.5288  0.8404 -0.1183
              Bcc     0.0388     1.497     0.534     0.499 -0.0517  0.1710  0.9839
 
              Baa    -0.0169    -2.273    -0.811    -0.758 -0.0592  0.1926  0.9795
    15 C(13)  Bbb     0.0073     0.977     0.349     0.326  0.8079 -0.5671  0.1603
              Bcc     0.0097     1.296     0.462     0.432  0.5864  0.8008 -0.1221
 
              Baa    -0.0280    -3.761    -1.342    -1.255  0.9944 -0.0779  0.0712
    16 C(13)  Bbb    -0.0252    -3.375    -1.204    -1.126  0.0895  0.9801 -0.1772
              Bcc     0.0532     7.137     2.546     2.380 -0.0560  0.1826  0.9816
 
              Baa    -0.0618    -2.382    -0.850    -0.795 -0.0558  0.1830  0.9815
    17 N(14)  Bbb     0.0295     1.139     0.406     0.380  0.6813  0.7256 -0.0966
              Bcc     0.0322     1.243     0.444     0.415  0.7299 -0.6633  0.1651
 
              Baa    -0.0531    -7.127    -2.543    -2.377  0.8863  0.4618 -0.0366
    18 C(13)  Bbb    -0.0474    -6.360    -2.269    -2.121 -0.4599  0.8678 -0.1883
              Bcc     0.1005    13.487     4.813     4.499 -0.0552  0.1837  0.9814
 
              Baa    -0.0166    -2.230    -0.796    -0.744 -0.0554  0.1832  0.9815
    19 C(13)  Bbb    -0.0010    -0.132    -0.047    -0.044  0.8443  0.5334 -0.0520
              Bcc     0.0176     2.362     0.843     0.788 -0.5330  0.8258 -0.1842
 
              Baa    -0.0433    -1.669    -0.596    -0.557 -0.5482  0.8159 -0.1837
    20 N(14)  Bbb    -0.0300    -1.159    -0.413    -0.387  0.8345  0.5483 -0.0553
              Bcc     0.0733     2.828     1.009     0.943 -0.0556  0.1836  0.9814
 
              Baa    -0.0419    -5.617    -2.004    -1.874 -0.0554  0.1838  0.9814
    21 C(13)  Bbb     0.0175     2.347     0.838     0.783  0.9271  0.3744 -0.0178
              Bcc     0.0244     3.270     1.167     1.091 -0.3707  0.9089 -0.1911
 
              Baa    -0.0056    -0.755    -0.269    -0.252  0.9555  0.2951 -0.0007
    22 C(13)  Bbb     0.0001     0.019     0.007     0.006 -0.2897  0.9372 -0.1941
              Bcc     0.0055     0.736     0.262     0.245 -0.0566  0.1856  0.9810
 
              Baa    -0.0244    -0.941    -0.336    -0.314 -0.0550  0.1841  0.9814
    23 N(14)  Bbb     0.0083     0.319     0.114     0.106 -0.0761  0.9792 -0.1880
              Bcc     0.0161     0.622     0.222     0.208  0.9956  0.0850  0.0399
 
              Baa    -0.0821    -3.168    -1.130    -1.057  0.5410  0.8317 -0.1246
    24 N(14)  Bbb    -0.0766    -2.954    -1.054    -0.985  0.8391 -0.5238  0.1471
              Bcc     0.1587     6.122     2.185     2.042 -0.0571  0.1841  0.9812
 
              Baa    -0.0136    -1.822    -0.650    -0.608  0.6239  0.7732 -0.1136
    25 C(13)  Bbb    -0.0073    -0.986    -0.352    -0.329  0.7789 -0.6032  0.1718
              Bcc     0.0209     2.809     1.002     0.937 -0.0643  0.1957  0.9786
 
              Baa    -0.0665    -8.920    -3.183    -2.975  0.8286  0.5564 -0.0618
    26 C(13)  Bbb    -0.0608    -8.154    -2.910    -2.720 -0.5574  0.8098 -0.1831
              Bcc     0.1272    17.074     6.092     5.695 -0.0518  0.1862  0.9812
 
              Baa    -0.0793    -3.059    -1.092    -1.020  0.9253  0.3789 -0.0174
    27 N(14)  Bbb    -0.0740    -2.855    -1.019    -0.952 -0.3751  0.9072 -0.1905
              Bcc     0.1533     5.914     2.110     1.973 -0.0564  0.1828  0.9815
 
              Baa    -0.0206    -2.764    -0.986    -0.922 -0.0406  0.1968  0.9796
    28 C(13)  Bbb     0.0060     0.809     0.289     0.270  0.5283  0.8364 -0.1461
              Bcc     0.0146     1.954     0.697     0.652  0.8481 -0.5116  0.1380
 
              Baa    -0.0016    -0.217    -0.077    -0.072  0.3218  0.9387 -0.1238
    29 C(13)  Bbb     0.0006     0.086     0.031     0.029 -0.6307  0.3101  0.7114
              Bcc     0.0010     0.131     0.047     0.044  0.7062 -0.1509  0.6918
 
              Baa    -0.0098    -0.378    -0.135    -0.126  0.0399  0.1518  0.9876
    30 N(14)  Bbb     0.0023     0.087     0.031     0.029  0.8483 -0.5275  0.0468
              Bcc     0.0076     0.291     0.104     0.097  0.5280  0.8359 -0.1498
 
              Baa    -0.0206     0.448     0.160     0.149 -0.6038  0.4523  0.6563
    31 Ag(107 Bbb     0.0060    -0.129    -0.046    -0.043  0.6141  0.7890  0.0212
              Bcc     0.0147    -0.319    -0.114    -0.106  0.5082 -0.4159  0.7542
 

 ---------------------------------------------------------------------------------

 No NMR shielding tensors so no spin-rotation constants.
 Leave Link  601 at Sat Sep 12 00:11:39 2026, MaxMem=  6442450944 cpu:               5.0 elap:               4.8
 (Enter C:\G16W\l9999.exe)
 Unable to Open any file for archive entry.
 1|1|UNPC-DESKTOP-2JKEGCA|SP|UPBE1PBE|def2SVP|C18Ag1N12(2)|JHKIM|12-Sep
 -2026|0||#P PBE1PBE/Def2SVP EmpiricalDispersion=GD3BJ SP SCF=(XQC,MaxC
 ycle=128) NoSymm Guess=Read||HATCN t=0.250 dz=+0.00 class=site2site||0
 ,2|N,0,-2.611348,5.399985,-1.155538|C,0,-1.91032,4.498728,-0.947808|C,
 0,-1.020781,3.405143,-0.693573|N,0,-1.60315,2.191496,-0.499794|C,0,-0.
 81575,1.110993,-0.253581|C,0,-1.393339,-0.141391,-0.052273|N,0,-2.7444
 45,-0.283235,-0.102199|C,0,-3.289096,-1.51343,0.096812|C,0,-4.717936,-
 1.589392,0.03004|N,0,-5.874228,-1.675402,-0.019378|C,0,-2.494073,-2.60
 3514,0.345437|C,0,-3.019195,-3.918595,0.561413|N,0,-3.467734,-4.975035
 ,0.733469|N,0,-1.140539,-2.482394,0.399369|C,0,-0.576747,-1.261039,0.2
 03066|C,0,0.80853,-1.116108,0.254224|N,0,1.59673,-2.195985,0.500607|C,
 0,2.946318,-2.03432,0.546556|C,0,3.714722,-3.214024,0.810558|N,0,4.358
 155,-4.156189,1.023098|C,0,3.51485,-0.801628,0.348106|C,0,4.929519,-0.
 580153,0.386379|N,0,6.079085,-0.424992,0.422118|N,0,2.743704,0.29089,0
 .100372|C,0,1.392486,0.150039,0.050519|C,0,0.584785,1.257497,-0.201933
 |N,0,1.147692,2.479234,-0.398398|C,0,0.342769,3.547761,-0.64334|C,0,1.
 003212,4.803441,-0.840583|N,0,1.516124,5.83162,-1.003743|Ag,0,-4.28637
 081,6.73126425,-0.61082501||Version=EM64W-G16RevC.01|HF=-1487.2262799|
 S2=0.761063|S2-1=0.|S2A=0.750108|RMSD=9.818e-009|Dipole=-3.0933082,4.1
 196519,-0.4563627|Quadrupole=-24.0113763,11.2540371,12.7573392,-37.112
 2194,0.8191618,4.8034593|PG=C01 [X(C18Ag1N12)]||@
 The archive entry for this job was punched.


 SEE YOU NOW,
 YOUR BAIT OF FALSEHOOD TAKES THIS CARP OF TRUTH.
 AND THUS DO WE OF WISDOM AND OF REACH...
 BY INDIRECTIONS FIND DIRECTIONS OUT.    -- HAMLET, II, 1
 Job cpu time:       0 days  0 hours 13 minutes 32.0 seconds.
 Elapsed time:       0 days  0 hours 13 minutes 29.4 seconds.
 File lengths (MBytes):  RWF=    192 Int=      0 D2E=      0 Chk=     15 Scr=      1
 Normal termination of Gaussian 16 at Sat Sep 12 00:11:40 2026.
