 Entering Gaussian System, Link 0=C:\G16W\g16.exe
 Input=HATCN_t1_z1.gjf
 Output=HATCN_t1_z1.out
 Initial command:
 C:\G16W\l1.exe ".\Gau-33884.inp" "HATCN_t1_z1.out" /scrdir=".\"
 Entering Link 1 = C:\G16W\l1.exe PID=    148744.
  
 Copyright (c) 1988-2019, Gaussian, Inc.  All Rights Reserved.
  
 This is part of the Gaussian(R) 16 program.  It is based on
 the Gaussian(R) 09 system (copyright 2009, Gaussian, Inc.),
 the Gaussian(R) 03 system (copyright 2003, Gaussian, Inc.),
 the Gaussian(R) 98 system (copyright 1998, Gaussian, Inc.),
 the Gaussian(R) 94 system (copyright 1995, Gaussian, Inc.),
 the Gaussian 92(TM) system (copyright 1992, Gaussian, Inc.),
 the Gaussian 90(TM) system (copyright 1990, Gaussian, Inc.),
 the Gaussian 88(TM) system (copyright 1988, Gaussian, Inc.),
 the Gaussian 86(TM) system (copyright 1986, Carnegie Mellon
 University), and the Gaussian 82(TM) system (copyright 1983,
 Carnegie Mellon University). Gaussian is a federally registered
 trademark of Gaussian, Inc.
  
 This software contains proprietary and confidential information,
 including trade secrets, belonging to Gaussian, Inc.
  
 This software is provided under written license and may be
 used, copied, transmitted, or stored only in accord with that
 written license.
  
 The following legend is applicable only to US Government
 contracts under FAR:
  
                    RESTRICTED RIGHTS LEGEND
  
 Use, reproduction and disclosure by the US Government is
 subject to restrictions as set forth in subparagraphs (a)
 and (c) of the Commercial Computer Software - Restricted
 Rights clause in FAR 52.227-19.
  
 Gaussian, Inc.
 340 Quinnipiac St., Bldg. 40, Wallingford CT 06492
  
  
 ---------------------------------------------------------------
 Warning -- This program may not be used in any manner that
 competes with the business of Gaussian, Inc. or will provide
 assistance to any competitor of Gaussian, Inc.  The licensee
 of this program is prohibited from giving any competitor of
 Gaussian, Inc. access to this program.  By using this program,
 the user acknowledges that Gaussian, Inc. is engaged in the
 business of creating and licensing software in the field of
 computational chemistry and represents and warrants to the
 licensee that it is not a competitor of Gaussian, Inc. and that
 it will not use this program in any manner prohibited above.
 ---------------------------------------------------------------
  

 Cite this work as:
 Gaussian 16, Revision C.01,
 M. J. Frisch, G. W. Trucks, H. B. Schlegel, G. E. Scuseria, 
 M. A. Robb, J. R. Cheeseman, G. Scalmani, V. Barone, 
 G. A. Petersson, H. Nakatsuji, X. Li, M. Caricato, A. V. Marenich, 
 J. Bloino, B. G. Janesko, R. Gomperts, B. Mennucci, H. P. Hratchian, 
 J. V. Ortiz, A. F. Izmaylov, J. L. Sonnenberg, D. Williams-Young, 
 F. Ding, F. Lipparini, F. Egidi, J. Goings, B. Peng, A. Petrone, 
 T. Henderson, D. Ranasinghe, V. G. Zakrzewski, J. Gao, N. Rega, 
 G. Zheng, W. Liang, M. Hada, M. Ehara, K. Toyota, R. Fukuda, 
 J. Hasegawa, M. Ishida, T. Nakajima, Y. Honda, O. Kitao, H. Nakai, 
 T. Vreven, K. Throssell, J. A. Montgomery, Jr., J. E. Peralta, 
 F. Ogliaro, M. J. Bearpark, J. J. Heyd, E. N. Brothers, K. N. Kudin, 
 V. N. Staroverov, T. A. Keith, R. Kobayashi, J. Normand, 
 K. Raghavachari, A. P. Rendell, J. C. Burant, S. S. Iyengar, 
 J. Tomasi, M. Cossi, J. M. Millam, M. Klene, C. Adamo, R. Cammi, 
 J. W. Ochterski, R. L. Martin, K. Morokuma, O. Farkas, 
 J. B. Foresman, and D. J. Fox, Gaussian, Inc., Wallingford CT, 2019.
 
 ******************************************
 Gaussian 16:  EM64W-G16RevC.01 30-May-2019
                12-Sep-2026 
 ******************************************
 %Chk=HATCN.chk
 %NProcShared=8
 Will use up to    8 processors via shared memory.
 %Mem=48GB
 ----------------------------------------------------------------------
 #P PBE1PBE/Def2SVP EmpiricalDispersion=GD3BJ SP SCF=(XQC,MaxCycle=128)
  NoSymm Guess=Read
 ----------------------------------------------------------------------
 1/38=1,172=1/1;
 2/12=2,15=1,17=6,18=5,40=1/2;
 3/5=43,7=101,11=2,25=1,30=1,74=-13,116=-2,124=41/1,2,3;
 4/5=1/1;
 5/5=2,7=128,8=3,13=1,38=6/2,8;
 6/7=2,8=2,9=2,10=2,28=1/1;
 99/5=1,9=1/99;
 Leave Link    1 at Sat Sep 12 00:11:40 2026, MaxMem=  6442450944 cpu:               0.0 elap:               0.3
 (Enter C:\G16W\l101.exe)
 --------------------------------------
 HATCN t=0.250 dz=+0.40 class=site2site
 --------------------------------------
 Symbolic Z-matrix:
 Charge =  0 Multiplicity = 2
 N                    -2.61135   5.39999  -1.15554 
 C                    -1.91032   4.49873  -0.94781 
 C                    -1.02078   3.40514  -0.69357 
 N                    -1.60315   2.1915   -0.49979 
 C                    -0.81575   1.11099  -0.25358 
 C                    -1.39334  -0.14139  -0.05227 
 N                    -2.74445  -0.28324  -0.1022 
 C                    -3.2891   -1.51343   0.09681 
 C                    -4.71794  -1.58939   0.03004 
 N                    -5.87423  -1.6754   -0.01938 
 C                    -2.49407  -2.60351   0.34544 
 C                    -3.01919  -3.9186    0.56141 
 N                    -3.46773  -4.97504   0.73347 
 N                    -1.14054  -2.48239   0.39937 
 C                    -0.57675  -1.26104   0.20307 
 C                     0.80853  -1.11611   0.25422 
 N                     1.59673  -2.19599   0.50061 
 C                     2.94632  -2.03432   0.54656 
 C                     3.71472  -3.21402   0.81056 
 N                     4.35816  -4.15619   1.0231 
 C                     3.51485  -0.80163   0.34811 
 C                     4.92952  -0.58015   0.38638 
 N                     6.07909  -0.42499   0.42212 
 N                     2.7437    0.29089   0.10037 
 C                     1.39249   0.15004   0.05052 
 C                     0.58479   1.2575   -0.20193 
 N                     1.14769   2.47923  -0.3984 
 C                     0.34277   3.54776  -0.64334 
 C                     1.00321   4.80344  -0.84058 
 N                     1.51612   5.83162  -1.00374 
 Ag                   -4.55217   7.02553  -0.5583 
 
 ITRead=  0  0  0  0  0  0  0  0  0  0  0  0  0  0  0  0  0  0  0  0
 ITRead=  0  0  0  0  0  0  0  0  0  0  0
 MicOpt= -1 -1 -1 -1 -1 -1 -1 -1 -1 -1 -1 -1 -1 -1 -1 -1 -1 -1 -1 -1
 MicOpt= -1 -1 -1 -1 -1 -1 -1 -1 -1 -1 -1
 NAtoms=     31 NQM=       31 NQMF=       0 NMMI=      0 NMMIF=      0
                NMic=       0 NMicF=      0.
                    Isotopes and Nuclear Properties:
 (Nuclear quadrupole moments (NQMom) in fm**2, nuclear magnetic moments (NMagM)
  in nuclear magnetons)

  Atom         1           2           3           4           5           6           7           8           9          10
 IAtWgt=          14          12          12          14          12          12          14          12          12          14
 AtmWgt=  14.0030740  12.0000000  12.0000000  14.0030740  12.0000000  12.0000000  14.0030740  12.0000000  12.0000000  14.0030740
 NucSpn=           2           0           0           2           0           0           2           0           0           2
 AtZEff=   0.0000000   0.0000000   0.0000000   0.0000000   0.0000000   0.0000000   0.0000000   0.0000000   0.0000000   0.0000000
 NQMom=    2.0440000   0.0000000   0.0000000   2.0440000   0.0000000   0.0000000   2.0440000   0.0000000   0.0000000   2.0440000
 NMagM=    0.4037610   0.0000000   0.0000000   0.4037610   0.0000000   0.0000000   0.4037610   0.0000000   0.0000000   0.4037610
 AtZNuc=   7.0000000   6.0000000   6.0000000   7.0000000   6.0000000   6.0000000   7.0000000   6.0000000   6.0000000   7.0000000

  Atom        11          12          13          14          15          16          17          18          19          20
 IAtWgt=          12          12          14          14          12          12          14          12          12          14
 AtmWgt=  12.0000000  12.0000000  14.0030740  14.0030740  12.0000000  12.0000000  14.0030740  12.0000000  12.0000000  14.0030740
 NucSpn=           0           0           2           2           0           0           2           0           0           2
 AtZEff=   0.0000000   0.0000000   0.0000000   0.0000000   0.0000000   0.0000000   0.0000000   0.0000000   0.0000000   0.0000000
 NQMom=    0.0000000   0.0000000   2.0440000   2.0440000   0.0000000   0.0000000   2.0440000   0.0000000   0.0000000   2.0440000
 NMagM=    0.0000000   0.0000000   0.4037610   0.4037610   0.0000000   0.0000000   0.4037610   0.0000000   0.0000000   0.4037610
 AtZNuc=   6.0000000   6.0000000   7.0000000   7.0000000   6.0000000   6.0000000   7.0000000   6.0000000   6.0000000   7.0000000

  Atom        21          22          23          24          25          26          27          28          29          30
 IAtWgt=          12          12          14          14          12          12          14          12          12          14
 AtmWgt=  12.0000000  12.0000000  14.0030740  14.0030740  12.0000000  12.0000000  14.0030740  12.0000000  12.0000000  14.0030740
 NucSpn=           0           0           2           2           0           0           2           0           0           2
 AtZEff=   0.0000000   0.0000000   0.0000000   0.0000000   0.0000000   0.0000000   0.0000000   0.0000000   0.0000000   0.0000000
 NQMom=    0.0000000   0.0000000   2.0440000   2.0440000   0.0000000   0.0000000   2.0440000   0.0000000   0.0000000   2.0440000
 NMagM=    0.0000000   0.0000000   0.4037610   0.4037610   0.0000000   0.0000000   0.4037610   0.0000000   0.0000000   0.4037610
 AtZNuc=   6.0000000   6.0000000   7.0000000   7.0000000   6.0000000   6.0000000   7.0000000   6.0000000   6.0000000   7.0000000

  Atom        31
 IAtWgt=         107
 AtmWgt= 106.9050900
 NucSpn=           1
 AtZEff=   0.0000000
 NQMom=    0.0000000
 NMagM=   -0.1135700
 AtZNuc=  47.0000000
 Leave Link  101 at Sat Sep 12 00:11:40 2026, MaxMem=  6442450944 cpu:               0.0 elap:               0.2
 (Enter C:\G16W\l202.exe)
                          Input orientation:                          
 ---------------------------------------------------------------------
 Center     Atomic      Atomic             Coordinates (Angstroms)
 Number     Number       Type             X           Y           Z
 ---------------------------------------------------------------------
      1          7           0       -2.611348    5.399985   -1.155538
      2          6           0       -1.910320    4.498728   -0.947808
      3          6           0       -1.020781    3.405143   -0.693573
      4          7           0       -1.603150    2.191496   -0.499794
      5          6           0       -0.815750    1.110993   -0.253581
      6          6           0       -1.393339   -0.141391   -0.052273
      7          7           0       -2.744445   -0.283235   -0.102199
      8          6           0       -3.289096   -1.513430    0.096812
      9          6           0       -4.717936   -1.589392    0.030040
     10          7           0       -5.874228   -1.675402   -0.019378
     11          6           0       -2.494073   -2.603514    0.345437
     12          6           0       -3.019195   -3.918595    0.561413
     13          7           0       -3.467734   -4.975035    0.733469
     14          7           0       -1.140539   -2.482394    0.399369
     15          6           0       -0.576747   -1.261039    0.203066
     16          6           0        0.808530   -1.116108    0.254224
     17          7           0        1.596730   -2.195985    0.500607
     18          6           0        2.946318   -2.034320    0.546556
     19          6           0        3.714722   -3.214024    0.810558
     20          7           0        4.358155   -4.156189    1.023098
     21          6           0        3.514850   -0.801628    0.348106
     22          6           0        4.929519   -0.580153    0.386379
     23          7           0        6.079085   -0.424992    0.422118
     24          7           0        2.743704    0.290890    0.100372
     25          6           0        1.392486    0.150039    0.050519
     26          6           0        0.584785    1.257497   -0.201933
     27          7           0        1.147692    2.479234   -0.398398
     28          6           0        0.342769    3.547761   -0.643340
     29          6           0        1.003212    4.803441   -0.840583
     30          7           0        1.516124    5.831620   -1.003743
     31         47           0       -4.552174    7.025527   -0.558304
 ---------------------------------------------------------------------
                    Distance matrix (angstroms):
                    1          2          3          4          5
     1  N    0.000000
     2  C    1.160541   0.000000
     3  C    2.592819   1.432426   0.000000
     4  N    3.426495   2.370314   1.360016   0.000000
     5  C    4.736365   3.627228   2.344942   1.359451   0.000000
     6  C    5.779930   4.753941   3.623254   2.384671   1.393772
     7  N    5.781542   4.927270   4.113985   2.754075   2.384670
     8  C    7.058543   6.256061   5.473785   4.113980   3.623232
     9  C    7.395586   6.775256   6.256033   4.927244   4.753901
    10  N    7.873903   7.395568   7.058500   5.781506   5.779883
    11  C    8.143874   7.242589   6.273284   4.949776   4.119849
    12  C    9.484208   8.623148   7.694530   6.361176   5.551229
    13  N   10.580302   9.747021   8.845983   7.507115   6.711708
    14  N    8.167797   7.151469   5.989320   4.782024   3.666642
    15  C    7.096101   6.023109   4.772251   3.669811   2.427382
    16  C    7.492827   6.353220   4.968542   4.162330   2.802879
    17  N    8.840220   7.695225   6.296830   5.521777   4.162327
    18  C    9.436825   8.276519   6.845696   6.296827   4.968538
    19  C   10.866731   9.706673   8.276519   7.695221   6.353215
    20  N   12.026674  10.866731   9.436824   8.840218   7.492824
    21  C    8.845974   7.694520   6.273274   5.989295   4.772237
    22  C    9.747012   8.623137   7.242579   7.151441   6.023092
    23  N   10.580311   9.484214   8.143881   8.167782   7.096095
    24  N    7.507113   6.361173   4.949775   4.782012   3.669818
    25  C    6.711721   5.551241   4.119858   3.666637   2.427389
    26  C    5.318349   4.157819   2.726158   2.397527   1.409124
    27  N    4.820210   3.705623   2.376281   2.767708   2.397532
    28  C    3.524186   2.464437   1.371908   2.376270   2.726154
    29  C    3.676970   2.931385   2.464426   3.705606   4.157808
    30  N    4.152755   3.676989   3.524185   4.820201   5.318336
    31  Ag   2.601130   3.676386   5.059270   5.662863   7.002530
                    6          7          8          9         10
     6  C    0.000000
     7  N    1.359448   0.000000
     8  C    2.344912   1.360011   0.000000
     9  C    3.627179   2.370274   1.432415   0.000000
    10  N    4.736311   3.426446   2.592806   1.160539   0.000000
    11  C    2.726140   2.376291   1.371918   2.464444   3.524192
    12  C    4.157798   3.705632   2.464451   2.931427   3.677016
    13  N    5.318329   4.820215   3.524195   3.677009   4.152779
    14  N    2.397537   2.767740   2.376285   3.705621   4.820207
    15  C    1.409125   2.397541   2.726138   4.157788   5.318316
    16  C    2.427394   3.666653   4.119852   5.551224   6.711700
    17  N    3.669815   4.782028   4.949770   6.361163   7.507104
    18  C    4.772253   5.989321   6.273275   7.694514   8.845967
    19  C    6.023109   7.151468   7.242577   8.623129   9.747005
    20  N    7.096105   8.167802   8.143871   9.484199  10.580299
    21  C    4.968555   6.296847   6.845691   8.276503   9.436806
    22  C    6.353224   7.695232   8.276502   9.706644  10.866700
    23  N    7.492836   8.840231   9.436808  10.866702  12.026643
    24  N    4.162366   5.521814   6.296845   7.695224   8.840215
    25  C    2.802913   4.162361   4.968549   6.353212   7.492813
    26  C    2.427398   3.669819   4.772236   6.023075   7.096060
    27  N    3.666649   4.782018   5.989298   7.151424   8.167742
    28  C    4.119863   4.949773   6.273270   7.242549   8.143820
    29  C    5.551239   6.361165   7.694510   8.623099   9.484143
    30  N    6.711716   7.507109   8.845966   9.746981  10.580248
    31  Ag   7.848504   7.542805   8.656692   8.636576   8.817280
                   11         12         13         14         15
    11  C    0.000000
    12  C    1.432423   0.000000
    13  N    2.592816   1.160541   0.000000
    14  N    1.360012   2.370291   3.426473   0.000000
    15  C    2.344920   3.627198   4.736338   1.359450   0.000000
    16  C    3.623242   4.753922   5.779916   2.384675   1.393777
    17  N    4.113979   4.927255   5.781534   2.754073   2.384671
    18  C    5.473782   6.256042   7.058527   4.113980   3.623249
    19  C    6.256053   6.775259   7.395592   4.927263   4.753936
    20  N    7.058545   7.395600   7.873940   5.781545   5.779931
    21  C    6.273273   7.242564   8.143851   4.949773   4.119862
    22  C    7.694504   8.623102   9.484161   6.361155   5.551232
    23  N    8.845953   9.746967  10.580245   7.507089   6.711711
    24  N    5.989319   7.151456   8.167787   4.782034   3.666664
    25  C    4.772250   6.023099   7.096093   3.669825   2.427404
    26  C    4.968540   6.353212   7.492819   4.162342   2.802892
    27  N    6.296830   7.695219   8.840215   5.521792   4.162342
    28  C    6.845695   8.276515   9.436821   6.296842   4.968548
    29  C    8.276511   9.706661  10.866719   7.695228   6.353219
    30  N    9.436814  10.866716  12.026659   8.840216   7.492817
    31  Ag   9.887919  11.107546  12.118505  10.146770   9.222303
                   16         17         18         19         20
    16  C    0.000000
    17  N    1.359448   0.000000
    18  C    2.344933   1.360013   0.000000
    19  C    3.627218   2.370309   1.432426   0.000000
    20  N    4.736359   3.426495   2.592818   1.160540   0.000000
    21  C    2.726147   2.376273   1.371911   2.464440   3.524182
    22  C    4.157795   3.705596   2.464416   2.931371   3.676942
    23  N    5.318325   4.820175   3.524152   3.676928   4.152663
    24  N    2.397543   2.767722   2.376286   3.705626   4.820206
    25  C    1.409123   2.397524   2.726146   4.157807   5.318336
    26  C    2.427373   3.666624   4.119846   5.551229   6.711708
    27  N    3.669800   4.781999   4.949764   6.361164   7.507101
    28  C    4.772235   5.989295   6.273273   7.694519   8.845970
    29  C    6.023086   7.151435   7.242568   8.623126   9.746995
    30  N    7.096062   8.167742   8.143826   9.484155  10.580244
    31  Ag   9.781797  11.134028  11.812236  13.231166  14.384907
                   21         22         23         24         25
    21  C    0.000000
    22  C    1.432412   0.000000
    23  N    2.592804   1.160540   0.000000
    24  N    1.360012   2.370296   3.426481   0.000000
    25  C    2.344922   3.627201   4.736344   1.359454   0.000000
    26  C    3.623233   4.753923   5.779926   2.384670   1.393763
    27  N    4.113971   4.927265   5.781558   2.754065   2.384659
    28  C    5.473778   6.256059   7.058561   4.113977   3.623239
    29  C    6.256046   6.775279   7.395635   4.927253   4.753919
    30  N    7.058497   7.395576   7.873937   5.781497   5.779889
    31  Ag  11.276648  12.191853  13.019029   9.950830   9.109444
                   26         27         28         29         30
    26  C    0.000000
    27  N    1.359450   0.000000
    28  C    2.344935   1.360017   0.000000
    29  C    3.627213   2.370304   1.432418   0.000000
    30  N    4.736337   3.426467   2.592810   1.160540   0.000000
    31  Ag   7.732109   7.292655   6.005210   5.989963   6.200651
                   31
    31  Ag   0.000000
 Symmetry turned off by external request.
 Stoichiometry    C18AgN12(2)
 Framework group  C1[X(C18AgN12)]
 Deg. of freedom    87
 Full point group                 C1      NOp   1
 Rotational constants (GHZ):           0.1507330           0.0548751           0.0404213
 Leave Link  202 at Sat Sep 12 00:11:41 2026, MaxMem=  6442450944 cpu:               0.0 elap:               0.1
 (Enter C:\G16W\l301.exe)
 Standard basis: def2SVP (5D, 7F)
 Ernie: Thresh=  0.10000D-02 Tol=  0.10000D-05 Strict=F.
   451 basis functions,   815 primitive gaussians,   486 cartesian basis functions
   106 alpha electrons      105 beta electrons
       nuclear repulsion energy      2610.8152696851 Hartrees.
 IExCor= 1009 DFT=T Ex+Corr=PBE1PBE ExCW=0 ScaHFX=  0.250000
 ScaDFX=  0.750000  0.750000  1.000000  1.000000 ScalE2=  1.000000  1.000000
 IRadAn=      5 IRanWt=     -1 IRanGd=            0 ICorTp=0 IEmpDi=141
 NAtoms=   31 NActive=   31 NUniq=   31 SFac= 1.00D+00 NAtFMM=   60 NAOKFM=F Big=F
 Integral buffers will be    131072 words long.
 Raffenetti 2 integral format.
 Two-electron integral symmetry is turned off.
 R6Disp:  Grimme-D3(BJ) Dispersion energy=       -0.0483492704 Hartrees.
 Nuclear repulsion after empirical dispersion term =     2610.7669204147 Hartrees.
 Leave Link  301 at Sat Sep 12 00:11:41 2026, MaxMem=  6442450944 cpu:               0.0 elap:               0.2
 (Enter C:\G16W\l302.exe)
 NPDir=0 NMtPBC=     1 NCelOv=     1 NCel=       1 NClECP=     1 NCelD=      1
         NCelK=      1 NCelE2=     1 NClLst=     1 CellRange=     0.0.
 One-electron integrals computed using PRISM.
   1 Symmetry operations used in ECPInt.
 ECPInt:  NShTT=   18336 NPrTT=   72415 LenC2=   14856 LenP2D=   37676.
 LDataN:  DoStor=T MaxTD1= 7 Len=  274
 NBasis=   451 RedAO= T EigKep=  2.13D-05  NBF=   451
 NBsUse=   451 1.00D-06 EigRej= -1.00D+00 NBFU=   451
 Precomputing XC quadrature grid using
 IXCGrd= 4 IRadAn=           5 IRanWt=          -1 IRanGd=           0 AccXCQ= 0.00D+00.
 Defaulting to unpruned grid for atomic number  47.
 Generated NRdTot=       0 NPtTot=           0 NUsed=           0 NTot=          32
 NSgBfM=   474   474   474   474   474 MxSgAt=    31 MxSgA2=    31.
 Leave Link  302 at Sat Sep 12 00:11:53 2026, MaxMem=  6442450944 cpu:              12.0 elap:              11.1
 (Enter C:\G16W\l303.exe)
 DipDrv:  MaxL=1.
 Leave Link  303 at Sat Sep 12 00:11:55 2026, MaxMem=  6442450944 cpu:               2.0 elap:               1.9
 (Enter C:\G16W\l401.exe)
 Initial guess from the checkpoint file:  "HATCN.chk"
 B after Tr=    -0.089687    0.113649    0.002174
         Rot=    0.999994   -0.002505   -0.001510   -0.001687 Ang=  -0.39 deg.
 Guess basis will be translated and rotated to current coordinates.
 JPrj=2 DoOrth=T DoCkMO=T.
 Initial guess <Sx>= 0.0000 <Sy>= 0.0000 <Sz>= 0.5000 <S**2>= 0.7611 S= 0.5056
 Leave Link  401 at Sat Sep 12 00:12:32 2026, MaxMem=  6442450944 cpu:              37.0 elap:              36.9
 (Enter C:\G16W\l502.exe)
 Two-electron integral symmetry not used.
 UHF open shell SCF:
 Using DIIS extrapolation, IDIIS=  1040.
 NGot=  6442450944 LenX=  6441970456 LenY=  6441733774
 Requested convergence on RMS density matrix=1.00D-08 within 128 cycles.
 Requested convergence on MAX density matrix=1.00D-06.
 Requested convergence on             energy=1.00D-06.
 No special actions if energy rises.
 Fock matrices will be formed incrementally for  20 cycles.

 Cycle   1  Pass 1  IDiag  1:
 FoFJK:  IHMeth= 1 ICntrl=       0 DoSepK=F KAlg= 0 I1Cent=           0 FoldK=F
 IRaf= 720000000 NMat=       1 IRICut=       1 DoRegI=T DoRafI=F ISym2E= 0 IDoP0=0 IntGTp=1.
 FoFCou: FMM=F IPFlag=           0 FMFlag=      100000 FMFlg1=           0
         NFxFlg=           0 DoJE=F BraDBF=F KetDBF=F FulRan=T
         wScrn=  0.000000 ICntrl=         0 IOpCl=  1 I1Cent=           0 NGrid=           0
         NMat0=    1 NMatS0=      1 NMatT0=    0 NMatD0=    1 NMtDS0=    0 NMtDT0=    0
 Symmetry not used in FoFCou.
 Defaulting to unpruned grid for atomic number  47.
 Defaulting to unpruned grid for atomic number  47.
 Defaulting to unpruned grid for atomic number  47.
 Defaulting to unpruned grid for atomic number  47.
 Defaulting to unpruned grid for atomic number  47.
 Defaulting to unpruned grid for atomic number  47.
 Defaulting to unpruned grid for atomic number  47.
 Defaulting to unpruned grid for atomic number  47.
 E= -1487.20921466544    
 DIIS: error= 1.64D-02 at cycle   1 NSaved=   1.
 NSaved= 1 IEnMin= 1 EnMin= -1487.20921466544     IErMin= 1 ErrMin= 1.64D-02
 ErrMax= 1.64D-02  0.00D+00 EMaxC= 1.00D-01 BMatC= 1.01D-01 BMatP= 1.01D-01
 IDIUse=3 WtCom= 8.36D-01 WtEn= 1.64D-01
 Coeff-Com:  0.100D+01
 Coeff-En:   0.100D+01
 Coeff:      0.100D+01
 Gap=     0.045 Goal=   None    Shift=    0.000
 Gap=     0.169 Goal=   None    Shift=    0.000
 GapD=    0.045 DampG=0.250 DampE=0.250 DampFc=0.1250 IDamp=-1.
 Damping current iteration by 1.25D-01
 RMSDP=8.30D-04 MaxDP=2.05D-01              OVMax= 3.09D-01

 Cycle   2  Pass 1  IDiag  1:
 RMSU=  1.04D-04    CP:  1.00D+00
 E= -1487.21051025134     Delta-E=       -0.001295585904 Rises=F Damp=T
 DIIS: error= 1.42D-02 at cycle   2 NSaved=   2.
 NSaved= 2 IEnMin= 2 EnMin= -1487.21051025134     IErMin= 2 ErrMin= 1.42D-02
 ErrMax= 1.42D-02  0.00D+00 EMaxC= 1.00D-01 BMatC= 7.70D-02 BMatP= 1.01D-01
 IDIUse=3 WtCom= 8.58D-01 WtEn= 1.42D-01
 Coeff-Com: -0.554D+01 0.654D+01
 Coeff-En:   0.000D+00 0.100D+01
 Coeff:     -0.476D+01 0.576D+01
 Gap=     0.017 Goal=   None    Shift=    0.000
 Gap=     0.204 Goal=   None    Shift=    0.000
 RMSDP=7.26D-04 MaxDP=1.55D-01 DE=-1.30D-03 OVMax= 4.65D-01

 Cycle   3  Pass 1  IDiag  1:
 RMSU=  7.12D-04    CP:  1.00D+00 -3.40D-01
 E= -1487.19581042391     Delta-E=        0.014699827434 Rises=F Damp=F
 DIIS: error= 9.00D-03 at cycle   3 NSaved=   3.
 NSaved= 3 IEnMin= 2 EnMin= -1487.21051025134     IErMin= 3 ErrMin= 9.00D-03
 ErrMax= 9.00D-03  0.00D+00 EMaxC= 1.00D-01 BMatC= 5.23D-02 BMatP= 7.70D-02
 IDIUse=3 WtCom= 9.10D-01 WtEn= 9.00D-02
 Rare condition: small coef for last iteration:  0.000D+00
 Coeff-Com: -0.425D+01 0.489D+01 0.364D+00
 Coeff-En:   0.000D+00 0.000D+00 0.100D+01
 Coeff:     -0.425D+01 0.489D+01 0.364D+00
 Gap=     0.022 Goal=   None    Shift=    0.000
 Gap=     0.167 Goal=   None    Shift=    0.000
 RMSDP=1.10D-03 MaxDP=3.15D-01 DE= 1.47D-02 OVMax= 4.68D-01

 Cycle   4  Pass 1  IDiag  1:
 RMSU=  5.51D-04    CP:  1.00D+00  3.00D+00  7.14D-02
 E= -1487.21324534634     Delta-E=       -0.017434922435 Rises=F Damp=F
 DIIS: error= 3.23D-03 at cycle   4 NSaved=   4.
 NSaved= 4 IEnMin= 4 EnMin= -1487.21324534634     IErMin= 4 ErrMin= 3.23D-03
 ErrMax= 3.23D-03  0.00D+00 EMaxC= 1.00D-01 BMatC= 1.78D-02 BMatP= 5.23D-02
 IDIUse=3 WtCom= 9.68D-01 WtEn= 3.23D-02
 Coeff-Com: -0.303D+01 0.346D+01 0.320D+00 0.251D+00
 Coeff-En:   0.000D+00 0.000D+00 0.272D+00 0.728D+00
 Coeff:     -0.293D+01 0.335D+01 0.318D+00 0.267D+00
 Gap=     0.027 Goal=   None    Shift=    0.000
 Gap=     0.165 Goal=   None    Shift=    0.000
 RMSDP=2.81D-04 MaxDP=6.88D-02 DE=-1.74D-02 OVMax= 1.09D-01

 Cycle   5  Pass 1  IDiag  1:
 RMSU=  1.15D-04    CP:  1.00D+00  3.00D+00  2.86D-01  6.27D-01
 E= -1487.21935386369     Delta-E=       -0.006108517347 Rises=F Damp=F
 DIIS: error= 5.87D-04 at cycle   5 NSaved=   5.
 NSaved= 5 IEnMin= 5 EnMin= -1487.21935386369     IErMin= 5 ErrMin= 5.87D-04
 ErrMax= 5.87D-04  0.00D+00 EMaxC= 1.00D-01 BMatC= 6.32D-04 BMatP= 1.78D-02
 IDIUse=3 WtCom= 9.94D-01 WtEn= 5.87D-03
 Coeff-Com: -0.922D+00 0.105D+01 0.163D+00 0.110D+00 0.598D+00
 Coeff-En:   0.000D+00 0.000D+00 0.000D+00 0.000D+00 0.100D+01
 Coeff:     -0.916D+00 0.104D+01 0.162D+00 0.109D+00 0.601D+00
 Gap=     0.028 Goal=   None    Shift=    0.000
 Gap=     0.165 Goal=   None    Shift=    0.000
 RMSDP=3.69D-05 MaxDP=1.95D-03 DE=-6.11D-03 OVMax= 5.80D-03

 Cycle   6  Pass 1  IDiag  1:
 RMSU=  3.37D-05    CP:  1.00D+00  3.00D+00  3.04D-01  6.40D-01  1.03D+00
 E= -1487.21945767316     Delta-E=       -0.000103809472 Rises=F Damp=F
 DIIS: error= 7.63D-04 at cycle   6 NSaved=   6.
 NSaved= 6 IEnMin= 6 EnMin= -1487.21945767316     IErMin= 5 ErrMin= 5.87D-04
 ErrMax= 7.63D-04  0.00D+00 EMaxC= 1.00D-01 BMatC= 2.84D-04 BMatP= 6.32D-04
 IDIUse=3 WtCom= 9.94D-01 WtEn= 5.87D-03
 Coeff-Com:  0.387D+00-0.443D+00 0.338D-01-0.285D-01 0.472D+00 0.579D+00
 Coeff-En:   0.000D+00 0.000D+00 0.000D+00 0.000D+00 0.247D-02 0.998D+00
 Coeff:      0.385D+00-0.441D+00 0.336D-01-0.283D-01 0.469D+00 0.581D+00
 Gap=     0.028 Goal=   None    Shift=    0.000
 Gap=     0.165 Goal=   None    Shift=    0.000
 RMSDP=3.98D-05 MaxDP=1.03D-02 DE=-1.04D-04 OVMax= 1.31D-02

 Cycle   7  Pass 1  IDiag  1:
 RMSU=  2.32D-05    CP:  1.00D+00  3.00D+00  3.36D-01  6.05D-01  1.10D+00
                    CP:  7.17D-01
 E= -1487.21956367466     Delta-E=       -0.000106001498 Rises=F Damp=F
 DIIS: error= 1.98D-04 at cycle   7 NSaved=   7.
 NSaved= 7 IEnMin= 7 EnMin= -1487.21956367466     IErMin= 7 ErrMin= 1.98D-04
 ErrMax= 1.98D-04  0.00D+00 EMaxC= 1.00D-01 BMatC= 3.45D-05 BMatP= 2.84D-04
 IDIUse=3 WtCom= 9.98D-01 WtEn= 1.98D-03
 Coeff-Com:  0.430D+00-0.491D+00-0.271D-02-0.426D-01 0.185D+00 0.363D+00
 Coeff-Com:  0.558D+00
 Coeff-En:   0.000D+00 0.000D+00 0.000D+00 0.000D+00 0.000D+00 0.000D+00
 Coeff-En:   0.100D+01
 Coeff:      0.429D+00-0.490D+00-0.270D-02-0.425D-01 0.184D+00 0.363D+00
 Coeff:      0.559D+00
 Gap=     0.028 Goal=   None    Shift=    0.000
 Gap=     0.165 Goal=   None    Shift=    0.000
 RMSDP=1.25D-05 MaxDP=1.02D-03 DE=-1.06D-04 OVMax= 2.86D-03

 Cycle   8  Pass 1  IDiag  1:
 RMSU=  1.03D-05    CP:  1.00D+00  3.00D+00  3.40D-01  6.07D-01  1.12D+00
                    CP:  8.85D-01  1.04D+00
 E= -1487.21957530152     Delta-E=       -0.000011626862 Rises=F Damp=F
 DIIS: error= 6.84D-05 at cycle   8 NSaved=   8.
 NSaved= 8 IEnMin= 8 EnMin= -1487.21957530152     IErMin= 8 ErrMin= 6.84D-05
 ErrMax= 6.84D-05  0.00D+00 EMaxC= 1.00D-01 BMatC= 7.98D-06 BMatP= 3.45D-05
 IDIUse=1 WtCom= 1.00D+00 WtEn= 0.00D+00
 Coeff-Com:  0.133D+00-0.151D+00-0.548D-02-0.182D-01-0.162D-01 0.452D-01
 Coeff-Com:  0.339D+00 0.675D+00
 Coeff:      0.133D+00-0.151D+00-0.548D-02-0.182D-01-0.162D-01 0.452D-01
 Coeff:      0.339D+00 0.675D+00
 Gap=     0.028 Goal=   None    Shift=    0.000
 Gap=     0.165 Goal=   None    Shift=    0.000
 RMSDP=7.30D-06 MaxDP=6.29D-04 DE=-1.16D-05 OVMax= 1.70D-03

 Cycle   9  Pass 1  IDiag  1:
 RMSU=  5.21D-06    CP:  1.00D+00  3.00D+00  3.41D-01  6.10D-01  1.13D+00
                    CP:  9.29D-01  1.23D+00  1.09D+00
 E= -1487.21957910414     Delta-E=       -0.000003802617 Rises=F Damp=F
 DIIS: error= 3.90D-05 at cycle   9 NSaved=   9.
 NSaved= 9 IEnMin= 9 EnMin= -1487.21957910414     IErMin= 9 ErrMin= 3.90D-05
 ErrMax= 3.90D-05  0.00D+00 EMaxC= 1.00D-01 BMatC= 2.69D-06 BMatP= 7.98D-06
 IDIUse=1 WtCom= 1.00D+00 WtEn= 0.00D+00
 Coeff-Com: -0.330D-01 0.379D-01-0.291D-02-0.221D-02-0.712D-01-0.853D-01
 Coeff-Com:  0.647D-01 0.431D+00 0.661D+00
 Coeff:     -0.330D-01 0.379D-01-0.291D-02-0.221D-02-0.712D-01-0.853D-01
 Coeff:      0.647D-01 0.431D+00 0.661D+00
 Gap=     0.028 Goal=   None    Shift=    0.000
 Gap=     0.165 Goal=   None    Shift=    0.000
 RMSDP=6.67D-06 MaxDP=5.84D-04 DE=-3.80D-06 OVMax= 2.16D-03

 Cycle  10  Pass 1  IDiag  1:
 RMSU=  4.02D-06    CP:  1.00D+00  3.00D+00  3.44D-01  6.08D-01  1.14D+00
                    CP:  9.75D-01  1.36D+00  1.37D+00  1.27D+00
 E= -1487.21958131573     Delta-E=       -0.000002211591 Rises=F Damp=F
 DIIS: error= 2.68D-05 at cycle  10 NSaved=  10.
 NSaved=10 IEnMin=10 EnMin= -1487.21958131573     IErMin=10 ErrMin= 2.68D-05
 ErrMax= 2.68D-05  0.00D+00 EMaxC= 1.00D-01 BMatC= 9.28D-07 BMatP= 2.69D-06
 IDIUse=1 WtCom= 1.00D+00 WtEn= 0.00D+00
 Coeff-Com: -0.702D-01 0.803D-01 0.142D-03 0.459D-02-0.409D-01-0.696D-01
 Coeff-Com: -0.808D-01-0.548D-02 0.462D+00 0.720D+00
 Coeff:     -0.702D-01 0.803D-01 0.142D-03 0.459D-02-0.409D-01-0.696D-01
 Coeff:     -0.808D-01-0.548D-02 0.462D+00 0.720D+00
 Gap=     0.028 Goal=   None    Shift=    0.000
 Gap=     0.165 Goal=   None    Shift=    0.000
 RMSDP=5.28D-06 MaxDP=3.84D-04 DE=-2.21D-06 OVMax= 1.82D-03

 Cycle  11  Pass 1  IDiag  1:
 RMSU=  2.08D-06    CP:  1.00D+00  3.00D+00  3.44D-01  6.09D-01  1.15D+00
                    CP:  1.00D+00  1.44D+00  1.63D+00  1.81D+00  1.45D+00
 E= -1487.21958245925     Delta-E=       -0.000001143522 Rises=F Damp=F
 DIIS: error= 2.05D-05 at cycle  11 NSaved=  11.
 NSaved=11 IEnMin=11 EnMin= -1487.21958245925     IErMin=11 ErrMin= 2.05D-05
 ErrMax= 2.05D-05  0.00D+00 EMaxC= 1.00D-01 BMatC= 5.56D-07 BMatP= 9.28D-07
 IDIUse=1 WtCom= 1.00D+00 WtEn= 0.00D+00
 Coeff-Com: -0.429D-01 0.489D-01 0.200D-02 0.553D-02 0.994D-02-0.351D-02
 Coeff-Com: -0.113D+00-0.304D+00 0.263D-01 0.627D+00 0.744D+00
 Coeff:     -0.429D-01 0.489D-01 0.200D-02 0.553D-02 0.994D-02-0.351D-02
 Coeff:     -0.113D+00-0.304D+00 0.263D-01 0.627D+00 0.744D+00
 Gap=     0.028 Goal=   None    Shift=    0.000
 Gap=     0.165 Goal=   None    Shift=    0.000
 RMSDP=5.35D-06 MaxDP=3.38D-04 DE=-1.14D-06 OVMax= 1.92D-03

 Cycle  12  Pass 1  IDiag  1:
 RMSU=  1.43D-06    CP:  1.00D+00  3.00D+00  3.43D-01  6.10D-01  1.15D+00
                    CP:  1.03D+00  1.51D+00  1.86D+00  2.40D+00  2.12D+00
                    CP:  1.27D+00
 E= -1487.21958329489     Delta-E=       -0.000000835641 Rises=F Damp=F
 DIIS: error= 1.20D-05 at cycle  12 NSaved=  12.
 NSaved=12 IEnMin=12 EnMin= -1487.21958329489     IErMin=12 ErrMin= 1.20D-05
 ErrMax= 1.20D-05  0.00D+00 EMaxC= 1.00D-01 BMatC= 1.65D-07 BMatP= 5.56D-07
 IDIUse=1 WtCom= 1.00D+00 WtEn= 0.00D+00
 Coeff-Com:  0.531D-02-0.611D-02 0.101D-02 0.133D-02 0.261D-01 0.326D-01
 Coeff-Com: -0.398D-01-0.224D+00-0.178D+00 0.714D-01 0.467D+00 0.843D+00
 Coeff:      0.531D-02-0.611D-02 0.101D-02 0.133D-02 0.261D-01 0.326D-01
 Coeff:     -0.398D-01-0.224D+00-0.178D+00 0.714D-01 0.467D+00 0.843D+00
 Gap=     0.028 Goal=   None    Shift=    0.000
 Gap=     0.165 Goal=   None    Shift=    0.000
 RMSDP=4.28D-06 MaxDP=2.76D-04 DE=-8.36D-07 OVMax= 1.58D-03

 Cycle  13  Pass 1  IDiag  1:
 RMSU=  9.17D-07    CP:  1.00D+00  3.00D+00  3.43D-01  6.11D-01  1.15D+00
                    CP:  1.04D+00  1.55D+00  2.04D+00  2.82D+00  2.72D+00
                    CP:  1.78D+00  1.51D+00
 E= -1487.21958364972     Delta-E=       -0.000000354829 Rises=F Damp=F
 DIIS: error= 8.64D-06 at cycle  13 NSaved=  13.
 NSaved=13 IEnMin=13 EnMin= -1487.21958364972     IErMin=13 ErrMin= 8.64D-06
 ErrMax= 8.64D-06  0.00D+00 EMaxC= 1.00D-01 BMatC= 7.95D-08 BMatP= 1.65D-07
 IDIUse=1 WtCom= 1.00D+00 WtEn= 0.00D+00
 Coeff-Com:  0.152D-01-0.174D-01 0.233D-03-0.759D-03 0.136D-01 0.218D-01
 Coeff-Com:  0.112D-01-0.494D-01-0.109D+00-0.168D+00 0.454D-01 0.572D+00
 Coeff-Com:  0.666D+00
 Coeff:      0.152D-01-0.174D-01 0.233D-03-0.759D-03 0.136D-01 0.218D-01
 Coeff:      0.112D-01-0.494D-01-0.109D+00-0.168D+00 0.454D-01 0.572D+00
 Coeff:      0.666D+00
 Gap=     0.028 Goal=   None    Shift=    0.000
 Gap=     0.165 Goal=   None    Shift=    0.000
 RMSDP=2.01D-06 MaxDP=1.31D-04 DE=-3.55D-07 OVMax= 7.27D-04

 Cycle  14  Pass 1  IDiag  1:
 RMSU=  6.02D-07    CP:  1.00D+00  3.00D+00  3.43D-01  6.11D-01  1.15D+00
                    CP:  1.05D+00  1.57D+00  2.11D+00  3.00D+00  2.98D+00
                    CP:  2.09D+00  1.91D+00  1.28D+00
 E= -1487.21958374576     Delta-E=       -0.000000096037 Rises=F Damp=F
 DIIS: error= 4.97D-06 at cycle  14 NSaved=  14.
 NSaved=14 IEnMin=14 EnMin= -1487.21958374576     IErMin=14 ErrMin= 4.97D-06
 ErrMax= 4.97D-06  0.00D+00 EMaxC= 1.00D-01 BMatC= 3.38D-08 BMatP= 7.95D-08
 IDIUse=1 WtCom= 1.00D+00 WtEn= 0.00D+00
 Coeff-Com:  0.988D-02-0.113D-01-0.372D-03-0.134D-02-0.234D-02 0.794D-03
 Coeff-Com:  0.271D-01 0.649D-01 0.370D-02-0.167D+00-0.189D+00 0.472D-01
 Coeff-Com:  0.501D+00 0.716D+00
 Coeff:      0.988D-02-0.113D-01-0.372D-03-0.134D-02-0.234D-02 0.794D-03
 Coeff:      0.271D-01 0.649D-01 0.370D-02-0.167D+00-0.189D+00 0.472D-01
 Coeff:      0.501D+00 0.716D+00
 Gap=     0.028 Goal=   None    Shift=    0.000
 Gap=     0.165 Goal=   None    Shift=    0.000
 RMSDP=1.40D-06 MaxDP=8.34D-05 DE=-9.60D-08 OVMax= 4.93D-04

 Cycle  15  Pass 1  IDiag  1:
 RMSU=  8.66D-07    CP:  1.00D+00  3.00D+00  3.43D-01  6.11D-01  1.15D+00
                    CP:  1.05D+00  1.58D+00  2.15D+00  3.00D+00  3.00D+00
                    CP:  2.29D+00  2.32D+00  1.76D+00  1.34D+00
 E= -1487.21958378665     Delta-E=       -0.000000040887 Rises=F Damp=F
 DIIS: error= 2.29D-06 at cycle  15 NSaved=  15.
 NSaved=15 IEnMin=15 EnMin= -1487.21958378665     IErMin=15 ErrMin= 2.29D-06
 ErrMax= 2.29D-06  0.00D+00 EMaxC= 1.00D-01 BMatC= 8.31D-09 BMatP= 3.38D-08
 IDIUse=1 WtCom= 1.00D+00 WtEn= 0.00D+00
 Coeff-Com:  0.514D-03-0.578D-03-0.247D-03-0.508D-03-0.597D-02-0.673D-02
 Coeff-Com:  0.127D-01 0.553D-01 0.375D-01-0.467D-01-0.121D+00-0.150D+00
 Coeff-Com:  0.686D-01 0.405D+00 0.752D+00
 Coeff:      0.514D-03-0.578D-03-0.247D-03-0.508D-03-0.597D-02-0.673D-02
 Coeff:      0.127D-01 0.553D-01 0.375D-01-0.467D-01-0.121D+00-0.150D+00
 Coeff:      0.686D-01 0.405D+00 0.752D+00
 Gap=     0.028 Goal=   None    Shift=    0.000
 Gap=     0.165 Goal=   None    Shift=    0.000
 RMSDP=6.67D-07 MaxDP=3.52D-05 DE=-4.09D-08 OVMax= 2.45D-04

 Cycle  16  Pass 1  IDiag  1:
 RMSU=  2.39D-07    CP:  1.00D+00  3.00D+00  3.43D-01  6.11D-01  1.15D+00
                    CP:  1.05D+00  1.58D+00  2.17D+00  3.00D+00  3.00D+00
                    CP:  2.36D+00  2.52D+00  2.11D+00  1.73D+00  1.38D+00
 E= -1487.21958379790     Delta-E=       -0.000000011250 Rises=F Damp=F
 DIIS: error= 1.49D-06 at cycle  16 NSaved=  16.
 NSaved=16 IEnMin=16 EnMin= -1487.21958379790     IErMin=16 ErrMin= 1.49D-06
 ErrMax= 1.49D-06  0.00D+00 EMaxC= 1.00D-01 BMatC= 3.51D-09 BMatP= 8.31D-09
 IDIUse=1 WtCom= 1.00D+00 WtEn= 0.00D+00
 Coeff-Com: -0.310D-02 0.355D-02-0.470D-04 0.175D-03-0.295D-02-0.442D-02
 Coeff-Com: -0.167D-02 0.107D-01 0.205D-01 0.259D-01-0.205D-02-0.102D+00
 Coeff-Com: -0.136D+00-0.905D-02 0.454D+00 0.747D+00
 Coeff:     -0.310D-02 0.355D-02-0.470D-04 0.175D-03-0.295D-02-0.442D-02
 Coeff:     -0.167D-02 0.107D-01 0.205D-01 0.259D-01-0.205D-02-0.102D+00
 Coeff:     -0.136D+00-0.905D-02 0.454D+00 0.747D+00
 Gap=     0.028 Goal=   None    Shift=    0.000
 Gap=     0.165 Goal=   None    Shift=    0.000
 RMSDP=3.65D-07 MaxDP=2.02D-05 DE=-1.13D-08 OVMax= 1.24D-04

 Cycle  17  Pass 1  IDiag  1:
 RMSU=  1.56D-07    CP:  1.00D+00  3.00D+00  3.43D-01  6.11D-01  1.15D+00
                    CP:  1.05D+00  1.58D+00  2.17D+00  3.00D+00  3.00D+00
                    CP:  2.40D+00  2.61D+00  2.29D+00  2.03D+00  1.54D+00
                    CP:  1.21D+00
 E= -1487.21958380226     Delta-E=       -0.000000004363 Rises=F Damp=F
 DIIS: error= 9.75D-07 at cycle  17 NSaved=  17.
 NSaved=17 IEnMin=17 EnMin= -1487.21958380226     IErMin=17 ErrMin= 9.75D-07
 ErrMax= 9.75D-07  0.00D+00 EMaxC= 1.00D-01 BMatC= 1.61D-09 BMatP= 3.51D-09
 IDIUse=1 WtCom= 1.00D+00 WtEn= 0.00D+00
 Coeff-Com: -0.233D-02 0.266D-02 0.563D-04 0.354D-03 0.517D-03-0.257D-03
 Coeff-Com: -0.699D-02-0.165D-01-0.198D-02 0.383D-01 0.536D-01-0.798D-02
 Coeff-Com: -0.133D+00-0.176D+00 0.152D-01 0.515D+00 0.718D+00
 Coeff:     -0.233D-02 0.266D-02 0.563D-04 0.354D-03 0.517D-03-0.257D-03
 Coeff:     -0.699D-02-0.165D-01-0.198D-02 0.383D-01 0.536D-01-0.798D-02
 Coeff:     -0.133D+00-0.176D+00 0.152D-01 0.515D+00 0.718D+00
 Gap=     0.028 Goal=   None    Shift=    0.000
 Gap=     0.165 Goal=   None    Shift=    0.000
 RMSDP=2.44D-07 MaxDP=1.56D-05 DE=-4.36D-09 OVMax= 8.57D-05

 Cycle  18  Pass 1  IDiag  1:
 RMSU=  9.80D-08    CP:  1.00D+00  3.00D+00  3.43D-01  6.11D-01  1.15D+00
                    CP:  1.05D+00  1.58D+00  2.17D+00  3.00D+00  3.00D+00
                    CP:  2.42D+00  2.68D+00  2.40D+00  2.17D+00  1.61D+00
                    CP:  1.57D+00  1.65D+00
 E= -1487.21958380419     Delta-E=       -0.000000001931 Rises=F Damp=F
 DIIS: error= 6.21D-07 at cycle  18 NSaved=  18.
 NSaved=18 IEnMin=18 EnMin= -1487.21958380419     IErMin=18 ErrMin= 6.21D-07
 ErrMax= 6.21D-07  0.00D+00 EMaxC= 1.00D-01 BMatC= 6.78D-10 BMatP= 1.61D-09
 IDIUse=1 WtCom= 1.00D+00 WtEn= 0.00D+00
 Coeff-Com:  0.270D-03-0.311D-03 0.765D-04 0.153D-03 0.217D-02 0.242D-02
 Coeff-Com: -0.356D-02-0.160D-01-0.128D-01 0.951D-02 0.364D-01 0.516D-01
 Coeff-Com: -0.121D-01-0.105D+00-0.249D+00-0.725D-01 0.511D+00 0.857D+00
 Coeff:      0.270D-03-0.311D-03 0.765D-04 0.153D-03 0.217D-02 0.242D-02
 Coeff:     -0.356D-02-0.160D-01-0.128D-01 0.951D-02 0.364D-01 0.516D-01
 Coeff:     -0.121D-01-0.105D+00-0.249D+00-0.725D-01 0.511D+00 0.857D+00
 Gap=     0.028 Goal=   None    Shift=    0.000
 Gap=     0.165 Goal=   None    Shift=    0.000
 RMSDP=1.92D-07 MaxDP=1.23D-05 DE=-1.93D-09 OVMax= 6.90D-05

 Cycle  19  Pass 1  IDiag  1:
 RMSU=  4.80D-08    CP:  1.00D+00  3.00D+00  3.43D-01  6.11D-01  1.15D+00
                    CP:  1.05D+00  1.58D+00  2.17D+00  3.00D+00  3.00D+00
                    CP:  2.42D+00  2.71D+00  2.49D+00  2.30D+00  1.63D+00
                    CP:  1.84D+00  2.36D+00  1.33D+00
 E= -1487.21958380517     Delta-E=       -0.000000000980 Rises=F Damp=F
 DIIS: error= 3.45D-07 at cycle  19 NSaved=  19.
 NSaved=19 IEnMin=19 EnMin= -1487.21958380517     IErMin=19 ErrMin= 3.45D-07
 ErrMax= 3.45D-07  0.00D+00 EMaxC= 1.00D-01 BMatC= 1.26D-10 BMatP= 6.78D-10
 IDIUse=1 WtCom= 1.00D+00 WtEn= 0.00D+00
 Coeff-Com:  0.569D-03-0.651D-03 0.158D-04 0.800D-06 0.840D-03 0.103D-02
 Coeff-Com: -0.188D-03-0.334D-02-0.482D-02-0.428D-02 0.419D-02 0.236D-01
 Coeff-Com:  0.228D-01-0.549D-02-0.110D+00-0.140D+00 0.566D-01 0.337D+00
 Coeff-Com:  0.822D+00
 Coeff:      0.569D-03-0.651D-03 0.158D-04 0.800D-06 0.840D-03 0.103D-02
 Coeff:     -0.188D-03-0.334D-02-0.482D-02-0.428D-02 0.419D-02 0.236D-01
 Coeff:      0.228D-01-0.549D-02-0.110D+00-0.140D+00 0.566D-01 0.337D+00
 Coeff:      0.822D+00
 Gap=     0.028 Goal=   None    Shift=    0.000
 Gap=     0.165 Goal=   None    Shift=    0.000
 RMSDP=6.99D-08 MaxDP=4.51D-06 DE=-9.80D-10 OVMax= 2.14D-05

 Cycle  20  Pass 1  IDiag  1:
 RMSU=  3.18D-08    CP:  1.00D+00  3.00D+00  3.43D-01  6.11D-01  1.15D+00
                    CP:  1.05D+00  1.58D+00  2.17D+00  3.00D+00  3.00D+00
                    CP:  2.42D+00  2.72D+00  2.51D+00  2.34D+00  1.63D+00
                    CP:  1.94D+00  2.62D+00  1.50D+00  1.11D+00
 E= -1487.21958380527     Delta-E=       -0.000000000098 Rises=F Damp=F
 DIIS: error= 2.14D-07 at cycle  20 NSaved=  20.
 NSaved=20 IEnMin=20 EnMin= -1487.21958380527     IErMin=20 ErrMin= 2.14D-07
 ErrMax= 2.14D-07  0.00D+00 EMaxC= 1.00D-01 BMatC= 1.06D-10 BMatP= 1.26D-10
 IDIUse=1 WtCom= 1.00D+00 WtEn= 0.00D+00
 Coeff-Com:  0.273D-03-0.312D-03-0.178D-04-0.537D-04-0.214D-03-0.185D-03
 Coeff-Com:  0.118D-02 0.378D-02 0.155D-02-0.662D-02-0.112D-01-0.273D-02
 Coeff-Com:  0.223D-01 0.368D-01 0.113D-01-0.745D-01-0.154D+00-0.847D-01
 Coeff-Com:  0.656D+00 0.602D+00
 Coeff:      0.273D-03-0.312D-03-0.178D-04-0.537D-04-0.214D-03-0.185D-03
 Coeff:      0.118D-02 0.378D-02 0.155D-02-0.662D-02-0.112D-01-0.273D-02
 Coeff:      0.223D-01 0.368D-01 0.113D-01-0.745D-01-0.154D+00-0.847D-01
 Coeff:      0.656D+00 0.602D+00
 Gap=     0.028 Goal=   None    Shift=    0.000
 Gap=     0.165 Goal=   None    Shift=    0.000
 RMSDP=3.54D-08 MaxDP=2.36D-06 DE=-9.82D-11 OVMax= 8.88D-06

 Cycle  21  Pass 1  IDiag  1:
 Restarting incremental Fock formation.
 E= -1487.21958380532     Delta-E=       -0.000000000050 Rises=F Damp=F
 DIIS: error= 1.46D-07 at cycle  21 NSaved=  20.
 NSaved=20 IEnMin=20 EnMin= -1487.21958380532     IErMin=20 ErrMin= 1.46D-07
 ErrMax= 1.46D-07  0.00D+00 EMaxC= 1.00D-01 BMatC= 3.36D-11 BMatP= 1.06D-10
 IDIUse=1 WtCom= 1.00D+00 WtEn= 0.00D+00
 Coeff-Com: -0.132D-03 0.151D-03-0.177D-04-0.327D-03-0.393D-03 0.681D-03
 Coeff-Com:  0.304D-02 0.213D-02-0.255D-02-0.775D-02-0.817D-02 0.776D-02
 Coeff-Com:  0.244D-01 0.386D-01-0.716D-02-0.122D+00-0.156D+00 0.213D+00
 Coeff-Com:  0.436D+00 0.578D+00
 Coeff:     -0.132D-03 0.151D-03-0.177D-04-0.327D-03-0.393D-03 0.681D-03
 Coeff:      0.304D-02 0.213D-02-0.255D-02-0.775D-02-0.817D-02 0.776D-02
 Coeff:      0.244D-01 0.386D-01-0.716D-02-0.122D+00-0.156D+00 0.213D+00
 Coeff:      0.436D+00 0.578D+00
 Gap=     0.028 Goal=   None    Shift=    0.000
 Gap=     0.165 Goal=   None    Shift=    0.000
 RMSDP=1.75D-08 MaxDP=1.84D-06 DE=-5.00D-11 OVMax= 4.27D-06

 Cycle  22  Pass 1  IDiag  1:
 RMSU=  1.75D-08    CP:  1.00D+00
 E= -1487.21958380547     Delta-E=       -0.000000000146 Rises=F Damp=F
 DIIS: error= 6.38D-08 at cycle  22 NSaved=  20.
 NSaved=20 IEnMin=20 EnMin= -1487.21958380547     IErMin=20 ErrMin= 6.38D-08
 ErrMax= 6.38D-08  0.00D+00 EMaxC= 1.00D-01 BMatC= 1.11D-11 BMatP= 3.36D-11
 IDIUse=1 WtCom= 1.00D+00 WtEn= 0.00D+00
 Coeff-Com: -0.282D-07-0.816D-05-0.798D-04-0.927D-04 0.117D-03 0.383D-03
 Coeff-Com:  0.283D-03 0.531D-03-0.359D-03-0.310D-02-0.259D-02 0.116D-03
 Coeff-Com:  0.150D-01 0.220D-01-0.728D-02-0.462D-01-0.154D+00 0.394D-02
 Coeff-Com:  0.333D+00 0.838D+00
 Coeff:     -0.282D-07-0.816D-05-0.798D-04-0.927D-04 0.117D-03 0.383D-03
 Coeff:      0.283D-03 0.531D-03-0.359D-03-0.310D-02-0.259D-02 0.116D-03
 Coeff:      0.150D-01 0.220D-01-0.728D-02-0.462D-01-0.154D+00 0.394D-02
 Coeff:      0.333D+00 0.838D+00
 Gap=     0.028 Goal=   None    Shift=    0.000
 Gap=     0.165 Goal=   None    Shift=    0.000
 RMSDP=1.21D-08 MaxDP=7.92D-07 DE=-1.46D-10 OVMax= 2.35D-06

 Cycle  23  Pass 1  IDiag  1:
 RMSU=  1.08D-08    CP:  1.00D+00  1.31D+00
 E= -1487.21958380535     Delta-E=        0.000000000115 Rises=F Damp=F
 DIIS: error= 4.75D-08 at cycle  23 NSaved=  20.
 NSaved=20 IEnMin=19 EnMin= -1487.21958380547     IErMin=20 ErrMin= 4.75D-08
 ErrMax= 4.75D-08  0.00D+00 EMaxC= 1.00D-01 BMatC= 4.57D-12 BMatP= 1.11D-11
 IDIUse=1 WtCom= 1.00D+00 WtEn= 0.00D+00
 Coeff-Com:  0.367D-05 0.203D-04 0.406D-05-0.221D-03-0.809D-03-0.414D-03
 Coeff-Com:  0.164D-02 0.273D-02 0.283D-03-0.542D-02-0.949D-02-0.317D-02
 Coeff-Com:  0.195D-01 0.432D-01 0.305D-01-0.190D+00-0.176D+00-0.164D-01
 Coeff-Com:  0.526D+00 0.778D+00
 Coeff:      0.367D-05 0.203D-04 0.406D-05-0.221D-03-0.809D-03-0.414D-03
 Coeff:      0.164D-02 0.273D-02 0.283D-03-0.542D-02-0.949D-02-0.317D-02
 Coeff:      0.195D-01 0.432D-01 0.305D-01-0.190D+00-0.176D+00-0.164D-01
 Coeff:      0.526D+00 0.778D+00
 Gap=     0.028 Goal=   None    Shift=    0.000
 Gap=     0.165 Goal=   None    Shift=    0.000
 RMSDP=9.34D-09 MaxDP=8.59D-07 DE= 1.15D-10 OVMax= 2.43D-06

 SCF Done:  E(UPBE1PBE) =  -1487.21958381     A.U. after   23 cycles
            NFock= 23  Conv=0.93D-08     -V/T= 2.0739
 <Sx>= 0.0000 <Sy>= 0.0000 <Sz>= 0.5000 <S**2>= 0.7553 S= 0.5027
 <L.S>= 0.000000000000E+00
 KE= 1.384914129465D+03 PE=-8.650328765139D+03 EE= 3.167428131454D+03
 Annihilation of the first spin contaminant:
 S**2 before annihilation     0.7553,   after     0.7500
 Leave Link  502 at Sat Sep 12 00:21:34 2026, MaxMem=  6442450944 cpu:             542.0 elap:             542.3
 (Enter C:\G16W\l508.exe)
 QCSCF skips out because SCF is already converged.
 Leave Link  508 at Sat Sep 12 00:21:35 2026, MaxMem=  6442450944 cpu:               0.0 elap:               0.1
 (Enter C:\G16W\l601.exe)
 Copying SCF densities to generalized density rwf, IOpCl= 1 IROHF=0.

 **********************************************************************

            Population analysis using the SCF Density.

 **********************************************************************

 Alpha  occ. eigenvalues --  -14.48428 -14.48352 -14.47750 -14.47558 -14.47524
 Alpha  occ. eigenvalues --  -14.47394 -14.46721 -14.44294 -14.44253 -14.44150
 Alpha  occ. eigenvalues --  -14.43649 -14.43345 -10.38430 -10.38369 -10.38162
 Alpha  occ. eigenvalues --  -10.37757 -10.37587 -10.37438 -10.36181 -10.36126
 Alpha  occ. eigenvalues --  -10.35786 -10.35578 -10.35319 -10.35235 -10.34523
 Alpha  occ. eigenvalues --  -10.31999 -10.31947 -10.31826 -10.31347 -10.31057
 Alpha  occ. eigenvalues --   -3.80573  -2.38684  -2.38678  -2.38550  -1.09274
 Alpha  occ. eigenvalues --   -1.07325  -1.06977  -1.00398  -1.00146  -0.99058
 Alpha  occ. eigenvalues --   -0.98265  -0.97493  -0.96772  -0.96281  -0.96128
 Alpha  occ. eigenvalues --   -0.95423  -0.94655  -0.88989  -0.88753  -0.83059
 Alpha  occ. eigenvalues --   -0.80769  -0.80686  -0.75225  -0.74264  -0.74137
 Alpha  occ. eigenvalues --   -0.67953  -0.66764  -0.66676  -0.65474  -0.63814
 Alpha  occ. eigenvalues --   -0.63511  -0.60304  -0.59983  -0.57769  -0.57544
 Alpha  occ. eigenvalues --   -0.55770  -0.52528  -0.52256  -0.52176  -0.51930
 Alpha  occ. eigenvalues --   -0.47681  -0.46883  -0.45198  -0.44895  -0.43281
 Alpha  occ. eigenvalues --   -0.42620  -0.42356  -0.41920  -0.41911  -0.41747
 Alpha  occ. eigenvalues --   -0.41606  -0.41283  -0.40939  -0.40427  -0.40282
 Alpha  occ. eigenvalues --   -0.40095  -0.39747  -0.39431  -0.39346  -0.38827
 Alpha  occ. eigenvalues --   -0.38153  -0.38152  -0.38091  -0.38009  -0.37889
 Alpha  occ. eigenvalues --   -0.37549  -0.37358  -0.37074  -0.36826  -0.35771
 Alpha  occ. eigenvalues --   -0.34278  -0.33575  -0.33262  -0.33151  -0.32904
 Alpha  occ. eigenvalues --   -0.19777
 Alpha virt. eigenvalues --   -0.16957  -0.16180  -0.15981  -0.10421  -0.09706
 Alpha virt. eigenvalues --   -0.09489  -0.04743  -0.03079  -0.02486  -0.02009
 Alpha virt. eigenvalues --   -0.01696  -0.00302   0.00180   0.00211   0.00545
 Alpha virt. eigenvalues --    0.00866   0.01548   0.02754   0.03912   0.04555
 Alpha virt. eigenvalues --    0.06722   0.08406   0.09018   0.09523   0.09905
 Alpha virt. eigenvalues --    0.10438   0.13783   0.14013   0.14249   0.14876
 Alpha virt. eigenvalues --    0.15735   0.15990   0.17557   0.18916   0.19494
 Alpha virt. eigenvalues --    0.20929   0.20985   0.22040   0.22274   0.22991
 Alpha virt. eigenvalues --    0.23260   0.23701   0.24631   0.25996   0.26201
 Alpha virt. eigenvalues --    0.26648   0.28914   0.29308   0.29588   0.29758
 Alpha virt. eigenvalues --    0.30083   0.30826   0.34206   0.34329   0.38212
 Alpha virt. eigenvalues --    0.38587   0.39358   0.39662   0.40103   0.40616
 Alpha virt. eigenvalues --    0.41046   0.41245   0.41312   0.41847   0.42028
 Alpha virt. eigenvalues --    0.42144   0.42362   0.43476   0.46029   0.46896
 Alpha virt. eigenvalues --    0.47142   0.47413   0.47596   0.47659   0.49990
 Alpha virt. eigenvalues --    0.50580   0.50584   0.50699   0.50951   0.51224
 Alpha virt. eigenvalues --    0.51438   0.51579   0.53242   0.54159   0.54194
 Alpha virt. eigenvalues --    0.54541   0.54964   0.55253   0.55369   0.55635
 Alpha virt. eigenvalues --    0.55775   0.56836   0.57761   0.59219   0.59803
 Alpha virt. eigenvalues --    0.62639   0.63031   0.63790   0.64981   0.65176
 Alpha virt. eigenvalues --    0.65300   0.65452   0.66042   0.66248   0.66469
 Alpha virt. eigenvalues --    0.66649   0.66801   0.67706   0.68198   0.68409
 Alpha virt. eigenvalues --    0.68535   0.68938   0.69154   0.70116   0.70502
 Alpha virt. eigenvalues --    0.74288   0.74579   0.75881   0.76008   0.77682
 Alpha virt. eigenvalues --    0.78743   0.79058   0.79739   0.79826   0.83440
 Alpha virt. eigenvalues --    0.83620   0.83683   0.83903   0.84297   0.85375
 Alpha virt. eigenvalues --    0.85760   0.87839   0.88846   0.89496   0.89633
 Alpha virt. eigenvalues --    0.90208   0.90807   0.91691   0.93190   0.93795
 Alpha virt. eigenvalues --    0.93954   0.94510   0.95305   0.95545   0.95996
 Alpha virt. eigenvalues --    0.96255   0.96711   0.96989   0.99192   0.99969
 Alpha virt. eigenvalues --    1.00353   1.01171   1.02636   1.03278   1.03664
 Alpha virt. eigenvalues --    1.04464   1.05338   1.06505   1.07644   1.08111
 Alpha virt. eigenvalues --    1.08621   1.12620   1.13316   1.15477   1.15773
 Alpha virt. eigenvalues --    1.16925   1.18025   1.18991   1.19030   1.19292
 Alpha virt. eigenvalues --    1.21866   1.22215   1.23911   1.24494   1.24573
 Alpha virt. eigenvalues --    1.26346   1.27237   1.27711   1.29650   1.32034
 Alpha virt. eigenvalues --    1.32109   1.33136   1.33436   1.35132   1.36532
 Alpha virt. eigenvalues --    1.36602   1.39769   1.41433   1.41586   1.41823
 Alpha virt. eigenvalues --    1.41921   1.43473   1.43837   1.43903   1.45012
 Alpha virt. eigenvalues --    1.46328   1.46664   1.55328   1.55481   1.56393
 Alpha virt. eigenvalues --    1.57018   1.57098   1.58812   1.59368   1.59497
 Alpha virt. eigenvalues --    1.60046   1.60623   1.60748   1.61684   1.62361
 Alpha virt. eigenvalues --    1.65781   1.66255   1.66719   1.67728   1.71077
 Alpha virt. eigenvalues --    1.71478   1.72201   1.75094   1.75743   1.76892
 Alpha virt. eigenvalues --    1.77190   1.80798   1.81018   1.81401   1.81605
 Alpha virt. eigenvalues --    1.82020   1.87611   1.87665   1.87792   1.87984
 Alpha virt. eigenvalues --    1.88215   1.89482   1.89872   1.90046   1.90386
 Alpha virt. eigenvalues --    1.90464   1.90635   1.90885   1.94165   1.94239
 Alpha virt. eigenvalues --    1.94956   1.99696   2.02696   2.03066   2.04407
 Alpha virt. eigenvalues --    2.07155   2.07287   2.14031   2.14102   2.14112
 Alpha virt. eigenvalues --    2.14162   2.18661   2.19382   2.20499   2.20671
 Alpha virt. eigenvalues --    2.21901   2.22068   2.23019   2.23668   2.24063
 Alpha virt. eigenvalues --    2.24361   2.24736   2.24901   2.25221   2.25571
 Alpha virt. eigenvalues --    2.25707   2.26391   2.29336   2.29624   2.33505
 Alpha virt. eigenvalues --    2.36271   2.36386   2.36457   2.40211   2.40271
 Alpha virt. eigenvalues --    2.41314   2.46445   2.49200   2.49421   2.49561
 Alpha virt. eigenvalues --    2.49651   2.51218   2.53099   2.53413   2.54068
 Alpha virt. eigenvalues --    2.56475   2.56537   2.56553   2.56557   2.56592
 Alpha virt. eigenvalues --    2.56603   2.56692   2.56717   2.56795   2.58032
 Alpha virt. eigenvalues --    2.60062   2.60223   2.64856   2.66577   2.66698
 Alpha virt. eigenvalues --    2.68296   2.75912   2.76269   2.76754   2.77028
 Alpha virt. eigenvalues --    2.79416   2.82321   2.85628   2.86309   2.86923
 Alpha virt. eigenvalues --    2.87167   2.89598   2.89976   2.91458   2.92852
 Alpha virt. eigenvalues --    2.93528   2.95599   2.95857   2.98825   3.00222
 Alpha virt. eigenvalues --    3.00482   3.00590   3.01095   3.01390   3.02108
 Alpha virt. eigenvalues --    3.08712   3.12176   3.12595   3.15680   3.24313
 Alpha virt. eigenvalues --    3.24522   3.24905   3.35044   3.35519   3.42920
 Alpha virt. eigenvalues --    3.43031   3.43308   3.44038   3.45802   3.45817
 Alpha virt. eigenvalues --    3.63104   3.63506   3.71462   3.73498  53.75705
  Beta  occ. eigenvalues --  -14.48450 -14.48323 -14.47796 -14.47419 -14.47367
  Beta  occ. eigenvalues --  -14.47283 -14.46570 -14.44305 -14.44240 -14.44159
  Beta  occ. eigenvalues --  -14.43668 -14.43288 -10.38440 -10.38355 -10.38195
  Beta  occ. eigenvalues --  -10.37802 -10.37480 -10.37336 -10.36173 -10.36129
  Beta  occ. eigenvalues --  -10.35836 -10.35528 -10.35297 -10.35134 -10.34496
  Beta  occ. eigenvalues --  -10.31992 -10.31953 -10.31821 -10.31337 -10.31086
  Beta  occ. eigenvalues --   -3.80490  -2.38642  -2.38640  -2.38542  -1.09191
  Beta  occ. eigenvalues --   -1.07230  -1.06836  -1.00353  -0.99938  -0.98933
  Beta  occ. eigenvalues --   -0.98162  -0.97416  -0.96760  -0.96234  -0.96123
  Beta  occ. eigenvalues --   -0.95381  -0.94593  -0.88911  -0.88655  -0.82968
  Beta  occ. eigenvalues --   -0.80755  -0.80480  -0.75151  -0.74206  -0.74022
  Beta  occ. eigenvalues --   -0.67907  -0.66699  -0.66617  -0.65429  -0.63742
  Beta  occ. eigenvalues --   -0.63481  -0.60262  -0.59924  -0.57707  -0.57516
  Beta  occ. eigenvalues --   -0.55527  -0.52266  -0.52210  -0.51884  -0.51852
  Beta  occ. eigenvalues --   -0.47296  -0.46595  -0.44836  -0.44643  -0.43025
  Beta  occ. eigenvalues --   -0.42493  -0.42130  -0.41931  -0.41901  -0.41653
  Beta  occ. eigenvalues --   -0.41611  -0.41294  -0.40869  -0.40424  -0.40256
  Beta  occ. eigenvalues --   -0.40090  -0.39743  -0.39322  -0.38999  -0.38653
  Beta  occ. eigenvalues --   -0.37974  -0.37739  -0.37738  -0.37608  -0.37589
  Beta  occ. eigenvalues --   -0.37401  -0.36979  -0.36804  -0.36518  -0.35684
  Beta  occ. eigenvalues --   -0.34238  -0.33480  -0.33168  -0.32885  -0.32613
  Beta virt. eigenvalues --   -0.16118  -0.15979  -0.15400  -0.12709  -0.09811
  Beta virt. eigenvalues --   -0.09491  -0.09092  -0.04160  -0.02448  -0.01696
  Beta virt. eigenvalues --   -0.01143  -0.00665   0.00388   0.00490   0.00672
  Beta virt. eigenvalues --    0.00868   0.01561   0.02092   0.03162   0.03922
  Beta virt. eigenvalues --    0.04640   0.08072   0.08461   0.09068   0.09577
  Beta virt. eigenvalues --    0.10104   0.11166   0.13829   0.14089   0.14540
  Beta virt. eigenvalues --    0.15066   0.15759   0.16132   0.17639   0.19233
  Beta virt. eigenvalues --    0.19564   0.20972   0.21095   0.22118   0.22356
  Beta virt. eigenvalues --    0.23085   0.23414   0.23746   0.24718   0.26110
  Beta virt. eigenvalues --    0.26391   0.26736   0.29776   0.29838   0.30190
  Beta virt. eigenvalues --    0.30994   0.31333   0.32236   0.34279   0.34430
  Beta virt. eigenvalues --    0.38344   0.38948   0.39441   0.40059   0.40294
  Beta virt. eigenvalues --    0.40855   0.41149   0.41324   0.41394   0.42448
  Beta virt. eigenvalues --    0.42847   0.43599   0.43637   0.43807   0.46101
  Beta virt. eigenvalues --    0.46907   0.47341   0.47506   0.47695   0.47857
  Beta virt. eigenvalues --    0.50432   0.50609   0.50715   0.50774   0.51048
  Beta virt. eigenvalues --    0.51359   0.51601   0.51786   0.53552   0.54251
  Beta virt. eigenvalues --    0.54296   0.54696   0.55009   0.55309   0.55433
  Beta virt. eigenvalues --    0.55742   0.55830   0.56914   0.58080   0.59254
  Beta virt. eigenvalues --    0.59929   0.62686   0.63071   0.63855   0.65005
  Beta virt. eigenvalues --    0.65262   0.65417   0.65497   0.66048   0.66279
  Beta virt. eigenvalues --    0.66479   0.66673   0.66840   0.67750   0.68246
  Beta virt. eigenvalues --    0.68460   0.68577   0.68980   0.69320   0.70153
  Beta virt. eigenvalues --    0.70578   0.74547   0.74650   0.75918   0.76043
  Beta virt. eigenvalues --    0.77726   0.78794   0.79104   0.79826   0.79899
  Beta virt. eigenvalues --    0.83638   0.83719   0.83936   0.83998   0.84401
  Beta virt. eigenvalues --    0.85513   0.85941   0.88007   0.88930   0.89519
  Beta virt. eigenvalues --    0.89640   0.90227   0.90916   0.91775   0.93264
  Beta virt. eigenvalues --    0.93842   0.94029   0.94523   0.95428   0.95594
  Beta virt. eigenvalues --    0.96145   0.96455   0.96760   0.97120   0.99288
  Beta virt. eigenvalues --    1.00012   1.00393   1.01221   1.02727   1.03309
  Beta virt. eigenvalues --    1.03861   1.04520   1.05384   1.06553   1.07670
  Beta virt. eigenvalues --    1.08138   1.08657   1.12776   1.13441   1.15549
  Beta virt. eigenvalues --    1.15799   1.17017   1.18106   1.19089   1.19147
  Beta virt. eigenvalues --    1.19369   1.21959   1.22398   1.23964   1.24531
  Beta virt. eigenvalues --    1.24626   1.26383   1.27324   1.27906   1.29688
  Beta virt. eigenvalues --    1.32109   1.32168   1.33186   1.33671   1.35209
  Beta virt. eigenvalues --    1.36563   1.36626   1.39876   1.41530   1.41630
  Beta virt. eigenvalues --    1.41889   1.42035   1.43586   1.43895   1.44005
  Beta virt. eigenvalues --    1.45049   1.46438   1.46804   1.55446   1.55547
  Beta virt. eigenvalues --    1.56393   1.57061   1.57091   1.58856   1.59456
  Beta virt. eigenvalues --    1.59507   1.60047   1.60643   1.60745   1.61717
  Beta virt. eigenvalues --    1.62367   1.65828   1.66284   1.66765   1.67805
  Beta virt. eigenvalues --    1.71122   1.71547   1.72279   1.75134   1.75791
  Beta virt. eigenvalues --    1.76946   1.77236   1.80918   1.81157   1.81479
  Beta virt. eigenvalues --    1.81679   1.82169   1.87658   1.87831   1.87874
  Beta virt. eigenvalues --    1.88079   1.88272   1.89608   1.89934   1.90097
  Beta virt. eigenvalues --    1.90428   1.90589   1.90741   1.90979   1.94247
  Beta virt. eigenvalues --    1.94330   1.95030   2.00549   2.02754   2.03134
  Beta virt. eigenvalues --    2.04456   2.07221   2.07411   2.14065   2.14230
  Beta virt. eigenvalues --    2.14236   2.14290   2.18871   2.19443   2.20586
  Beta virt. eigenvalues --    2.20788   2.22037   2.22408   2.23025   2.23729
  Beta virt. eigenvalues --    2.24074   2.24351   2.24764   2.24911   2.25337
  Beta virt. eigenvalues --    2.25658   2.25743   2.26486   2.29413   2.29698
  Beta virt. eigenvalues --    2.33575   2.36350   2.36489   2.36640   2.40380
  Beta virt. eigenvalues --    2.40483   2.41462   2.46566   2.49265   2.49578
  Beta virt. eigenvalues --    2.49703   2.49761   2.51451   2.53163   2.53478
  Beta virt. eigenvalues --    2.54111   2.56560   2.56564   2.56590   2.56619
  Beta virt. eigenvalues --    2.56627   2.56669   2.56782   2.56846   2.56967
  Beta virt. eigenvalues --    2.58087   2.60106   2.60271   2.64934   2.66643
  Beta virt. eigenvalues --    2.66884   2.68455   2.76027   2.76542   2.76884
  Beta virt. eigenvalues --    2.77158   2.79478   2.82398   2.85828   2.86372
  Beta virt. eigenvalues --    2.86950   2.87213   2.89726   2.90043   2.91679
  Beta virt. eigenvalues --    2.92857   2.93569   2.95633   2.95919   2.98936
  Beta virt. eigenvalues --    3.00248   3.00599   3.00646   3.01208   3.01399
  Beta virt. eigenvalues --    3.02163   3.08744   3.12212   3.12636   3.15708
  Beta virt. eigenvalues --    3.24322   3.24569   3.24928   3.35065   3.35590
  Beta virt. eigenvalues --    3.42953   3.43062   3.43326   3.44083   3.45827
  Beta virt. eigenvalues --    3.45854   3.63126   3.63537   3.71490   3.73526
  Beta virt. eigenvalues --   53.75813
          Condensed to atoms (all electrons):
               1          2          3          4          5          6
     1  N    6.201280   0.742442  -0.037150  -0.005614   0.000069   0.000015
     2  C    0.742442   5.225678   0.274947  -0.116453   0.014724   0.000964
     3  C   -0.037150   0.274947   5.057949   0.557786  -0.030733   0.014625
     4  N   -0.005614  -0.116453   0.557786   6.310586   0.630883  -0.099710
     5  C    0.000069   0.014724  -0.030733   0.630883   5.606106   0.036120
     6  C    0.000015   0.000964   0.014625  -0.099710   0.036120   5.622320
     7  N    0.000000  -0.000039   0.000131   0.004996  -0.097721   0.616155
     8  C    0.000000  -0.000004   0.000026   0.000145   0.014271  -0.027515
     9  C    0.000000   0.000000  -0.000004  -0.000040   0.001341   0.014750
    10  N    0.000000   0.000000   0.000000   0.000000   0.000018   0.000049
    11  C    0.000000   0.000000   0.000002  -0.000032   0.001690  -0.077337
    12  C    0.000000   0.000000   0.000000  -0.000001   0.000402  -0.000363
    13  N    0.000000   0.000000   0.000000   0.000000   0.000001  -0.000040
    14  N    0.000000   0.000000  -0.000001   0.000022   0.005327  -0.117335
    15  C    0.000000  -0.000015  -0.000133   0.008622  -0.072405   0.216889
    16  C    0.000000   0.000003  -0.000250  -0.001730  -0.089243  -0.076987
    17  N    0.000000   0.000000   0.000001  -0.000002  -0.001702   0.008415
    18  C    0.000000   0.000000   0.000001   0.000001  -0.000259  -0.000111
    19  C    0.000000   0.000000   0.000000   0.000000   0.000001  -0.000012
    20  N    0.000000   0.000000   0.000000   0.000000   0.000000   0.000000
    21  C    0.000000   0.000000   0.000002  -0.000001  -0.000097  -0.000252
    22  C    0.000000   0.000000   0.000000   0.000000  -0.000009   0.000001
    23  N    0.000000   0.000000   0.000000   0.000000   0.000000   0.000000
    24  N    0.000000  -0.000001  -0.000036   0.000025   0.008604  -0.001753
    25  C    0.000001   0.000422   0.002032   0.005410  -0.076671  -0.089538
    26  C   -0.000028   0.001263  -0.071681  -0.123471   0.214545  -0.069495
    27  N   -0.000020   0.000665  -0.054844  -0.043060  -0.117224   0.005529
    28  C   -0.004350  -0.128673   0.514698  -0.049242  -0.075459   0.002319
    29  C   -0.002347  -0.034935  -0.127416   0.000597   0.000120   0.000434
    30  N   -0.000342  -0.001803  -0.005045  -0.000027  -0.000037   0.000001
    31  Ag   0.070071  -0.011638  -0.000859   0.000148   0.000075  -0.000028
               7          8          9         10         11         12
     1  N    0.000000   0.000000   0.000000   0.000000   0.000000   0.000000
     2  C   -0.000039  -0.000004   0.000000   0.000000   0.000000   0.000000
     3  C    0.000131   0.000026  -0.000004   0.000000   0.000002   0.000000
     4  N    0.004996   0.000145  -0.000040   0.000000  -0.000032  -0.000001
     5  C   -0.097721   0.014271   0.001341   0.000018   0.001690   0.000402
     6  C    0.616155  -0.027515   0.014750   0.000049  -0.077337  -0.000363
     7  N    6.275970   0.582114  -0.115205  -0.005715  -0.051519   0.000284
     8  C    0.582114   5.051558   0.215594  -0.036515   0.518642  -0.121692
     9  C   -0.115205   0.215594   5.233558   0.867767  -0.119590  -0.039256
    10  N   -0.005715  -0.036515   0.867767   6.052621  -0.004405  -0.002428
    11  C   -0.051519   0.518642  -0.119590  -0.004405   5.046332   0.213623
    12  C    0.000284  -0.121692  -0.039256  -0.002428   0.213623   5.237261
    13  N   -0.000027  -0.004515  -0.002370  -0.000372  -0.036733   0.866684
    14  N   -0.042526  -0.051604   0.000347  -0.000027   0.584629  -0.116414
    15  C   -0.118577  -0.077236  -0.000152  -0.000039  -0.026194   0.015045
    16  C    0.005353   0.001528   0.000398   0.000000   0.014452   0.001432
    17  N    0.000023  -0.000029  -0.000001   0.000000   0.000116  -0.000047
    18  C   -0.000001   0.000002   0.000000   0.000000   0.000029  -0.000004
    19  C    0.000000   0.000000   0.000000   0.000000  -0.000004   0.000000
    20  N    0.000000   0.000000   0.000000   0.000000   0.000000   0.000000
    21  C    0.000001   0.000001   0.000000   0.000000   0.000002   0.000000
    22  C    0.000000   0.000000   0.000000   0.000000   0.000000   0.000000
    23  N    0.000000   0.000000   0.000000   0.000000   0.000000   0.000000
    24  N   -0.000002   0.000001   0.000000   0.000000  -0.000001   0.000000
    25  C   -0.001750  -0.000300   0.000000   0.000000  -0.000030  -0.000007
    26  C    0.008445  -0.000037  -0.000007   0.000000  -0.000303   0.000000
    27  N    0.000022  -0.000001   0.000000   0.000000   0.000001   0.000000
    28  C   -0.000030   0.000002   0.000000   0.000000   0.000001   0.000000
    29  C   -0.000001   0.000000   0.000000   0.000000   0.000000   0.000000
    30  N    0.000000   0.000000   0.000000   0.000000   0.000000   0.000000
    31  Ag   0.000016   0.000001   0.000000   0.000000   0.000000   0.000000
              13         14         15         16         17         18
     1  N    0.000000   0.000000   0.000000   0.000000   0.000000   0.000000
     2  C    0.000000   0.000000  -0.000015   0.000003   0.000000   0.000000
     3  C    0.000000  -0.000001  -0.000133  -0.000250   0.000001   0.000001
     4  N    0.000000   0.000022   0.008622  -0.001730  -0.000002   0.000001
     5  C    0.000001   0.005327  -0.072405  -0.089243  -0.001702  -0.000259
     6  C   -0.000040  -0.117335   0.216889  -0.076987   0.008415  -0.000111
     7  N   -0.000027  -0.042526  -0.118577   0.005353   0.000023  -0.000001
     8  C   -0.004515  -0.051604  -0.077236   0.001528  -0.000029   0.000002
     9  C   -0.002370   0.000347  -0.000152   0.000398  -0.000001   0.000000
    10  N   -0.000372  -0.000027  -0.000039   0.000000   0.000000   0.000000
    11  C   -0.036733   0.584629  -0.026194   0.014452   0.000116   0.000029
    12  C    0.866684  -0.116414   0.015045   0.001432  -0.000047  -0.000004
    13  N    6.050369  -0.005763   0.000053   0.000018   0.000000   0.000000
    14  N   -0.005763   6.271005   0.615178  -0.098458   0.005049   0.000141
    15  C    0.000053   0.615178   5.613785   0.043046  -0.099606   0.014177
    16  C    0.000018  -0.098458   0.043046   5.627436   0.622099  -0.030256
    17  N    0.000000   0.005049  -0.099606   0.622099   6.274964   0.578042
    18  C    0.000000   0.000141   0.014177  -0.030256   0.578042   5.062814
    19  C    0.000000  -0.000058   0.001268   0.014967  -0.114552   0.218217
    20  N    0.000000  -0.000001   0.000017   0.000057  -0.005626  -0.036503
    21  C    0.000000  -0.000025   0.001805  -0.075853  -0.050533   0.515451
    22  C    0.000000  -0.000001   0.000413  -0.000041   0.000360  -0.119768
    23  N    0.000000   0.000000   0.000001  -0.000038  -0.000027  -0.004373
    24  N    0.000000   0.000021   0.005458  -0.117359  -0.042738  -0.052720
    25  C    0.000000   0.008326  -0.076216   0.210841  -0.119380  -0.074373
    26  C    0.000000  -0.001715  -0.089863  -0.078778   0.005196   0.001791
    27  N    0.000000  -0.000002  -0.001782   0.008799   0.000024  -0.000033
    28  C    0.000000   0.000001  -0.000257  -0.000127  -0.000001   0.000002
    29  C    0.000000   0.000000   0.000001  -0.000011   0.000000   0.000000
    30  N    0.000000   0.000000   0.000000   0.000000   0.000000   0.000000
    31  Ag   0.000000   0.000000  -0.000001   0.000000   0.000000   0.000000
              19         20         21         22         23         24
     1  N    0.000000   0.000000   0.000000   0.000000   0.000000   0.000000
     2  C    0.000000   0.000000   0.000000   0.000000   0.000000  -0.000001
     3  C    0.000000   0.000000   0.000002   0.000000   0.000000  -0.000036
     4  N    0.000000   0.000000  -0.000001   0.000000   0.000000   0.000025
     5  C    0.000001   0.000000  -0.000097  -0.000009   0.000000   0.008604
     6  C   -0.000012   0.000000  -0.000252   0.000001   0.000000  -0.001753
     7  N    0.000000   0.000000   0.000001   0.000000   0.000000  -0.000002
     8  C    0.000000   0.000000   0.000001   0.000000   0.000000   0.000001
     9  C    0.000000   0.000000   0.000000   0.000000   0.000000   0.000000
    10  N    0.000000   0.000000   0.000000   0.000000   0.000000   0.000000
    11  C   -0.000004   0.000000   0.000002   0.000000   0.000000  -0.000001
    12  C    0.000000   0.000000   0.000000   0.000000   0.000000   0.000000
    13  N    0.000000   0.000000   0.000000   0.000000   0.000000   0.000000
    14  N   -0.000058  -0.000001  -0.000025  -0.000001   0.000000   0.000021
    15  C    0.001268   0.000017   0.001805   0.000413   0.000001   0.005458
    16  C    0.014967   0.000057  -0.075853  -0.000041  -0.000038  -0.117359
    17  N   -0.114552  -0.005626  -0.050533   0.000360  -0.000027  -0.042738
    18  C    0.218217  -0.036503   0.515451  -0.119768  -0.004373  -0.052720
    19  C    5.229737   0.869011  -0.118030  -0.039355  -0.002428   0.000453
    20  N    0.869011   6.054539  -0.004259  -0.002377  -0.000375  -0.000026
    21  C   -0.118030  -0.004259   5.041485   0.213869  -0.036409   0.587620
    22  C   -0.039355  -0.002377   0.213869   5.233836   0.867309  -0.115311
    23  N   -0.002428  -0.000375  -0.036409   0.867309   6.052852  -0.005735
    24  N    0.000453  -0.000026   0.587620  -0.115311  -0.005735   6.286141
    25  C    0.000041  -0.000038  -0.027518   0.014980   0.000052   0.607913
    26  C    0.000402   0.000000   0.014165   0.001337   0.000018  -0.100816
    27  N   -0.000001   0.000000   0.000151  -0.000051   0.000000   0.005790
    28  C    0.000000   0.000000   0.000029  -0.000004   0.000000   0.000145
    29  C    0.000000   0.000000  -0.000004   0.000000   0.000000  -0.000050
    30  N    0.000000   0.000000   0.000000   0.000000   0.000000   0.000000
    31  Ag   0.000000   0.000000   0.000000   0.000000   0.000000   0.000000
              25         26         27         28         29         30
     1  N    0.000001  -0.000028  -0.000020  -0.004350  -0.002347  -0.000342
     2  C    0.000422   0.001263   0.000665  -0.128673  -0.034935  -0.001803
     3  C    0.002032  -0.071681  -0.054844   0.514698  -0.127416  -0.005045
     4  N    0.005410  -0.123471  -0.043060  -0.049242   0.000597  -0.000027
     5  C   -0.076671   0.214545  -0.117224  -0.075459   0.000120  -0.000037
     6  C   -0.089538  -0.069495   0.005529   0.002319   0.000434   0.000001
     7  N   -0.001750   0.008445   0.000022  -0.000030  -0.000001   0.000000
     8  C   -0.000300  -0.000037  -0.000001   0.000002   0.000000   0.000000
     9  C    0.000000  -0.000007   0.000000   0.000000   0.000000   0.000000
    10  N    0.000000   0.000000   0.000000   0.000000   0.000000   0.000000
    11  C   -0.000030  -0.000303   0.000001   0.000001   0.000000   0.000000
    12  C   -0.000007   0.000000   0.000000   0.000000   0.000000   0.000000
    13  N    0.000000   0.000000   0.000000   0.000000   0.000000   0.000000
    14  N    0.008326  -0.001715  -0.000002   0.000001   0.000000   0.000000
    15  C   -0.076216  -0.089863  -0.001782  -0.000257   0.000001   0.000000
    16  C    0.210841  -0.078778   0.008799  -0.000127  -0.000011   0.000000
    17  N   -0.119380   0.005196   0.000024  -0.000001   0.000000   0.000000
    18  C   -0.074373   0.001791  -0.000033   0.000002   0.000000   0.000000
    19  C    0.000041   0.000402  -0.000001   0.000000   0.000000   0.000000
    20  N   -0.000038   0.000000   0.000000   0.000000   0.000000   0.000000
    21  C   -0.027518   0.014165   0.000151   0.000029  -0.000004   0.000000
    22  C    0.014980   0.001337  -0.000051  -0.000004   0.000000   0.000000
    23  N    0.000052   0.000018   0.000000   0.000000   0.000000   0.000000
    24  N    0.607913  -0.100816   0.005790   0.000145  -0.000050   0.000000
    25  C    5.619214   0.062025  -0.101419   0.014462   0.001298   0.000018
    26  C    0.062025   5.626955   0.600954  -0.029132   0.015063   0.000053
    27  N   -0.101419   0.600954   6.294022   0.595610  -0.116377  -0.005799
    28  C    0.014462  -0.029132   0.595610   5.043887   0.205765  -0.036093
    29  C    0.001298   0.015063  -0.116377   0.205765   5.251433   0.870681
    30  N    0.000018   0.000053  -0.005799  -0.036093   0.870681   6.052531
    31  Ag   0.000000   0.000032   0.000036   0.000092   0.000092   0.000195
              31
     1  N    0.070071
     2  C   -0.011638
     3  C   -0.000859
     4  N    0.000148
     5  C    0.000075
     6  C   -0.000028
     7  N    0.000016
     8  C    0.000001
     9  C    0.000000
    10  N    0.000000
    11  C    0.000000
    12  C    0.000000
    13  N    0.000000
    14  N    0.000000
    15  C   -0.000001
    16  C    0.000000
    17  N    0.000000
    18  C    0.000000
    19  C    0.000000
    20  N    0.000000
    21  C    0.000000
    22  C    0.000000
    23  N    0.000000
    24  N    0.000000
    25  C    0.000000
    26  C    0.000032
    27  N    0.000036
    28  C    0.000092
    29  C    0.000092
    30  N    0.000195
    31  Ag  18.686976
          Atomic-Atomic Spin Densities.
               1          2          3          4          5          6
     1  N    0.094048  -0.022805  -0.001785   0.000083   0.000005   0.000000
     2  C   -0.022805   0.017713   0.019288  -0.004534  -0.000203   0.000070
     3  C   -0.001785   0.019288   0.099571  -0.029673  -0.002496   0.000538
     4  N    0.000083  -0.004534  -0.029673   0.108934   0.010051  -0.002574
     5  C    0.000005  -0.000203  -0.002496   0.010051  -0.043304   0.002248
     6  C    0.000000   0.000070   0.000538  -0.002574   0.002248   0.020900
     7  N    0.000000   0.000001   0.000007  -0.000020   0.000736   0.000510
     8  C    0.000000   0.000000  -0.000001   0.000017  -0.000013  -0.001161
     9  C    0.000000   0.000000   0.000000  -0.000006  -0.000024  -0.000026
    10  N    0.000000   0.000000   0.000000   0.000000   0.000000   0.000001
    11  C    0.000000   0.000000   0.000000   0.000004   0.000011   0.000156
    12  C    0.000000   0.000000   0.000000   0.000000   0.000002   0.000009
    13  N    0.000000   0.000000   0.000000   0.000000   0.000000   0.000000
    14  N    0.000000   0.000000   0.000000  -0.000001  -0.000055   0.000205
    15  C    0.000000   0.000001   0.000011  -0.000222  -0.001177  -0.000407
    16  C    0.000000   0.000000  -0.000020   0.000089   0.002638  -0.002783
    17  N    0.000000   0.000000   0.000000   0.000000   0.000015  -0.000060
    18  C    0.000000   0.000000   0.000000   0.000000  -0.000010   0.000017
    19  C    0.000000   0.000000   0.000000   0.000000   0.000000   0.000000
    20  N    0.000000   0.000000   0.000000   0.000000   0.000000   0.000000
    21  C    0.000000   0.000000   0.000000   0.000000  -0.000002   0.000002
    22  C    0.000000   0.000000   0.000000   0.000000   0.000000   0.000000
    23  N    0.000000   0.000000   0.000000   0.000000   0.000000   0.000000
    24  N    0.000000   0.000000  -0.000003   0.000002   0.000019  -0.000008
    25  C    0.000000   0.000002   0.000068  -0.000393  -0.004661   0.001194
    26  C   -0.000002  -0.000025   0.002855  -0.003460  -0.007310   0.001760
    27  N    0.000001  -0.000262  -0.003673   0.001685   0.002391  -0.000228
    28  C    0.000057  -0.003798  -0.008383   0.001739   0.001093  -0.000086
    29  C   -0.000017   0.000825  -0.001056  -0.000085  -0.000087  -0.000007
    30  N    0.000003  -0.000006  -0.000077  -0.000001  -0.000001   0.000000
    31  Ag  -0.023737   0.000326  -0.001208   0.000179   0.000006  -0.000003
               7          8          9         10         11         12
     1  N    0.000000   0.000000   0.000000   0.000000   0.000000   0.000000
     2  C    0.000001   0.000000   0.000000   0.000000   0.000000   0.000000
     3  C    0.000007  -0.000001   0.000000   0.000000   0.000000   0.000000
     4  N   -0.000020   0.000017  -0.000006   0.000000   0.000004   0.000000
     5  C    0.000736  -0.000013  -0.000024   0.000000   0.000011   0.000002
     6  C    0.000510  -0.001161  -0.000026   0.000001   0.000156   0.000009
     7  N   -0.011838  -0.001110   0.000303   0.000014   0.000307  -0.000002
     8  C   -0.001110   0.018302   0.000640  -0.000152  -0.000446  -0.000210
     9  C    0.000303   0.000640  -0.005826  -0.000036   0.000222   0.000017
    10  N    0.000014  -0.000152  -0.000036   0.006177   0.000022  -0.000003
    11  C    0.000307  -0.000446   0.000222   0.000022  -0.013890  -0.000364
    12  C   -0.000002  -0.000210   0.000017  -0.000003  -0.000364   0.004772
    13  N    0.000000  -0.000014   0.000002   0.000000   0.000042  -0.000182
    14  N    0.000036  -0.000462  -0.000013   0.000000   0.000830  -0.000344
    15  C    0.000062   0.000125   0.000036   0.000000   0.000577  -0.000013
    16  C   -0.000021   0.000066   0.000002   0.000000  -0.000025   0.000002
    17  N    0.000000   0.000000   0.000000   0.000000  -0.000006   0.000001
    18  C    0.000000   0.000000   0.000000   0.000000   0.000000   0.000000
    19  C    0.000000   0.000000   0.000000   0.000000   0.000000   0.000000
    20  N    0.000000   0.000000   0.000000   0.000000   0.000000   0.000000
    21  C    0.000000   0.000000   0.000000   0.000000   0.000000   0.000000
    22  C    0.000000   0.000000   0.000000   0.000000   0.000000   0.000000
    23  N    0.000000   0.000000   0.000000   0.000000   0.000000   0.000000
    24  N    0.000000   0.000000   0.000000   0.000000   0.000000   0.000000
    25  C   -0.000002  -0.000003   0.000000   0.000000   0.000002   0.000000
    26  C    0.000080  -0.000023  -0.000001   0.000000   0.000006   0.000000
    27  N    0.000000   0.000000   0.000000   0.000000   0.000000   0.000000
    28  C   -0.000002   0.000000   0.000000   0.000000   0.000000   0.000000
    29  C    0.000000   0.000000   0.000000   0.000000   0.000000   0.000000
    30  N    0.000000   0.000000   0.000000   0.000000   0.000000   0.000000
    31  Ag  -0.000001   0.000001   0.000000   0.000000   0.000000   0.000000
              13         14         15         16         17         18
     1  N    0.000000   0.000000   0.000000   0.000000   0.000000   0.000000
     2  C    0.000000   0.000000   0.000001   0.000000   0.000000   0.000000
     3  C    0.000000   0.000000   0.000011  -0.000020   0.000000   0.000000
     4  N    0.000000  -0.000001  -0.000222   0.000089   0.000000   0.000000
     5  C    0.000000  -0.000055  -0.001177   0.002638   0.000015  -0.000010
     6  C    0.000000   0.000205  -0.000407  -0.002783  -0.000060   0.000017
     7  N    0.000000   0.000036   0.000062  -0.000021   0.000000   0.000000
     8  C   -0.000014  -0.000462   0.000125   0.000066   0.000000   0.000000
     9  C    0.000002  -0.000013   0.000036   0.000002   0.000000   0.000000
    10  N    0.000000   0.000000   0.000000   0.000000   0.000000   0.000000
    11  C    0.000042   0.000830   0.000577  -0.000025  -0.000006   0.000000
    12  C   -0.000182  -0.000344  -0.000013   0.000002   0.000001   0.000000
    13  N   -0.004231  -0.000013  -0.000001   0.000000   0.000000   0.000000
    14  N   -0.000013   0.014567  -0.000503  -0.001059  -0.000042   0.000013
    15  C   -0.000001  -0.000503  -0.017307   0.005072   0.000878  -0.000003
    16  C    0.000000  -0.001059   0.005072   0.039178   0.004693  -0.003986
    17  N    0.000000  -0.000042   0.000878   0.004693  -0.023324  -0.007355
    18  C    0.000000   0.000013  -0.000003  -0.003986  -0.007355   0.083684
    19  C    0.000000   0.000000  -0.000015  -0.000014   0.000660   0.002770
    20  N    0.000000   0.000000   0.000000   0.000004   0.000052  -0.000951
    21  C    0.000000  -0.000001  -0.000028   0.000785   0.000732  -0.005270
    22  C    0.000000   0.000000  -0.000002  -0.000033   0.000008  -0.000826
    23  N    0.000000   0.000000   0.000000   0.000000   0.000000  -0.000035
    24  N    0.000000   0.000000  -0.000062   0.001845   0.000445  -0.002909
    25  C    0.000000   0.000053  -0.000806  -0.011292  -0.000193   0.001580
    26  C    0.000000   0.000011  -0.000888  -0.004784  -0.000093   0.000150
    27  N    0.000000   0.000000   0.000023   0.000134   0.000001  -0.000005
    28  C    0.000000   0.000000   0.000002   0.000011   0.000000   0.000000
    29  C    0.000000   0.000000   0.000000   0.000000   0.000000   0.000000
    30  N    0.000000   0.000000   0.000000   0.000000   0.000000   0.000000
    31  Ag   0.000000   0.000000   0.000000   0.000000   0.000000   0.000000
              19         20         21         22         23         24
     1  N    0.000000   0.000000   0.000000   0.000000   0.000000   0.000000
     2  C    0.000000   0.000000   0.000000   0.000000   0.000000   0.000000
     3  C    0.000000   0.000000   0.000000   0.000000   0.000000  -0.000003
     4  N    0.000000   0.000000   0.000000   0.000000   0.000000   0.000002
     5  C    0.000000   0.000000  -0.000002   0.000000   0.000000   0.000019
     6  C    0.000000   0.000000   0.000002   0.000000   0.000000  -0.000008
     7  N    0.000000   0.000000   0.000000   0.000000   0.000000   0.000000
     8  C    0.000000   0.000000   0.000000   0.000000   0.000000   0.000000
     9  C    0.000000   0.000000   0.000000   0.000000   0.000000   0.000000
    10  N    0.000000   0.000000   0.000000   0.000000   0.000000   0.000000
    11  C    0.000000   0.000000   0.000000   0.000000   0.000000   0.000000
    12  C    0.000000   0.000000   0.000000   0.000000   0.000000   0.000000
    13  N    0.000000   0.000000   0.000000   0.000000   0.000000   0.000000
    14  N    0.000000   0.000000  -0.000001   0.000000   0.000000   0.000000
    15  C   -0.000015   0.000000  -0.000028  -0.000002   0.000000  -0.000062
    16  C   -0.000014   0.000004   0.000785  -0.000033   0.000000   0.001845
    17  N    0.000660   0.000052   0.000732   0.000008   0.000000   0.000445
    18  C    0.002770  -0.000951  -0.005270  -0.000826  -0.000035  -0.002909
    19  C   -0.023991  -0.000423   0.000130   0.000279   0.000011  -0.000061
    20  N   -0.000423   0.027847   0.000068  -0.000004  -0.000001   0.000000
    21  C    0.000130   0.000068  -0.029999  -0.001312  -0.000141   0.005985
    22  C    0.000279  -0.000004  -0.001312   0.010813  -0.000461  -0.001589
    23  N    0.000011  -0.000001  -0.000141  -0.000461  -0.007944  -0.000068
    24  N   -0.000061   0.000000   0.005985  -0.001589  -0.000068   0.059334
    25  C   -0.000005   0.000000  -0.000394   0.000170   0.000002  -0.011420
    26  C    0.000000   0.000000  -0.000085   0.000028   0.000000  -0.004164
    27  N    0.000000   0.000000   0.000021  -0.000003   0.000000   0.000844
    28  C    0.000000   0.000000   0.000001   0.000000   0.000000   0.000020
    29  C    0.000000   0.000000   0.000000   0.000000   0.000000  -0.000004
    30  N    0.000000   0.000000   0.000000   0.000000   0.000000   0.000000
    31  Ag   0.000000   0.000000   0.000000   0.000000   0.000000   0.000000
              25         26         27         28         29         30
     1  N    0.000000  -0.000002   0.000001   0.000057  -0.000017   0.000003
     2  C    0.000002  -0.000025  -0.000262  -0.003798   0.000825  -0.000006
     3  C    0.000068   0.002855  -0.003673  -0.008383  -0.001056  -0.000077
     4  N   -0.000393  -0.003460   0.001685   0.001739  -0.000085  -0.000001
     5  C   -0.004661  -0.007310   0.002391   0.001093  -0.000087  -0.000001
     6  C    0.001194   0.001760  -0.000228  -0.000086  -0.000007   0.000000
     7  N   -0.000002   0.000080   0.000000  -0.000002   0.000000   0.000000
     8  C   -0.000003  -0.000023   0.000000   0.000000   0.000000   0.000000
     9  C    0.000000  -0.000001   0.000000   0.000000   0.000000   0.000000
    10  N    0.000000   0.000000   0.000000   0.000000   0.000000   0.000000
    11  C    0.000002   0.000006   0.000000   0.000000   0.000000   0.000000
    12  C    0.000000   0.000000   0.000000   0.000000   0.000000   0.000000
    13  N    0.000000   0.000000   0.000000   0.000000   0.000000   0.000000
    14  N    0.000053   0.000011   0.000000   0.000000   0.000000   0.000000
    15  C   -0.000806  -0.000888   0.000023   0.000002   0.000000   0.000000
    16  C   -0.011292  -0.004784   0.000134   0.000011   0.000000   0.000000
    17  N   -0.000193  -0.000093   0.000001   0.000000   0.000000   0.000000
    18  C    0.001580   0.000150  -0.000005   0.000000   0.000000   0.000000
    19  C   -0.000005   0.000000   0.000000   0.000000   0.000000   0.000000
    20  N    0.000000   0.000000   0.000000   0.000000   0.000000   0.000000
    21  C   -0.000394  -0.000085   0.000021   0.000001   0.000000   0.000000
    22  C    0.000170   0.000028  -0.000003   0.000000   0.000000   0.000000
    23  N    0.000002   0.000000   0.000000   0.000000   0.000000   0.000000
    24  N   -0.011420  -0.004164   0.000844   0.000020  -0.000004   0.000000
    25  C    0.019015   0.016175  -0.003146  -0.000149   0.000043   0.000000
    26  C    0.016175   0.098198  -0.022571  -0.002522   0.000304   0.000005
    27  N   -0.003146  -0.022571   0.066766   0.009739  -0.001725  -0.000081
    28  C   -0.000149  -0.002522   0.009739  -0.020428   0.000106  -0.000251
    29  C    0.000043   0.000304  -0.001725   0.000106   0.006511  -0.000519
    30  N    0.000000   0.000005  -0.000081  -0.000251  -0.000519  -0.004374
    31  Ag   0.000000  -0.000007   0.000007   0.000012   0.000010  -0.000009
              31
     1  N   -0.023737
     2  C    0.000326
     3  C   -0.001208
     4  N    0.000179
     5  C    0.000006
     6  C   -0.000003
     7  N   -0.000001
     8  C    0.000001
     9  C    0.000000
    10  N    0.000000
    11  C    0.000000
    12  C    0.000000
    13  N    0.000000
    14  N    0.000000
    15  C    0.000000
    16  C    0.000000
    17  N    0.000000
    18  C    0.000000
    19  C    0.000000
    20  N    0.000000
    21  C    0.000000
    22  C    0.000000
    23  N    0.000000
    24  N    0.000000
    25  C    0.000000
    26  C   -0.000007
    27  N    0.000007
    28  C    0.000012
    29  C    0.000010
    30  N   -0.000009
    31  Ag   0.642444
 Mulliken charges and spin densities:
               1          2
     1  N    0.035974   0.045852
     2  C    0.032451   0.006592
     3  C   -0.094049   0.073962
     4  N   -0.079839   0.081813
     5  C    0.027263  -0.040129
     6  C    0.021890   0.020267
     7  N   -0.060398  -0.010941
     8  C   -0.064438   0.015555
     9  C   -0.057129  -0.004710
    10  N    0.129047   0.006023
    11  C   -0.063373  -0.012555
    12  C   -0.054519   0.003683
    13  N    0.132696  -0.004397
    14  N   -0.056118   0.013221
    15  C    0.026717  -0.014645
    16  C    0.018703   0.030501
    17  N   -0.060046  -0.023588
    18  C   -0.072267   0.066864
    19  C   -0.059658  -0.020657
    20  N    0.125579   0.026592
    21  C   -0.061601  -0.029509
    22  C   -0.055187   0.007069
    23  N    0.129155  -0.008638
    24  N   -0.065622   0.048207
    25  C    0.020208   0.005841
    26  C    0.013080   0.073638
    27  N   -0.070992   0.049919
    28  C   -0.053644  -0.022839
    29  C   -0.064342   0.004299
    30  N    0.125667  -0.005312
    31  Ag   0.254793   0.618020
 Sum of Mulliken charges =   0.00000   1.00000
 Mulliken charges and spin densities with hydrogens summed into heavy atoms:
               1          2
     1  N    0.035974   0.045852
     2  C    0.032451   0.006592
     3  C   -0.094049   0.073962
     4  N   -0.079839   0.081813
     5  C    0.027263  -0.040129
     6  C    0.021890   0.020267
     7  N   -0.060398  -0.010941
     8  C   -0.064438   0.015555
     9  C   -0.057129  -0.004710
    10  N    0.129047   0.006023
    11  C   -0.063373  -0.012555
    12  C   -0.054519   0.003683
    13  N    0.132696  -0.004397
    14  N   -0.056118   0.013221
    15  C    0.026717  -0.014645
    16  C    0.018703   0.030501
    17  N   -0.060046  -0.023588
    18  C   -0.072267   0.066864
    19  C   -0.059658  -0.020657
    20  N    0.125579   0.026592
    21  C   -0.061601  -0.029509
    22  C   -0.055187   0.007069
    23  N    0.129155  -0.008638
    24  N   -0.065622   0.048207
    25  C    0.020208   0.005841
    26  C    0.013080   0.073638
    27  N   -0.070992   0.049919
    28  C   -0.053644  -0.022839
    29  C   -0.064342   0.004299
    30  N    0.125667  -0.005312
    31  Ag   0.254793   0.618020
 Electronic spatial extent (au):  <R**2>=          17095.7038
 Charge=              0.0000 electrons
 Dipole moment (field-independent basis, Debye):
    X=             -5.4406    Y=              7.3253    Z=             -0.8425  Tot=              9.1635
 Quadrupole moment (field-independent basis, Debye-Ang):
   XX=           -233.7255   YY=           -198.9626   ZZ=           -178.4909
   XY=            -35.1009   XZ=             -0.2001   YZ=              8.0104
 Traceless Quadrupole moment (field-independent basis, Debye-Ang):
   XX=            -29.9992   YY=              4.7637   ZZ=             25.2354
   XY=            -35.1009   XZ=             -0.2001   YZ=              8.0104
 Octapole moment (field-independent basis, Debye-Ang**2):
  XXX=            136.1415  YYY=            -77.1064  ZZZ=             30.6226  XYY=           -145.4561
  XXY=             88.0318  XXZ=            -23.6678  XZZ=             80.9887  YZZ=           -129.9966
  YYZ=            -24.2484  XYZ=             32.1614
 Hexadecapole moment (field-independent basis, Debye-Ang**3):
 XXXX=         -13368.0135 YYYY=         -13890.7958 ZZZZ=           -509.4326 XXXY=           1081.0241
 XXXZ=           -442.4689 YYYX=             59.1720 YYYZ=           1161.6145 ZZZX=           -362.8582
 ZZZY=            960.9525 XXYY=          -4001.2967 XXZZ=          -1880.5360 YYZZ=          -2418.9737
 XXYZ=            363.1182 YYXZ=             46.1751 ZZXY=            585.8806
 N-N= 2.610766920415D+03 E-N=-8.650328789095D+03  KE= 1.384914129465D+03
                          Isotropic Fermi Contact Couplings
        Atom                 a.u.       MegaHertz       Gauss      10(-4) cm-1
     1  N(14)              0.10058      32.49827      11.59619      10.84026
     2  C(13)              0.00259       2.91334       1.03955       0.97179
     3  C(13)              0.00955      10.74065       3.83253       3.58269
     4  N(14)              0.02499       8.07341       2.88079       2.69300
     5  C(13)             -0.00971     -10.91839      -3.89595      -3.64198
     6  C(13)              0.00338       3.80253       1.35684       1.26839
     7  N(14)             -0.00326      -1.05478      -0.37637      -0.35184
     8  C(13)              0.00334       3.75571       1.34013       1.25277
     9  C(13)             -0.00166      -1.86557      -0.66568      -0.62229
    10  N(14)              0.00131       0.42487       0.15160       0.14172
    11  C(13)             -0.00301      -3.38447      -1.20766      -1.12894
    12  C(13)              0.00121       1.35679       0.48414       0.45258
    13  N(14)             -0.00094      -0.30398      -0.10847      -0.10140
    14  N(14)              0.00394       1.27437       0.45473       0.42508
    15  C(13)             -0.00385      -4.33306      -1.54614      -1.44535
    16  C(13)              0.00580       6.51867       2.32602       2.17439
    17  N(14)             -0.00760      -2.45548      -0.87618      -0.81906
    18  C(13)              0.01287      14.47072       5.16351       4.82691
    19  C(13)             -0.00737      -8.28016      -2.95457      -2.76196
    20  N(14)              0.00586       1.89269       0.67536       0.63133
    21  C(13)             -0.00829      -9.32347      -3.32685      -3.10998
    22  C(13)              0.00224       2.51861       0.89870       0.84012
    23  N(14)             -0.00186      -0.60162      -0.21467      -0.20068
    24  N(14)              0.01333       4.30825       1.53729       1.43708
    25  C(13)             -0.00299      -3.35942      -1.19873      -1.12058
    26  C(13)              0.00911      10.23610       3.65250       3.41440
    27  N(14)              0.01386       4.47773       1.59776       1.49361
    28  C(13)             -0.00737      -8.28027      -2.95461      -2.76200
    29  C(13)              0.00098       1.10520       0.39436       0.36866
    30  N(14)             -0.00115      -0.37142      -0.13253      -0.12389
    31  Ag(107             0.00022      -0.03936      -0.01405      -0.01313
 --------------------------------------------------------
       Center         ----  Spin Dipole Couplings  ----
                      3XX-RR        3YY-RR        3ZZ-RR
 --------------------------------------------------------
     1   Atom       -0.045504     -0.044740      0.090244
     2   Atom       -0.016659     -0.011266      0.027925
     3   Atom       -0.039722     -0.028877      0.068599
     4   Atom       -0.097594     -0.082549      0.180143
     5   Atom        0.014192      0.012956     -0.027147
     6   Atom       -0.006962     -0.005200      0.012162
     7   Atom        0.009565      0.010065     -0.019630
     8   Atom       -0.007441     -0.007090      0.014531
     9   Atom        0.002653      0.000182     -0.002835
    10   Atom       -0.006844     -0.003784      0.010629
    11   Atom        0.006494      0.005483     -0.011977
    12   Atom       -0.000307     -0.001400      0.001707
    13   Atom        0.003311      0.004554     -0.007865
    14   Atom       -0.013589     -0.012091      0.025680
    15   Atom        0.004846      0.004789     -0.009635
    16   Atom       -0.017858     -0.014373      0.032231
    17   Atom        0.019173      0.017294     -0.036467
    18   Atom       -0.035539     -0.030204      0.065742
    19   Atom        0.002879      0.007671     -0.010550
    20   Atom       -0.023536     -0.024679      0.048216
    21   Atom        0.011740      0.013763     -0.025503
    22   Atom       -0.003243     -0.000115      0.003358
    23   Atom        0.010328      0.004557     -0.014885
    24   Atom       -0.050795     -0.047520      0.098315
    25   Atom       -0.009911     -0.009559      0.019471
    26   Atom       -0.038912     -0.033309      0.072220
    27   Atom       -0.058431     -0.050734      0.109164
    28   Atom        0.010566      0.007059     -0.017625
    29   Atom        0.000401     -0.001418      0.001017
    30   Atom        0.003960      0.005123     -0.009083
    31   Atom       -0.003289      0.000771      0.002518
 --------------------------------------------------------
                        XY            XZ            YZ
 --------------------------------------------------------
     1   Atom        0.001016      0.071829     -0.070421
     2   Atom       -0.008525     -0.003032     -0.018211
     3   Atom       -0.005410     -0.016628      0.032358
     4   Atom       -0.006473     -0.021787      0.061871
     5   Atom       -0.003815      0.003768     -0.008951
     6   Atom       -0.000452     -0.001150      0.003118
     7   Atom        0.000905      0.001205     -0.005375
     8   Atom        0.000007     -0.001318      0.004366
     9   Atom        0.000403      0.000258     -0.000502
    10   Atom       -0.000092     -0.000958      0.002839
    11   Atom        0.000159      0.001057     -0.003341
    12   Atom       -0.000524     -0.000022      0.000592
    13   Atom        0.000906      0.000472     -0.002333
    14   Atom        0.000092     -0.002110      0.006686
    15   Atom        0.000901      0.000747     -0.002937
    16   Atom       -0.000384     -0.002901      0.009005
    17   Atom       -0.000368      0.003350     -0.010448
    18   Atom       -0.002643     -0.005415      0.018536
    19   Atom       -0.005602      0.001845     -0.003869
    20   Atom        0.003348     -0.004854      0.014390
    21   Atom       -0.001173      0.002406     -0.007716
    22   Atom       -0.001123     -0.000182      0.000622
    23   Atom        0.000624      0.001334     -0.003762
    24   Atom       -0.003412     -0.008499      0.028153
    25   Atom       -0.002318     -0.001549      0.005923
    26   Atom       -0.002729     -0.005408      0.020893
    27   Atom       -0.002818     -0.007634      0.030363
    28   Atom       -0.002679      0.001723     -0.005178
    29   Atom       -0.001065      0.000129      0.000356
    30   Atom        0.001643     -0.000304     -0.002489
    31   Atom        0.007952      0.009931     -0.008027
 --------------------------------------------------------


 ---------------------------------------------------------------------------------
              Anisotropic Spin Dipole Couplings in Principal Axis System
 ---------------------------------------------------------------------------------

       Atom             a.u.   MegaHertz   Gauss  10(-4) cm-1        Axes

              Baa    -0.0995    -3.837    -1.369    -1.280  0.6349 -0.6144 -0.4684
     1 N(14)  Bbb    -0.0441    -1.701    -0.607    -0.567  0.6967  0.7173  0.0035
              Bcc     0.1436     5.537     1.976     1.847  0.3339 -0.3286  0.8835
 
              Baa    -0.0266    -3.573    -1.275    -1.192  0.6720  0.6905  0.2678
     2 C(13)  Bbb    -0.0085    -1.135    -0.405    -0.378  0.7406 -0.6236 -0.2504
              Bcc     0.0351     4.708     1.680     1.570  0.0059 -0.3666  0.9303
 
              Baa    -0.0423    -5.675    -2.025    -1.893  0.9846  0.1383  0.1073
     3 C(13)  Bbb    -0.0386    -5.180    -1.848    -1.728 -0.1002  0.9481 -0.3017
              Bcc     0.0809    10.856     3.874     3.621 -0.1434  0.2863  0.9473
 
              Baa    -0.1000    -3.857    -1.376    -1.287  0.9162  0.4004 -0.0172
     4 N(14)  Bbb    -0.0957    -3.692    -1.317    -1.231 -0.3933  0.8900 -0.2307
              Bcc     0.1957     7.549     2.694     2.518 -0.0771  0.2181  0.9729
 
              Baa    -0.0292    -3.925    -1.401    -1.309 -0.0671  0.2012  0.9773
     5 C(13)  Bbb     0.0101     1.357     0.484     0.453  0.7238  0.6840 -0.0911
              Bcc     0.0191     2.568     0.916     0.857 -0.6868  0.7012 -0.1915
 
              Baa    -0.0071    -0.950    -0.339    -0.317  0.9816  0.1890  0.0280
     6 C(13)  Bbb    -0.0057    -0.764    -0.273    -0.255 -0.1810  0.9668 -0.1804
              Bcc     0.0128     1.715     0.612     0.572 -0.0612  0.1720  0.9832
 
              Baa    -0.0206    -0.796    -0.284    -0.265 -0.0445  0.1736  0.9838
     7 N(14)  Bbb     0.0093     0.360     0.129     0.120  0.9242 -0.3668  0.1065
              Bcc     0.0113     0.435     0.155     0.145  0.3794  0.9140 -0.1441
 
              Baa    -0.0081    -1.082    -0.386    -0.361 -0.4265  0.8831 -0.1955
     8 C(13)  Bbb    -0.0074    -0.992    -0.354    -0.331  0.9027  0.4291 -0.0312
              Bcc     0.0155     2.074     0.740     0.692 -0.0564  0.1898  0.9802
 
              Baa    -0.0029    -0.394    -0.141    -0.131 -0.0574  0.1660  0.9845
     9 C(13)  Bbb     0.0002     0.028     0.010     0.009 -0.1424  0.9746 -0.1726
              Bcc     0.0027     0.365     0.130     0.122  0.9881  0.1501  0.0323
 
              Baa    -0.0069    -0.266    -0.095    -0.089  0.9980 -0.0236  0.0584
    10 N(14)  Bbb    -0.0043    -0.167    -0.059    -0.056  0.0340  0.9823 -0.1844
              Bcc     0.0112     0.433     0.154     0.144 -0.0530  0.1860  0.9811
 
              Baa    -0.0127    -1.698    -0.606    -0.566 -0.0557  0.1813  0.9818
    11 C(13)  Bbb     0.0061     0.818     0.292     0.273  0.0775  0.9812 -0.1768
              Bcc     0.0066     0.880     0.314     0.293  0.9954 -0.0663  0.0687
 
              Baa    -0.0017    -0.228    -0.081    -0.076  0.3457  0.9248 -0.1586
    12 C(13)  Bbb    -0.0001    -0.017    -0.006    -0.006  0.9366 -0.3300  0.1177
              Bcc     0.0018     0.245     0.087     0.082 -0.0566  0.1892  0.9803
 
              Baa    -0.0083    -0.321    -0.115    -0.107 -0.0540  0.1817  0.9819
    13 N(14)  Bbb     0.0030     0.116     0.041     0.039  0.9237 -0.3644  0.1183
              Bcc     0.0053     0.205     0.073     0.068  0.3793  0.9133 -0.1481
 
              Baa    -0.0140    -0.539    -0.192    -0.180  0.8515 -0.5078  0.1310
    14 N(14)  Bbb    -0.0130    -0.500    -0.178    -0.167  0.5220  0.8448 -0.1177
              Bcc     0.0269     1.039     0.371     0.346 -0.0509  0.1685  0.9844
 
              Baa    -0.0103    -1.377    -0.491    -0.459 -0.0600  0.1946  0.9790
    15 C(13)  Bbb     0.0044     0.585     0.209     0.195  0.8045 -0.5712  0.1628
              Bcc     0.0059     0.793     0.283     0.264  0.5909  0.7974 -0.1223
 
              Baa    -0.0180    -2.420    -0.864    -0.807  0.9954 -0.0662  0.0693
    16 C(13)  Bbb    -0.0160    -2.152    -0.768    -0.718  0.0776  0.9809 -0.1783
              Bcc     0.0341     4.573     1.632     1.525 -0.0562  0.1829  0.9815
 
              Baa    -0.0386    -1.489    -0.531    -0.497 -0.0557  0.1831  0.9815
    17 N(14)  Bbb     0.0183     0.707     0.252     0.236  0.6878  0.7196 -0.0952
              Bcc     0.0203     0.782     0.279     0.261  0.7238 -0.6698  0.1660
 
              Baa    -0.0367    -4.925    -1.757    -1.643  0.8834  0.4670 -0.0378
    18 C(13)  Bbb    -0.0328    -4.404    -1.571    -1.469 -0.4653  0.8649 -0.1882
              Bcc     0.0695     9.329     3.329     3.112 -0.0552  0.1839  0.9814
 
              Baa    -0.0114    -1.527    -0.545    -0.509 -0.0551  0.1832  0.9815
    19 C(13)  Bbb    -0.0008    -0.106    -0.038    -0.035  0.8435  0.5346 -0.0525
              Bcc     0.0122     1.632     0.582     0.544 -0.5344  0.8250 -0.1840
 
              Baa    -0.0302    -1.163    -0.415    -0.388 -0.5472  0.8165 -0.1838
    20 N(14)  Bbb    -0.0210    -0.811    -0.289    -0.270  0.8351  0.5473 -0.0552
              Bcc     0.0512     1.974     0.704     0.658 -0.0555  0.1837  0.9814
 
              Baa    -0.0271    -3.634    -1.297    -1.212 -0.0553  0.1838  0.9814
    21 C(13)  Bbb     0.0112     1.506     0.537     0.502  0.9273  0.3739 -0.0178
              Bcc     0.0159     2.129     0.760     0.710 -0.3703  0.9091 -0.1911
 
              Baa    -0.0036    -0.484    -0.173    -0.161  0.9518  0.3067 -0.0025
    22 C(13)  Bbb     0.0001     0.016     0.006     0.005 -0.3012  0.9332 -0.1961
              Bcc     0.0035     0.468     0.167     0.156 -0.0578  0.1874  0.9806
 
              Baa    -0.0157    -0.604    -0.216    -0.202 -0.0548  0.1842  0.9814
    23 N(14)  Bbb     0.0052     0.202     0.072     0.067 -0.0708  0.9796 -0.1879
              Bcc     0.0104     0.402     0.144     0.134  0.9960  0.0798  0.0406
 
              Baa    -0.0540    -2.082    -0.743    -0.694  0.5582  0.8209 -0.1206
    24 N(14)  Bbb    -0.0501    -1.932    -0.690    -0.645  0.8277 -0.5408  0.1500
              Bcc     0.1041     4.014     1.432     1.339 -0.0579  0.1835  0.9813
 
              Baa    -0.0124    -1.661    -0.593    -0.554  0.6427  0.7582 -0.1097
    25 C(13)  Bbb    -0.0084    -1.124    -0.401    -0.375  0.7634 -0.6219  0.1747
              Bcc     0.0208     2.786     0.994     0.929 -0.0642  0.1961  0.9785
 
              Baa    -0.0402    -5.390    -1.923    -1.798  0.8643  0.5004 -0.0514
    26 C(13)  Bbb    -0.0363    -4.875    -1.740    -1.626 -0.5005  0.8452 -0.1876
              Bcc     0.0765    10.266     3.663     3.424 -0.0504  0.1879  0.9809
 
              Baa    -0.0594    -2.292    -0.818    -0.764  0.9121  0.4086 -0.0323
    27 N(14)  Bbb    -0.0557    -2.148    -0.766    -0.716 -0.4073  0.8946 -0.1836
              Bcc     0.1151     4.439     1.584     1.481 -0.0462  0.1807  0.9825
 
              Baa    -0.0187    -2.511    -0.896    -0.838 -0.0400  0.1928  0.9804
    28 C(13)  Bbb     0.0061     0.824     0.294     0.275  0.5517  0.8223 -0.1392
              Bcc     0.0126     1.688     0.602     0.563  0.8331 -0.5353  0.1393
 
              Baa    -0.0020    -0.263    -0.094    -0.088  0.4141  0.9015 -0.1259
    29 C(13)  Bbb     0.0009     0.119     0.042     0.040  0.9040 -0.3911  0.1725
              Bcc     0.0011     0.144     0.051     0.048 -0.1063  0.1853  0.9769
 
              Baa    -0.0095    -0.367    -0.131    -0.122  0.0018  0.1675  0.9859
    30 N(14)  Bbb     0.0029     0.112     0.040     0.037  0.8452 -0.5271  0.0880
              Bcc     0.0066     0.255     0.091     0.085  0.5344  0.8331 -0.1425
 
              Baa    -0.0176     0.381     0.136     0.127  0.6632 -0.5220 -0.5363
    31 Ag(107 Bbb     0.0069    -0.151    -0.054    -0.050  0.6399  0.7671  0.0447
              Bcc     0.0106    -0.231    -0.082    -0.077  0.3881 -0.3728  0.8429
 

 ---------------------------------------------------------------------------------

 No NMR shielding tensors so no spin-rotation constants.
 Leave Link  601 at Sat Sep 12 00:21:38 2026, MaxMem=  6442450944 cpu:               3.0 elap:               3.4
 (Enter C:\G16W\l9999.exe)
 Unable to Open any file for archive entry.
 1|1|UNPC-DESKTOP-2JKEGCA|SP|UPBE1PBE|def2SVP|C18Ag1N12(2)|JHKIM|12-Sep
 -2026|0||#P PBE1PBE/Def2SVP EmpiricalDispersion=GD3BJ SP SCF=(XQC,MaxC
 ycle=128) NoSymm Guess=Read||HATCN t=0.250 dz=+0.40 class=site2site||0
 ,2|N,0,-2.611348,5.399985,-1.155538|C,0,-1.91032,4.498728,-0.947808|C,
 0,-1.020781,3.405143,-0.693573|N,0,-1.60315,2.191496,-0.499794|C,0,-0.
 81575,1.110993,-0.253581|C,0,-1.393339,-0.141391,-0.052273|N,0,-2.7444
 45,-0.283235,-0.102199|C,0,-3.289096,-1.51343,0.096812|C,0,-4.717936,-
 1.589392,0.03004|N,0,-5.874228,-1.675402,-0.019378|C,0,-2.494073,-2.60
 3514,0.345437|C,0,-3.019195,-3.918595,0.561413|N,0,-3.467734,-4.975035
 ,0.733469|N,0,-1.140539,-2.482394,0.399369|C,0,-0.576747,-1.261039,0.2
 03066|C,0,0.80853,-1.116108,0.254224|N,0,1.59673,-2.195985,0.500607|C,
 0,2.946318,-2.03432,0.546556|C,0,3.714722,-3.214024,0.810558|N,0,4.358
 155,-4.156189,1.023098|C,0,3.51485,-0.801628,0.348106|C,0,4.929519,-0.
 580153,0.386379|N,0,6.079085,-0.424992,0.422118|N,0,2.743704,0.29089,0
 .100372|C,0,1.392486,0.150039,0.050519|C,0,0.584785,1.257497,-0.201933
 |N,0,1.147692,2.479234,-0.398398|C,0,0.342769,3.547761,-0.64334|C,0,1.
 003212,4.803441,-0.840583|N,0,1.516124,5.83162,-1.003743|Ag,0,-4.55217
 388,7.02552652,-0.55830405||Version=EM64W-G16RevC.01|HF=-1487.2195838|
 S2=0.755339|S2-1=0.|S2A=0.750027|RMSD=9.343e-009|Dipole=-2.1404905,2.8
 819834,-0.3314588|Quadrupole=-22.3036462,3.5417122,18.761934,-26.09664
 15,-0.1487541,5.9555096|PG=C01 [X(C18Ag1N12)]||@
 The archive entry for this job was punched.


 THE DIFFICULTY IN SCIENCE IS OFTEN NOT SO MUCH HOW
 TO MAKE A DISCOVERY BUT RATHER TO KNOW ONE HAS MADE IT.

                                                   -- J. D. BERNAL
 Job cpu time:       0 days  0 hours  9 minutes 59.0 seconds.
 Elapsed time:       0 days  0 hours  9 minutes 56.9 seconds.
 File lengths (MBytes):  RWF=    192 Int=      0 D2E=      0 Chk=     15 Scr=      1
 Normal termination of Gaussian 16 at Sat Sep 12 00:21:39 2026.
