 Entering Gaussian System, Link 0=C:\G16W\g16.exe
 Input=LiF32_t0_z0.gjf
 Output=LiF32_t0_z0.out
 Initial command:
 C:\G16W\l1.exe ".\Gau-137580.inp" "LiF32_t0_z0.out" /scrdir=".\"
 Entering Link 1 = C:\G16W\l1.exe PID=    155544.
  
 Copyright (c) 1988-2019, Gaussian, Inc.  All Rights Reserved.
  
 This is part of the Gaussian(R) 16 program.  It is based on
 the Gaussian(R) 09 system (copyright 2009, Gaussian, Inc.),
 the Gaussian(R) 03 system (copyright 2003, Gaussian, Inc.),
 the Gaussian(R) 98 system (copyright 1998, Gaussian, Inc.),
 the Gaussian(R) 94 system (copyright 1995, Gaussian, Inc.),
 the Gaussian 92(TM) system (copyright 1992, Gaussian, Inc.),
 the Gaussian 90(TM) system (copyright 1990, Gaussian, Inc.),
 the Gaussian 88(TM) system (copyright 1988, Gaussian, Inc.),
 the Gaussian 86(TM) system (copyright 1986, Carnegie Mellon
 University), and the Gaussian 82(TM) system (copyright 1983,
 Carnegie Mellon University). Gaussian is a federally registered
 trademark of Gaussian, Inc.
  
 This software contains proprietary and confidential information,
 including trade secrets, belonging to Gaussian, Inc.
  
 This software is provided under written license and may be
 used, copied, transmitted, or stored only in accord with that
 written license.
  
 The following legend is applicable only to US Government
 contracts under FAR:
  
                    RESTRICTED RIGHTS LEGEND
  
 Use, reproduction and disclosure by the US Government is
 subject to restrictions as set forth in subparagraphs (a)
 and (c) of the Commercial Computer Software - Restricted
 Rights clause in FAR 52.227-19.
  
 Gaussian, Inc.
 340 Quinnipiac St., Bldg. 40, Wallingford CT 06492
  
  
 ---------------------------------------------------------------
 Warning -- This program may not be used in any manner that
 competes with the business of Gaussian, Inc. or will provide
 assistance to any competitor of Gaussian, Inc.  The licensee
 of this program is prohibited from giving any competitor of
 Gaussian, Inc. access to this program.  By using this program,
 the user acknowledges that Gaussian, Inc. is engaged in the
 business of creating and licensing software in the field of
 computational chemistry and represents and warrants to the
 licensee that it is not a competitor of Gaussian, Inc. and that
 it will not use this program in any manner prohibited above.
 ---------------------------------------------------------------
  

 Cite this work as:
 Gaussian 16, Revision C.01,
 M. J. Frisch, G. W. Trucks, H. B. Schlegel, G. E. Scuseria, 
 M. A. Robb, J. R. Cheeseman, G. Scalmani, V. Barone, 
 G. A. Petersson, H. Nakatsuji, X. Li, M. Caricato, A. V. Marenich, 
 J. Bloino, B. G. Janesko, R. Gomperts, B. Mennucci, H. P. Hratchian, 
 J. V. Ortiz, A. F. Izmaylov, J. L. Sonnenberg, D. Williams-Young, 
 F. Ding, F. Lipparini, F. Egidi, J. Goings, B. Peng, A. Petrone, 
 T. Henderson, D. Ranasinghe, V. G. Zakrzewski, J. Gao, N. Rega, 
 G. Zheng, W. Liang, M. Hada, M. Ehara, K. Toyota, R. Fukuda, 
 J. Hasegawa, M. Ishida, T. Nakajima, Y. Honda, O. Kitao, H. Nakai, 
 T. Vreven, K. Throssell, J. A. Montgomery, Jr., J. E. Peralta, 
 F. Ogliaro, M. J. Bearpark, J. J. Heyd, E. N. Brothers, K. N. Kudin, 
 V. N. Staroverov, T. A. Keith, R. Kobayashi, J. Normand, 
 K. Raghavachari, A. P. Rendell, J. C. Burant, S. S. Iyengar, 
 J. Tomasi, M. Cossi, J. M. Millam, M. Klene, C. Adamo, R. Cammi, 
 J. W. Ochterski, R. L. Martin, K. Morokuma, O. Farkas, 
 J. B. Foresman, and D. J. Fox, Gaussian, Inc., Wallingford CT, 2019.
 
 ******************************************
 Gaussian 16:  EM64W-G16RevC.01 30-May-2019
                11-Sep-2026 
 ******************************************
 %Chk=LiF32.chk
 %NProcShared=8
 Will use up to    8 processors via shared memory.
 %Mem=48GB
 ----------------------------------------------------------------------
 #P PBE1PBE/Def2SVP EmpiricalDispersion=GD3BJ SP SCF=(XQC,MaxCycle=128,
 VShift=300) NoSymm
 ----------------------------------------------------------------------
 1/38=1,172=1/1;
 2/12=2,15=1,17=6,18=5,40=1/2;
 3/5=43,7=101,11=2,25=1,30=1,74=-13,124=41/1,2,3;
 4//1;
 5/5=2,7=128,8=3,10=300,13=1,38=5/2,8;
 6/7=2,8=2,9=2,10=2,28=1/1;
 99/5=1,9=1/99;
 Leave Link    1 at Fri Sep 11 21:33:29 2026, MaxMem=  6442450944 cpu:               0.0 elap:               0.2
 (Enter C:\G16W\l101.exe)
 --------------------------------------
 LiF32 t=0.000 dz=+0.00 class=site2site
 --------------------------------------
 Symbolic Z-matrix:
 Charge =  0 Multiplicity = 2
 Li                    0.        0.        0. 
 F                     0.        0.        2.013 
 F                     0.        2.013     0. 
 Li                    0.        2.013     2.013 
 Li                    0.        4.026     0. 
 F                     0.        4.026     2.013 
 F                     0.        6.039     0. 
 Li                    0.        6.039     2.013 
 F                     2.013     0.        0. 
 Li                    2.013     0.        2.013 
 Li                    2.013     2.013     0. 
 F                     2.013     2.013     2.013 
 F                     2.013     4.026     0. 
 Li                    2.013     4.026     2.013 
 Li                    2.013     6.039     0. 
 F                     2.013     6.039     2.013 
 Li                    4.026     0.        0. 
 F                     4.026     0.        2.013 
 F                     4.026     2.013     0. 
 Li                    4.026     2.013     2.013 
 Li                    4.026     4.026     0. 
 F                     4.026     4.026     2.013 
 F                     4.026     6.039     0. 
 Li                    4.026     6.039     2.013 
 F                     6.039     0.        0. 
 Li                    6.039     0.        2.013 
 Li                    6.039     2.013     0. 
 F                     6.039     2.013     2.013 
 F                     6.039     4.026     0. 
 Li                    6.039     4.026     2.013 
 Li                    6.039     6.039     0. 
 F                     6.039     6.039     2.013 
 Ag                    2.013     2.013     4.513 
 
 ITRead=  0  0  0  0  0  0  0  0  0  0  0  0  0  0  0  0  0  0  0  0
 ITRead=  0  0  0  0  0  0  0  0  0  0  0  0  0
 MicOpt= -1 -1 -1 -1 -1 -1 -1 -1 -1 -1 -1 -1 -1 -1 -1 -1 -1 -1 -1 -1
 MicOpt= -1 -1 -1 -1 -1 -1 -1 -1 -1 -1 -1 -1 -1
 NAtoms=     33 NQM=       33 NQMF=       0 NMMI=      0 NMMIF=      0
                NMic=       0 NMicF=      0.
                    Isotopes and Nuclear Properties:
 (Nuclear quadrupole moments (NQMom) in fm**2, nuclear magnetic moments (NMagM)
  in nuclear magnetons)

  Atom         1           2           3           4           5           6           7           8           9          10
 IAtWgt=           7          19          19           7           7          19          19           7          19           7
 AtmWgt=   7.0160045  18.9984033  18.9984033   7.0160045   7.0160045  18.9984033  18.9984033   7.0160045  18.9984033   7.0160045
 NucSpn=           3           1           1           3           3           1           1           3           1           3
 AtZEff=   0.0000000   0.0000000   0.0000000   0.0000000   0.0000000   0.0000000   0.0000000   0.0000000   0.0000000   0.0000000
 NQMom=   -4.0100000   0.0000000   0.0000000  -4.0100000  -4.0100000   0.0000000   0.0000000  -4.0100000   0.0000000  -4.0100000
 NMagM=    3.2564240   2.6288670   2.6288670   3.2564240   3.2564240   2.6288670   2.6288670   3.2564240   2.6288670   3.2564240
 AtZNuc=   3.0000000   9.0000000   9.0000000   3.0000000   3.0000000   9.0000000   9.0000000   3.0000000   9.0000000   3.0000000

  Atom        11          12          13          14          15          16          17          18          19          20
 IAtWgt=           7          19          19           7           7          19           7          19          19           7
 AtmWgt=   7.0160045  18.9984033  18.9984033   7.0160045   7.0160045  18.9984033   7.0160045  18.9984033  18.9984033   7.0160045
 NucSpn=           3           1           1           3           3           1           3           1           1           3
 AtZEff=   0.0000000   0.0000000   0.0000000   0.0000000   0.0000000   0.0000000   0.0000000   0.0000000   0.0000000   0.0000000
 NQMom=   -4.0100000   0.0000000   0.0000000  -4.0100000  -4.0100000   0.0000000  -4.0100000   0.0000000   0.0000000  -4.0100000
 NMagM=    3.2564240   2.6288670   2.6288670   3.2564240   3.2564240   2.6288670   3.2564240   2.6288670   2.6288670   3.2564240
 AtZNuc=   3.0000000   9.0000000   9.0000000   3.0000000   3.0000000   9.0000000   3.0000000   9.0000000   9.0000000   3.0000000

  Atom        21          22          23          24          25          26          27          28          29          30
 IAtWgt=           7          19          19           7          19           7           7          19          19           7
 AtmWgt=   7.0160045  18.9984033  18.9984033   7.0160045  18.9984033   7.0160045   7.0160045  18.9984033  18.9984033   7.0160045
 NucSpn=           3           1           1           3           1           3           3           1           1           3
 AtZEff=   0.0000000   0.0000000   0.0000000   0.0000000   0.0000000   0.0000000   0.0000000   0.0000000   0.0000000   0.0000000
 NQMom=   -4.0100000   0.0000000   0.0000000  -4.0100000   0.0000000  -4.0100000  -4.0100000   0.0000000   0.0000000  -4.0100000
 NMagM=    3.2564240   2.6288670   2.6288670   3.2564240   2.6288670   3.2564240   3.2564240   2.6288670   2.6288670   3.2564240
 AtZNuc=   3.0000000   9.0000000   9.0000000   3.0000000   9.0000000   3.0000000   3.0000000   9.0000000   9.0000000   3.0000000

  Atom        31          32          33
 IAtWgt=           7          19         107
 AtmWgt=   7.0160045  18.9984033 106.9050900
 NucSpn=           3           1           1
 AtZEff=   0.0000000   0.0000000   0.0000000
 NQMom=   -4.0100000   0.0000000   0.0000000
 NMagM=    3.2564240   2.6288670  -0.1135700
 AtZNuc=   3.0000000   9.0000000  47.0000000
 Leave Link  101 at Fri Sep 11 21:33:30 2026, MaxMem=  6442450944 cpu:               1.0 elap:               0.2
 (Enter C:\G16W\l202.exe)
                          Input orientation:                          
 ---------------------------------------------------------------------
 Center     Atomic      Atomic             Coordinates (Angstroms)
 Number     Number       Type             X           Y           Z
 ---------------------------------------------------------------------
      1          3           0        0.000000    0.000000    0.000000
      2          9           0        0.000000    0.000000    2.013000
      3          9           0        0.000000    2.013000    0.000000
      4          3           0        0.000000    2.013000    2.013000
      5          3           0        0.000000    4.026000    0.000000
      6          9           0        0.000000    4.026000    2.013000
      7          9           0        0.000000    6.039000    0.000000
      8          3           0        0.000000    6.039000    2.013000
      9          9           0        2.013000    0.000000    0.000000
     10          3           0        2.013000    0.000000    2.013000
     11          3           0        2.013000    2.013000    0.000000
     12          9           0        2.013000    2.013000    2.013000
     13          9           0        2.013000    4.026000    0.000000
     14          3           0        2.013000    4.026000    2.013000
     15          3           0        2.013000    6.039000    0.000000
     16          9           0        2.013000    6.039000    2.013000
     17          3           0        4.026000    0.000000    0.000000
     18          9           0        4.026000    0.000000    2.013000
     19          9           0        4.026000    2.013000    0.000000
     20          3           0        4.026000    2.013000    2.013000
     21          3           0        4.026000    4.026000    0.000000
     22          9           0        4.026000    4.026000    2.013000
     23          9           0        4.026000    6.039000    0.000000
     24          3           0        4.026000    6.039000    2.013000
     25          9           0        6.039000    0.000000    0.000000
     26          3           0        6.039000    0.000000    2.013000
     27          3           0        6.039000    2.013000    0.000000
     28          9           0        6.039000    2.013000    2.013000
     29          9           0        6.039000    4.026000    0.000000
     30          3           0        6.039000    4.026000    2.013000
     31          3           0        6.039000    6.039000    0.000000
     32          9           0        6.039000    6.039000    2.013000
     33         47           0        2.013000    2.013000    4.513000
 ---------------------------------------------------------------------
                    Distance matrix (angstroms):
                    1          2          3          4          5
     1  Li   0.000000
     2  F    2.013000   0.000000
     3  F    2.013000   2.846812   0.000000
     4  Li   2.846812   2.013000   2.013000   0.000000
     5  Li   4.026000   4.501205   2.013000   2.846812   0.000000
     6  F    4.501205   4.026000   2.846812   2.013000   2.013000
     7  F    6.039000   6.365665   4.026000   4.501205   2.013000
     8  Li   6.365665   6.039000   4.501205   4.026000   2.846812
     9  F    2.013000   2.846812   2.846812   3.486618   4.501205
    10  Li   2.846812   2.013000   3.486618   2.846812   4.930823
    11  Li   2.846812   3.486618   2.013000   2.846812   2.846812
    12  F    3.486618   2.846812   2.846812   2.013000   3.486618
    13  F    4.501205   4.930823   2.846812   3.486618   2.013000
    14  Li   4.930823   4.501205   3.486618   2.846812   2.846812
    15  Li   6.365665   6.676366   4.501205   4.930823   2.846812
    16  F    6.676366   6.365665   4.930823   4.501205   3.486618
    17  Li   4.026000   4.501205   4.501205   4.930823   5.693624
    18  F    4.501205   4.026000   4.930823   4.501205   6.039000
    19  F    4.501205   4.930823   4.026000   4.501205   4.501205
    20  Li   4.930823   4.501205   4.501205   4.026000   4.930823
    21  Li   5.693624   6.039000   4.501205   4.930823   4.026000
    22  F    6.039000   5.693624   4.930823   4.501205   4.501205
    23  F    7.257975   7.531956   5.693624   6.039000   4.501205
    24  Li   7.531956   7.257975   6.039000   5.693624   4.930823
    25  F    6.039000   6.365665   6.365665   6.676366   7.257975
    26  Li   6.365665   6.039000   6.676366   6.365665   7.531956
    27  Li   6.365665   6.676366   6.039000   6.365665   6.365665
    28  F    6.676366   6.365665   6.365665   6.039000   6.676366
    29  F    7.257975   7.531956   6.365665   6.676366   6.039000
    30  Li   7.531956   7.257975   6.676366   6.365665   6.365665
    31  Li   8.540436   8.774464   7.257975   7.531956   6.365665
    32  F    8.774464   8.540436   7.531956   7.257975   6.676366
    33  Ag   5.335870   3.788712   4.941593   3.209699   5.335870
                    6          7          8          9         10
     6  F    0.000000
     7  F    2.846812   0.000000
     8  Li   2.013000   2.013000   0.000000
     9  F    4.930823   6.365665   6.676366   0.000000
    10  Li   4.501205   6.676366   6.365665   2.013000   0.000000
    11  Li   3.486618   4.501205   4.930823   2.013000   2.846812
    12  F    2.846812   4.930823   4.501205   2.846812   2.013000
    13  F    2.846812   2.846812   3.486618   4.026000   4.501205
    14  Li   2.013000   3.486618   2.846812   4.501205   4.026000
    15  Li   3.486618   2.013000   2.846812   6.039000   6.365665
    16  F    2.846812   2.846812   2.013000   6.365665   6.039000
    17  Li   6.039000   7.257975   7.531956   2.013000   2.846812
    18  F    5.693624   7.531956   7.257975   2.846812   2.013000
    19  F    4.930823   5.693624   6.039000   2.846812   3.486618
    20  Li   4.501205   6.039000   5.693624   3.486618   2.846812
    21  Li   4.501205   4.501205   4.930823   4.501205   4.930823
    22  F    4.026000   4.930823   4.501205   4.930823   4.501205
    23  F    4.930823   4.026000   4.501205   6.365665   6.676366
    24  Li   4.501205   4.501205   4.026000   6.676366   6.365665
    25  F    7.531956   8.540436   8.774464   4.026000   4.501205
    26  Li   7.257975   8.774464   8.540436   4.501205   4.026000
    27  Li   6.676366   7.257975   7.531956   4.501205   4.930823
    28  F    6.365665   7.531956   7.257975   4.930823   4.501205
    29  F    6.365665   6.365665   6.676366   5.693624   6.039000
    30  Li   6.039000   6.676366   6.365665   6.039000   5.693624
    31  Li   6.676366   6.039000   6.365665   7.257975   7.531956
    32  F    6.365665   6.365665   6.039000   7.531956   7.257975
    33  Ag   3.788712   6.374011   5.148868   4.941593   3.209699
                   11         12         13         14         15
    11  Li   0.000000
    12  F    2.013000   0.000000
    13  F    2.013000   2.846812   0.000000
    14  Li   2.846812   2.013000   2.013000   0.000000
    15  Li   4.026000   4.501205   2.013000   2.846812   0.000000
    16  F    4.501205   4.026000   2.846812   2.013000   2.013000
    17  Li   2.846812   3.486618   4.501205   4.930823   6.365665
    18  F    3.486618   2.846812   4.930823   4.501205   6.676366
    19  F    2.013000   2.846812   2.846812   3.486618   4.501205
    20  Li   2.846812   2.013000   3.486618   2.846812   4.930823
    21  Li   2.846812   3.486618   2.013000   2.846812   2.846812
    22  F    3.486618   2.846812   2.846812   2.013000   3.486618
    23  F    4.501205   4.930823   2.846812   3.486618   2.013000
    24  Li   4.930823   4.501205   3.486618   2.846812   2.846812
    25  F    4.501205   4.930823   5.693624   6.039000   7.257975
    26  Li   4.930823   4.501205   6.039000   5.693624   7.531956
    27  Li   4.026000   4.501205   4.501205   4.930823   5.693624
    28  F    4.501205   4.026000   4.930823   4.501205   6.039000
    29  F    4.501205   4.930823   4.026000   4.501205   4.501205
    30  Li   4.930823   4.501205   4.501205   4.026000   4.930823
    31  Li   5.693624   6.039000   4.501205   4.930823   4.026000
    32  F    6.039000   5.693624   4.930823   4.501205   4.501205
    33  Ag   4.513000   2.500000   4.941593   3.209699   6.047797
                   16         17         18         19         20
    16  F    0.000000
    17  Li   6.676366   0.000000
    18  F    6.365665   2.013000   0.000000
    19  F    4.930823   2.013000   2.846812   0.000000
    20  Li   4.501205   2.846812   2.013000   2.013000   0.000000
    21  Li   3.486618   4.026000   4.501205   2.013000   2.846812
    22  F    2.846812   4.501205   4.026000   2.846812   2.013000
    23  F    2.846812   6.039000   6.365665   4.026000   4.501205
    24  Li   2.013000   6.365665   6.039000   4.501205   4.026000
    25  F    7.531956   2.013000   2.846812   2.846812   3.486618
    26  Li   7.257975   2.846812   2.013000   3.486618   2.846812
    27  Li   6.039000   2.846812   3.486618   2.013000   2.846812
    28  F    5.693624   3.486618   2.846812   2.846812   2.013000
    29  F    4.930823   4.501205   4.930823   2.846812   3.486618
    30  Li   4.501205   4.930823   4.501205   3.486618   2.846812
    31  Li   4.501205   6.365665   6.676366   4.501205   4.930823
    32  F    4.026000   6.676366   6.365665   4.930823   4.501205
    33  Ag   4.739059   5.335870   3.788712   4.941593   3.209699
                   21         22         23         24         25
    21  Li   0.000000
    22  F    2.013000   0.000000
    23  F    2.013000   2.846812   0.000000
    24  Li   2.846812   2.013000   2.013000   0.000000
    25  F    4.501205   4.930823   6.365665   6.676366   0.000000
    26  Li   4.930823   4.501205   6.676366   6.365665   2.013000
    27  Li   2.846812   3.486618   4.501205   4.930823   2.013000
    28  F    3.486618   2.846812   4.930823   4.501205   2.846812
    29  F    2.013000   2.846812   2.846812   3.486618   4.026000
    30  Li   2.846812   2.013000   3.486618   2.846812   4.501205
    31  Li   2.846812   3.486618   2.013000   2.846812   6.039000
    32  F    3.486618   2.846812   2.846812   2.013000   6.365665
    33  Ag   5.335870   3.788712   6.374011   5.148868   6.374011
                   26         27         28         29         30
    26  Li   0.000000
    27  Li   2.846812   0.000000
    28  F    2.013000   2.013000   0.000000
    29  F    4.501205   2.013000   2.846812   0.000000
    30  Li   4.026000   2.846812   2.013000   2.013000   0.000000
    31  Li   6.365665   4.026000   4.501205   2.013000   2.846812
    32  F    6.039000   4.501205   4.026000   2.846812   2.013000
    33  Ag   5.148868   6.047797   4.739059   6.374011   5.148868
                   31         32         33
    31  Li   0.000000
    32  F    2.013000   0.000000
    33  Ag   7.265296   6.218308   0.000000
 Symmetry turned off by external request.
 Stoichiometry    AgF16Li16(2)
 Framework group  CS[SG(AgF4Li4),X(F12Li12)]
 Deg. of freedom    51
 Full point group                 CS      NOp   2
 Rotational constants (GHZ):           0.1488799           0.1348349           0.1105818
 Leave Link  202 at Fri Sep 11 21:33:30 2026, MaxMem=  6442450944 cpu:               0.0 elap:               0.1
 (Enter C:\G16W\l301.exe)
 Standard basis: def2SVP (5D, 7F)
 Ernie: Thresh=  0.10000D-02 Tol=  0.10000D-05 Strict=F.
   399 basis functions,   721 primitive gaussians,   420 cartesian basis functions
   106 alpha electrons      105 beta electrons
       nuclear repulsion energy      2841.7669427459 Hartrees.
 IExCor= 1009 DFT=T Ex+Corr=PBE1PBE ExCW=0 ScaHFX=  0.250000
 ScaDFX=  0.750000  0.750000  1.000000  1.000000 ScalE2=  1.000000  1.000000
 IRadAn=      5 IRanWt=     -1 IRanGd=            0 ICorTp=0 IEmpDi=141
 NAtoms=   33 NActive=   33 NUniq=   33 SFac= 1.00D+00 NAtFMM=   60 NAOKFM=F Big=F
 Integral buffers will be    131072 words long.
 Raffenetti 2 integral format.
 Two-electron integral symmetry is turned off.
 R6Disp:  Grimme-D3(BJ) Dispersion energy=       -0.0678696882 Hartrees.
 Nuclear repulsion after empirical dispersion term =     2841.6990730577 Hartrees.
 Leave Link  301 at Fri Sep 11 21:33:30 2026, MaxMem=  6442450944 cpu:               0.0 elap:               0.2
 (Enter C:\G16W\l302.exe)
 NPDir=0 NMtPBC=     1 NCelOv=     1 NCel=       1 NClECP=     1 NCelD=      1
         NCelK=      1 NCelE2=     1 NClLst=     1 CellRange=     0.0.
 One-electron integrals computed using PRISM.
   1 Symmetry operations used in ECPInt.
 ECPInt:  NShTT=   17578 NPrTT=   69405 LenC2=   16155 LenP2D=   42926.
 LDataN:  DoStor=T MaxTD1= 7 Len=  274
 NBasis=   399 RedAO= T EigKep=  1.36D-03  NBF=   399
 NBsUse=   399 1.00D-06 EigRej= -1.00D+00 NBFU=   399
 Precomputing XC quadrature grid using
 IXCGrd= 4 IRadAn=           5 IRanWt=          -1 IRanGd=           0 AccXCQ= 0.00D+00.
 Defaulting to unpruned grid for atomic number  47.
 Generated NRdTot=       0 NPtTot=           0 NUsed=           0 NTot=          32
 NSgBfM=   414   414   414   414   414 MxSgAt=    33 MxSgA2=    33.
 Leave Link  302 at Fri Sep 11 21:33:36 2026, MaxMem=  6442450944 cpu:               6.0 elap:               6.0
 (Enter C:\G16W\l303.exe)
 DipDrv:  MaxL=1.
 Leave Link  303 at Fri Sep 11 21:33:37 2026, MaxMem=  6442450944 cpu:               0.0 elap:               0.6
 (Enter C:\G16W\l401.exe)
 ExpMin= 2.10D-02 ExpMax= 2.89D+03 ExpMxC= 4.35D+02 IAcc=3 IRadAn=         5 AccDes= 0.00D+00
 Harris functional with IExCor= 1009 and IRadAn=       5 diagonalized for initial guess.
 HarFok:  IExCor= 1009 AccDes= 0.00D+00 IRadAn=         5 IDoV= 1 UseB2=F ITyADJ=14
 ICtDFT=  3500011 ScaDFX=  1.000000  1.000000  1.000000  1.000000
 Defaulting to unpruned grid for atomic number  47.
 FoFCou: FMM=F IPFlag=           0 FMFlag=      100000 FMFlg1=           0
         NFxFlg=           0 DoJE=T BraDBF=F KetDBF=T FulRan=T
         wScrn=  0.000000 ICntrl=       500 IOpCl=  0 I1Cent=   200000004 NGrid=           0
         NMat0=    1 NMatS0=      1 NMatT0=    0 NMatD0=    1 NMtDS0=    0 NMtDT0=    0
 Symmetry not used in FoFCou.
 Harris En= -1864.75610859437    
 JPrj=0 DoOrth=F DoCkMO=F.
 Initial guess <Sx>= 0.0000 <Sy>= 0.0000 <Sz>= 0.5000 <S**2>= 0.7500 S= 0.5000
 Leave Link  401 at Fri Sep 11 21:33:51 2026, MaxMem=  6442450944 cpu:              14.0 elap:              14.1
 (Enter C:\G16W\l502.exe)
 Two-electron integral symmetry not used.
 UHF open shell SCF:
 Using DIIS extrapolation, IDIIS=  1040.
 NGot=  6442450944 LenX=  6442090472 LenY=  6441913631
 Requested convergence on RMS density matrix=1.00D-08 within 128 cycles.
 Requested convergence on MAX density matrix=1.00D-06.
 Requested convergence on             energy=1.00D-06.
 Virtual orbitals will be shifted by   0.300 hartree.
 No special actions if energy rises.
 Fock matrices will be formed incrementally for  20 cycles.

 Cycle   1  Pass 1  IDiag  1:
 FoFJK:  IHMeth= 1 ICntrl=       0 DoSepK=F KAlg= 0 I1Cent=           0 FoldK=F
 IRaf= 870000000 NMat=       1 IRICut=       1 DoRegI=T DoRafI=F ISym2E= 0 IDoP0=0 IntGTp=1.
 FoFCou: FMM=F IPFlag=           0 FMFlag=      100000 FMFlg1=           0
         NFxFlg=           0 DoJE=F BraDBF=F KetDBF=F FulRan=T
         wScrn=  0.000000 ICntrl=         0 IOpCl=  1 I1Cent=           0 NGrid=           0
         NMat0=    1 NMatS0=      1 NMatT0=    0 NMatD0=    1 NMtDS0=    0 NMtDT0=    0
 Symmetry not used in FoFCou.
 Defaulting to unpruned grid for atomic number  47.
 Defaulting to unpruned grid for atomic number  47.
 Defaulting to unpruned grid for atomic number  47.
 Defaulting to unpruned grid for atomic number  47.
 Defaulting to unpruned grid for atomic number  47.
 Defaulting to unpruned grid for atomic number  47.
 Defaulting to unpruned grid for atomic number  47.
 Defaulting to unpruned grid for atomic number  47.
 E= -1863.30390071757    
 DIIS: error= 4.33D-02 at cycle   1 NSaved=   1.
 NSaved= 1 IEnMin= 1 EnMin= -1863.30390071757     IErMin= 1 ErrMin= 4.33D-02
 ErrMax= 4.33D-02  0.00D+00 EMaxC= 1.00D-01 BMatC= 3.71D+00 BMatP= 3.71D+00
 IDIUse=3 WtCom= 5.67D-01 WtEn= 4.33D-01
 Coeff-Com:  0.100D+01
 Coeff-En:   0.100D+01
 Coeff:      0.100D+01
 Gap=     0.256 Goal=   None    Shift=    0.300
 Gap=     0.378 Goal=   None    Shift=    0.300
 GapD=    0.256 DampG=1.000 DampE=0.250 DampFc=0.2500 IDamp=-1.
 Damping current iteration by 2.50D-01
 RMSDP=4.01D-03 MaxDP=2.13D-01              OVMax= 1.41D-01

 Cycle   2  Pass 1  IDiag  1:
 RMSU=  1.00D-03    CP:  1.00D+00
 E= -1863.58741431805     Delta-E=       -0.283513600478 Rises=F Damp=T
 DIIS: error= 2.35D-02 at cycle   2 NSaved=   2.
 NSaved= 2 IEnMin= 2 EnMin= -1863.58741431805     IErMin= 2 ErrMin= 2.35D-02
 ErrMax= 2.35D-02  0.00D+00 EMaxC= 1.00D-01 BMatC= 1.06D+00 BMatP= 3.71D+00
 IDIUse=3 WtCom= 7.65D-01 WtEn= 2.35D-01
 Coeff-Com: -0.109D+01 0.209D+01
 Coeff-En:   0.000D+00 0.100D+01
 Coeff:     -0.836D+00 0.184D+01
 Gap=     0.263 Goal=   None    Shift=    0.300
 Gap=     0.176 Goal=   None    Shift=    0.300
 RMSDP=2.59D-03 MaxDP=1.34D-01 DE=-2.84D-01 OVMax= 5.41D-02

 Cycle   3  Pass 1  IDiag  1:
 RMSU=  9.49D-04    CP:  1.00D+00  3.00D+00
 E= -1863.90433124139     Delta-E=       -0.316916923337 Rises=F Damp=F
 DIIS: error= 1.50D-02 at cycle   3 NSaved=   3.
 NSaved= 3 IEnMin= 3 EnMin= -1863.90433124139     IErMin= 3 ErrMin= 1.50D-02
 ErrMax= 1.50D-02  0.00D+00 EMaxC= 1.00D-01 BMatC= 4.16D-01 BMatP= 1.06D+00
 IDIUse=3 WtCom= 8.50D-01 WtEn= 1.50D-01
 Coeff-Com:  0.459D+00-0.326D+00 0.867D+00
 Coeff-En:   0.385D-01 0.000D+00 0.962D+00
 Coeff:      0.396D+00-0.277D+00 0.881D+00
 Gap=     0.153 Goal=   None    Shift=    0.300
 Gap=     0.231 Goal=   None    Shift=    0.300
 RMSDP=8.08D-04 MaxDP=9.06D-02 DE=-3.17D-01 OVMax= 3.11D-02

 Cycle   4  Pass 1  IDiag  1:
 RMSU=  6.18D-04    CP:  1.00D+00  2.76D+00  1.02D+00
 E= -1863.97493825087     Delta-E=       -0.070607009484 Rises=F Damp=F
 DIIS: error= 1.28D-03 at cycle   4 NSaved=   4.
 NSaved= 4 IEnMin= 4 EnMin= -1863.97493825087     IErMin= 4 ErrMin= 1.28D-03
 ErrMax= 1.28D-03  0.00D+00 EMaxC= 1.00D-01 BMatC= 3.05D-03 BMatP= 4.16D-01
 IDIUse=3 WtCom= 9.87D-01 WtEn= 1.28D-02
 Coeff-Com: -0.101D+00 0.175D+00-0.858D-01 0.101D+01
 Coeff-En:   0.000D+00 0.000D+00 0.000D+00 0.100D+01
 Coeff:     -0.100D+00 0.173D+00-0.847D-01 0.101D+01
 Gap=     0.155 Goal=   None    Shift=    0.300
 Gap=     0.222 Goal=   None    Shift=    0.300
 RMSDP=2.26D-04 MaxDP=3.23D-02 DE=-7.06D-02 OVMax= 1.67D-02

 Cycle   5  Pass 1  IDiag  1:
 RMSU=  1.63D-04    CP:  1.00D+00  2.62D+00  9.86D-01  1.09D+00
 E= -1863.97621832175     Delta-E=       -0.001280070878 Rises=F Damp=F
 DIIS: error= 1.30D-03 at cycle   5 NSaved=   5.
 NSaved= 5 IEnMin= 5 EnMin= -1863.97621832175     IErMin= 4 ErrMin= 1.28D-03
 ErrMax= 1.30D-03  0.00D+00 EMaxC= 1.00D-01 BMatC= 5.88D-04 BMatP= 3.05D-03
 IDIUse=3 WtCom= 9.87D-01 WtEn= 1.30D-02
 Coeff-Com: -0.158D+00 0.200D+00-0.167D+00 0.231D+00 0.894D+00
 Coeff-En:   0.000D+00 0.000D+00 0.000D+00 0.000D+00 0.100D+01
 Coeff:     -0.156D+00 0.197D+00-0.165D+00 0.228D+00 0.895D+00
 Gap=     0.155 Goal=   None    Shift=    0.300
 Gap=     0.219 Goal=   None    Shift=    0.300
 RMSDP=8.23D-05 MaxDP=1.79D-02 DE=-1.28D-03 OVMax= 1.23D-02

 Cycle   6  Pass 1  IDiag  1:
 RMSU=  4.40D-05    CP:  1.00D+00  2.58D+00  9.78D-01  1.13D+00  1.30D+00
 E= -1863.97651191634     Delta-E=       -0.000293594597 Rises=F Damp=F
 DIIS: error= 3.54D-04 at cycle   6 NSaved=   6.
 NSaved= 6 IEnMin= 6 EnMin= -1863.97651191634     IErMin= 6 ErrMin= 3.54D-04
 ErrMax= 3.54D-04  0.00D+00 EMaxC= 1.00D-01 BMatC= 9.72D-05 BMatP= 5.88D-04
 IDIUse=3 WtCom= 9.96D-01 WtEn= 3.54D-03
 Coeff-Com: -0.764D-02 0.410D-02-0.651D-02-0.677D-01-0.283D+00 0.136D+01
 Coeff-En:   0.000D+00 0.000D+00 0.000D+00 0.000D+00 0.000D+00 0.100D+01
 Coeff:     -0.761D-02 0.408D-02-0.648D-02-0.674D-01-0.282D+00 0.136D+01
 Gap=     0.155 Goal=   None    Shift=    0.300
 Gap=     0.220 Goal=   None    Shift=    0.300
 RMSDP=4.21D-05 MaxDP=9.07D-03 DE=-2.94D-04 OVMax= 9.22D-03

 Cycle   7  Pass 1  IDiag  1:
 RMSU=  1.75D-05    CP:  1.00D+00  2.57D+00  9.72D-01  1.14D+00  1.44D+00
                    CP:  1.65D+00
 E= -1863.97660059869     Delta-E=       -0.000088682349 Rises=F Damp=F
 DIIS: error= 2.26D-04 at cycle   7 NSaved=   7.
 NSaved= 7 IEnMin= 7 EnMin= -1863.97660059869     IErMin= 7 ErrMin= 2.26D-04
 ErrMax= 2.26D-04  0.00D+00 EMaxC= 1.00D-01 BMatC= 3.68D-05 BMatP= 9.72D-05
 IDIUse=3 WtCom= 9.98D-01 WtEn= 2.26D-03
 Coeff-Com:  0.346D-01-0.480D-01 0.351D-01-0.995D-01-0.375D+00 0.687D+00
 Coeff-Com:  0.766D+00
 Coeff-En:   0.000D+00 0.000D+00 0.000D+00 0.000D+00 0.000D+00 0.000D+00
 Coeff-En:   0.100D+01
 Coeff:      0.345D-01-0.479D-01 0.351D-01-0.993D-01-0.375D+00 0.686D+00
 Coeff:      0.766D+00
 Gap=     0.155 Goal=   None    Shift=    0.300
 Gap=     0.220 Goal=   None    Shift=    0.300
 RMSDP=2.69D-05 MaxDP=5.04D-03 DE=-8.87D-05 OVMax= 6.20D-03

 Cycle   8  Pass 1  IDiag  1:
 RMSU=  9.79D-06    CP:  1.00D+00  2.57D+00  9.67D-01  1.14D+00  1.49D+00
                    CP:  2.05D+00  1.88D+00
 E= -1863.97663717693     Delta-E=       -0.000036578234 Rises=F Damp=F
 DIIS: error= 1.52D-04 at cycle   8 NSaved=   8.
 NSaved= 8 IEnMin= 8 EnMin= -1863.97663717693     IErMin= 8 ErrMin= 1.52D-04
 ErrMax= 1.52D-04  0.00D+00 EMaxC= 1.00D-01 BMatC= 1.25D-05 BMatP= 3.68D-05
 IDIUse=3 WtCom= 9.98D-01 WtEn= 1.52D-03
 Coeff-Com:  0.489D-03 0.145D-03-0.704D-02 0.693D-02 0.250D+00-0.699D+00
 Coeff-Com: -0.882D+00 0.233D+01
 Coeff-En:   0.000D+00 0.000D+00 0.000D+00 0.000D+00 0.000D+00 0.000D+00
 Coeff-En:   0.000D+00 0.100D+01
 Coeff:      0.488D-03 0.145D-03-0.703D-02 0.692D-02 0.249D+00-0.698D+00
 Coeff:     -0.880D+00 0.233D+01
 Gap=     0.155 Goal=   None    Shift=    0.300
 Gap=     0.221 Goal=   None    Shift=    0.300
 RMSDP=2.28D-05 MaxDP=4.43D-03 DE=-3.66D-05 OVMax= 4.69D-03

 Cycle   9  Pass 1  IDiag  1:
 RMSU=  3.86D-06    CP:  1.00D+00  2.57D+00  9.64D-01  1.14D+00  1.50D+00
                    CP:  2.32D+00  2.77D+00  1.94D+00
 E= -1863.97665435077     Delta-E=       -0.000017173839 Rises=F Damp=F
 DIIS: error= 9.80D-05 at cycle   9 NSaved=   9.
 NSaved= 9 IEnMin= 9 EnMin= -1863.97665435077     IErMin= 9 ErrMin= 9.80D-05
 ErrMax= 9.80D-05  0.00D+00 EMaxC= 1.00D-01 BMatC= 3.65D-06 BMatP= 1.25D-05
 IDIUse=1 WtCom= 1.00D+00 WtEn= 0.00D+00
 Coeff-Com:  0.278D-03 0.223D-03-0.458D-02 0.926D-02 0.160D+00-0.486D+00
 Coeff-Com: -0.587D+00 0.127D+01 0.639D+00
 Coeff:      0.278D-03 0.223D-03-0.458D-02 0.926D-02 0.160D+00-0.486D+00
 Coeff:     -0.587D+00 0.127D+01 0.639D+00
 Gap=     0.155 Goal=   None    Shift=    0.300
 Gap=     0.220 Goal=   None    Shift=    0.300
 RMSDP=1.51D-05 MaxDP=2.95D-03 DE=-1.72D-05 OVMax= 2.88D-03

 Cycle  10  Pass 1  IDiag  1:
 RMSU=  6.69D-06    CP:  1.00D+00  2.57D+00  9.61D-01  1.13D+00  1.50D+00
                    CP:  2.48D+00  3.00D+00  2.60D+00  1.68D+00
 E= -1863.97666048130     Delta-E=       -0.000006130530 Rises=F Damp=F
 DIIS: error= 5.98D-05 at cycle  10 NSaved=  10.
 NSaved=10 IEnMin=10 EnMin= -1863.97666048130     IErMin=10 ErrMin= 5.98D-05
 ErrMax= 5.98D-05  0.00D+00 EMaxC= 1.00D-01 BMatC= 1.29D-06 BMatP= 3.65D-06
 IDIUse=1 WtCom= 1.00D+00 WtEn= 0.00D+00
 Coeff-Com: -0.168D-02 0.235D-02-0.245D-02 0.929D-02 0.400D-01-0.141D+00
 Coeff-Com: -0.151D+00 0.112D+00-0.445D+00 0.158D+01
 Coeff:     -0.168D-02 0.235D-02-0.245D-02 0.929D-02 0.400D-01-0.141D+00
 Coeff:     -0.151D+00 0.112D+00-0.445D+00 0.158D+01
 Gap=     0.155 Goal=   None    Shift=    0.300
 Gap=     0.221 Goal=   None    Shift=    0.300
 RMSDP=1.10D-05 MaxDP=2.12D-03 DE=-6.13D-06 OVMax= 1.87D-03

 Cycle  11  Pass 1  IDiag  1:
 RMSU=  1.75D-06    CP:  1.00D+00  2.57D+00  9.59D-01  1.12D+00  1.50D+00
                    CP:  2.58D+00  3.00D+00  3.00D+00  2.34D+00  2.09D+00
 E= -1863.97666290692     Delta-E=       -0.000002425627 Rises=F Damp=F
 DIIS: error= 3.92D-05 at cycle  11 NSaved=  11.
 NSaved=11 IEnMin=11 EnMin= -1863.97666290692     IErMin=11 ErrMin= 3.92D-05
 ErrMax= 3.92D-05  0.00D+00 EMaxC= 1.00D-01 BMatC= 6.99D-07 BMatP= 1.29D-06
 IDIUse=1 WtCom= 1.00D+00 WtEn= 0.00D+00
 Coeff-Com:  0.105D-02-0.147D-02 0.190D-02-0.187D-02-0.273D-01 0.713D-01
 Coeff-Com:  0.783D-01-0.601D-01-0.111D+01 0.586D+00 0.147D+01
 Coeff:      0.105D-02-0.147D-02 0.190D-02-0.187D-02-0.273D-01 0.713D-01
 Coeff:      0.783D-01-0.601D-01-0.111D+01 0.586D+00 0.147D+01
 Gap=     0.155 Goal=   None    Shift=    0.300
 Gap=     0.221 Goal=   None    Shift=    0.300
 RMSDP=7.60D-06 MaxDP=1.44D-03 DE=-2.43D-06 OVMax= 1.19D-03

 Cycle  12  Pass 1  IDiag  1:
 RMSU=  2.29D-06    CP:  1.00D+00  2.57D+00  9.57D-01  1.12D+00  1.49D+00
                    CP:  2.64D+00  3.00D+00  3.00D+00  2.82D+00  2.85D+00
                    CP:  2.60D+00
 E= -1863.97666385378     Delta-E=       -0.000000946860 Rises=F Damp=F
 DIIS: error= 2.50D-05 at cycle  12 NSaved=  12.
 NSaved=12 IEnMin=12 EnMin= -1863.97666385378     IErMin=12 ErrMin= 2.50D-05
 ErrMax= 2.50D-05  0.00D+00 EMaxC= 1.00D-01 BMatC= 3.10D-07 BMatP= 6.99D-07
 IDIUse=1 WtCom= 1.00D+00 WtEn= 0.00D+00
 Coeff-Com:  0.487D-03-0.723D-03 0.432D-03-0.177D-02 0.234D-02 0.131D-01
 Coeff-Com: -0.160D-02 0.113D+00-0.655D+00 0.332D+00-0.284D+00 0.148D+01
 Coeff:      0.487D-03-0.723D-03 0.432D-03-0.177D-02 0.234D-02 0.131D-01
 Coeff:     -0.160D-02 0.113D+00-0.655D+00 0.332D+00-0.284D+00 0.148D+01
 Gap=     0.155 Goal=   None    Shift=    0.300
 Gap=     0.221 Goal=   None    Shift=    0.300
 RMSDP=4.83D-06 MaxDP=9.03D-04 DE=-9.47D-07 OVMax= 7.21D-04

 Cycle  13  Pass 1  IDiag  1:
 RMSU=  2.52D-06    CP:  1.00D+00  2.57D+00  9.56D-01  1.12D+00  1.49D+00
                    CP:  2.68D+00  3.00D+00  3.00D+00  3.00D+00  3.00D+00
                    CP:  3.00D+00  1.68D+00
 E= -1863.97666420554     Delta-E=       -0.000000351754 Rises=F Damp=F
 DIIS: error= 1.55D-05 at cycle  13 NSaved=  13.
 NSaved=13 IEnMin=13 EnMin= -1863.97666420554     IErMin=13 ErrMin= 1.55D-05
 ErrMax= 1.55D-05  0.00D+00 EMaxC= 1.00D-01 BMatC= 1.22D-07 BMatP= 3.10D-07
 IDIUse=1 WtCom= 1.00D+00 WtEn= 0.00D+00
 Coeff-Com: -0.321D-04-0.855D-06-0.475D-03-0.626D-03 0.147D-01-0.221D-01
 Coeff-Com: -0.376D-01 0.141D+00-0.163D+00 0.126D+00-0.962D+00 0.789D+00
 Coeff-Com:  0.112D+01
 Coeff:     -0.321D-04-0.855D-06-0.475D-03-0.626D-03 0.147D-01-0.221D-01
 Coeff:     -0.376D-01 0.141D+00-0.163D+00 0.126D+00-0.962D+00 0.789D+00
 Coeff:      0.112D+01
 Gap=     0.155 Goal=   None    Shift=    0.300
 Gap=     0.221 Goal=   None    Shift=    0.300
 RMSDP=3.03D-06 MaxDP=5.59D-04 DE=-3.52D-07 OVMax= 4.38D-04

 Cycle  14  Pass 1  IDiag  1:
 RMSU=  3.29D-07    CP:  1.00D+00  2.57D+00  9.56D-01  1.12D+00  1.49D+00
                    CP:  2.70D+00  3.00D+00  3.00D+00  3.00D+00  3.00D+00
                    CP:  3.00D+00  2.13D+00  1.95D+00
 E= -1863.97666433615     Delta-E=       -0.000000130613 Rises=F Damp=F
 DIIS: error= 9.52D-06 at cycle  14 NSaved=  14.
 NSaved=14 IEnMin=14 EnMin= -1863.97666433615     IErMin=14 ErrMin= 9.52D-06
 ErrMax= 9.52D-06  0.00D+00 EMaxC= 1.00D-01 BMatC= 4.45D-08 BMatP= 1.22D-07
 IDIUse=1 WtCom= 1.00D+00 WtEn= 0.00D+00
 Coeff-Com: -0.972D-04 0.122D-03-0.262D-03 0.847D-03 0.226D-02-0.133D-01
 Coeff-Com: -0.862D-02 0.292D-01 0.105D+00-0.437D-01-0.189D+00-0.528D+00
 Coeff-Com: -0.207D+00 0.185D+01
 Coeff:     -0.972D-04 0.122D-03-0.262D-03 0.847D-03 0.226D-02-0.133D-01
 Coeff:     -0.862D-02 0.292D-01 0.105D+00-0.437D-01-0.189D+00-0.528D+00
 Coeff:     -0.207D+00 0.185D+01
 Gap=     0.155 Goal=   None    Shift=    0.300
 Gap=     0.221 Goal=   None    Shift=    0.300
 RMSDP=1.86D-06 MaxDP=3.40D-04 DE=-1.31D-07 OVMax= 2.64D-04

 Cycle  15  Pass 1  IDiag  1:
 RMSU=  9.52D-08    CP:  1.00D+00  2.57D+00  9.55D-01  1.12D+00  1.49D+00
                    CP:  2.71D+00  3.00D+00  3.00D+00  3.00D+00  3.00D+00
                    CP:  3.00D+00  2.41D+00  2.53D+00  1.62D+00
 E= -1863.97666438395     Delta-E=       -0.000000047794 Rises=F Damp=F
 DIIS: error= 5.90D-06 at cycle  15 NSaved=  15.
 NSaved=15 IEnMin=15 EnMin= -1863.97666438395     IErMin=15 ErrMin= 5.90D-06
 ErrMax= 5.90D-06  0.00D+00 EMaxC= 1.00D-01 BMatC= 1.67D-08 BMatP= 4.45D-08
 IDIUse=1 WtCom= 1.00D+00 WtEn= 0.00D+00
 Coeff-Com:  0.315D-04-0.447D-04 0.248D-04 0.563D-03-0.230D-02-0.175D-02
 Coeff-Com:  0.557D-02-0.501D-02 0.269D-01-0.205D-01 0.117D+00-0.343D+00
 Coeff-Com: -0.456D+00 0.278D+00 0.140D+01
 Coeff:      0.315D-04-0.447D-04 0.248D-04 0.563D-03-0.230D-02-0.175D-02
 Coeff:      0.557D-02-0.501D-02 0.269D-01-0.205D-01 0.117D+00-0.343D+00
 Coeff:     -0.456D+00 0.278D+00 0.140D+01
 Gap=     0.155 Goal=   None    Shift=    0.300
 Gap=     0.221 Goal=   None    Shift=    0.300
 RMSDP=1.10D-06 MaxDP=2.01D-04 DE=-4.78D-08 OVMax= 1.59D-04

 Cycle  16  Pass 1  IDiag  1:
 RMSU=  4.01D-08    CP:  1.00D+00  2.57D+00  9.55D-01  1.11D+00  1.49D+00
                    CP:  2.71D+00  3.00D+00  3.00D+00  3.00D+00  3.00D+00
                    CP:  3.00D+00  2.58D+00  2.87D+00  1.97D+00  1.76D+00
 E= -1863.97666440138     Delta-E=       -0.000000017432 Rises=F Damp=F
 DIIS: error= 3.69D-06 at cycle  16 NSaved=  16.
 NSaved=16 IEnMin=16 EnMin= -1863.97666440138     IErMin=16 ErrMin= 3.69D-06
 ErrMax= 3.69D-06  0.00D+00 EMaxC= 1.00D-01 BMatC= 6.06D-09 BMatP= 1.67D-08
 IDIUse=1 WtCom= 1.00D+00 WtEn= 0.00D+00
 Coeff-Com:  0.463D-04-0.640D-04 0.795D-04 0.134D-03-0.189D-02 0.223D-02
 Coeff-Com:  0.630D-02-0.116D-01-0.846D-02-0.932D-03 0.108D+00-0.842D-01
 Coeff-Com: -0.291D+00-0.295D+00 0.416D+00 0.116D+01
 Coeff:      0.463D-04-0.640D-04 0.795D-04 0.134D-03-0.189D-02 0.223D-02
 Coeff:      0.630D-02-0.116D-01-0.846D-02-0.932D-03 0.108D+00-0.842D-01
 Coeff:     -0.291D+00-0.295D+00 0.416D+00 0.116D+01
 Gap=     0.155 Goal=   None    Shift=    0.300
 Gap=     0.221 Goal=   None    Shift=    0.300
 RMSDP=6.57D-07 MaxDP=1.19D-04 DE=-1.74D-08 OVMax= 9.69D-05

 Cycle  17  Pass 1  IDiag  1:
 RMSU=  1.82D-07    CP:  1.00D+00  2.57D+00  9.55D-01  1.11D+00  1.49D+00
                    CP:  2.72D+00  3.00D+00  3.00D+00  3.00D+00  3.00D+00
                    CP:  3.00D+00  2.68D+00  3.00D+00  2.16D+00  2.29D+00
                    CP:  1.78D+00
 E= -1863.97666440778     Delta-E=       -0.000000006403 Rises=F Damp=F
 DIIS: error= 2.31D-06 at cycle  17 NSaved=  17.
 NSaved=17 IEnMin=17 EnMin= -1863.97666440778     IErMin=17 ErrMin= 2.31D-06
 ErrMax= 2.31D-06  0.00D+00 EMaxC= 1.00D-01 BMatC= 2.24D-09 BMatP= 6.06D-09
 IDIUse=1 WtCom= 1.00D+00 WtEn= 0.00D+00
 Coeff-Com:  0.601D-05-0.963D-05 0.986D-05-0.216D-03 0.839D-03 0.539D-03
 Coeff-Com: -0.120D-02 0.276D-02-0.245D-01 0.153D-01-0.307D-02 0.903D-01
 Coeff-Com:  0.192D-01-0.149D+00-0.666D+00 0.960D-01 0.162D+01
 Coeff:      0.601D-05-0.963D-05 0.986D-05-0.216D-03 0.839D-03 0.539D-03
 Coeff:     -0.120D-02 0.276D-02-0.245D-01 0.153D-01-0.307D-02 0.903D-01
 Coeff:      0.192D-01-0.149D+00-0.666D+00 0.960D-01 0.162D+01
 Gap=     0.155 Goal=   None    Shift=    0.300
 Gap=     0.221 Goal=   None    Shift=    0.300
 RMSDP=3.91D-07 MaxDP=6.99D-05 DE=-6.40D-09 OVMax= 5.86D-05

 Cycle  18  Pass 1  IDiag  1:
 RMSU=  2.58D-08    CP:  1.00D+00  2.57D+00  9.55D-01  1.11D+00  1.49D+00
                    CP:  2.72D+00  3.00D+00  3.00D+00  3.00D+00  3.00D+00
                    CP:  3.00D+00  2.74D+00  3.00D+00  2.27D+00  2.63D+00
                    CP:  2.53D+00  2.68D+00
 E= -1863.97666441013     Delta-E=       -0.000000002348 Rises=F Damp=F
 DIIS: error= 1.44D-06 at cycle  18 NSaved=  18.
 NSaved=18 IEnMin=18 EnMin= -1863.97666441013     IErMin=18 ErrMin= 1.44D-06
 ErrMax= 1.44D-06  0.00D+00 EMaxC= 1.00D-01 BMatC= 8.66D-10 BMatP= 2.24D-09
 IDIUse=1 WtCom= 1.00D+00 WtEn= 0.00D+00
 Coeff-Com: -0.309D-05 0.224D-05-0.385D-05-0.621D-04 0.302D-03 0.193D-03
 Coeff-Com: -0.555D-03 0.117D-02-0.604D-02 0.619D-02-0.174D-01 0.350D-01
 Coeff-Com:  0.244D-01 0.203D-01-0.291D+00-0.344D+00 0.164D+00 0.141D+01
 Coeff:     -0.309D-05 0.224D-05-0.385D-05-0.621D-04 0.302D-03 0.193D-03
 Coeff:     -0.555D-03 0.117D-02-0.604D-02 0.619D-02-0.174D-01 0.350D-01
 Coeff:      0.244D-01 0.203D-01-0.291D+00-0.344D+00 0.164D+00 0.141D+01
 Gap=     0.155 Goal=   None    Shift=    0.300
 Gap=     0.221 Goal=   None    Shift=    0.300
 RMSDP=2.34D-07 MaxDP=4.17D-05 DE=-2.35D-09 OVMax= 3.58D-05

 Cycle  19  Pass 1  IDiag  1:
 RMSU=  1.25D-07    CP:  1.00D+00  2.57D+00  9.55D-01  1.11D+00  1.49D+00
                    CP:  2.72D+00  3.00D+00  3.00D+00  3.00D+00  3.00D+00
                    CP:  3.00D+00  2.78D+00  3.00D+00  2.33D+00  2.85D+00
                    CP:  3.00D+00  3.00D+00  1.47D+00
 E= -1863.97666441083     Delta-E=       -0.000000000703 Rises=F Damp=F
 DIIS: error= 8.93D-07 at cycle  19 NSaved=  19.
 NSaved=19 IEnMin=19 EnMin= -1863.97666441083     IErMin=19 ErrMin= 8.93D-07
 ErrMax= 8.93D-07  0.00D+00 EMaxC= 1.00D-01 BMatC= 3.29D-10 BMatP= 8.66D-10
 IDIUse=1 WtCom= 1.00D+00 WtEn= 0.00D+00
 Coeff-Com: -0.451D-05 0.503D-05-0.840D-05 0.121D-03-0.423D-03-0.221D-03
 Coeff-Com:  0.700D-03-0.774D-03 0.110D-01-0.572D-02-0.840D-02-0.374D-01
 Coeff-Com: -0.138D-01 0.110D+00 0.237D+00-0.326D+00-0.813D+00-0.129D+00
 Coeff-Com:  0.198D+01
 Coeff:     -0.451D-05 0.503D-05-0.840D-05 0.121D-03-0.423D-03-0.221D-03
 Coeff:      0.700D-03-0.774D-03 0.110D-01-0.572D-02-0.840D-02-0.374D-01
 Coeff:     -0.138D-01 0.110D+00 0.237D+00-0.326D+00-0.813D+00-0.129D+00
 Coeff:      0.198D+01
 Gap=     0.155 Goal=   None    Shift=    0.300
 Gap=     0.221 Goal=   None    Shift=    0.300
 RMSDP=1.40D-07 MaxDP=2.48D-05 DE=-7.03D-10 OVMax= 2.19D-05

 Cycle  20  Pass 1  IDiag  1:
 RMSU=  1.33D-08    CP:  1.00D+00  2.57D+00  9.55D-01  1.11D+00  1.49D+00
                    CP:  2.72D+00  3.00D+00  3.00D+00  3.00D+00  3.00D+00
                    CP:  3.00D+00  2.80D+00  3.00D+00  2.37D+00  2.99D+00
                    CP:  3.00D+00  3.00D+00  1.72D+00  1.88D+00
 E= -1863.97666441107     Delta-E=       -0.000000000235 Rises=F Damp=F
 DIIS: error= 5.60D-07 at cycle  20 NSaved=  20.
 NSaved=20 IEnMin=20 EnMin= -1863.97666441107     IErMin=20 ErrMin= 5.60D-07
 ErrMax= 5.60D-07  0.00D+00 EMaxC= 1.00D-01 BMatC= 1.27D-10 BMatP= 3.29D-10
 IDIUse=1 WtCom= 1.00D+00 WtEn= 0.00D+00
 Coeff-Com: -0.107D-05 0.150D-05-0.318D-05 0.224D-04-0.665D-05-0.229D-03
 Coeff-Com:  0.332D-04 0.445D-03 0.143D-02-0.100D-02-0.533D-03-0.220D-02
 Coeff-Com: -0.476D-02-0.156D-02 0.548D-01-0.119D-01-0.705D-01-0.719D+00
 Coeff-Com:  0.147D+00 0.161D+01
 Coeff:     -0.107D-05 0.150D-05-0.318D-05 0.224D-04-0.665D-05-0.229D-03
 Coeff:      0.332D-04 0.445D-03 0.143D-02-0.100D-02-0.533D-03-0.220D-02
 Coeff:     -0.476D-02-0.156D-02 0.548D-01-0.119D-01-0.705D-01-0.719D+00
 Coeff:      0.147D+00 0.161D+01
 Gap=     0.155 Goal=   None    Shift=    0.300
 Gap=     0.221 Goal=   None    Shift=    0.300
 RMSDP=8.26D-08 MaxDP=1.46D-05 DE=-2.35D-10 OVMax= 1.34D-05

 Cycle  21  Pass 1  IDiag  1:
 Restarting incremental Fock formation.
 E= -1863.97666441122     Delta-E=       -0.000000000151 Rises=F Damp=F
 DIIS: error= 3.53D-07 at cycle  21 NSaved=  20.
 NSaved=20 IEnMin=20 EnMin= -1863.97666441122     IErMin=20 ErrMin= 3.53D-07
 ErrMax= 3.53D-07  0.00D+00 EMaxC= 1.00D-01 BMatC= 4.83D-11 BMatP= 1.27D-10
 IDIUse=1 WtCom= 1.00D+00 WtEn= 0.00D+00
 Coeff-Com:  0.286D-06-0.426D-06-0.206D-04 0.138D-03-0.109D-03-0.175D-03
 Coeff-Com:  0.523D-03-0.234D-02 0.110D-02 0.226D-02 0.116D-01 0.237D-03
 Coeff-Com: -0.379D-01-0.377D-01 0.917D-01 0.199D+00-0.591D+00-0.479D+00
 Coeff-Com:  0.831D+00 0.101D+01
 Coeff:      0.286D-06-0.426D-06-0.206D-04 0.138D-03-0.109D-03-0.175D-03
 Coeff:      0.523D-03-0.234D-02 0.110D-02 0.226D-02 0.116D-01 0.237D-03
 Coeff:     -0.379D-01-0.377D-01 0.917D-01 0.199D+00-0.591D+00-0.479D+00
 Coeff:      0.831D+00 0.101D+01
 Gap=     0.155 Goal=   None    Shift=    0.300
 Gap=     0.221 Goal=   None    Shift=    0.300
 RMSDP=4.94D-08 MaxDP=8.67D-06 DE=-1.51D-10 OVMax= 8.27D-06

 Cycle  22  Pass 1  IDiag  1:
 RMSU=  4.94D-08    CP:  1.00D+00
 E= -1863.97666441147     Delta-E=       -0.000000000256 Rises=F Damp=F
 DIIS: error= 2.23D-07 at cycle  22 NSaved=  20.
 NSaved=20 IEnMin=20 EnMin= -1863.97666441147     IErMin=20 ErrMin= 2.23D-07
 ErrMax= 2.23D-07  0.00D+00 EMaxC= 1.00D-01 BMatC= 1.84D-11 BMatP= 4.83D-11
 IDIUse=1 WtCom= 1.00D+00 WtEn= 0.00D+00
 Coeff-Com:  0.163D-05-0.283D-05-0.398D-04 0.140D-03 0.959D-04-0.529D-03
 Coeff-Com:  0.130D-03 0.269D-03 0.805D-03-0.142D-03 0.642D-03 0.559D-02
 Coeff-Com: -0.101D-01-0.153D-01-0.691D-01 0.295D+00 0.123D+00-0.124D+01
 Coeff-Com: -0.514D+00 0.242D+01
 Coeff:      0.163D-05-0.283D-05-0.398D-04 0.140D-03 0.959D-04-0.529D-03
 Coeff:      0.130D-03 0.269D-03 0.805D-03-0.142D-03 0.642D-03 0.559D-02
 Coeff:     -0.101D-01-0.153D-01-0.691D-01 0.295D+00 0.123D+00-0.124D+01
 Coeff:     -0.514D+00 0.242D+01
 Gap=     0.155 Goal=   None    Shift=    0.300
 Gap=     0.221 Goal=   None    Shift=    0.300
 RMSDP=2.98D-08 MaxDP=5.16D-06 DE=-2.56D-10 OVMax= 5.16D-06

 Cycle  23  Pass 1  IDiag  1:
 RMSU=  1.53D-09    CP:  1.00D+00  1.60D+00
 E= -1863.97666441142     Delta-E=        0.000000000056 Rises=F Damp=F
 DIIS: error= 1.40D-07 at cycle  23 NSaved=  20.
 NSaved=20 IEnMin=19 EnMin= -1863.97666441147     IErMin=20 ErrMin= 1.40D-07
 ErrMax= 1.40D-07  0.00D+00 EMaxC= 1.00D-01 BMatC= 6.91D-12 BMatP= 1.84D-11
 IDIUse=1 WtCom= 1.00D+00 WtEn= 0.00D+00
 Coeff-Com:  0.851D-05-0.439D-04 0.223D-04 0.111D-04-0.150D-03 0.121D-02
 Coeff-Com: -0.564D-03-0.960D-03-0.394D-02 0.119D-02 0.122D-01 0.212D-01
 Coeff-Com: -0.416D-01-0.960D-01 0.168D+00 0.269D+00-0.622D+00-0.465D+00
 Coeff-Com: -0.184D+00 0.194D+01
 Coeff:      0.851D-05-0.439D-04 0.223D-04 0.111D-04-0.150D-03 0.121D-02
 Coeff:     -0.564D-03-0.960D-03-0.394D-02 0.119D-02 0.122D-01 0.212D-01
 Coeff:     -0.416D-01-0.960D-01 0.168D+00 0.269D+00-0.622D+00-0.465D+00
 Coeff:     -0.184D+00 0.194D+01
 Gap=     0.155 Goal=   None    Shift=    0.300
 Gap=     0.221 Goal=   None    Shift=    0.300
 RMSDP=1.81D-08 MaxDP=3.11D-06 DE= 5.64D-11 OVMax= 3.21D-06

 Cycle  24  Pass 1  IDiag  1:
 RMSU=  4.87D-10    CP:  1.00D+00  1.97D+00  1.98D+00
 E= -1863.97666441128     Delta-E=        0.000000000135 Rises=F Damp=F
 DIIS: error= 8.82D-08 at cycle  24 NSaved=  20.
 NSaved=20 IEnMin=18 EnMin= -1863.97666441147     IErMin=20 ErrMin= 8.82D-08
 ErrMax= 8.82D-08  0.00D+00 EMaxC= 1.00D-01 BMatC= 2.66D-12 BMatP= 6.91D-12
 IDIUse=1 WtCom= 1.00D+00 WtEn= 0.00D+00
 Large coefficients: NSaved= 20 BigCof=    0.00 CofMax=   10.00 Det=-8.62D-15
 Inversion failed.  Reducing to 19 matrices.
 Large coefficients: NSaved= 19 BigCof=    0.00 CofMax=   10.00 Det=-8.72D-15
 Inversion failed.  Reducing to 18 matrices.
 Large coefficients: NSaved= 18 BigCof=    0.00 CofMax=   10.00 Det=-9.30D-15
 Inversion failed.  Reducing to 17 matrices.
 Coeff-Com: -0.166D-04 0.115D-03-0.107D-03-0.222D-03 0.582D-03 0.120D-02
 Coeff-Com: -0.339D-02 0.388D-02 0.885D-03 0.972D-02-0.514D-01 0.916D-02
 Coeff-Com:  0.105D+00-0.297D-01-0.570D+00-0.557D+00 0.208D+01
 Coeff:     -0.166D-04 0.115D-03-0.107D-03-0.222D-03 0.582D-03 0.120D-02
 Coeff:     -0.339D-02 0.388D-02 0.885D-03 0.972D-02-0.514D-01 0.916D-02
 Coeff:      0.105D+00-0.297D-01-0.570D+00-0.557D+00 0.208D+01
 Gap=     0.155 Goal=   None    Shift=    0.300
 Gap=     0.221 Goal=   None    Shift=    0.300
 RMSDP=1.11D-08 MaxDP=1.88D-06 DE= 1.35D-10 OVMax= 2.01D-06

 Cycle  25  Pass 1  IDiag  1:
 RMSU=  2.81D-10    CP:  1.00D+00  2.19D+00  2.80D+00  2.00D+00
 E= -1863.97666441130     Delta-E=       -0.000000000013 Rises=F Damp=F
 DIIS: error= 5.59D-08 at cycle  25 NSaved=  18.
 NSaved=18 IEnMin=15 EnMin= -1863.97666441147     IErMin=18 ErrMin= 5.59D-08
 ErrMax= 5.59D-08  0.00D+00 EMaxC= 1.00D-01 BMatC= 1.04D-12 BMatP= 2.66D-12
 IDIUse=1 WtCom= 1.00D+00 WtEn= 0.00D+00
 Coeff-Com: -0.223D-04 0.140D-03-0.788D-04-0.298D-03 0.445D-03 0.936D-03
 Coeff-Com: -0.170D-02 0.202D-02 0.178D-02 0.319D-02-0.324D-01-0.278D-02
 Coeff-Com:  0.100D+00-0.168D-01-0.270D+00-0.836D+00 0.109D+01 0.959D+00
 Coeff:     -0.223D-04 0.140D-03-0.788D-04-0.298D-03 0.445D-03 0.936D-03
 Coeff:     -0.170D-02 0.202D-02 0.178D-02 0.319D-02-0.324D-01-0.278D-02
 Coeff:      0.100D+00-0.168D-01-0.270D+00-0.836D+00 0.109D+01 0.959D+00
 Gap=     0.155 Goal=   None    Shift=    0.300
 Gap=     0.221 Goal=   None    Shift=    0.300
 RMSDP=6.79D-09 MaxDP=1.13D-06 DE=-1.27D-11 OVMax= 1.26D-06

 Cycle  26  Pass 1  IDiag  1:
 RMSU=  7.13D-10    CP:  1.00D+00  2.32D+00  3.00D+00  2.88D+00  1.42D+00
 E= -1863.97666441142     Delta-E=       -0.000000000121 Rises=F Damp=F
 DIIS: error= 3.54D-08 at cycle  26 NSaved=  19.
 NSaved=19 IEnMin=15 EnMin= -1863.97666441147     IErMin=19 ErrMin= 3.54D-08
 ErrMax= 3.54D-08  0.00D+00 EMaxC= 1.00D-01 BMatC= 4.02D-13 BMatP= 1.04D-12
 IDIUse=1 WtCom= 1.00D+00 WtEn= 0.00D+00
 Large coefficients: NSaved= 19 BigCof=    0.00 CofMax=   10.00 Det=-3.14D-15
 Inversion failed.  Reducing to 18 matrices.
 Large coefficients: NSaved= 18 BigCof=    0.00 CofMax=   10.00 Det=-3.16D-15
 Inversion failed.  Reducing to 17 matrices.
 Large coefficients: NSaved= 17 BigCof=    0.00 CofMax=   10.00 Det=-3.16D-15
 Inversion failed.  Reducing to 16 matrices.
 Large coefficients: NSaved= 16 BigCof=    0.00 CofMax=   10.00 Det=-3.17D-15
 Inversion failed.  Reducing to 15 matrices.
 Coeff-Com:  0.130D-03-0.517D-03 0.446D-05 0.114D-02 0.707D-02-0.686D-02
 Coeff-Com: -0.967D-02-0.182D-01 0.280D-01 0.140D-01 0.262D+00-0.275D+00
 Coeff-Com: -0.107D+01-0.225D-01 0.209D+01
 Coeff:      0.130D-03-0.517D-03 0.446D-05 0.114D-02 0.707D-02-0.686D-02
 Coeff:     -0.967D-02-0.182D-01 0.280D-01 0.140D-01 0.262D+00-0.275D+00
 Coeff:     -0.107D+01-0.225D-01 0.209D+01
 Gap=     0.155 Goal=   None    Shift=    0.300
 Gap=     0.221 Goal=   None    Shift=    0.300
 RMSDP=4.18D-09 MaxDP=6.88D-07 DE=-1.21D-10 OVMax= 8.00D-07

 SCF Done:  E(UPBE1PBE) =  -1863.97666441     A.U. after   26 cycles
            NFock= 26  Conv=0.42D-08     -V/T= 2.0590
 <Sx>= 0.0000 <Sy>= 0.0000 <Sz>= 0.5000 <S**2>= 0.7515 S= 0.5007
 <L.S>= 0.000000000000E+00
 KE= 1.760075053497D+03 PE=-1.011318322357D+04 EE= 3.647432432600D+03
 Annihilation of the first spin contaminant:
 S**2 before annihilation     0.7515,   after     0.7500
 Leave Link  502 at Fri Sep 11 21:45:35 2026, MaxMem=  6442450944 cpu:             703.0 elap:             703.5
 (Enter C:\G16W\l508.exe)
 QCSCF skips out because SCF is already converged.
 Leave Link  508 at Fri Sep 11 21:45:35 2026, MaxMem=  6442450944 cpu:               0.0 elap:               0.1
 (Enter C:\G16W\l601.exe)
 Copying SCF densities to generalized density rwf, IOpCl= 1 IROHF=0.

 **********************************************************************

            Population analysis using the SCF Density.

 **********************************************************************

 Alpha  occ. eigenvalues --  -24.70376 -24.67646 -24.67640 -24.67582 -24.67376
 Alpha  occ. eigenvalues --  -24.67369 -24.67294 -24.67292 -24.66938 -24.66937
 Alpha  occ. eigenvalues --  -24.66931 -24.66926 -24.64429 -24.63977 -24.63977
 Alpha  occ. eigenvalues --  -24.63842  -3.74938  -2.32966  -2.32949  -2.32798
 Alpha  occ. eigenvalues --   -1.98515  -1.98202  -1.98202  -1.98125  -1.94571
 Alpha  occ. eigenvalues --   -1.94535  -1.94017  -1.94016  -1.93830  -1.93828
 Alpha  occ. eigenvalues --   -1.93754  -1.93722  -1.92625  -1.92479  -1.92447
 Alpha  occ. eigenvalues --   -1.91950  -1.10136  -1.07663  -1.07229  -1.07051
 Alpha  occ. eigenvalues --   -1.06636  -1.06390  -1.06341  -1.06184  -1.06137
 Alpha  occ. eigenvalues --   -1.05938  -1.05801  -1.05645  -1.03066  -1.02627
 Alpha  occ. eigenvalues --   -1.02625  -1.02485  -0.41961  -0.41678  -0.41543
 Alpha  occ. eigenvalues --   -0.40092  -0.39789  -0.39450  -0.38916  -0.38679
 Alpha  occ. eigenvalues --   -0.38592  -0.38270  -0.37669  -0.37457  -0.37415
 Alpha  occ. eigenvalues --   -0.37295  -0.36594  -0.36527  -0.36404  -0.36231
 Alpha  occ. eigenvalues --   -0.36151  -0.36137  -0.35861  -0.35826  -0.35218
 Alpha  occ. eigenvalues --   -0.35099  -0.34835  -0.34813  -0.34408  -0.34366
 Alpha  occ. eigenvalues --   -0.34284  -0.34197  -0.34037  -0.33839  -0.33692
 Alpha  occ. eigenvalues --   -0.33639  -0.33480  -0.33392  -0.32792  -0.32570
 Alpha  occ. eigenvalues --   -0.32403  -0.32310  -0.32227  -0.32225  -0.32179
 Alpha  occ. eigenvalues --   -0.32006  -0.31964  -0.31941  -0.31902  -0.31765
 Alpha  occ. eigenvalues --   -0.31320  -0.31218  -0.30931  -0.30805  -0.30711
 Alpha  occ. eigenvalues --   -0.17201
 Alpha virt. eigenvalues --   -0.01670  -0.01492  -0.01227  -0.00650  -0.00152
 Alpha virt. eigenvalues --    0.00467   0.01509   0.01764   0.02104   0.02646
 Alpha virt. eigenvalues --    0.02760   0.03224   0.04028   0.04041   0.04308
 Alpha virt. eigenvalues --    0.04542   0.06214   0.07271   0.07470   0.09513
 Alpha virt. eigenvalues --    0.09673   0.10079   0.10312   0.12841   0.12907
 Alpha virt. eigenvalues --    0.13004   0.13077   0.13555   0.13610   0.13808
 Alpha virt. eigenvalues --    0.13972   0.14110   0.14764   0.14964   0.15083
 Alpha virt. eigenvalues --    0.15445   0.15640   0.15951   0.16031   0.17296
 Alpha virt. eigenvalues --    0.17718   0.17821   0.18254   0.18298   0.19099
 Alpha virt. eigenvalues --    0.19311   0.20413   0.20812   0.21217   0.22035
 Alpha virt. eigenvalues --    0.22535   0.23226   0.23461   0.24258   0.24618
 Alpha virt. eigenvalues --    0.25226   0.25443   0.25810   0.27783   0.27946
 Alpha virt. eigenvalues --    0.28898   0.32968   0.33353   0.33639   0.33946
 Alpha virt. eigenvalues --    0.34188   0.35219   0.36241   0.37159   0.37490
 Alpha virt. eigenvalues --    0.38114   0.38625   0.39817   0.40234   0.41299
 Alpha virt. eigenvalues --    0.41517   0.42535   0.43235   0.43589   0.45361
 Alpha virt. eigenvalues --    0.45930   0.46343   0.47257   0.48306   0.48373
 Alpha virt. eigenvalues --    0.48496   0.48845   0.52170   0.57465   0.58164
 Alpha virt. eigenvalues --    0.59337   0.59748   0.59856   0.60109   0.61673
 Alpha virt. eigenvalues --    0.62027   0.62268   0.62668   0.62963   0.63324
 Alpha virt. eigenvalues --    0.63420   0.63819   0.64178   0.64206   0.65429
 Alpha virt. eigenvalues --    0.65638   0.66236   0.67025   0.67599   0.67718
 Alpha virt. eigenvalues --    0.68053   0.68193   0.68464   0.68685   0.69139
 Alpha virt. eigenvalues --    0.69245   0.69402   0.69810   0.70463   0.70807
 Alpha virt. eigenvalues --    0.71421   0.71760   0.72573   0.72607   0.73203
 Alpha virt. eigenvalues --    0.73470   0.73582   0.74879   0.75969   0.76912
 Alpha virt. eigenvalues --    0.76974   0.81102   0.86637   0.89561   0.89563
 Alpha virt. eigenvalues --    0.90205   0.92992   0.93641   1.01963   1.02042
 Alpha virt. eigenvalues --    1.28928   1.31776   1.32387   1.33840   1.34057
 Alpha virt. eigenvalues --    1.35933   1.37341   1.38990   1.39690   1.40037
 Alpha virt. eigenvalues --    1.40714   1.42472   1.43198   1.43538   1.45283
 Alpha virt. eigenvalues --    1.46001   1.46098   1.46106   1.46287   1.47019
 Alpha virt. eigenvalues --    1.48800   1.48812   1.49130   1.49643   1.49859
 Alpha virt. eigenvalues --    1.49996   1.50342   1.50716   1.51899   1.53017
 Alpha virt. eigenvalues --    1.54556   1.55834   1.62012   1.62972   1.63152
 Alpha virt. eigenvalues --    1.65702   1.66088   1.66207   1.66985   1.68793
 Alpha virt. eigenvalues --    1.70315   1.70508   1.70732   1.71034   1.71814
 Alpha virt. eigenvalues --    1.72594   1.73021   1.73229   1.74911   1.75478
 Alpha virt. eigenvalues --    1.76027   1.77211   1.79718   1.80516   1.80760
 Alpha virt. eigenvalues --    1.86977   1.99032   1.99871   2.11744   2.12010
 Alpha virt. eigenvalues --    2.12880   2.17841   2.26298   2.27602   2.38881
 Alpha virt. eigenvalues --    2.62539   2.62566   2.62666   2.62728   2.62756
 Alpha virt. eigenvalues --    2.62931   2.63818   3.13691   3.13753   3.14210
 Alpha virt. eigenvalues --    3.15304   3.15325   3.15433   3.15453   3.15720
 Alpha virt. eigenvalues --    3.15779   3.15822   3.15939   3.16099   3.16190
 Alpha virt. eigenvalues --    3.16280   3.16525   3.16551   3.16728   3.16871
 Alpha virt. eigenvalues --    3.16896   3.16936   3.17267   3.17295   3.17396
 Alpha virt. eigenvalues --    3.17445   3.17541   3.17545   3.17874   3.18088
 Alpha virt. eigenvalues --    3.18314   3.18382   3.18601   3.18777   3.19002
 Alpha virt. eigenvalues --    3.19014   3.19058   3.19267   3.19290   3.19566
 Alpha virt. eigenvalues --    3.19698   3.19729   3.19876   3.20197   3.20201
 Alpha virt. eigenvalues --    3.20311   3.20397   3.20428   3.20620   3.21045
 Alpha virt. eigenvalues --    3.21064   3.21201   3.21299   3.21956   3.22094
 Alpha virt. eigenvalues --    3.22233   3.22261   3.22393   3.22476   3.22864
 Alpha virt. eigenvalues --    3.23200   3.23238   3.23644   3.23957   3.24357
 Alpha virt. eigenvalues --    3.24365   3.24828   3.25095   3.25297   3.25460
 Alpha virt. eigenvalues --    3.25689   3.26325   3.26805   3.27011   3.27275
 Alpha virt. eigenvalues --    3.27764   3.28060   3.28335   3.28478   3.29270
 Alpha virt. eigenvalues --    3.29374   3.30124  53.90413
  Beta  occ. eigenvalues --  -24.70215 -24.67646 -24.67640 -24.67571 -24.67375
  Beta  occ. eigenvalues --  -24.67368 -24.67282 -24.67280 -24.66936 -24.66936
  Beta  occ. eigenvalues --  -24.66930 -24.66925 -24.64416 -24.63977 -24.63977
  Beta  occ. eigenvalues --  -24.63842  -3.74807  -2.32896  -2.32885  -2.32785
  Beta  occ. eigenvalues --   -1.98515  -1.98202  -1.98201  -1.98125  -1.94562
  Beta  occ. eigenvalues --   -1.94526  -1.94016  -1.94016  -1.93830  -1.93828
  Beta  occ. eigenvalues --   -1.93754  -1.93722  -1.92621  -1.92471  -1.92439
  Beta  occ. eigenvalues --   -1.91950  -1.09804  -1.07645  -1.07225  -1.07034
  Beta  occ. eigenvalues --   -1.06629  -1.06373  -1.06323  -1.06180  -1.06132
  Beta  occ. eigenvalues --   -1.05932  -1.05793  -1.05643  -1.03036  -1.02626
  Beta  occ. eigenvalues --   -1.02625  -1.02485  -0.41590  -0.41556  -0.41208
  Beta  occ. eigenvalues --   -0.40079  -0.39779  -0.39431  -0.38906  -0.38652
  Beta  occ. eigenvalues --   -0.38583  -0.38244  -0.37599  -0.37443  -0.37318
  Beta  occ. eigenvalues --   -0.37279  -0.36554  -0.36523  -0.36390  -0.36224
  Beta  occ. eigenvalues --   -0.36137  -0.36126  -0.35802  -0.35791  -0.35185
  Beta  occ. eigenvalues --   -0.35084  -0.34825  -0.34794  -0.34402  -0.34354
  Beta  occ. eigenvalues --   -0.34259  -0.34190  -0.34029  -0.33831  -0.33665
  Beta  occ. eigenvalues --   -0.33635  -0.33472  -0.33388  -0.32649  -0.32312
  Beta  occ. eigenvalues --   -0.32187  -0.32034  -0.31998  -0.31941  -0.31937
  Beta  occ. eigenvalues --   -0.31897  -0.31822  -0.31766  -0.31620  -0.31597
  Beta  occ. eigenvalues --   -0.31285  -0.30927  -0.30800  -0.30709  -0.30489
  Beta virt. eigenvalues --   -0.08438  -0.01448  -0.01115  -0.01091  -0.00495
  Beta virt. eigenvalues --    0.01183   0.01547   0.01573   0.01809   0.02516
  Beta virt. eigenvalues --    0.03054   0.03296   0.04226   0.04375   0.04427
  Beta virt. eigenvalues --    0.04787   0.05566   0.06469   0.07789   0.08067
  Beta virt. eigenvalues --    0.09532   0.09686   0.10335   0.10602   0.12861
  Beta virt. eigenvalues --    0.12955   0.13133   0.13152   0.13653   0.13667
  Beta virt. eigenvalues --    0.13895   0.14119   0.14376   0.14882   0.14977
  Beta virt. eigenvalues --    0.15109   0.15528   0.15683   0.15983   0.16035
  Beta virt. eigenvalues --    0.17336   0.18110   0.18531   0.18538   0.18659
  Beta virt. eigenvalues --    0.19164   0.20195   0.20960   0.21040   0.21445
  Beta virt. eigenvalues --    0.22432   0.22660   0.23432   0.23798   0.24797
  Beta virt. eigenvalues --    0.24837   0.25482   0.25557   0.25844   0.27983
  Beta virt. eigenvalues --    0.28036   0.28945   0.33032   0.33486   0.33693
  Beta virt. eigenvalues --    0.34053   0.34286   0.35573   0.36391   0.37557
  Beta virt. eigenvalues --    0.37750   0.38553   0.38923   0.39917   0.40674
  Beta virt. eigenvalues --    0.41909   0.42152   0.43308   0.43500   0.43690
  Beta virt. eigenvalues --    0.45786   0.46546   0.46939   0.47435   0.48413
  Beta virt. eigenvalues --    0.48487   0.48523   0.49099   0.53490   0.57800
  Beta virt. eigenvalues --    0.59141   0.59533   0.59867   0.59978   0.60217
  Beta virt. eigenvalues --    0.61942   0.62255   0.62824   0.62882   0.62992
  Beta virt. eigenvalues --    0.63521   0.63765   0.64321   0.64811   0.64892
  Beta virt. eigenvalues --    0.65522   0.65967   0.66421   0.67100   0.67625
  Beta virt. eigenvalues --    0.67745   0.68073   0.68319   0.68637   0.68712
  Beta virt. eigenvalues --    0.69168   0.69299   0.69570   0.69900   0.70591
  Beta virt. eigenvalues --    0.71043   0.71537   0.71809   0.72624   0.72639
  Beta virt. eigenvalues --    0.73269   0.73608   0.73684   0.74959   0.76036
  Beta virt. eigenvalues --    0.76963   0.77020   0.81228   0.86655   0.89602
  Beta virt. eigenvalues --    0.89646   0.90270   0.93082   0.93765   1.02107
  Beta virt. eigenvalues --    1.02242   1.28931   1.31790   1.32395   1.33855
  Beta virt. eigenvalues --    1.34067   1.35941   1.37415   1.38996   1.39702
  Beta virt. eigenvalues --    1.40044   1.40729   1.42533   1.43200   1.43568
  Beta virt. eigenvalues --    1.45305   1.46003   1.46110   1.46137   1.46293
  Beta virt. eigenvalues --    1.47021   1.48810   1.48830   1.49136   1.49645
  Beta virt. eigenvalues --    1.49894   1.50007   1.50382   1.50722   1.51924
  Beta virt. eigenvalues --    1.53107   1.54557   1.56038   1.62017   1.62986
  Beta virt. eigenvalues --    1.63169   1.65745   1.66094   1.66218   1.67000
  Beta virt. eigenvalues --    1.68804   1.70335   1.70513   1.70738   1.71044
  Beta virt. eigenvalues --    1.71829   1.72600   1.73034   1.73239   1.74915
  Beta virt. eigenvalues --    1.75478   1.76046   1.77225   1.79792   1.80537
  Beta virt. eigenvalues --    1.80960   1.86989   1.99041   1.99878   2.11797
  Beta virt. eigenvalues --    2.12020   2.12909   2.18861   2.26302   2.27731
  Beta virt. eigenvalues --    2.38903   2.62532   2.62557   2.62735   2.62762
  Beta virt. eigenvalues --    2.62854   2.62991   2.63941   3.13921   3.13979
  Beta virt. eigenvalues --    3.14260   3.15310   3.15331   3.15440   3.15457
  Beta virt. eigenvalues --    3.15728   3.15785   3.15838   3.15949   3.16113
  Beta virt. eigenvalues --    3.16195   3.16292   3.16536   3.16553   3.16733
  Beta virt. eigenvalues --    3.16876   3.16912   3.16946   3.17277   3.17312
  Beta virt. eigenvalues --    3.17415   3.17448   3.17551   3.17574   3.17878
  Beta virt. eigenvalues --    3.18121   3.18335   3.18391   3.18607   3.18829
  Beta virt. eigenvalues --    3.19015   3.19033   3.19076   3.19271   3.19300
  Beta virt. eigenvalues --    3.19581   3.19704   3.19737   3.19879   3.20203
  Beta virt. eigenvalues --    3.20212   3.20316   3.20404   3.20437   3.20629
  Beta virt. eigenvalues --    3.21049   3.21082   3.21206   3.21309   3.21961
  Beta virt. eigenvalues --    3.22117   3.22244   3.22279   3.22416   3.22489
  Beta virt. eigenvalues --    3.22870   3.23205   3.23243   3.23652   3.23970
  Beta virt. eigenvalues --    3.24368   3.24377   3.24838   3.25153   3.25308
  Beta virt. eigenvalues --    3.25463   3.25700   3.26334   3.26813   3.27023
  Beta virt. eigenvalues --    3.27364   3.27773   3.28078   3.28348   3.28485
  Beta virt. eigenvalues --    3.29286   3.29432   3.30153  53.90571
          Condensed to atoms (all electrons):
               1          2          3          4          5          6
     1  Li   2.296329   0.093162   0.074994  -0.052643  -0.004262  -0.000351
     2  F    0.093162   9.276300  -0.003447   0.107599   0.000213   0.000018
     3  F    0.074994  -0.003447   9.273432   0.076900   0.081307  -0.003023
     4  Li  -0.052643   0.107599   0.076900   2.446305  -0.049119   0.083527
     5  Li  -0.004262   0.000213   0.081307  -0.049119   2.429248   0.073017
     6  F   -0.000351   0.000018  -0.003023   0.083527   0.073017   9.267847
     7  F    0.000316   0.000000   0.000019   0.000467   0.105747  -0.003428
     8  Li   0.000182   0.000177   0.000502  -0.002572  -0.049787   0.078105
     9  F    0.074994  -0.003447  -0.002938  -0.009227   0.001979   0.000000
    10  Li  -0.052643   0.107599  -0.009227  -0.055034   0.001539   0.000309
    11  Li  -0.073906  -0.013723   0.084757  -0.046602  -0.058985  -0.010730
    12  F   -0.005450  -0.003302  -0.003040   0.053409  -0.007937  -0.002781
    13  F    0.001840   0.000000  -0.002738  -0.009604   0.056385  -0.003243
    14  Li   0.007143   0.002031  -0.013863  -0.073863  -0.063112   0.082649
    15  Li  -0.001859  -0.000364   0.000172   0.002823  -0.053586  -0.008462
    16  F   -0.000042   0.000000   0.000000   0.001958  -0.007868  -0.002871
    17  Li  -0.004262   0.000213   0.001979   0.001539   0.001428  -0.000135
    18  F   -0.000351   0.000018   0.000000   0.000309  -0.000135   0.000000
    19  F    0.001840   0.000000   0.000022  -0.000266   0.001498   0.000000
    20  Li   0.007143   0.002031  -0.000572  -0.028795   0.000035   0.001689
    21  Li   0.000837   0.000253   0.002614   0.006160  -0.010417   0.000734
    22  F   -0.000005   0.000000   0.000000   0.001271   0.000146   0.000022
    23  F   -0.000017   0.000000   0.000000  -0.000194   0.000444   0.000000
    24  Li  -0.000339  -0.000133  -0.000049   0.001574   0.003121   0.003314
    25  F    0.000316   0.000000   0.000000  -0.000232  -0.000125   0.000000
    26  Li   0.000182   0.000177  -0.000046  -0.000552   0.000066   0.000000
    27  Li  -0.001859  -0.000364   0.000222  -0.000224  -0.001446  -0.000025
    28  F   -0.000042   0.000000   0.000000   0.000146   0.000012   0.000000
    29  F   -0.000017   0.000000   0.000000   0.000043   0.000189   0.000000
    30  Li  -0.000339  -0.000133   0.000039   0.000681   0.000218   0.000262
    31  Li   0.000118   0.000029  -0.000018  -0.000240  -0.002186  -0.000143
    32  F    0.000027   0.000000   0.000000  -0.000133  -0.000381   0.000000
    33  Ag  -0.000251  -0.003373   0.002618  -0.001717   0.001780  -0.000581
               7          8          9         10         11         12
     1  Li   0.000316   0.000182   0.074994  -0.052643  -0.073906  -0.005450
     2  F    0.000000   0.000177  -0.003447   0.107599  -0.013723  -0.003302
     3  F    0.000019   0.000502  -0.002938  -0.009227   0.084757  -0.003040
     4  Li   0.000467  -0.002572  -0.009227  -0.055034  -0.046602   0.053409
     5  Li   0.105747  -0.049787   0.001979   0.001539  -0.058985  -0.007937
     6  F   -0.003428   0.078105   0.000000   0.000309  -0.010730  -0.002781
     7  F    9.287051   0.095375   0.000000  -0.000232   0.000694   0.000000
     8  Li   0.095375   2.310673  -0.000046  -0.000552   0.004822   0.000998
     9  F    0.000000  -0.000046   9.273432   0.076900   0.084757  -0.003040
    10  Li  -0.000232  -0.000552   0.076900   2.446305  -0.046602   0.053409
    11  Li   0.000694   0.004822   0.084757  -0.046602   2.612778   0.059926
    12  F    0.000000   0.000998  -0.003040   0.053409   0.059926   9.303613
    13  F   -0.003315  -0.006383   0.000022  -0.000266   0.070017  -0.002739
    14  Li  -0.014565  -0.102815  -0.000572  -0.028795  -0.088103   0.064042
    15  Li   0.103652  -0.045897   0.000222  -0.000224  -0.009912   0.000394
    16  F   -0.003438   0.074527   0.000000   0.000146   0.000082   0.000023
    17  Li  -0.000125   0.000066   0.081307  -0.049119  -0.058985  -0.007937
    18  F    0.000000   0.000000  -0.003023   0.083527  -0.010730  -0.002781
    19  F    0.000000  -0.000027  -0.002738  -0.009604   0.070017  -0.002739
    20  Li  -0.000322  -0.003113  -0.013863  -0.073863  -0.088103   0.064042
    21  Li   0.000536   0.007502   0.002614   0.006160  -0.017661  -0.009796
    22  F    0.000000   0.002172   0.000000   0.001271  -0.013103  -0.002631
    23  F    0.000019  -0.000201   0.000000   0.000043   0.002754   0.000000
    24  Li   0.000344  -0.002134   0.000039   0.000681   0.006265   0.000988
    25  F    0.000000   0.000035   0.000019   0.000467   0.000694   0.000000
    26  Li   0.000035   0.000204   0.000502  -0.002572   0.004822   0.000998
    27  Li  -0.000097  -0.000631   0.000172   0.002823  -0.009912   0.000394
    28  F    0.000000  -0.000005   0.000000   0.001958   0.000082   0.000023
    29  F    0.000000  -0.000071   0.000000  -0.000194   0.002754   0.000000
    30  Li  -0.000293  -0.000390  -0.000049   0.001574   0.006265   0.000988
    31  Li   0.000314  -0.000438  -0.000018  -0.000240   0.000433  -0.000044
    32  F    0.000000   0.000106   0.000000  -0.000133  -0.000004   0.000000
    33  Ag   0.000215   0.003881   0.002618  -0.001717   0.009448  -0.009001
              13         14         15         16         17         18
     1  Li   0.001840   0.007143  -0.001859  -0.000042  -0.004262  -0.000351
     2  F    0.000000   0.002031  -0.000364   0.000000   0.000213   0.000018
     3  F   -0.002738  -0.013863   0.000172   0.000000   0.001979   0.000000
     4  Li  -0.009604  -0.073863   0.002823   0.001958   0.001539   0.000309
     5  Li   0.056385  -0.063112  -0.053586  -0.007868   0.001428  -0.000135
     6  F   -0.003243   0.082649  -0.008462  -0.002871  -0.000135   0.000000
     7  F   -0.003315  -0.014565   0.103652  -0.003438  -0.000125   0.000000
     8  Li  -0.006383  -0.102815  -0.045897   0.074527   0.000066   0.000000
     9  F    0.000022  -0.000572   0.000222   0.000000   0.081307  -0.003023
    10  Li  -0.000266  -0.028795  -0.000224   0.000146  -0.049119   0.083527
    11  Li   0.070017  -0.088103  -0.009912   0.000082  -0.058985  -0.010730
    12  F   -0.002739   0.064042   0.000394   0.000023  -0.007937  -0.002781
    13  F    9.287709   0.079469   0.056725  -0.003302   0.001498   0.000000
    14  Li   0.079469   2.840494  -0.085705   0.092691   0.000035   0.001689
    15  Li   0.056725  -0.085705   2.430205   0.072082  -0.001446  -0.000025
    16  F   -0.003302   0.092691   0.072082   9.270959   0.000012   0.000000
    17  Li   0.001498   0.000035  -0.001446   0.000012   2.429248   0.073017
    18  F    0.000000   0.001689  -0.000025   0.000000   0.073017   9.267847
    19  F   -0.002578  -0.011503   0.001429   0.000000   0.056385  -0.003243
    20  Li  -0.011503   0.019899   0.009950   0.002913  -0.063112   0.082649
    21  Li   0.064696  -0.093556  -0.062996  -0.008252  -0.010417   0.000734
    22  F   -0.002999   0.066418  -0.009071  -0.002656   0.000146   0.000022
    23  F   -0.002693  -0.010434   0.081776  -0.003041   0.000189   0.000000
    24  Li  -0.009640  -0.096669  -0.039774   0.079935   0.000218   0.000262
    25  F    0.000000  -0.000322  -0.000097   0.000000   0.105747  -0.003428
    26  Li  -0.000027  -0.003113  -0.000631  -0.000005  -0.049787   0.078105
    27  Li   0.001429   0.009950   0.000973  -0.000252  -0.053586  -0.008462
    28  F    0.000000   0.002913  -0.000252   0.000000  -0.007868  -0.002871
    29  F    0.000022   0.000184   0.002065   0.000000   0.000444   0.000000
    30  Li  -0.000030  -0.022862   0.000631   0.000356   0.003121   0.003314
    31  Li   0.001988   0.013899  -0.002883  -0.000535  -0.002186  -0.000143
    32  F    0.000000   0.003775   0.000391   0.000019  -0.000381   0.000000
    33  Ag   0.001827  -0.043439   0.001800  -0.004777   0.001780  -0.000581
              19         20         21         22         23         24
     1  Li   0.001840   0.007143   0.000837  -0.000005  -0.000017  -0.000339
     2  F    0.000000   0.002031   0.000253   0.000000   0.000000  -0.000133
     3  F    0.000022  -0.000572   0.002614   0.000000   0.000000  -0.000049
     4  Li  -0.000266  -0.028795   0.006160   0.001271  -0.000194   0.001574
     5  Li   0.001498   0.000035  -0.010417   0.000146   0.000444   0.003121
     6  F    0.000000   0.001689   0.000734   0.000022   0.000000   0.003314
     7  F    0.000000  -0.000322   0.000536   0.000000   0.000019   0.000344
     8  Li  -0.000027  -0.003113   0.007502   0.002172  -0.000201  -0.002134
     9  F   -0.002738  -0.013863   0.002614   0.000000   0.000000   0.000039
    10  Li  -0.009604  -0.073863   0.006160   0.001271   0.000043   0.000681
    11  Li   0.070017  -0.088103  -0.017661  -0.013103   0.002754   0.006265
    12  F   -0.002739   0.064042  -0.009796  -0.002631   0.000000   0.000988
    13  F   -0.002578  -0.011503   0.064696  -0.002999  -0.002693  -0.009640
    14  Li  -0.011503   0.019899  -0.093556   0.066418  -0.010434  -0.096669
    15  Li   0.001429   0.009950  -0.062996  -0.009071   0.081776  -0.039774
    16  F    0.000000   0.002913  -0.008252  -0.002656  -0.003041   0.079935
    17  Li   0.056385  -0.063112  -0.010417   0.000146   0.000189   0.000218
    18  F   -0.003243   0.082649   0.000734   0.000022   0.000000   0.000262
    19  F    9.287709   0.079469   0.064696  -0.002999   0.000022  -0.000030
    20  Li   0.079469   2.840494  -0.093556   0.066418   0.000184  -0.022862
    21  Li   0.064696  -0.093556   2.636717   0.074996   0.084057  -0.045619
    22  F   -0.002999   0.066418   0.074996   9.283467  -0.003197   0.060703
    23  F    0.000022   0.000184   0.084057  -0.003197   9.275767   0.073567
    24  Li  -0.000030  -0.022862  -0.045619   0.060703   0.073567   2.434354
    25  F   -0.003315  -0.014565   0.000536   0.000000   0.000000  -0.000293
    26  Li  -0.006383  -0.102815   0.007502   0.002172  -0.000071  -0.000390
    27  Li   0.056725  -0.085705  -0.062996  -0.009071   0.002065   0.000631
    28  F   -0.003302   0.092691  -0.008252  -0.002656   0.000000   0.000356
    29  F   -0.002693  -0.010434   0.084057  -0.003197  -0.002907  -0.008343
    30  Li  -0.009640  -0.096669  -0.045619   0.060703  -0.008343  -0.047886
    31  Li   0.001988   0.013899  -0.084959  -0.006141   0.075185  -0.059166
    32  F    0.000000   0.003775  -0.014123  -0.003252  -0.003463   0.102738
    33  Ag   0.001827  -0.043439   0.010152   0.000011  -0.000073   0.005260
              25         26         27         28         29         30
     1  Li   0.000316   0.000182  -0.001859  -0.000042  -0.000017  -0.000339
     2  F    0.000000   0.000177  -0.000364   0.000000   0.000000  -0.000133
     3  F    0.000000  -0.000046   0.000222   0.000000   0.000000   0.000039
     4  Li  -0.000232  -0.000552  -0.000224   0.000146   0.000043   0.000681
     5  Li  -0.000125   0.000066  -0.001446   0.000012   0.000189   0.000218
     6  F    0.000000   0.000000  -0.000025   0.000000   0.000000   0.000262
     7  F    0.000000   0.000035  -0.000097   0.000000   0.000000  -0.000293
     8  Li   0.000035   0.000204  -0.000631  -0.000005  -0.000071  -0.000390
     9  F    0.000019   0.000502   0.000172   0.000000   0.000000  -0.000049
    10  Li   0.000467  -0.002572   0.002823   0.001958  -0.000194   0.001574
    11  Li   0.000694   0.004822  -0.009912   0.000082   0.002754   0.006265
    12  F    0.000000   0.000998   0.000394   0.000023   0.000000   0.000988
    13  F    0.000000  -0.000027   0.001429   0.000000   0.000022  -0.000030
    14  Li  -0.000322  -0.003113   0.009950   0.002913   0.000184  -0.022862
    15  Li  -0.000097  -0.000631   0.000973  -0.000252   0.002065   0.000631
    16  F    0.000000  -0.000005  -0.000252   0.000000   0.000000   0.000356
    17  Li   0.105747  -0.049787  -0.053586  -0.007868   0.000444   0.003121
    18  F   -0.003428   0.078105  -0.008462  -0.002871   0.000000   0.003314
    19  F   -0.003315  -0.006383   0.056725  -0.003302  -0.002693  -0.009640
    20  Li  -0.014565  -0.102815  -0.085705   0.092691  -0.010434  -0.096669
    21  Li   0.000536   0.007502  -0.062996  -0.008252   0.084057  -0.045619
    22  F    0.000000   0.002172  -0.009071  -0.002656  -0.003197   0.060703
    23  F    0.000000  -0.000071   0.002065   0.000000  -0.002907  -0.008343
    24  Li  -0.000293  -0.000390   0.000631   0.000356  -0.008343  -0.047886
    25  F    9.287051   0.095375   0.103652  -0.003438   0.000019   0.000344
    26  Li   0.095375   2.310673  -0.045897   0.074527  -0.000201  -0.002134
    27  Li   0.103652  -0.045897   2.430205   0.072082   0.081776  -0.039774
    28  F   -0.003438   0.074527   0.072082   9.270959  -0.003041   0.079935
    29  F    0.000019  -0.000201   0.081776  -0.003041   9.275767   0.073567
    30  Li   0.000344  -0.002134  -0.039774   0.079935   0.073567   2.434354
    31  Li   0.000314  -0.000438  -0.002883  -0.000535   0.075185  -0.059166
    32  F    0.000000   0.000106   0.000391   0.000019  -0.003463   0.102738
    33  Ag   0.000215   0.003881   0.001800  -0.004777  -0.000073   0.005260
              31         32         33
     1  Li   0.000118   0.000027  -0.000251
     2  F    0.000029   0.000000  -0.003373
     3  F   -0.000018   0.000000   0.002618
     4  Li  -0.000240  -0.000133  -0.001717
     5  Li  -0.002186  -0.000381   0.001780
     6  F   -0.000143   0.000000  -0.000581
     7  F    0.000314   0.000000   0.000215
     8  Li  -0.000438   0.000106   0.003881
     9  F   -0.000018   0.000000   0.002618
    10  Li  -0.000240  -0.000133  -0.001717
    11  Li   0.000433  -0.000004   0.009448
    12  F   -0.000044   0.000000  -0.009001
    13  F    0.001988   0.000000   0.001827
    14  Li   0.013899   0.003775  -0.043439
    15  Li  -0.002883   0.000391   0.001800
    16  F   -0.000535   0.000019  -0.004777
    17  Li  -0.002186  -0.000381   0.001780
    18  F   -0.000143   0.000000  -0.000581
    19  F    0.001988   0.000000   0.001827
    20  Li   0.013899   0.003775  -0.043439
    21  Li  -0.084959  -0.014123   0.010152
    22  F   -0.006141  -0.003252   0.000011
    23  F    0.075185  -0.003463  -0.000073
    24  Li  -0.059166   0.102738   0.005260
    25  F    0.000314   0.000000   0.000215
    26  Li  -0.000438   0.000106   0.003881
    27  Li  -0.002883   0.000391   0.001800
    28  F   -0.000535   0.000019  -0.004777
    29  F    0.075185  -0.003463  -0.000073
    30  Li  -0.059166   0.102738   0.005260
    31  Li   2.307599   0.094192  -0.001350
    32  F    0.094192   9.286155  -0.000802
    33  Ag  -0.001350  -0.000802  19.044772
          Atomic-Atomic Spin Densities.
               1          2          3          4          5          6
     1  Li  -0.000038  -0.000196  -0.000065  -0.000382   0.000047  -0.000002
     2  F   -0.000196   0.004337   0.000002   0.000143   0.000009   0.000000
     3  F   -0.000065   0.000002   0.000099   0.000261  -0.000026   0.000002
     4  Li  -0.000382   0.000143   0.000261   0.001927   0.000070   0.000045
     5  Li   0.000047   0.000009  -0.000026   0.000070  -0.000483  -0.000164
     6  F   -0.000002   0.000000   0.000002   0.000045  -0.000164   0.004101
     7  F    0.000000   0.000000   0.000000   0.000006   0.000021  -0.000002
     8  Li  -0.000006   0.000003   0.000008   0.000215  -0.000134   0.000070
     9  F   -0.000065   0.000002   0.000001   0.000062   0.000003   0.000000
    10  Li  -0.000382   0.000143   0.000062   0.000949  -0.000042   0.000030
    11  Li   0.000964  -0.000221  -0.000169  -0.002846   0.000304  -0.000210
    12  F    0.000052   0.000058  -0.000012   0.000638   0.000105   0.000055
    13  F   -0.000003   0.000000   0.000001   0.000048  -0.000032   0.000001
    14  Li   0.000104  -0.000103  -0.000035  -0.000780   0.000460  -0.000217
    15  Li  -0.000007   0.000000   0.000002   0.000061  -0.000006   0.000009
    16  F    0.000000   0.000000   0.000000   0.000008  -0.000002   0.000007
    17  Li   0.000047   0.000009   0.000003  -0.000042   0.000028   0.000003
    18  F   -0.000002   0.000000   0.000000   0.000030   0.000003   0.000000
    19  F   -0.000003   0.000000   0.000000   0.000008   0.000003   0.000000
    20  Li   0.000104  -0.000103  -0.000060   0.000265  -0.000151  -0.000104
    21  Li  -0.000027   0.000011   0.000009   0.000093   0.000103   0.000030
    22  F    0.000002   0.000000   0.000000   0.000027   0.000007   0.000000
    23  F    0.000000   0.000000   0.000000   0.000001   0.000000   0.000000
    24  Li  -0.000009   0.000003   0.000003   0.000137  -0.000005   0.000037
    25  F    0.000000   0.000000   0.000000  -0.000001   0.000000   0.000000
    26  Li  -0.000006   0.000003   0.000001   0.000002   0.000004   0.000001
    27  Li  -0.000007   0.000000   0.000001  -0.000010  -0.000005   0.000001
    28  F    0.000000   0.000000   0.000000   0.000000   0.000001   0.000000
    29  F    0.000000   0.000000   0.000000   0.000000   0.000001   0.000000
    30  Li  -0.000009   0.000003   0.000002   0.000046   0.000014   0.000007
    31  Li   0.000002   0.000000  -0.000001  -0.000017  -0.000007  -0.000003
    32  F    0.000000   0.000000   0.000000  -0.000001   0.000000   0.000000
    33  Ag   0.000905  -0.001532  -0.000023  -0.006858  -0.000211  -0.001457
               7          8          9         10         11         12
     1  Li   0.000000  -0.000006  -0.000065  -0.000382   0.000964   0.000052
     2  F    0.000000   0.000003   0.000002   0.000143  -0.000221   0.000058
     3  F    0.000000   0.000008   0.000001   0.000062  -0.000169  -0.000012
     4  Li   0.000006   0.000215   0.000062   0.000949  -0.002846   0.000638
     5  Li   0.000021  -0.000134   0.000003  -0.000042   0.000304   0.000105
     6  F   -0.000002   0.000070   0.000000   0.000030  -0.000210   0.000055
     7  F    0.000039   0.000044   0.000000  -0.000001  -0.000006   0.000000
     8  Li   0.000044   0.000398   0.000001   0.000002  -0.000176   0.000065
     9  F    0.000000   0.000001   0.000099   0.000261  -0.000169  -0.000012
    10  Li  -0.000001   0.000002   0.000261   0.001927  -0.002846   0.000638
    11  Li  -0.000006  -0.000176  -0.000169  -0.002846   0.006143  -0.001489
    12  F    0.000000   0.000065  -0.000012   0.000638  -0.001489   0.058398
    13  F    0.000000   0.000000   0.000000   0.000008  -0.000185  -0.000011
    14  Li  -0.000090  -0.000839  -0.000060   0.000265  -0.000334  -0.000476
    15  Li   0.000005   0.000098   0.000001  -0.000010   0.000027   0.000025
    16  F    0.000000   0.000058   0.000000   0.000000  -0.000015   0.000000
    17  Li   0.000000   0.000004  -0.000026   0.000070   0.000304   0.000105
    18  F    0.000000   0.000001   0.000002   0.000045  -0.000210   0.000055
    19  F    0.000000   0.000002   0.000001   0.000048  -0.000185  -0.000011
    20  Li  -0.000004  -0.000070  -0.000035  -0.000780  -0.000334  -0.000476
    21  Li   0.000006   0.000044   0.000009   0.000093  -0.000178   0.000193
    22  F    0.000000   0.000015   0.000000   0.000027  -0.000207   0.000054
    23  F    0.000000   0.000003   0.000000   0.000000  -0.000004   0.000000
    24  Li   0.000010   0.000213   0.000002   0.000046  -0.000331   0.000121
    25  F    0.000000   0.000000   0.000000   0.000006  -0.000006   0.000000
    26  Li   0.000000   0.000002   0.000008   0.000215  -0.000176   0.000065
    27  Li   0.000000  -0.000002   0.000002   0.000061   0.000027   0.000025
    28  F    0.000000   0.000001   0.000000   0.000008  -0.000015   0.000000
    29  F    0.000000   0.000000   0.000000   0.000001  -0.000004   0.000000
    30  Li   0.000000   0.000022   0.000003   0.000137  -0.000331   0.000121
    31  Li  -0.000001  -0.000016  -0.000001  -0.000017   0.000050  -0.000014
    32  F    0.000000   0.000000   0.000000  -0.000001   0.000001   0.000000
    33  Ag  -0.000001  -0.001262  -0.000023  -0.006858   0.011319  -0.032962
              13         14         15         16         17         18
     1  Li  -0.000003   0.000104  -0.000007   0.000000   0.000047  -0.000002
     2  F    0.000000  -0.000103   0.000000   0.000000   0.000009   0.000000
     3  F    0.000001  -0.000035   0.000002   0.000000   0.000003   0.000000
     4  Li   0.000048  -0.000780   0.000061   0.000008  -0.000042   0.000030
     5  Li  -0.000032   0.000460  -0.000006  -0.000002   0.000028   0.000003
     6  F    0.000001  -0.000217   0.000009   0.000007   0.000003   0.000000
     7  F    0.000000  -0.000090   0.000005   0.000000   0.000000   0.000000
     8  Li   0.000000  -0.000839   0.000098   0.000058   0.000004   0.000001
     9  F    0.000000  -0.000060   0.000001   0.000000  -0.000026   0.000002
    10  Li   0.000008   0.000265  -0.000010   0.000000   0.000070   0.000045
    11  Li  -0.000185  -0.000334   0.000027  -0.000015   0.000304  -0.000210
    12  F   -0.000011  -0.000476   0.000025   0.000000   0.000105   0.000055
    13  F    0.000103   0.000221  -0.000027   0.000000   0.000003   0.000000
    14  Li   0.000221   0.003866  -0.000360  -0.000248  -0.000151  -0.000104
    15  Li  -0.000027  -0.000360  -0.000053  -0.000029  -0.000005   0.000001
    16  F    0.000000  -0.000248  -0.000029   0.000706   0.000001   0.000000
    17  Li   0.000003  -0.000151  -0.000005   0.000001  -0.000483  -0.000164
    18  F    0.000000  -0.000104   0.000001   0.000000  -0.000164   0.004101
    19  F    0.000001  -0.000033   0.000000   0.000000  -0.000032   0.000001
    20  Li  -0.000033   0.000296   0.000123  -0.000056   0.000460  -0.000217
    21  Li  -0.000014   0.000003   0.000010   0.000015   0.000103   0.000030
    22  F    0.000001  -0.000239   0.000006   0.000007   0.000007   0.000000
    23  F    0.000000  -0.000045   0.000008   0.000000   0.000001   0.000000
    24  Li   0.000007  -0.001320   0.000117   0.000082   0.000014   0.000007
    25  F    0.000000  -0.000004   0.000000   0.000000   0.000021  -0.000002
    26  Li   0.000002  -0.000070  -0.000002   0.000001  -0.000134   0.000070
    27  Li   0.000000   0.000123  -0.000004   0.000000  -0.000006   0.000009
    28  F    0.000000  -0.000056   0.000000   0.000000  -0.000002   0.000007
    29  F    0.000000  -0.000037   0.000001   0.000000   0.000000   0.000000
    30  Li   0.000011  -0.000315  -0.000004   0.000012  -0.000005   0.000037
    31  Li  -0.000002   0.000161   0.000000  -0.000004  -0.000007  -0.000003
    32  F    0.000000  -0.000006   0.000001   0.000000   0.000000   0.000000
    33  Ag  -0.000022   0.015063  -0.000053  -0.000150  -0.000211  -0.001457
              19         20         21         22         23         24
     1  Li  -0.000003   0.000104  -0.000027   0.000002   0.000000  -0.000009
     2  F    0.000000  -0.000103   0.000011   0.000000   0.000000   0.000003
     3  F    0.000000  -0.000060   0.000009   0.000000   0.000000   0.000003
     4  Li   0.000008   0.000265   0.000093   0.000027   0.000001   0.000137
     5  Li   0.000003  -0.000151   0.000103   0.000007   0.000000  -0.000005
     6  F    0.000000  -0.000104   0.000030   0.000000   0.000000   0.000037
     7  F    0.000000  -0.000004   0.000006   0.000000   0.000000   0.000010
     8  Li   0.000002  -0.000070   0.000044   0.000015   0.000003   0.000213
     9  F    0.000001  -0.000035   0.000009   0.000000   0.000000   0.000002
    10  Li   0.000048  -0.000780   0.000093   0.000027   0.000000   0.000046
    11  Li  -0.000185  -0.000334  -0.000178  -0.000207  -0.000004  -0.000331
    12  F   -0.000011  -0.000476   0.000193   0.000054   0.000000   0.000121
    13  F    0.000001  -0.000033  -0.000014   0.000001   0.000000   0.000007
    14  Li  -0.000033   0.000296   0.000003  -0.000239  -0.000045  -0.001320
    15  Li   0.000000   0.000123   0.000010   0.000006   0.000008   0.000117
    16  F    0.000000  -0.000056   0.000015   0.000007   0.000000   0.000082
    17  Li  -0.000032   0.000460   0.000103   0.000007   0.000001   0.000014
    18  F    0.000001  -0.000217   0.000030   0.000000   0.000000   0.000007
    19  F    0.000103   0.000221  -0.000014   0.000001   0.000000   0.000011
    20  Li   0.000221   0.003866   0.000003  -0.000239  -0.000037  -0.000315
    21  Li  -0.000014   0.000003  -0.000428  -0.000130   0.000028   0.000094
    22  F    0.000001  -0.000239  -0.000130   0.003974  -0.000002   0.000121
    23  F    0.000000  -0.000037   0.000028  -0.000002   0.000023   0.000032
    24  Li   0.000011  -0.000315   0.000094   0.000121   0.000032   0.000797
    25  F    0.000000  -0.000090   0.000006   0.000000   0.000000   0.000000
    26  Li   0.000000  -0.000839   0.000044   0.000015   0.000000   0.000022
    27  Li  -0.000027  -0.000360   0.000010   0.000006   0.000001  -0.000004
    28  F    0.000000  -0.000248   0.000015   0.000007   0.000000   0.000012
    29  F    0.000000  -0.000045   0.000028  -0.000002   0.000000   0.000016
    30  Li   0.000007  -0.001320   0.000094   0.000121   0.000016   0.000262
    31  Li  -0.000002   0.000161  -0.000058   0.000002  -0.000010  -0.000116
    32  F    0.000000  -0.000006  -0.000009  -0.000001   0.000000   0.000007
    33  Ag  -0.000022   0.015063  -0.001802  -0.001319  -0.000002  -0.002628
              25         26         27         28         29         30
     1  Li   0.000000  -0.000006  -0.000007   0.000000   0.000000  -0.000009
     2  F    0.000000   0.000003   0.000000   0.000000   0.000000   0.000003
     3  F    0.000000   0.000001   0.000001   0.000000   0.000000   0.000002
     4  Li  -0.000001   0.000002  -0.000010   0.000000   0.000000   0.000046
     5  Li   0.000000   0.000004  -0.000005   0.000001   0.000001   0.000014
     6  F    0.000000   0.000001   0.000001   0.000000   0.000000   0.000007
     7  F    0.000000   0.000000   0.000000   0.000000   0.000000   0.000000
     8  Li   0.000000   0.000002  -0.000002   0.000001   0.000000   0.000022
     9  F    0.000000   0.000008   0.000002   0.000000   0.000000   0.000003
    10  Li   0.000006   0.000215   0.000061   0.000008   0.000001   0.000137
    11  Li  -0.000006  -0.000176   0.000027  -0.000015  -0.000004  -0.000331
    12  F    0.000000   0.000065   0.000025   0.000000   0.000000   0.000121
    13  F    0.000000   0.000002   0.000000   0.000000   0.000000   0.000011
    14  Li  -0.000004  -0.000070   0.000123  -0.000056  -0.000037  -0.000315
    15  Li   0.000000  -0.000002  -0.000004   0.000000   0.000001  -0.000004
    16  F    0.000000   0.000001   0.000000   0.000000   0.000000   0.000012
    17  Li   0.000021  -0.000134  -0.000006  -0.000002   0.000000  -0.000005
    18  F   -0.000002   0.000070   0.000009   0.000007   0.000000   0.000037
    19  F    0.000000   0.000000  -0.000027   0.000000   0.000000   0.000007
    20  Li  -0.000090  -0.000839  -0.000360  -0.000248  -0.000045  -0.001320
    21  Li   0.000006   0.000044   0.000010   0.000015   0.000028   0.000094
    22  F    0.000000   0.000015   0.000006   0.000007  -0.000002   0.000121
    23  F    0.000000   0.000000   0.000001   0.000000   0.000000   0.000016
    24  Li   0.000000   0.000022  -0.000004   0.000012   0.000016   0.000262
    25  F    0.000039   0.000044   0.000005   0.000000   0.000000   0.000010
    26  Li   0.000044   0.000398   0.000098   0.000058   0.000003   0.000213
    27  Li   0.000005   0.000098  -0.000053  -0.000029   0.000008   0.000117
    28  F    0.000000   0.000058  -0.000029   0.000706   0.000000   0.000082
    29  F    0.000000   0.000003   0.000008   0.000000   0.000023   0.000032
    30  Li   0.000010   0.000213   0.000117   0.000082   0.000032   0.000797
    31  Li  -0.000001  -0.000016   0.000000  -0.000004  -0.000010  -0.000116
    32  F    0.000000   0.000000   0.000001   0.000000   0.000000   0.000007
    33  Ag  -0.000001  -0.001262  -0.000053  -0.000150  -0.000002  -0.002628
              31         32         33
     1  Li   0.000002   0.000000   0.000905
     2  F    0.000000   0.000000  -0.001532
     3  F   -0.000001   0.000000  -0.000023
     4  Li  -0.000017  -0.000001  -0.006858
     5  Li  -0.000007   0.000000  -0.000211
     6  F   -0.000003   0.000000  -0.001457
     7  F   -0.000001   0.000000  -0.000001
     8  Li  -0.000016   0.000000  -0.001262
     9  F   -0.000001   0.000000  -0.000023
    10  Li  -0.000017  -0.000001  -0.006858
    11  Li   0.000050   0.000001   0.011319
    12  F   -0.000014   0.000000  -0.032962
    13  F   -0.000002   0.000000  -0.000022
    14  Li   0.000161  -0.000006   0.015063
    15  Li   0.000000   0.000001  -0.000053
    16  F   -0.000004   0.000000  -0.000150
    17  Li  -0.000007   0.000000  -0.000211
    18  F   -0.000003   0.000000  -0.001457
    19  F   -0.000002   0.000000  -0.000022
    20  Li   0.000161  -0.000006   0.015063
    21  Li  -0.000058  -0.000009  -0.001802
    22  F    0.000002  -0.000001  -0.001319
    23  F   -0.000010   0.000000  -0.000002
    24  Li  -0.000116   0.000007  -0.002628
    25  F   -0.000001   0.000000  -0.000001
    26  Li  -0.000016   0.000000  -0.001262
    27  Li   0.000000   0.000001  -0.000053
    28  F   -0.000004   0.000000  -0.000150
    29  F   -0.000010   0.000000  -0.000002
    30  Li  -0.000116   0.000007  -0.002628
    31  Li   0.000066   0.000004   0.000276
    32  F    0.000004   0.000031  -0.000014
    33  Ag   0.000276  -0.000014   0.966712
 Mulliken charges and spin densities:
               1          2
     1  Li   0.639215   0.001020
     2  F   -0.561534   0.002571
     3  F   -0.560614   0.000067
     4  Li   0.546307  -0.005896
     5  Li   0.550977  -0.000087
     6  F   -0.555718   0.002240
     7  F   -0.568971   0.000027
     8  Li   0.635738  -0.001235
     9  F   -0.560614   0.000067
    10  Li   0.546307  -0.005896
    11  Li   0.525693   0.008491
    12  F   -0.540034   0.025315
    13  F   -0.562562   0.000078
    14  Li   0.466012   0.014643
    15  Li   0.557894  -0.000065
    16  F   -0.558665   0.000391
    17  Li   0.550977  -0.000087
    18  F   -0.555718   0.002240
    19  F   -0.562562   0.000078
    20  Li   0.466012   0.014643
    21  Li   0.512670  -0.001587
    22  F   -0.558959   0.002264
    23  F   -0.561440   0.000014
    24  Li   0.558977  -0.002554
    25  F   -0.568971   0.000027
    26  Li   0.635738  -0.001235
    27  Li   0.557894  -0.000065
    28  F   -0.558665   0.000391
    29  F   -0.561440   0.000014
    30  Li   0.558977  -0.002554
    31  Li   0.638571   0.000298
    32  F   -0.568298   0.000016
    33  Ag   0.016805   0.946371
 Sum of Mulliken charges =   0.00000   1.00000
 Mulliken charges and spin densities with hydrogens summed into heavy atoms:
               1          2
     1  Li   0.639215   0.001020
     2  F   -0.561534   0.002571
     3  F   -0.560614   0.000067
     4  Li   0.546307  -0.005896
     5  Li   0.550977  -0.000087
     6  F   -0.555718   0.002240
     7  F   -0.568971   0.000027
     8  Li   0.635738  -0.001235
     9  F   -0.560614   0.000067
    10  Li   0.546307  -0.005896
    11  Li   0.525693   0.008491
    12  F   -0.540034   0.025315
    13  F   -0.562562   0.000078
    14  Li   0.466012   0.014643
    15  Li   0.557894  -0.000065
    16  F   -0.558665   0.000391
    17  Li   0.550977  -0.000087
    18  F   -0.555718   0.002240
    19  F   -0.562562   0.000078
    20  Li   0.466012   0.014643
    21  Li   0.512670  -0.001587
    22  F   -0.558959   0.002264
    23  F   -0.561440   0.000014
    24  Li   0.558977  -0.002554
    25  F   -0.568971   0.000027
    26  Li   0.635738  -0.001235
    27  Li   0.557894  -0.000065
    28  F   -0.558665   0.000391
    29  F   -0.561440   0.000014
    30  Li   0.558977  -0.002554
    31  Li   0.638571   0.000298
    32  F   -0.568298   0.000016
    33  Ag   0.016805   0.946371
 Electronic spatial extent (au):  <R**2>=          23061.5208
 Charge=              0.0000 electrons
 Dipole moment (field-independent basis, Debye):
    X=              0.0373    Y=              0.0373    Z=             -1.7731  Tot=              1.7739
 Quadrupole moment (field-independent basis, Debye-Ang):
   XX=           -124.8886   YY=           -124.8886   ZZ=           -143.1324
   XY=              0.1888   XZ=             -3.5626   YZ=             -3.5626
 Traceless Quadrupole moment (field-independent basis, Debye-Ang):
   XX=              6.0813   YY=              6.0813   ZZ=            -12.1626
   XY=              0.1888   XZ=             -3.5626   YZ=             -3.5626
 Octapole moment (field-independent basis, Debye-Ang**2):
  XXX=          -1070.6349  YYY=          -1070.6349  ZZZ=           -689.9845  XYY=           -356.8320
  XXY=           -356.8320  XXZ=           -207.2028  XZZ=           -398.9528  YZZ=           -398.9528
  YYZ=           -207.2028  XYZ=           -137.2873
 Hexadecapole moment (field-independent basis, Debye-Ang**3):
 XXXX=          -9651.3643 YYYY=          -9651.3643 ZZZZ=          -4481.5957 XXXY=          -3113.4569
 XXXZ=          -1541.0188 YYYX=          -3113.4569 YYYZ=          -1541.0188 ZZZX=          -1725.7207
 ZZZY=          -1725.7207 XXYY=          -3136.8127 XXZZ=          -2370.9968 YYZZ=          -2370.9968
 XXYZ=          -1309.8354 YYXZ=          -1309.8354 ZZXY=          -1398.8668
 N-N= 2.841699073058D+03 E-N=-1.011318321869D+04  KE= 1.760075053497D+03
                          Isotropic Fermi Contact Couplings
        Atom                 a.u.       MegaHertz       Gauss      10(-4) cm-1
     1  Li(7)              0.00014       0.24133       0.08611       0.08050
     2  F(19)              0.00726      30.54475      10.89913      10.18863
     3  F(19)              0.00036       1.50462       0.53688       0.50189
     4  Li(7)              0.00142       2.47539       0.88328       0.82570
     5  Li(7)              0.00006       0.11134       0.03973       0.03714
     6  F(19)              0.00728      30.61297      10.92347      10.21139
     7  F(19)              0.00009       0.39108       0.13955       0.13045
     8  Li(7)              0.00005       0.08949       0.03193       0.02985
     9  F(19)              0.00036       1.50462       0.53688       0.50189
    10  Li(7)              0.00142       2.47539       0.88328       0.82570
    11  Li(7)              0.00065       1.12733       0.40226       0.37604
    12  F(19)              0.10743     452.00239     161.28569     150.77177
    13  F(19)              0.00029       1.23410       0.44036       0.41165
    14  Li(7)              0.00127       2.19992       0.78499       0.73381
    15  Li(7)              0.00002       0.02743       0.00979       0.00915
    16  F(19)              0.00066       2.77348       0.98965       0.92513
    17  Li(7)              0.00006       0.11134       0.03973       0.03714
    18  F(19)              0.00728      30.61297      10.92347      10.21139
    19  F(19)              0.00029       1.23410       0.44036       0.41165
    20  Li(7)              0.00127       2.19992       0.78499       0.73381
    21  Li(7)              0.00004       0.07124       0.02542       0.02376
    22  F(19)              0.00650      27.33197       9.75273       9.11696
    23  F(19)              0.00007       0.30103       0.10742       0.10041
    24  Li(7)              0.00002       0.04149       0.01480       0.01384
    25  F(19)              0.00009       0.39108       0.13955       0.13045
    26  Li(7)              0.00005       0.08949       0.03193       0.02985
    27  Li(7)              0.00002       0.02743       0.00979       0.00915
    28  F(19)              0.00066       2.77348       0.98965       0.92513
    29  F(19)              0.00007       0.30103       0.10742       0.10041
    30  Li(7)              0.00002       0.04149       0.01480       0.01384
    31  Li(7)              0.00000       0.00666       0.00238       0.00222
    32  F(19)              0.00005       0.21192       0.07562       0.07069
    33  Ag(107             0.00032      -0.05804      -0.02071      -0.01936
 --------------------------------------------------------
       Center         ----  Spin Dipole Couplings  ----
                      3XX-RR        3YY-RR        3ZZ-RR
 --------------------------------------------------------
     1   Atom       -0.000539     -0.000539      0.001077
     2   Atom       -0.004660     -0.004660      0.009321
     3   Atom       -0.000435     -0.001589      0.002023
     4   Atom        0.000380     -0.003583      0.003203
     5   Atom       -0.000534     -0.000535      0.001069
     6   Atom       -0.005674     -0.004301      0.009975
     7   Atom       -0.000545      0.000162      0.000383
     8   Atom       -0.000588      0.000805     -0.000217
     9   Atom       -0.001589     -0.000435      0.002023
    10   Atom       -0.003583      0.000380      0.003203
    11   Atom       -0.001936     -0.001936      0.003871
    12   Atom       -0.123255     -0.123255      0.246511
    13   Atom       -0.001625     -0.000189      0.001813
    14   Atom       -0.003593      0.000414      0.003179
    15   Atom       -0.000619      0.000180      0.000439
    16   Atom       -0.002361      0.001303      0.001059
    17   Atom       -0.000535     -0.000534      0.001069
    18   Atom       -0.004301     -0.005674      0.009975
    19   Atom       -0.000189     -0.001625      0.001813
    20   Atom        0.000414     -0.003593      0.003179
    21   Atom       -0.000532     -0.000532      0.001064
    22   Atom       -0.004638     -0.004638      0.009277
    23   Atom       -0.000449      0.000123      0.000327
    24   Atom       -0.000585      0.000802     -0.000217
    25   Atom        0.000162     -0.000545      0.000383
    26   Atom        0.000805     -0.000588     -0.000217
    27   Atom        0.000180     -0.000619      0.000439
    28   Atom        0.001303     -0.002361      0.001059
    29   Atom        0.000123     -0.000449      0.000327
    30   Atom        0.000802     -0.000585     -0.000217
    31   Atom       -0.000038     -0.000038      0.000077
    32   Atom        0.000176      0.000176     -0.000351
    33   Atom        0.018398      0.018398     -0.036797
 --------------------------------------------------------
                        XY            XZ            YZ
 --------------------------------------------------------
     1   Atom        0.000403      0.000806      0.000806
     2   Atom        0.007217      0.012829      0.012829
     3   Atom       -0.000015      0.001971     -0.000010
     4   Atom        0.000007      0.004364      0.000036
     5   Atom       -0.000401      0.000811     -0.000816
     6   Atom       -0.005827      0.010524     -0.011625
     7   Atom       -0.000325      0.000374     -0.000934
     8   Atom       -0.000858      0.000585     -0.001162
     9   Atom       -0.000015     -0.000010      0.001971
    10   Atom        0.000007      0.000036      0.004364
    11   Atom       -0.000001     -0.000002     -0.000002
    12   Atom        0.000098      0.001321      0.001321
    13   Atom        0.000017     -0.000015     -0.002016
    14   Atom        0.000004     -0.000007     -0.004409
    15   Atom        0.000000     -0.000001     -0.000902
    16   Atom        0.000038     -0.000033     -0.003407
    17   Atom       -0.000401     -0.000816      0.000811
    18   Atom       -0.005827     -0.011625      0.010524
    19   Atom        0.000017     -0.002016     -0.000015
    20   Atom        0.000004     -0.004409     -0.000007
    21   Atom        0.000400     -0.000817     -0.000817
    22   Atom        0.005989     -0.010968     -0.010968
    23   Atom        0.000351     -0.000399     -0.000828
    24   Atom        0.000863     -0.000586     -0.001159
    25   Atom       -0.000325     -0.000934      0.000374
    26   Atom       -0.000858     -0.001162      0.000585
    27   Atom        0.000000     -0.000902     -0.000001
    28   Atom        0.000038     -0.003407     -0.000033
    29   Atom        0.000351     -0.000828     -0.000399
    30   Atom        0.000863     -0.001159     -0.000586
    31   Atom        0.000331     -0.000381     -0.000381
    32   Atom        0.000855     -0.000593     -0.000593
    33   Atom       -0.001578      0.000295      0.000295
 --------------------------------------------------------


 ---------------------------------------------------------------------------------
              Anisotropic Spin Dipole Couplings in Principal Axis System
 ---------------------------------------------------------------------------------

       Atom             a.u.   MegaHertz   Gauss  10(-4) cm-1        Axes

              Baa    -0.0009    -0.195    -0.070    -0.065  0.7071 -0.7071  0.0000
     1 Li(7)  Bbb    -0.0008    -0.170    -0.061    -0.057  0.6062  0.6062 -0.5149
              Bcc     0.0018     0.365     0.130     0.122  0.3641  0.3641  0.8572
 
              Baa    -0.0125    -6.287    -2.243    -2.097 -0.5439 -0.5439  0.6390
     2 F(19)  Bbb    -0.0119    -5.965    -2.128    -1.990  0.7071 -0.7071  0.0000
              Bcc     0.0244    12.252     4.372     4.087  0.4519  0.4519  0.7692
 
              Baa    -0.0016    -0.798    -0.285    -0.266  0.1204  0.9907 -0.0631
     3 F(19)  Bbb    -0.0015    -0.767    -0.274    -0.256  0.8660 -0.1359 -0.4812
              Bcc     0.0031     1.566     0.559     0.522  0.4853 -0.0033  0.8744
 
              Baa    -0.0036    -0.743    -0.265    -0.248  0.0136  0.9998 -0.0140
     4 Li(7)  Bbb    -0.0028    -0.579    -0.207    -0.193  0.8085 -0.0192 -0.5882
              Bcc     0.0064     1.323     0.472     0.441  0.5883  0.0033  0.8086
 
              Baa    -0.0009    -0.194    -0.069    -0.065  0.6929  0.7209  0.0132
     5 Li(7)  Bbb    -0.0008    -0.172    -0.062    -0.057  0.6214 -0.5879 -0.5179
              Bcc     0.0018     0.366     0.131     0.122  0.3656 -0.3670  0.8554
 
              Baa    -0.0110    -5.507    -1.965    -1.837  0.8765 -0.0654 -0.4769
     6 F(19)  Bbb    -0.0108    -5.419    -1.934    -1.808  0.2653  0.8924  0.3651
              Bcc     0.0218    10.926     3.899     3.644  0.4017 -0.4466  0.7995
 
              Baa    -0.0007    -0.340    -0.121    -0.114  0.8330 -0.2351 -0.5008
     7 F(19)  Bbb    -0.0007    -0.334    -0.119    -0.111  0.4916  0.7297  0.4752
              Bcc     0.0013     0.675     0.241     0.225  0.2537 -0.6421  0.7234
 
              Baa    -0.0010    -0.211    -0.075    -0.070  0.8400  0.0512 -0.5401
     8 Li(7)  Bbb    -0.0010    -0.200    -0.071    -0.067  0.3925  0.6299  0.6702
              Bcc     0.0020     0.411     0.147     0.137 -0.3745  0.7750 -0.5091
 
              Baa    -0.0016    -0.798    -0.285    -0.266  0.9907  0.1204 -0.0631
     9 F(19)  Bbb    -0.0015    -0.767    -0.274    -0.256 -0.1359  0.8660 -0.4812
              Bcc     0.0031     1.566     0.559     0.522 -0.0033  0.4853  0.8744
 
              Baa    -0.0036    -0.743    -0.265    -0.248  0.9998  0.0136 -0.0140
    10 Li(7)  Bbb    -0.0028    -0.579    -0.207    -0.193 -0.0192  0.8085 -0.5882
              Bcc     0.0064     1.323     0.472     0.441  0.0033  0.5883  0.8086
 
              Baa    -0.0019    -0.402    -0.143    -0.134  0.7071  0.7071  0.0006
    11 Li(7)  Bbb    -0.0019    -0.401    -0.143    -0.134  0.7071 -0.7071  0.0000
              Bcc     0.0039     0.803     0.286     0.268 -0.0004 -0.0004  1.0000
 
              Baa    -0.1234   -61.951   -22.106   -20.665  0.7071 -0.7071  0.0000
    12 F(19)  Bbb    -0.1232   -61.857   -22.072   -20.633  0.7071  0.7071 -0.0051
              Bcc     0.2465   123.809    44.178    41.298  0.0036  0.0036  1.0000
 
              Baa    -0.0016    -0.816    -0.291    -0.272  0.9993 -0.0339 -0.0155
    13 F(19)  Bbb    -0.0014    -0.722    -0.258    -0.241  0.0370  0.8492  0.5267
              Bcc     0.0031     1.538     0.549     0.513 -0.0046 -0.5269  0.8499
 
              Baa    -0.0036    -0.745    -0.266    -0.249  1.0000  0.0011  0.0018
    14 Li(7)  Bbb    -0.0028    -0.586    -0.209    -0.195 -0.0019  0.8060  0.5919
              Bcc     0.0064     1.331     0.475     0.444 -0.0008 -0.5919  0.8060
 
              Baa    -0.0006    -0.128    -0.046    -0.043  1.0000  0.0060  0.0057
    15 Li(7)  Bbb    -0.0006    -0.125    -0.045    -0.042 -0.0083  0.7558  0.6548
              Bcc     0.0012     0.253     0.090     0.084 -0.0004 -0.6548  0.7558
 
              Baa    -0.0024    -1.186    -0.423    -0.396  0.9998 -0.0184 -0.0088
    16 F(19)  Bbb    -0.0022    -1.119    -0.399    -0.373  0.0191  0.6941  0.7196
              Bcc     0.0046     2.305     0.823     0.769  0.0072  0.7196 -0.6943
 
              Baa    -0.0009    -0.194    -0.069    -0.065  0.7209  0.6929  0.0132
    17 Li(7)  Bbb    -0.0008    -0.172    -0.062    -0.057 -0.5879  0.6214 -0.5179
              Bcc     0.0018     0.366     0.131     0.122 -0.3670  0.3656  0.8554
 
              Baa    -0.0110    -5.507    -1.965    -1.837 -0.0654  0.8765 -0.4769
    18 F(19)  Bbb    -0.0108    -5.419    -1.934    -1.808  0.8924  0.2653  0.3651
              Bcc     0.0218    10.926     3.899     3.644 -0.4466  0.4017  0.7995
 
              Baa    -0.0016    -0.816    -0.291    -0.272 -0.0339  0.9993 -0.0155
    19 F(19)  Bbb    -0.0014    -0.722    -0.258    -0.241  0.8492  0.0370  0.5267
              Bcc     0.0031     1.538     0.549     0.513 -0.5269 -0.0046  0.8499
 
              Baa    -0.0036    -0.745    -0.266    -0.249  0.0011  1.0000  0.0018
    20 Li(7)  Bbb    -0.0028    -0.586    -0.209    -0.195  0.8060 -0.0019  0.5919
              Bcc     0.0064     1.331     0.475     0.444 -0.5919 -0.0008  0.8060
 
              Baa    -0.0009    -0.193    -0.069    -0.064  0.7071 -0.7071  0.0000
    21 Li(7)  Bbb    -0.0008    -0.173    -0.062    -0.058  0.6042  0.6042  0.5196
              Bcc     0.0018     0.366     0.131     0.122 -0.3674 -0.3674  0.8544
 
              Baa    -0.0107    -5.372    -1.917    -1.792  0.5585  0.5585  0.6134
    22 F(19)  Bbb    -0.0106    -5.337    -1.904    -1.780  0.7071 -0.7071  0.0000
              Bcc     0.0213    10.709     3.821     3.572 -0.4337 -0.4337  0.7898
 
              Baa    -0.0006    -0.310    -0.111    -0.104  0.9481 -0.1212  0.2940
    23 F(19)  Bbb    -0.0006    -0.306    -0.109    -0.102 -0.0990  0.7660  0.6352
              Bcc     0.0012     0.616     0.220     0.206 -0.3022 -0.6313  0.7142
 
              Baa    -0.0010    -0.211    -0.075    -0.070  0.8548 -0.0784  0.5131
    24 Li(7)  Bbb    -0.0010    -0.200    -0.072    -0.067 -0.3575  0.6277  0.6915
              Bcc     0.0020     0.411     0.147     0.137  0.3762  0.7745 -0.5085
 
              Baa    -0.0007    -0.340    -0.121    -0.114 -0.2351  0.8330 -0.5008
    25 F(19)  Bbb    -0.0007    -0.334    -0.119    -0.111  0.7297  0.4916  0.4752
              Bcc     0.0013     0.675     0.241     0.225 -0.6421  0.2537  0.7234
 
              Baa    -0.0010    -0.211    -0.075    -0.070  0.0512  0.8400 -0.5401
    26 Li(7)  Bbb    -0.0010    -0.200    -0.071    -0.067  0.6299  0.3925  0.6702
              Bcc     0.0020     0.411     0.147     0.137  0.7750 -0.3745 -0.5091
 
              Baa    -0.0006    -0.128    -0.046    -0.043  0.0060  1.0000  0.0057
    27 Li(7)  Bbb    -0.0006    -0.125    -0.045    -0.042  0.7558 -0.0083  0.6548
              Bcc     0.0012     0.253     0.090     0.084 -0.6548 -0.0004  0.7558
 
              Baa    -0.0024    -1.186    -0.423    -0.396 -0.0184  0.9998 -0.0088
    28 F(19)  Bbb    -0.0022    -1.119    -0.399    -0.373  0.6941  0.0191  0.7196
              Bcc     0.0046     2.305     0.823     0.769  0.7196  0.0072 -0.6943
 
              Baa    -0.0006    -0.310    -0.111    -0.104 -0.1212  0.9481  0.2940
    29 F(19)  Bbb    -0.0006    -0.306    -0.109    -0.102  0.7660 -0.0990  0.6352
              Bcc     0.0012     0.616     0.220     0.206 -0.6313 -0.3022  0.7142
 
              Baa    -0.0010    -0.211    -0.075    -0.070 -0.0784  0.8548  0.5131
    30 Li(7)  Bbb    -0.0010    -0.200    -0.072    -0.067  0.6277 -0.3575  0.6915
              Bcc     0.0020     0.411     0.147     0.137  0.7745  0.3762 -0.5085
 
              Baa    -0.0004    -0.077    -0.027    -0.026  0.7071 -0.7071  0.0000
    31 Li(7)  Bbb    -0.0004    -0.076    -0.027    -0.025  0.4482  0.4482  0.7734
              Bcc     0.0007     0.152     0.054     0.051 -0.5469 -0.5469  0.6339
 
              Baa    -0.0007    -0.375    -0.134    -0.125  0.3017  0.3017  0.9044
    32 F(19)  Bbb    -0.0007    -0.341    -0.122    -0.114  0.7071 -0.7071  0.0000
              Bcc     0.0014     0.717     0.256     0.239  0.6395  0.6395 -0.4267
 
              Baa    -0.0368     0.798     0.285     0.266 -0.0055 -0.0055  1.0000
    33 Ag(107 Bbb     0.0168    -0.365    -0.130    -0.122  0.7071  0.7071  0.0078
              Bcc     0.0200    -0.433    -0.155    -0.145  0.7071 -0.7071  0.0000
 

 ---------------------------------------------------------------------------------

 No NMR shielding tensors so no spin-rotation constants.
 Leave Link  601 at Fri Sep 11 21:45:41 2026, MaxMem=  6442450944 cpu:               5.0 elap:               5.5
 (Enter C:\G16W\l9999.exe)
 Unable to Open any file for archive entry.
 1|1|UNPC-DESKTOP-2JKEGCA|SP|UPBE1PBE|def2SVP|Ag1F16Li16(2)|JHKIM|11-Se
 p-2026|0||#P PBE1PBE/Def2SVP EmpiricalDispersion=GD3BJ SP SCF=(XQC,Max
 Cycle=128,VShift=300) NoSymm||LiF32 t=0.000 dz=+0.00 class=site2site||
 0,2|Li,0,0.,0.,0.|F,0,0.,0.,2.013|F,0,0.,2.013,0.|Li,0,0.,2.013,2.013|
 Li,0,0.,4.026,0.|F,0,0.,4.026,2.013|F,0,0.,6.039,0.|Li,0,0.,6.039,2.01
 3|F,0,2.013,0.,0.|Li,0,2.013,0.,2.013|Li,0,2.013,2.013,0.|F,0,2.013,2.
 013,2.013|F,0,2.013,4.026,0.|Li,0,2.013,4.026,2.013|Li,0,2.013,6.039,0
 .|F,0,2.013,6.039,2.013|Li,0,4.026,0.,0.|F,0,4.026,0.,2.013|F,0,4.026,
 2.013,0.|Li,0,4.026,2.013,2.013|Li,0,4.026,4.026,0.|F,0,4.026,4.026,2.
 013|F,0,4.026,6.039,0.|Li,0,4.026,6.039,2.013|F,0,6.039,0.,0.|Li,0,6.0
 39,0.,2.013|Li,0,6.039,2.013,0.|F,0,6.039,2.013,2.013|F,0,6.039,4.026,
 0.|Li,0,6.039,4.026,2.013|Li,0,6.039,6.039,0.|F,0,6.039,6.039,2.013|Ag
 ,0,2.013,2.013,4.513||Version=EM64W-G16RevC.01|HF=-1863.9766644|S2=0.7
 51467|S2-1=0.|S2A=0.750002|RMSD=4.177e-009|Dipole=0.0146767,0.0146767,
 -0.6975875|Quadrupole=4.5212846,4.5212846,-9.0425691,0.1403825,-2.6487
 356,-2.6487356|PG=CS [SG(Ag1F4Li4),X(F12Li12)]||@
 The archive entry for this job was punched.


 A DANDELION FROM A LOVER MEANS MORE THAN AN ORCHID FROM A FRIEND.
 Job cpu time:       0 days  0 hours 12 minutes 12.0 seconds.
 Elapsed time:       0 days  0 hours 12 minutes 10.8 seconds.
 File lengths (MBytes):  RWF=    150 Int=      0 D2E=      0 Chk=     12 Scr=      1
 Normal termination of Gaussian 16 at Fri Sep 11 21:45:41 2026.
