 Entering Gaussian System, Link 0=C:\G16W\g16.exe
 Input=Me3PO_t4_z1.gjf
 Output=Me3PO_t4_z1.out
 Initial command:
 C:\G16W\l1.exe ".\Gau-118420.inp" "Me3PO_t4_z1.out" /scrdir=".\"
 Entering Link 1 = C:\G16W\l1.exe PID=     68708.
  
 Copyright (c) 1988-2019, Gaussian, Inc.  All Rights Reserved.
  
 This is part of the Gaussian(R) 16 program.  It is based on
 the Gaussian(R) 09 system (copyright 2009, Gaussian, Inc.),
 the Gaussian(R) 03 system (copyright 2003, Gaussian, Inc.),
 the Gaussian(R) 98 system (copyright 1998, Gaussian, Inc.),
 the Gaussian(R) 94 system (copyright 1995, Gaussian, Inc.),
 the Gaussian 92(TM) system (copyright 1992, Gaussian, Inc.),
 the Gaussian 90(TM) system (copyright 1990, Gaussian, Inc.),
 the Gaussian 88(TM) system (copyright 1988, Gaussian, Inc.),
 the Gaussian 86(TM) system (copyright 1986, Carnegie Mellon
 University), and the Gaussian 82(TM) system (copyright 1983,
 Carnegie Mellon University). Gaussian is a federally registered
 trademark of Gaussian, Inc.
  
 This software contains proprietary and confidential information,
 including trade secrets, belonging to Gaussian, Inc.
  
 This software is provided under written license and may be
 used, copied, transmitted, or stored only in accord with that
 written license.
  
 The following legend is applicable only to US Government
 contracts under FAR:
  
                    RESTRICTED RIGHTS LEGEND
  
 Use, reproduction and disclosure by the US Government is
 subject to restrictions as set forth in subparagraphs (a)
 and (c) of the Commercial Computer Software - Restricted
 Rights clause in FAR 52.227-19.
  
 Gaussian, Inc.
 340 Quinnipiac St., Bldg. 40, Wallingford CT 06492
  
  
 ---------------------------------------------------------------
 Warning -- This program may not be used in any manner that
 competes with the business of Gaussian, Inc. or will provide
 assistance to any competitor of Gaussian, Inc.  The licensee
 of this program is prohibited from giving any competitor of
 Gaussian, Inc. access to this program.  By using this program,
 the user acknowledges that Gaussian, Inc. is engaged in the
 business of creating and licensing software in the field of
 computational chemistry and represents and warrants to the
 licensee that it is not a competitor of Gaussian, Inc. and that
 it will not use this program in any manner prohibited above.
 ---------------------------------------------------------------
  

 Cite this work as:
 Gaussian 16, Revision C.01,
 M. J. Frisch, G. W. Trucks, H. B. Schlegel, G. E. Scuseria, 
 M. A. Robb, J. R. Cheeseman, G. Scalmani, V. Barone, 
 G. A. Petersson, H. Nakatsuji, X. Li, M. Caricato, A. V. Marenich, 
 J. Bloino, B. G. Janesko, R. Gomperts, B. Mennucci, H. P. Hratchian, 
 J. V. Ortiz, A. F. Izmaylov, J. L. Sonnenberg, D. Williams-Young, 
 F. Ding, F. Lipparini, F. Egidi, J. Goings, B. Peng, A. Petrone, 
 T. Henderson, D. Ranasinghe, V. G. Zakrzewski, J. Gao, N. Rega, 
 G. Zheng, W. Liang, M. Hada, M. Ehara, K. Toyota, R. Fukuda, 
 J. Hasegawa, M. Ishida, T. Nakajima, Y. Honda, O. Kitao, H. Nakai, 
 T. Vreven, K. Throssell, J. A. Montgomery, Jr., J. E. Peralta, 
 F. Ogliaro, M. J. Bearpark, J. J. Heyd, E. N. Brothers, K. N. Kudin, 
 V. N. Staroverov, T. A. Keith, R. Kobayashi, J. Normand, 
 K. Raghavachari, A. P. Rendell, J. C. Burant, S. S. Iyengar, 
 J. Tomasi, M. Cossi, J. M. Millam, M. Klene, C. Adamo, R. Cammi, 
 J. W. Ochterski, R. L. Martin, K. Morokuma, O. Farkas, 
 J. B. Foresman, and D. J. Fox, Gaussian, Inc., Wallingford CT, 2019.
 
 ******************************************
 Gaussian 16:  EM64W-G16RevC.01 30-May-2019
                11-Sep-2026 
 ******************************************
 %Chk=Me3PO.chk
 %NProcShared=8
 Will use up to    8 processors via shared memory.
 %Mem=48GB
 ----------------------------------------------------------------------
 #P PBE1PBE/Def2SVP EmpiricalDispersion=GD3BJ SP SCF=(XQC,MaxCycle=128)
  NoSymm Guess=Read
 ----------------------------------------------------------------------
 1/38=1,172=1/1;
 2/12=2,15=1,17=6,18=5,40=1/2;
 3/5=43,7=101,11=2,25=1,30=1,74=-13,116=-2,124=41/1,2,3;
 4/5=1/1;
 5/5=2,7=128,8=3,13=1,38=6/2,8;
 6/7=2,8=2,9=2,10=2,28=1/1;
 99/5=1,9=1/99;
 Leave Link    1 at Fri Sep 11 22:42:31 2026, MaxMem=  6442450944 cpu:               0.0 elap:               0.2
 (Enter C:\G16W\l101.exe)
 ------------------------------------
 Me3P=O t=1.000 dz=+0.40 class=toface
 ------------------------------------
 Symbolic Z-matrix:
 Charge =  0 Multiplicity = 2
 O                     0.24167  -0.10268  -2.00717 
 P                     0.06579  -0.02795  -0.5464 
 C                     1.44776  -0.79679   0.37456 
 C                    -0.05153   1.69236   0.0667 
 C                    -1.45287  -0.8715    0.02913 
 H                     1.51997  -1.83906   0.06968 
 H                     1.30423  -0.73408   1.44859 
 H                     2.36764  -0.28817   0.0924 
 H                    -0.89548   2.17111  -0.42629 
 H                     0.85912   2.2163   -0.21735 
 H                    -0.18079   1.73137   1.14366 
 H                    -2.30544  -0.40853  -0.46409 
 H                    -1.39851  -1.91423  -0.27787 
 H                    -1.56878  -0.80808   1.10645 
 Ag                    0.38059  -2.76182  -1.91001 
 
 ITRead=  0  0  0  0  0  0  0  0  0  0  0  0  0  0  0
 MicOpt= -1 -1 -1 -1 -1 -1 -1 -1 -1 -1 -1 -1 -1 -1 -1
 NAtoms=     15 NQM=       15 NQMF=       0 NMMI=      0 NMMIF=      0
                NMic=       0 NMicF=      0.
                    Isotopes and Nuclear Properties:
 (Nuclear quadrupole moments (NQMom) in fm**2, nuclear magnetic moments (NMagM)
  in nuclear magnetons)

  Atom         1           2           3           4           5           6           7           8           9          10
 IAtWgt=          16          31          12          12          12           1           1           1           1           1
 AtmWgt=  15.9949146  30.9737634  12.0000000  12.0000000  12.0000000   1.0078250   1.0078250   1.0078250   1.0078250   1.0078250
 NucSpn=           0           1           0           0           0           1           1           1           1           1
 AtZEff=   0.0000000   0.0000000   0.0000000   0.0000000   0.0000000   0.0000000   0.0000000   0.0000000   0.0000000   0.0000000
 NQMom=    0.0000000   0.0000000   0.0000000   0.0000000   0.0000000   0.0000000   0.0000000   0.0000000   0.0000000   0.0000000
 NMagM=    0.0000000   1.1316000   0.0000000   0.0000000   0.0000000   2.7928460   2.7928460   2.7928460   2.7928460   2.7928460
 AtZNuc=   8.0000000  15.0000000   6.0000000   6.0000000   6.0000000   1.0000000   1.0000000   1.0000000   1.0000000   1.0000000

  Atom        11          12          13          14          15
 IAtWgt=           1           1           1           1         107
 AtmWgt=   1.0078250   1.0078250   1.0078250   1.0078250 106.9050900
 NucSpn=           1           1           1           1           1
 AtZEff=   0.0000000   0.0000000   0.0000000   0.0000000   0.0000000
 NQMom=    0.0000000   0.0000000   0.0000000   0.0000000   0.0000000
 NMagM=    2.7928460   2.7928460   2.7928460   2.7928460  -0.1135700
 AtZNuc=   1.0000000   1.0000000   1.0000000   1.0000000  47.0000000
 Leave Link  101 at Fri Sep 11 22:42:31 2026, MaxMem=  6442450944 cpu:               0.0 elap:               0.2
 (Enter C:\G16W\l202.exe)
                          Input orientation:                          
 ---------------------------------------------------------------------
 Center     Atomic      Atomic             Coordinates (Angstroms)
 Number     Number       Type             X           Y           Z
 ---------------------------------------------------------------------
      1          8           0        0.241669   -0.102679   -2.007170
      2         15           0        0.065789   -0.027952   -0.546402
      3          6           0        1.447763   -0.796794    0.374556
      4          6           0       -0.051532    1.692361    0.066700
      5          6           0       -1.452867   -0.871503    0.029133
      6          1           0        1.519969   -1.839062    0.069681
      7          1           0        1.304231   -0.734080    1.448588
      8          1           0        2.367643   -0.288171    0.092404
      9          1           0       -0.895479    2.171107   -0.426293
     10          1           0        0.859124    2.216299   -0.217345
     11          1           0       -0.180788    1.731372    1.143663
     12          1           0       -2.305436   -0.408531   -0.464090
     13          1           0       -1.398507   -1.914231   -0.277868
     14          1           0       -1.568779   -0.808079    1.106454
     15         47           0        0.380586   -2.761824   -1.910005
 ---------------------------------------------------------------------
                    Distance matrix (angstroms):
                    1          2          3          4          5
     1  O    0.000000
     2  P    1.473215   0.000000
     3  C    2.758456   1.830064   0.000000
     4  C    2.758455   1.830064   2.922080   0.000000
     5  C    2.758455   1.830064   2.922080   2.922080   0.000000
     6  H    2.993725   2.402981   1.088341   3.865304   3.126591
     7  H    3.670146   2.452007   1.085394   3.104082   3.104082
     8  H    2.993724   2.402981   1.088341   3.126592   3.865304
     9  H    2.993724   2.402982   3.865304   1.088341   3.126591
    10  H    2.993724   2.402982   3.126591   1.088341   3.865304
    11  H    3.670145   2.452008   3.104082   1.085393   3.104081
    12  H    2.993724   2.402982   3.865304   3.126591   1.088341
    13  H    2.993724   2.402982   3.126592   3.865304   1.088341
    14  H    3.670145   2.452008   3.104082   3.104082   1.085393
    15  Ag   2.664544   3.071249   3.196784   4.892224   3.270340
                    6          7          8          9         10
     6  H    0.000000
     7  H    1.780144   0.000000
     8  H    1.767578   1.780145   0.000000
     9  H    4.707636   4.098050   4.118866   0.000000
    10  H    4.118865   3.417337   2.940059   1.767578   0.000000
    11  H    4.098050   2.894255   3.417338   1.780144   1.780144
    12  H    4.118866   4.098050   4.707636   2.940058   4.118866
    13  H    2.940058   3.417338   4.118866   4.118866   4.707636
    14  H    3.417336   2.894256   4.098051   3.417337   4.098051
    15  Ag   2.463502   4.030510   3.751932   5.306935   5.279755
                   11         12         13         14         15
    11  H    0.000000
    12  H    3.417336   0.000000
    13  H    4.098050   1.767578   0.000000
    14  H    2.894256   1.780143   1.780144   0.000000
    15  Ag   5.461579   3.852710   2.558800   4.088541   0.000000
 Symmetry turned off by external request.
 Stoichiometry    C3H9AgOP(2)
 Framework group  C1[X(C3H9AgOP)]
 Deg. of freedom    39
 Full point group                 C1      NOp   1
 Rotational constants (GHZ):           3.6726995           0.8184688           0.8086515
 Leave Link  202 at Fri Sep 11 22:42:31 2026, MaxMem=  6442450944 cpu:               0.0 elap:               0.1
 (Enter C:\G16W\l301.exe)
 Standard basis: def2SVP (5D, 7F)
 Ernie: Thresh=  0.10000D-02 Tol=  0.10000D-05 Strict=F.
   150 basis functions,   265 primitive gaussians,   160 cartesian basis functions
    35 alpha electrons       34 beta electrons
       nuclear repulsion energy       412.6913319670 Hartrees.
 IExCor= 1009 DFT=T Ex+Corr=PBE1PBE ExCW=0 ScaHFX=  0.250000
 ScaDFX=  0.750000  0.750000  1.000000  1.000000 ScalE2=  1.000000  1.000000
 IRadAn=      5 IRanWt=     -1 IRanGd=            0 ICorTp=0 IEmpDi=141
 NAtoms=   15 NActive=   15 NUniq=   15 SFac= 1.00D+00 NAtFMM=   60 NAOKFM=F Big=F
 Integral buffers will be    131072 words long.
 Raffenetti 2 integral format.
 Two-electron integral symmetry is turned off.
 R6Disp:  Grimme-D3(BJ) Dispersion energy=       -0.0148325662 Hartrees.
 Nuclear repulsion after empirical dispersion term =      412.6764994008 Hartrees.
 Leave Link  301 at Fri Sep 11 22:42:32 2026, MaxMem=  6442450944 cpu:               1.0 elap:               0.2
 (Enter C:\G16W\l302.exe)
 NPDir=0 NMtPBC=     1 NCelOv=     1 NCel=       1 NClECP=     1 NCelD=      1
         NCelK=      1 NCelE2=     1 NClLst=     1 CellRange=     0.0.
 One-electron integrals computed using PRISM.
   1 Symmetry operations used in ECPInt.
 ECPInt:  NShTT=    2485 NPrTT=    8632 LenC2=    2474 LenP2D=    7203.
 LDataN:  DoStor=T MaxTD1= 7 Len=  274
 NBasis=   150 RedAO= T EigKep=  2.42D-03  NBF=   150
 NBsUse=   150 1.00D-06 EigRej= -1.00D+00 NBFU=   150
 Precomputing XC quadrature grid using
 IXCGrd= 4 IRadAn=           5 IRanWt=          -1 IRanGd=           0 AccXCQ= 0.00D+00.
 Defaulting to unpruned grid for atomic number  47.
 Generated NRdTot=       0 NPtTot=           0 NUsed=           0 NTot=          32
 NSgBfM=   160   160   160   160   160 MxSgAt=    15 MxSgA2=    15.
 Leave Link  302 at Fri Sep 11 22:42:36 2026, MaxMem=  6442450944 cpu:               4.0 elap:               4.6
 (Enter C:\G16W\l303.exe)
 DipDrv:  MaxL=1.
 Leave Link  303 at Fri Sep 11 22:42:37 2026, MaxMem=  6442450944 cpu:               0.0 elap:               0.1
 (Enter C:\G16W\l401.exe)
 Initial guess from the checkpoint file:  "Me3PO.chk"
 B after Tr=     0.038720   -0.317731   -0.176644
         Rot=    1.000000    0.000526    0.000030    0.000062 Ang=   0.06 deg.
 Guess basis will be translated and rotated to current coordinates.
 JPrj=2 DoOrth=T DoCkMO=T.
 Initial guess <Sx>= 0.0000 <Sy>= 0.0000 <Sz>= 0.5000 <S**2>= 0.7520 S= 0.5010
 Leave Link  401 at Fri Sep 11 22:42:41 2026, MaxMem=  6442450944 cpu:               4.0 elap:               4.2
 (Enter C:\G16W\l502.exe)
 Two-electron integral symmetry not used.
 UHF open shell SCF:
 Using DIIS extrapolation, IDIIS=  1040.
 NGot=  6442450944 LenX=  6442396688 LenY=  6442370647
 Requested convergence on RMS density matrix=1.00D-08 within 128 cycles.
 Requested convergence on MAX density matrix=1.00D-06.
 Requested convergence on             energy=1.00D-06.
 No special actions if energy rises.
 Fock matrices will be formed incrementally for  20 cycles.

 Cycle   1  Pass 1  IDiag  1:
 FoFJK:  IHMeth= 1 ICntrl=       0 DoSepK=F KAlg= 0 I1Cent=           0 FoldK=F
 IRaf= 990000000 NMat=       1 IRICut=       1 DoRegI=T DoRafI=F ISym2E= 0 IDoP0=0 IntGTp=1.
 FoFCou: FMM=F IPFlag=           0 FMFlag=      100000 FMFlg1=           0
         NFxFlg=           0 DoJE=F BraDBF=F KetDBF=F FulRan=T
         wScrn=  0.000000 ICntrl=         0 IOpCl=  1 I1Cent=           0 NGrid=           0
         NMat0=    1 NMatS0=      1 NMatT0=    0 NMatD0=    1 NMtDS0=    0 NMtDT0=    0
 Symmetry not used in FoFCou.
 Defaulting to unpruned grid for atomic number  47.
 Defaulting to unpruned grid for atomic number  47.
 Defaulting to unpruned grid for atomic number  47.
 Defaulting to unpruned grid for atomic number  47.
 Defaulting to unpruned grid for atomic number  47.
 Defaulting to unpruned grid for atomic number  47.
 Defaulting to unpruned grid for atomic number  47.
 Defaulting to unpruned grid for atomic number  47.
 E= -682.677452326535    
 DIIS: error= 1.12D-02 at cycle   1 NSaved=   1.
 NSaved= 1 IEnMin= 1 EnMin= -682.677452326535     IErMin= 1 ErrMin= 1.12D-02
 ErrMax= 1.12D-02  0.00D+00 EMaxC= 1.00D-01 BMatC= 1.01D-01 BMatP= 1.01D-01
 IDIUse=3 WtCom= 8.88D-01 WtEn= 1.12D-01
 Coeff-Com:  0.100D+01
 Coeff-En:   0.100D+01
 Coeff:      0.100D+01
 Gap=     0.173 Goal=   None    Shift=    0.000
 Gap=     0.254 Goal=   None    Shift=    0.000
 GapD=    0.173 DampG=1.000 DampE=0.250 DampFc=0.2500 IDamp=-1.
 Damping current iteration by 2.50D-01
 RMSDP=1.51D-03 MaxDP=3.73D-02              OVMax= 4.68D-02

 Cycle   2  Pass 1  IDiag  1:
 RMSU=  3.78D-04    CP:  1.00D+00
 E= -682.679335254369     Delta-E=       -0.001882927834 Rises=F Damp=T
 DIIS: error= 8.43D-03 at cycle   2 NSaved=   2.
 NSaved= 2 IEnMin= 2 EnMin= -682.679335254369     IErMin= 2 ErrMin= 8.43D-03
 ErrMax= 8.43D-03  0.00D+00 EMaxC= 1.00D-01 BMatC= 5.62D-02 BMatP= 1.01D-01
 IDIUse=3 WtCom= 9.16D-01 WtEn= 8.43D-02
 Coeff-Com: -0.281D+01 0.381D+01
 Coeff-En:   0.000D+00 0.100D+01
 Coeff:     -0.258D+01 0.358D+01
 Gap=     0.163 Goal=   None    Shift=    0.000
 Gap=     0.216 Goal=   None    Shift=    0.000
 RMSDP=1.18D-03 MaxDP=3.03D-02 DE=-1.88D-03 OVMax= 1.79D-02

 Cycle   3  Pass 1  IDiag  1:
 RMSU=  5.53D-04    CP:  9.97D-01  3.00D+00
 E= -682.684363486656     Delta-E=       -0.005028232287 Rises=F Damp=F
 DIIS: error= 3.35D-03 at cycle   3 NSaved=   3.
 NSaved= 3 IEnMin= 3 EnMin= -682.684363486656     IErMin= 3 ErrMin= 3.35D-03
 ErrMax= 3.35D-03  0.00D+00 EMaxC= 1.00D-01 BMatC= 4.65D-03 BMatP= 5.62D-02
 IDIUse=3 WtCom= 9.67D-01 WtEn= 3.35D-02
 Coeff-Com: -0.163D+01 0.217D+01 0.458D+00
 Coeff-En:   0.000D+00 0.000D+00 0.100D+01
 Coeff:     -0.158D+01 0.210D+01 0.476D+00
 Gap=     0.164 Goal=   None    Shift=    0.000
 Gap=     0.212 Goal=   None    Shift=    0.000
 RMSDP=2.94D-04 MaxDP=9.84D-03 DE=-5.03D-03 OVMax= 9.35D-03

 Cycle   4  Pass 1  IDiag  1:
 RMSU=  2.73D-04    CP:  9.98D-01  3.00D+00  8.17D-01
 E= -682.685252333095     Delta-E=       -0.000888846439 Rises=F Damp=F
 DIIS: error= 8.79D-04 at cycle   4 NSaved=   4.
 NSaved= 4 IEnMin= 4 EnMin= -682.685252333095     IErMin= 4 ErrMin= 8.79D-04
 ErrMax= 8.79D-04  0.00D+00 EMaxC= 1.00D-01 BMatC= 3.40D-04 BMatP= 4.65D-03
 IDIUse=3 WtCom= 9.91D-01 WtEn= 8.79D-03
 Coeff-Com: -0.819D+00 0.109D+01 0.290D+00 0.441D+00
 Coeff-En:   0.000D+00 0.000D+00 0.000D+00 0.100D+01
 Coeff:     -0.811D+00 0.108D+01 0.288D+00 0.445D+00
 Gap=     0.164 Goal=   None    Shift=    0.000
 Gap=     0.212 Goal=   None    Shift=    0.000
 RMSDP=7.16D-05 MaxDP=2.07D-03 DE=-8.89D-04 OVMax= 3.28D-03

 Cycle   5  Pass 1  IDiag  1:
 RMSU=  5.58D-05    CP:  9.98D-01  3.00D+00  8.69D-01  8.75D-01
 E= -682.685320291379     Delta-E=       -0.000067958284 Rises=F Damp=F
 DIIS: error= 1.07D-04 at cycle   5 NSaved=   5.
 NSaved= 5 IEnMin= 5 EnMin= -682.685320291379     IErMin= 5 ErrMin= 1.07D-04
 ErrMax= 1.07D-04  0.00D+00 EMaxC= 1.00D-01 BMatC= 7.98D-06 BMatP= 3.40D-04
 IDIUse=3 WtCom= 9.99D-01 WtEn= 1.07D-03
 Coeff-Com: -0.114D-01 0.143D-01 0.171D-01 0.124D+00 0.856D+00
 Coeff-En:   0.000D+00 0.000D+00 0.000D+00 0.000D+00 0.100D+01
 Coeff:     -0.114D-01 0.143D-01 0.171D-01 0.124D+00 0.857D+00
 Gap=     0.164 Goal=   None    Shift=    0.000
 Gap=     0.211 Goal=   None    Shift=    0.000
 RMSDP=2.52D-05 MaxDP=1.66D-03 DE=-6.80D-05 OVMax= 1.69D-03

 Cycle   6  Pass 1  IDiag  1:
 RMSU=  1.97D-05    CP:  9.98D-01  3.00D+00  8.87D-01  9.19D-01  9.69D-01
 E= -682.685323954299     Delta-E=       -0.000003662919 Rises=F Damp=F
 DIIS: error= 4.96D-05 at cycle   6 NSaved=   6.
 NSaved= 6 IEnMin= 6 EnMin= -682.685323954299     IErMin= 6 ErrMin= 4.96D-05
 ErrMax= 4.96D-05  0.00D+00 EMaxC= 1.00D-01 BMatC= 1.79D-06 BMatP= 7.98D-06
 IDIUse=1 WtCom= 1.00D+00 WtEn= 0.00D+00
 Coeff-Com:  0.134D+00-0.179D+00-0.423D-01-0.175D-01 0.395D+00 0.709D+00
 Coeff:      0.134D+00-0.179D+00-0.423D-01-0.175D-01 0.395D+00 0.709D+00
 Gap=     0.164 Goal=   None    Shift=    0.000
 Gap=     0.211 Goal=   None    Shift=    0.000
 RMSDP=1.27D-05 MaxDP=1.00D-03 DE=-3.66D-06 OVMax= 8.94D-04

 Cycle   7  Pass 1  IDiag  1:
 RMSU=  8.20D-06    CP:  9.98D-01  3.00D+00  8.96D-01  9.35D-01  1.07D+00
                    CP:  1.25D+00
 E= -682.685324827143     Delta-E=       -0.000000872844 Rises=F Damp=F
 DIIS: error= 1.10D-05 at cycle   7 NSaved=   7.
 NSaved= 7 IEnMin= 7 EnMin= -682.685324827143     IErMin= 7 ErrMin= 1.10D-05
 ErrMax= 1.10D-05  0.00D+00 EMaxC= 1.00D-01 BMatC= 9.40D-08 BMatP= 1.79D-06
 IDIUse=1 WtCom= 1.00D+00 WtEn= 0.00D+00
 Coeff-Com:  0.245D-01-0.326D-01-0.970D-02-0.156D-01-0.368D-01 0.990D-01
 Coeff-Com:  0.971D+00
 Coeff:      0.245D-01-0.326D-01-0.970D-02-0.156D-01-0.368D-01 0.990D-01
 Coeff:      0.971D+00
 Gap=     0.164 Goal=   None    Shift=    0.000
 Gap=     0.211 Goal=   None    Shift=    0.000
 RMSDP=4.57D-06 MaxDP=3.98D-04 DE=-8.73D-07 OVMax= 3.80D-04

 Cycle   8  Pass 1  IDiag  1:
 RMSU=  1.76D-06    CP:  9.98D-01  3.00D+00  8.97D-01  9.40D-01  1.08D+00
                    CP:  1.43D+00  1.16D+00
 E= -682.685324908886     Delta-E=       -0.000000081743 Rises=F Damp=F
 DIIS: error= 3.40D-06 at cycle   8 NSaved=   8.
 NSaved= 8 IEnMin= 8 EnMin= -682.685324908886     IErMin= 8 ErrMin= 3.40D-06
 ErrMax= 3.40D-06  0.00D+00 EMaxC= 1.00D-01 BMatC= 1.41D-08 BMatP= 9.40D-08
 IDIUse=1 WtCom= 1.00D+00 WtEn= 0.00D+00
 Coeff-Com: -0.106D-01 0.141D-01 0.277D-02-0.156D-02-0.570D-01-0.558D-01
 Coeff-Com:  0.304D+00 0.804D+00
 Coeff:     -0.106D-01 0.141D-01 0.277D-02-0.156D-02-0.570D-01-0.558D-01
 Coeff:      0.304D+00 0.804D+00
 Gap=     0.164 Goal=   None    Shift=    0.000
 Gap=     0.211 Goal=   None    Shift=    0.000
 RMSDP=1.22D-06 MaxDP=9.74D-05 DE=-8.17D-08 OVMax= 1.00D-04

 Cycle   9  Pass 1  IDiag  1:
 RMSU=  7.84D-07    CP:  9.98D-01  3.00D+00  8.97D-01  9.40D-01  1.09D+00
                    CP:  1.47D+00  1.21D+00  1.08D+00
 E= -682.685324915890     Delta-E=       -0.000000007004 Rises=F Damp=F
 DIIS: error= 1.10D-06 at cycle   9 NSaved=   9.
 NSaved= 9 IEnMin= 9 EnMin= -682.685324915890     IErMin= 9 ErrMin= 1.10D-06
 ErrMax= 1.10D-06  0.00D+00 EMaxC= 1.00D-01 BMatC= 1.56D-09 BMatP= 1.41D-08
 IDIUse=1 WtCom= 1.00D+00 WtEn= 0.00D+00
 Coeff-Com: -0.569D-02 0.758D-02 0.180D-02 0.798D-03-0.172D-01-0.287D-01
 Coeff-Com:  0.194D-01 0.279D+00 0.743D+00
 Coeff:     -0.569D-02 0.758D-02 0.180D-02 0.798D-03-0.172D-01-0.287D-01
 Coeff:      0.194D-01 0.279D+00 0.743D+00
 Gap=     0.164 Goal=   None    Shift=    0.000
 Gap=     0.211 Goal=   None    Shift=    0.000
 RMSDP=3.27D-07 MaxDP=2.12D-05 DE=-7.00D-09 OVMax= 2.01D-05

 Cycle  10  Pass 1  IDiag  1:
 RMSU=  1.63D-07    CP:  9.98D-01  3.00D+00  8.97D-01  9.40D-01  1.09D+00
                    CP:  1.48D+00  1.22D+00  1.20D+00  1.04D+00
 E= -682.685324916506     Delta-E=       -0.000000000616 Rises=F Damp=F
 DIIS: error= 4.20D-07 at cycle  10 NSaved=  10.
 NSaved=10 IEnMin=10 EnMin= -682.685324916506     IErMin=10 ErrMin= 4.20D-07
 ErrMax= 4.20D-07  0.00D+00 EMaxC= 1.00D-01 BMatC= 1.01D-10 BMatP= 1.56D-09
 IDIUse=1 WtCom= 1.00D+00 WtEn= 0.00D+00
 Coeff-Com:  0.692D-03-0.924D-03-0.994D-04 0.377D-03 0.487D-02 0.344D-02
 Coeff-Com: -0.313D-01-0.668D-01 0.730D-01 0.102D+01
 Coeff:      0.692D-03-0.924D-03-0.994D-04 0.377D-03 0.487D-02 0.344D-02
 Coeff:     -0.313D-01-0.668D-01 0.730D-01 0.102D+01
 Gap=     0.164 Goal=   None    Shift=    0.000
 Gap=     0.211 Goal=   None    Shift=    0.000
 RMSDP=1.26D-07 MaxDP=6.53D-06 DE=-6.16D-10 OVMax= 6.60D-06

 Cycle  11  Pass 1  IDiag  1:
 RMSU=  6.17D-08    CP:  9.98D-01  3.00D+00  8.97D-01  9.40D-01  1.09D+00
                    CP:  1.48D+00  1.22D+00  1.24D+00  1.15D+00  1.17D+00
 E= -682.685324916586     Delta-E=       -0.000000000080 Rises=F Damp=F
 DIIS: error= 1.42D-07 at cycle  11 NSaved=  11.
 NSaved=11 IEnMin=11 EnMin= -682.685324916586     IErMin=11 ErrMin= 1.42D-07
 ErrMax= 1.42D-07  0.00D+00 EMaxC= 1.00D-01 BMatC= 1.10D-11 BMatP= 1.01D-10
 IDIUse=1 WtCom= 1.00D+00 WtEn= 0.00D+00
 Coeff-Com:  0.613D-03-0.817D-03-0.168D-03 0.437D-04 0.235D-02 0.297D-02
 Coeff-Com: -0.742D-02-0.367D-01-0.513D-01 0.195D+00 0.896D+00
 Coeff:      0.613D-03-0.817D-03-0.168D-03 0.437D-04 0.235D-02 0.297D-02
 Coeff:     -0.742D-02-0.367D-01-0.513D-01 0.195D+00 0.896D+00
 Gap=     0.164 Goal=   None    Shift=    0.000
 Gap=     0.211 Goal=   None    Shift=    0.000
 RMSDP=3.31D-08 MaxDP=1.42D-06 DE=-7.98D-11 OVMax= 1.58D-06

 Cycle  12  Pass 1  IDiag  1:
 RMSU=  1.84D-08    CP:  9.98D-01  3.00D+00  8.97D-01  9.40D-01  1.09D+00
                    CP:  1.48D+00  1.21D+00  1.25D+00  1.17D+00  1.26D+00
                    CP:  1.19D+00
 E= -682.685324916590     Delta-E=       -0.000000000005 Rises=F Damp=F
 DIIS: error= 4.41D-08 at cycle  12 NSaved=  12.
 NSaved=12 IEnMin=12 EnMin= -682.685324916590     IErMin=12 ErrMin= 4.41D-08
 ErrMax= 4.41D-08  0.00D+00 EMaxC= 1.00D-01 BMatC= 2.49D-12 BMatP= 1.10D-11
 IDIUse=1 WtCom= 1.00D+00 WtEn= 0.00D+00
 Coeff-Com:  0.153D-03-0.203D-03-0.534D-04-0.264D-04 0.341D-03 0.696D-03
 Coeff-Com:  0.105D-02-0.613D-02-0.290D-01-0.516D-01 0.331D+00 0.754D+00
 Coeff:      0.153D-03-0.203D-03-0.534D-04-0.264D-04 0.341D-03 0.696D-03
 Coeff:      0.105D-02-0.613D-02-0.290D-01-0.516D-01 0.331D+00 0.754D+00
 Gap=     0.164 Goal=   None    Shift=    0.000
 Gap=     0.211 Goal=   None    Shift=    0.000
 RMSDP=1.12D-08 MaxDP=2.76D-07 DE=-4.77D-12 OVMax= 3.60D-07

 Cycle  13  Pass 1  IDiag  1:
 RMSU=  7.87D-09    CP:  9.98D-01  3.00D+00  8.97D-01  9.40D-01  1.09D+00
                    CP:  1.48D+00  1.21D+00  1.25D+00  1.17D+00  1.28D+00
                    CP:  1.30D+00  1.01D+00
 E= -682.685324916584     Delta-E=        0.000000000007 Rises=F Damp=F
 DIIS: error= 1.75D-08 at cycle  13 NSaved=  13.
 NSaved=13 IEnMin=12 EnMin= -682.685324916590     IErMin=13 ErrMin= 1.75D-08
 ErrMax= 1.75D-08  0.00D+00 EMaxC= 1.00D-01 BMatC= 3.93D-13 BMatP= 2.49D-12
 IDIUse=1 WtCom= 1.00D+00 WtEn= 0.00D+00
 Coeff-Com: -0.443D-04 0.591D-04 0.680D-05-0.203D-04-0.254D-03-0.239D-03
 Coeff-Com:  0.161D-02 0.378D-02-0.205D-02-0.525D-01-0.242D-01 0.291D+00
 Coeff-Com:  0.783D+00
 Coeff:     -0.443D-04 0.591D-04 0.680D-05-0.203D-04-0.254D-03-0.239D-03
 Coeff:      0.161D-02 0.378D-02-0.205D-02-0.525D-01-0.242D-01 0.291D+00
 Coeff:      0.783D+00
 Gap=     0.164 Goal=   None    Shift=    0.000
 Gap=     0.211 Goal=   None    Shift=    0.000
 RMSDP=4.75D-09 MaxDP=2.27D-07 DE= 6.82D-12 OVMax= 2.18D-07

 SCF Done:  E(UPBE1PBE) =  -682.685324917     A.U. after   13 cycles
            NFock= 13  Conv=0.47D-08     -V/T= 2.1586
 <Sx>= 0.0000 <Sy>= 0.0000 <Sz>= 0.5000 <S**2>= 0.7517 S= 0.5008
 <L.S>= 0.000000000000E+00
 KE= 5.892325584709D+02 PE=-2.406778490625D+03 EE= 7.221841078362D+02
 Annihilation of the first spin contaminant:
 S**2 before annihilation     0.7517,   after     0.7500
 Leave Link  502 at Fri Sep 11 22:43:57 2026, MaxMem=  6442450944 cpu:              76.0 elap:              76.1
 (Enter C:\G16W\l508.exe)
 QCSCF skips out because SCF is already converged.
 Leave Link  508 at Fri Sep 11 22:43:58 2026, MaxMem=  6442450944 cpu:               0.0 elap:               0.1
 (Enter C:\G16W\l601.exe)
 Copying SCF densities to generalized density rwf, IOpCl= 1 IROHF=0.

 **********************************************************************

            Population analysis using the SCF Density.

 **********************************************************************

 Alpha  occ. eigenvalues --  -77.28074 -19.16350 -10.25172 -10.24870 -10.24847
 Alpha  occ. eigenvalues --   -6.68275  -4.82306  -4.82272  -4.82256  -3.74060
 Alpha  occ. eigenvalues --   -2.32163  -2.32057  -2.31822  -0.99601  -0.79463
 Alpha  occ. eigenvalues --   -0.73807  -0.73682  -0.55816  -0.48229  -0.47525
 Alpha  occ. eigenvalues --   -0.47399  -0.45001  -0.44811  -0.42834  -0.39778
 Alpha  occ. eigenvalues --   -0.39254  -0.38501  -0.32515  -0.31685  -0.31506
 Alpha  occ. eigenvalues --   -0.31457  -0.31326  -0.29060  -0.28712  -0.15679
 Alpha virt. eigenvalues --    0.00736   0.00979   0.02883   0.06238   0.08028
 Alpha virt. eigenvalues --    0.08889   0.09615   0.10958   0.11131   0.12281
 Alpha virt. eigenvalues --    0.13795   0.14285   0.14309   0.16303   0.17595
 Alpha virt. eigenvalues --    0.17845   0.19568   0.31560   0.32866   0.34326
 Alpha virt. eigenvalues --    0.34453   0.34899   0.40917   0.41750   0.41922
 Alpha virt. eigenvalues --    0.46462   0.46662   0.50817   0.53772   0.54565
 Alpha virt. eigenvalues --    0.56308   0.59342   0.59539   0.60367   0.60626
 Alpha virt. eigenvalues --    0.62755   0.63123   0.64261   0.67437   0.68573
 Alpha virt. eigenvalues --    0.69477   0.69728   0.71124   0.71613   0.72737
 Alpha virt. eigenvalues --    0.73653   0.75986   0.76494   0.81453   0.86195
 Alpha virt. eigenvalues --    0.93592   0.93966   0.98297   0.99823   1.07585
 Alpha virt. eigenvalues --    1.11846   1.18986   1.21120   1.22261   1.26129
 Alpha virt. eigenvalues --    1.26167   1.34677   1.44058   1.47133   1.51083
 Alpha virt. eigenvalues --    1.52100   1.52444   1.65160   1.71728   1.71835
 Alpha virt. eigenvalues --    1.74145   1.77234   1.77978   1.79394   1.82640
 Alpha virt. eigenvalues --    1.91099   1.91805   1.94663   1.95156   1.95345
 Alpha virt. eigenvalues --    1.97453   2.01240   2.01872   2.08315   2.22097
 Alpha virt. eigenvalues --    2.24372   2.25214   2.42436   2.42685   2.44380
 Alpha virt. eigenvalues --    2.45596   2.46793   2.48006   2.63321   2.63434
 Alpha virt. eigenvalues --    2.63549   2.63587   2.63681   2.64094   2.64571
 Alpha virt. eigenvalues --    2.68795   2.69530   2.71489   2.74422   2.74636
 Alpha virt. eigenvalues --    2.85211   2.85216   2.91112   2.93225   2.94452
 Alpha virt. eigenvalues --    2.94931   2.96392   2.96446   3.42525  53.84490
  Beta  occ. eigenvalues --  -77.28076 -19.16225 -10.25164 -10.24817 -10.24803
  Beta  occ. eigenvalues --   -6.68277  -4.82308  -4.82273  -4.82259  -3.73932
  Beta  occ. eigenvalues --   -2.32109  -2.31995  -2.31802  -0.99391  -0.79384
  Beta  occ. eigenvalues --   -0.73751  -0.73576  -0.55739  -0.48022  -0.47471
  Beta  occ. eigenvalues --   -0.47342  -0.44888  -0.44776  -0.42744  -0.39571
  Beta  occ. eigenvalues --   -0.39211  -0.38362  -0.31955  -0.31107  -0.30927
  Beta  occ. eigenvalues --   -0.30890  -0.30696  -0.28923  -0.28053
  Beta virt. eigenvalues --   -0.06912   0.03097   0.03216   0.04126   0.07207
  Beta virt. eigenvalues --    0.08549   0.09488   0.09698   0.11172   0.11725
  Beta virt. eigenvalues --    0.12835   0.13877   0.14365   0.14405   0.16375
  Beta virt. eigenvalues --    0.18287   0.18537   0.20924   0.32330   0.34214
  Beta virt. eigenvalues --    0.34819   0.35899   0.37049   0.41262   0.42330
  Beta virt. eigenvalues --    0.43082   0.47712   0.47858   0.51954   0.54555
  Beta virt. eigenvalues --    0.54899   0.57147   0.59574   0.60464   0.60680
  Beta virt. eigenvalues --    0.61608   0.62816   0.64100   0.64434   0.67502
  Beta virt. eigenvalues --    0.68633   0.69553   0.69790   0.71240   0.71690
  Beta virt. eigenvalues --    0.72802   0.73992   0.76255   0.76800   0.81550
  Beta virt. eigenvalues --    0.86811   0.93693   0.94027   0.98385   0.99849
  Beta virt. eigenvalues --    1.07730   1.11935   1.19034   1.21210   1.22390
  Beta virt. eigenvalues --    1.26328   1.26418   1.34914   1.44091   1.47262
  Beta virt. eigenvalues --    1.51085   1.52132   1.52484   1.65279   1.71763
  Beta virt. eigenvalues --    1.71869   1.74171   1.77258   1.78042   1.79419
  Beta virt. eigenvalues --    1.82687   1.91119   1.91843   1.94701   1.95190
  Beta virt. eigenvalues --    1.95381   1.97595   2.01373   2.01931   2.09183
  Beta virt. eigenvalues --    2.22162   2.24457   2.25375   2.42496   2.42726
  Beta virt. eigenvalues --    2.44420   2.45653   2.46858   2.48126   2.63327
  Beta virt. eigenvalues --    2.63432   2.63580   2.63669   2.63716   2.64197
  Beta virt. eigenvalues --    2.64651   2.69056   2.69570   2.71725   2.74529
  Beta virt. eigenvalues --    2.74722   2.85295   2.85431   2.91148   2.93248
  Beta virt. eigenvalues --    2.94528   2.95053   2.96486   2.96531   3.42671
  Beta virt. eigenvalues --   53.84647
          Condensed to atoms (all electrons):
               1          2          3          4          5          6
     1  O    7.994947   0.532203  -0.038980  -0.035601  -0.038685  -0.001568
     2  P    0.532203  13.160841   0.354146   0.277418   0.352676  -0.021557
     3  C   -0.038980   0.354146   4.964003  -0.052113  -0.087399   0.388467
     4  C   -0.035601   0.277418  -0.052113   4.960241  -0.052099   0.003313
     5  C   -0.038685   0.352676  -0.087399  -0.052099   4.955170  -0.003560
     6  H   -0.001568  -0.021557   0.388467   0.003313  -0.003560   0.512643
     7  H    0.002047  -0.008695   0.344294   0.000746   0.001393  -0.010083
     8  H    0.001520  -0.013290   0.367714  -0.003790   0.004935  -0.008154
     9  H    0.002055  -0.010593   0.004881   0.375027  -0.004506  -0.000112
    10  H    0.002076  -0.010595  -0.004489   0.374946   0.004893  -0.000070
    11  H    0.001742   0.000289  -0.000628   0.349254  -0.000593   0.000008
    12  H    0.001610  -0.012896   0.004966  -0.003846   0.367951   0.000039
    13  H   -0.001559  -0.020139  -0.003694   0.003351   0.389170   0.001162
    14  H    0.002063  -0.008674   0.001393   0.000829   0.345211   0.000282
    15  Ag   0.061472  -0.009562  -0.043189   0.004640  -0.037214   0.034853
               7          8          9         10         11         12
     1  O    0.002047   0.001520   0.002055   0.002076   0.001742   0.001610
     2  P   -0.008695  -0.013290  -0.010593  -0.010595   0.000289  -0.012896
     3  C    0.344294   0.367714   0.004881  -0.004489  -0.000628   0.004966
     4  C    0.000746  -0.003790   0.375027   0.374946   0.349254  -0.003846
     5  C    0.001393   0.004935  -0.004506   0.004893  -0.000593   0.367951
     6  H   -0.010083  -0.008154  -0.000112  -0.000070   0.000008   0.000039
     7  H    0.609166  -0.009892  -0.000242  -0.000044   0.001177  -0.000196
     8  H   -0.009892   0.565282  -0.000113   0.002882   0.000062  -0.000150
     9  H   -0.000242  -0.000113   0.563398  -0.010596  -0.012001   0.002894
    10  H   -0.000044   0.002882  -0.010596   0.563432  -0.011992  -0.000115
    11  H    0.001177   0.000062  -0.012001  -0.011992   0.604071   0.000054
    12  H   -0.000196  -0.000150   0.002894  -0.000115   0.000054   0.566122
    13  H    0.000278   0.000041  -0.000069  -0.000114   0.000006  -0.008129
    14  H    0.001278  -0.000192  -0.000044  -0.000248   0.001135  -0.010208
    15  Ag   0.001735   0.001654  -0.000127  -0.000110  -0.000760   0.001247
              13         14         15
     1  O   -0.001559   0.002063   0.061472
     2  P   -0.020139  -0.008674  -0.009562
     3  C   -0.003694   0.001393  -0.043189
     4  C    0.003351   0.000829   0.004640
     5  C    0.389170   0.345211  -0.037214
     6  H    0.001162   0.000282   0.034853
     7  H    0.000278   0.001278   0.001735
     8  H    0.000041  -0.000192   0.001654
     9  H   -0.000069  -0.000044  -0.000127
    10  H   -0.000114  -0.000248  -0.000110
    11  H    0.000006   0.001135  -0.000760
    12  H   -0.008129  -0.010208   0.001247
    13  H    0.516420  -0.010637   0.031170
    14  H   -0.010637   0.609549   0.001368
    15  Ag   0.031170   0.001368  19.078504
          Atomic-Atomic Spin Densities.
               1          2          3          4          5          6
     1  O    0.057376  -0.001034   0.001689   0.000131   0.001516  -0.000524
     2  P   -0.001034  -0.002117   0.004265   0.003067   0.003942  -0.000266
     3  C    0.001689   0.004265   0.044869  -0.000109   0.001223  -0.002863
     4  C    0.000131   0.003067  -0.000109   0.007623  -0.000041  -0.000224
     5  C    0.001516   0.003942   0.001223  -0.000041   0.037028  -0.000524
     6  H   -0.000524  -0.000266  -0.002863  -0.000224  -0.000524  -0.003204
     7  H   -0.000092  -0.001214  -0.003790  -0.000757  -0.000245   0.000624
     8  H   -0.000251  -0.000440  -0.003206  -0.000415  -0.000071   0.000469
     9  H    0.000076   0.000101   0.000021  -0.001369   0.000086   0.000008
    10  H    0.000066   0.000081   0.000096  -0.001238   0.000014   0.000021
    11  H    0.000018  -0.000622   0.000207  -0.003684   0.000166   0.000048
    12  H   -0.000228  -0.000374  -0.000071  -0.000412  -0.002959   0.000033
    13  H   -0.000516  -0.000361  -0.000571  -0.000224  -0.002819   0.000106
    14  H   -0.000084  -0.001091  -0.000244  -0.000711  -0.003277   0.000105
    15  Ag  -0.031965  -0.010006  -0.032524  -0.001747  -0.027077   0.011584
               7          8          9         10         11         12
     1  O   -0.000092  -0.000251   0.000076   0.000066   0.000018  -0.000228
     2  P   -0.001214  -0.000440   0.000101   0.000081  -0.000622  -0.000374
     3  C   -0.003790  -0.003206   0.000021   0.000096   0.000207  -0.000071
     4  C   -0.000757  -0.000415  -0.001369  -0.001238  -0.003684  -0.000412
     5  C   -0.000245  -0.000071   0.000086   0.000014   0.000166  -0.002959
     6  H    0.000624   0.000469   0.000008   0.000021   0.000048   0.000033
     7  H    0.002875   0.000875   0.000027   0.000075   0.000398   0.000036
     8  H    0.000875   0.000787   0.000020   0.000104   0.000129   0.000009
     9  H    0.000027   0.000020   0.000333   0.000234   0.000573   0.000109
    10  H    0.000075   0.000104   0.000234   0.000261   0.000529   0.000018
    11  H    0.000398   0.000129   0.000573   0.000529   0.003030   0.000126
    12  H    0.000036   0.000009   0.000109   0.000018   0.000126   0.000910
    13  H    0.000115   0.000033   0.000022   0.000008   0.000048   0.000467
    14  H    0.000285   0.000035   0.000075   0.000024   0.000370   0.000792
    15  Ag   0.002910   0.002907   0.000158   0.000154   0.000362   0.002500
              13         14         15
     1  O   -0.000516  -0.000084  -0.031965
     2  P   -0.000361  -0.001091  -0.010006
     3  C   -0.000571  -0.000244  -0.032524
     4  C   -0.000224  -0.000711  -0.001747
     5  C   -0.002819  -0.003277  -0.027077
     6  H    0.000106   0.000105   0.011584
     7  H    0.000115   0.000285   0.002910
     8  H    0.000033   0.000035   0.002907
     9  H    0.000022   0.000075   0.000158
    10  H    0.000008   0.000024   0.000154
    11  H    0.000048   0.000370   0.000362
    12  H    0.000467   0.000792   0.002500
    13  H   -0.002502   0.000578   0.010976
    14  H    0.000578   0.002486   0.002519
    15  Ag   0.010976   0.002519   1.014001
 Mulliken charges and spin densities:
               1          2
     1  O   -0.485342   0.026178
     2  P    0.438427  -0.006070
     3  C   -0.199372   0.008990
     4  C   -0.202317  -0.000112
     5  C   -0.197343   0.006962
     6  H    0.104336   0.005394
     7  H    0.067036   0.002123
     8  H    0.091488   0.000984
     9  H    0.090148   0.000475
    10  H    0.090144   0.000446
    11  H    0.068177   0.001699
    12  H    0.090657   0.000956
    13  H    0.102744   0.005360
    14  H    0.066896   0.001862
    15  Ag  -0.125680   0.944752
 Sum of Mulliken charges =   0.00000   1.00000
 Mulliken charges and spin densities with hydrogens summed into heavy atoms:
               1          2
     1  O   -0.485342   0.026178
     2  P    0.438427  -0.006070
     3  C    0.063489   0.017491
     4  C    0.046152   0.002508
     5  C    0.062954   0.015140
    15  Ag  -0.125680   0.944752
 Electronic spatial extent (au):  <R**2>=           1405.0769
 Charge=              0.0000 electrons
 Dipole moment (field-independent basis, Debye):
    X=             -0.6341    Y=              2.7644    Z=              4.3336  Tot=              5.1792
 Quadrupole moment (field-independent basis, Debye-Ang):
   XX=            -56.6774   YY=            -67.7656   ZZ=            -68.8998
   XY=              1.1066   XZ=              1.6915   YZ=             -4.7266
 Traceless Quadrupole moment (field-independent basis, Debye-Ang):
   XX=              7.7702   YY=             -3.3180   ZZ=             -4.4522
   XY=              1.1066   XZ=              1.6915   YZ=             -4.7266
 Octapole moment (field-independent basis, Debye-Ang**2):
  XXX=            -27.9293  YYY=            222.0670  ZZZ=            181.2671  XYY=            -13.6139
  XXY=             61.2272  XXZ=             50.8674  XZZ=            -13.1473  YZZ=             67.1422
  YYZ=             69.0990  XYZ=             -1.6688
 Hexadecapole moment (field-independent basis, Debye-Ang**3):
 XXXX=           -302.7139 YYYY=          -1456.8501 ZZZZ=           -742.8270 XXXY=             68.3925
 XXXZ=             44.5282 YYYX=             84.9150 YYYZ=           -411.3756 ZZZX=             47.5444
 ZZZY=           -345.2505 XXYY=           -268.6266 XXZZ=           -170.6022 YYZZ=           -365.6431
 XXYZ=           -113.6980 YYXZ=             22.0115 ZZXY=             24.8436
 N-N= 4.126764994008D+02 E-N=-2.406778491982D+03  KE= 5.892325584709D+02
                          Isotropic Fermi Contact Couplings
        Atom                 a.u.       MegaHertz       Gauss      10(-4) cm-1
     1  O(17)              0.06551     -39.70893     -14.16913     -13.24547
     2  P(31)             -0.00388      -7.02088      -2.50522      -2.34191
     3  C(13)              0.02638      29.65811      10.58275       9.89288
     4  C(13)              0.00628       7.06530       2.52108       2.35673
     5  C(13)              0.02180      24.50331       8.74339       8.17342
     6  H(1)              -0.00050      -2.22480      -0.79386      -0.74211
     7  H(1)               0.00028       1.24943       0.44583       0.41676
     8  H(1)              -0.00022      -0.97192      -0.34680      -0.32420
     9  H(1)              -0.00004      -0.16812      -0.05999      -0.05608
    10  H(1)              -0.00003      -0.14787      -0.05276      -0.04932
    11  H(1)               0.00007       0.31805       0.11349       0.10609
    12  H(1)              -0.00016      -0.73634      -0.26274      -0.24562
    13  H(1)              -0.00036      -1.62509      -0.57987      -0.54207
    14  H(1)               0.00023       1.04688       0.37355       0.34920
    15  Ag(107             0.00031      -0.05703      -0.02035      -0.01902
 --------------------------------------------------------
       Center         ----  Spin Dipole Couplings  ----
                      3XX-RR        3YY-RR        3ZZ-RR
 --------------------------------------------------------
     1   Atom       -0.072198      0.143379     -0.071181
     2   Atom       -0.005688      0.002897      0.002791
     3   Atom       -0.013823      0.022653     -0.008830
     4   Atom       -0.002047      0.003491     -0.001445
     5   Atom       -0.010470      0.018483     -0.008013
     6   Atom       -0.007707      0.006912      0.000795
     7   Atom       -0.002770     -0.000182      0.002952
     8   Atom       -0.000190      0.001864     -0.001675
     9   Atom       -0.000711      0.001476     -0.000765
    10   Atom       -0.000882      0.001592     -0.000710
    11   Atom       -0.000862      0.000839      0.000023
    12   Atom        0.000638      0.001200     -0.001838
    13   Atom       -0.002284      0.004687     -0.002403
    14   Atom       -0.001740     -0.000295      0.002035
    15   Atom        0.016315     -0.031631      0.015316
 --------------------------------------------------------
                        XY            XZ            YZ
 --------------------------------------------------------
     1   Atom       -0.011995     -0.000671      0.009209
     2   Atom       -0.000121     -0.001126     -0.001646
     3   Atom       -0.001710      0.000638      0.014444
     4   Atom       -0.000454     -0.000155      0.002027
     5   Atom       -0.003681     -0.002465      0.011889
     6   Atom        0.004732      0.005556      0.012428
     7   Atom        0.000499      0.000308      0.002747
     8   Atom        0.003364      0.000821      0.001801
     9   Atom       -0.000822     -0.000171      0.000565
    10   Atom        0.000484      0.000112      0.000729
    11   Atom       -0.000233     -0.000157      0.001211
    12   Atom       -0.003413     -0.000533      0.000849
    13   Atom       -0.007564     -0.007028      0.008886
    14   Atom       -0.001275     -0.001705      0.002286
    15   Atom        0.001906     -0.000891      0.001506
 --------------------------------------------------------


 ---------------------------------------------------------------------------------
              Anisotropic Spin Dipole Couplings in Principal Axis System
 ---------------------------------------------------------------------------------

       Atom             a.u.   MegaHertz   Gauss  10(-4) cm-1        Axes

              Baa    -0.0729     5.274     1.882     1.759  0.9914  0.0498  0.1209
     1 O(17)  Bbb    -0.0716     5.178     1.848     1.727 -0.1185 -0.0491  0.9917
              Bcc     0.1444   -10.452    -3.729    -3.486 -0.0554  0.9975  0.0428
 
              Baa    -0.0058    -1.264    -0.451    -0.422  0.9899  0.0394  0.1365
     2 P(31)  Bbb     0.0013     0.283     0.101     0.094 -0.1239  0.7095  0.6937
              Bcc     0.0045     0.981     0.350     0.327 -0.0695 -0.7036  0.7072
 
              Baa    -0.0154    -2.068    -0.738    -0.690 -0.6184 -0.3029  0.7251
     3 C(13)  Bbb    -0.0129    -1.732    -0.618    -0.578  0.7852 -0.2003  0.5860
              Bcc     0.0283     3.800     1.356     1.268 -0.0323  0.9317  0.3617
 
              Baa    -0.0022    -0.291    -0.104    -0.097 -0.0855 -0.3418  0.9359
     4 C(13)  Bbb    -0.0021    -0.279    -0.100    -0.093  0.9934  0.0424  0.1062
              Bcc     0.0043     0.571     0.204     0.190 -0.0760  0.9388  0.3360
 
              Baa    -0.0130    -1.750    -0.624    -0.584  0.4323 -0.2736  0.8592
     5 C(13)  Bbb    -0.0105    -1.415    -0.505    -0.472  0.8929  0.2629 -0.3655
              Bcc     0.0236     3.165     1.129     1.056 -0.1259  0.9252  0.3580
 
              Baa    -0.0107    -5.734    -2.046    -1.913  0.7626  0.2230 -0.6072
     6 H(1)   Bbb    -0.0079    -4.191    -1.496    -1.398 -0.5910  0.6218 -0.5138
              Bcc     0.0186     9.925     3.542     3.311  0.2630  0.7507  0.6060
 
              Baa    -0.0029    -1.534    -0.547    -0.512  0.9675 -0.2446  0.0642
     7 H(1)   Bbb    -0.0017    -0.912    -0.325    -0.304  0.2429  0.8285 -0.5045
              Bcc     0.0046     2.446     0.873     0.816  0.0703  0.5037  0.8610
 
              Baa    -0.0029    -1.555    -0.555    -0.519 -0.6151  0.6177 -0.4901
     8 H(1)   Bbb    -0.0020    -1.073    -0.383    -0.358 -0.5567  0.1000  0.8247
              Bcc     0.0049     2.627     0.938     0.876  0.5584  0.7800  0.2823
 
              Baa    -0.0010    -0.527    -0.188    -0.176  0.9213  0.3474 -0.1746
     9 H(1)   Bbb    -0.0009    -0.477    -0.170    -0.159  0.2372 -0.1465  0.9604
              Bcc     0.0019     1.004     0.358     0.335 -0.3080  0.9262  0.2174
 
              Baa    -0.0010    -0.524    -0.187    -0.175  0.8976 -0.2679  0.3500
    10 H(1)   Bbb    -0.0009    -0.485    -0.173    -0.162 -0.4041 -0.1832  0.8962
              Bcc     0.0019     1.010     0.360     0.337  0.1760  0.9459  0.2726
 
              Baa    -0.0009    -0.477    -0.170    -0.159  0.9809  0.1813 -0.0710
    11 H(1)   Bbb    -0.0008    -0.451    -0.161    -0.150  0.1624 -0.5611  0.8117
              Bcc     0.0017     0.928     0.331     0.310 -0.1073  0.8077  0.5798
 
              Baa    -0.0026    -1.367    -0.488    -0.456  0.6724  0.6773 -0.2987
    12 H(1)   Bbb    -0.0019    -1.032    -0.368    -0.344  0.3221  0.0957  0.9419
              Bcc     0.0045     2.400     0.856     0.800 -0.6665  0.7295  0.1538
 
              Baa    -0.0096    -5.109    -1.823    -1.704  0.5653 -0.1990  0.8005
    13 H(1)   Bbb    -0.0068    -3.606    -1.287    -1.203  0.6691  0.6782 -0.3039
              Bcc     0.0163     8.714     3.110     2.907 -0.4824  0.7075  0.5165
 
              Baa    -0.0025    -1.354    -0.483    -0.452  0.9206  0.3533  0.1666
    14 H(1)   Bbb    -0.0017    -0.883    -0.315    -0.295 -0.1980  0.7897 -0.5806
              Bcc     0.0042     2.238     0.798     0.746 -0.3367  0.5015  0.7969
 
              Baa    -0.0318     0.689     0.246     0.230 -0.0402  0.9987 -0.0327
    15 Ag(107 Bbb     0.0149    -0.323    -0.115    -0.108  0.4856  0.0481  0.8729
              Bcc     0.0169    -0.366    -0.130    -0.122  0.8733  0.0192 -0.4869
 

 ---------------------------------------------------------------------------------

 No NMR shielding tensors so no spin-rotation constants.
 Leave Link  601 at Fri Sep 11 22:44:00 2026, MaxMem=  6442450944 cpu:               2.0 elap:               2.4
 (Enter C:\G16W\l9999.exe)
 Unable to Open any file for archive entry.
 1|1|UNPC-DESKTOP-2JKEGCA|SP|UPBE1PBE|def2SVP|C3H9Ag1O1P1(2)|JHKIM|11-S
 ep-2026|0||#P PBE1PBE/Def2SVP EmpiricalDispersion=GD3BJ SP SCF=(XQC,Ma
 xCycle=128) NoSymm Guess=Read||Me3P=O t=1.000 dz=+0.40 class=toface||0
 ,2|O,0,0.241669,-0.102679,-2.00717|P,0,0.065789,-0.027952,-0.546402|C,
 0,1.447763,-0.796794,0.374556|C,0,-0.051532,1.692361,0.0667|C,0,-1.452
 867,-0.871503,0.029133|H,0,1.519969,-1.839062,0.069681|H,0,1.304231,-0
 .73408,1.448588|H,0,2.367643,-0.288171,0.092404|H,0,-0.895479,2.171107
 ,-0.426293|H,0,0.859124,2.216299,-0.217345|H,0,-0.180788,1.731372,1.14
 3663|H,0,-2.305436,-0.408531,-0.46409|H,0,-1.398507,-1.914231,-0.27786
 8|H,0,-1.568779,-0.808079,1.106454|Ag,0,0.38058622,-2.76182429,-1.9100
 0507||Version=EM64W-G16RevC.01|HF=-682.6853249|S2=0.751661|S2-1=0.|S2A
 =0.750003|RMSD=4.745e-009|Dipole=-0.2494639,1.0876076,1.7049647|Quadru
 pole=5.7769489,-2.466872,-3.3100769,0.8226994,1.2575724,-3.5140914|PG=
 C01 [X(C3H9Ag1O1P1)]||@
 The archive entry for this job was punched.


 CLIMB THE MOUNTAINS AND GET THEIR GOOD TIDINGS.
 NATURE'S PEACE WILL FLOW INTO YOU AS SUNSHINE FLOWS INTO TREES.
 THE WINDS WILL BLOW THEIR OWN FRESHNESS INTO YOU, 
 AND CARES WILL DROP OFF LIKE AUTUMN LEAVES.

                                         -- JOHN MUIR
 Job cpu time:       0 days  0 hours  1 minutes 30.0 seconds.
 Elapsed time:       0 days  0 hours  1 minutes 28.6 seconds.
 File lengths (MBytes):  RWF=     24 Int=      0 D2E=      0 Chk=      3 Scr=      1
 Normal termination of Gaussian 16 at Fri Sep 11 22:44:01 2026.
