 Entering Gaussian System, Link 0=C:\G16W\g16.exe
 Input=Me3PO_t3_z0.gjf
 Output=Me3PO_t3_z0.out
 Initial command:
 C:\G16W\l1.exe ".\Gau-105524.inp" "Me3PO_t3_z0.out" /scrdir=".\"
 Entering Link 1 = C:\G16W\l1.exe PID=    106024.
  
 Copyright (c) 1988-2019, Gaussian, Inc.  All Rights Reserved.
  
 This is part of the Gaussian(R) 16 program.  It is based on
 the Gaussian(R) 09 system (copyright 2009, Gaussian, Inc.),
 the Gaussian(R) 03 system (copyright 2003, Gaussian, Inc.),
 the Gaussian(R) 98 system (copyright 1998, Gaussian, Inc.),
 the Gaussian(R) 94 system (copyright 1995, Gaussian, Inc.),
 the Gaussian 92(TM) system (copyright 1992, Gaussian, Inc.),
 the Gaussian 90(TM) system (copyright 1990, Gaussian, Inc.),
 the Gaussian 88(TM) system (copyright 1988, Gaussian, Inc.),
 the Gaussian 86(TM) system (copyright 1986, Carnegie Mellon
 University), and the Gaussian 82(TM) system (copyright 1983,
 Carnegie Mellon University). Gaussian is a federally registered
 trademark of Gaussian, Inc.
  
 This software contains proprietary and confidential information,
 including trade secrets, belonging to Gaussian, Inc.
  
 This software is provided under written license and may be
 used, copied, transmitted, or stored only in accord with that
 written license.
  
 The following legend is applicable only to US Government
 contracts under FAR:
  
                    RESTRICTED RIGHTS LEGEND
  
 Use, reproduction and disclosure by the US Government is
 subject to restrictions as set forth in subparagraphs (a)
 and (c) of the Commercial Computer Software - Restricted
 Rights clause in FAR 52.227-19.
  
 Gaussian, Inc.
 340 Quinnipiac St., Bldg. 40, Wallingford CT 06492
  
  
 ---------------------------------------------------------------
 Warning -- This program may not be used in any manner that
 competes with the business of Gaussian, Inc. or will provide
 assistance to any competitor of Gaussian, Inc.  The licensee
 of this program is prohibited from giving any competitor of
 Gaussian, Inc. access to this program.  By using this program,
 the user acknowledges that Gaussian, Inc. is engaged in the
 business of creating and licensing software in the field of
 computational chemistry and represents and warrants to the
 licensee that it is not a competitor of Gaussian, Inc. and that
 it will not use this program in any manner prohibited above.
 ---------------------------------------------------------------
  

 Cite this work as:
 Gaussian 16, Revision C.01,
 M. J. Frisch, G. W. Trucks, H. B. Schlegel, G. E. Scuseria, 
 M. A. Robb, J. R. Cheeseman, G. Scalmani, V. Barone, 
 G. A. Petersson, H. Nakatsuji, X. Li, M. Caricato, A. V. Marenich, 
 J. Bloino, B. G. Janesko, R. Gomperts, B. Mennucci, H. P. Hratchian, 
 J. V. Ortiz, A. F. Izmaylov, J. L. Sonnenberg, D. Williams-Young, 
 F. Ding, F. Lipparini, F. Egidi, J. Goings, B. Peng, A. Petrone, 
 T. Henderson, D. Ranasinghe, V. G. Zakrzewski, J. Gao, N. Rega, 
 G. Zheng, W. Liang, M. Hada, M. Ehara, K. Toyota, R. Fukuda, 
 J. Hasegawa, M. Ishida, T. Nakajima, Y. Honda, O. Kitao, H. Nakai, 
 T. Vreven, K. Throssell, J. A. Montgomery, Jr., J. E. Peralta, 
 F. Ogliaro, M. J. Bearpark, J. J. Heyd, E. N. Brothers, K. N. Kudin, 
 V. N. Staroverov, T. A. Keith, R. Kobayashi, J. Normand, 
 K. Raghavachari, A. P. Rendell, J. C. Burant, S. S. Iyengar, 
 J. Tomasi, M. Cossi, J. M. Millam, M. Klene, C. Adamo, R. Cammi, 
 J. W. Ochterski, R. L. Martin, K. Morokuma, O. Farkas, 
 J. B. Foresman, and D. J. Fox, Gaussian, Inc., Wallingford CT, 2019.
 
 ******************************************
 Gaussian 16:  EM64W-G16RevC.01 30-May-2019
                11-Sep-2026 
 ******************************************
 %Chk=Me3PO.chk
 %NProcShared=8
 Will use up to    8 processors via shared memory.
 %Mem=48GB
 ----------------------------------------------------------------------
 #P PBE1PBE/Def2SVP EmpiricalDispersion=GD3BJ SP SCF=(XQC,MaxCycle=128)
  NoSymm Guess=Read
 ----------------------------------------------------------------------
 1/38=1,172=1/1;
 2/12=2,15=1,17=6,18=5,40=1/2;
 3/5=43,7=101,11=2,25=1,30=1,74=-13,116=-2,124=41/1,2,3;
 4/5=1/1;
 5/5=2,7=128,8=3,13=1,38=6/2,8;
 6/7=2,8=2,9=2,10=2,28=1/1;
 99/5=1,9=1/99;
 Leave Link    1 at Fri Sep 11 22:37:28 2026, MaxMem=  6442450944 cpu:               0.0 elap:               0.3
 (Enter C:\G16W\l101.exe)
 ------------------------------------
 Me3P=O t=0.750 dz=+0.00 class=toface
 ------------------------------------
 Symbolic Z-matrix:
 Charge =  0 Multiplicity = 2
 O                     0.24167  -0.10268  -2.00717 
 P                     0.06579  -0.02795  -0.5464 
 C                     1.44776  -0.79679   0.37456 
 C                    -0.05153   1.69236   0.0667 
 C                    -1.45287  -0.8715    0.02913 
 H                     1.51997  -1.83906   0.06968 
 H                     1.30423  -0.73408   1.44859 
 H                     2.36764  -0.28817   0.0924 
 H                    -0.89548   2.17111  -0.42629 
 H                     0.85912   2.2163   -0.21735 
 H                    -0.18079   1.73137   1.14366 
 H                    -2.30544  -0.40853  -0.46409 
 H                    -1.39851  -1.91423  -0.27787 
 H                    -1.56878  -0.80808   1.10645 
 Ag                    0.45042  -2.20367  -2.77281 
 
 ITRead=  0  0  0  0  0  0  0  0  0  0  0  0  0  0  0
 MicOpt= -1 -1 -1 -1 -1 -1 -1 -1 -1 -1 -1 -1 -1 -1 -1
 NAtoms=     15 NQM=       15 NQMF=       0 NMMI=      0 NMMIF=      0
                NMic=       0 NMicF=      0.
                    Isotopes and Nuclear Properties:
 (Nuclear quadrupole moments (NQMom) in fm**2, nuclear magnetic moments (NMagM)
  in nuclear magnetons)

  Atom         1           2           3           4           5           6           7           8           9          10
 IAtWgt=          16          31          12          12          12           1           1           1           1           1
 AtmWgt=  15.9949146  30.9737634  12.0000000  12.0000000  12.0000000   1.0078250   1.0078250   1.0078250   1.0078250   1.0078250
 NucSpn=           0           1           0           0           0           1           1           1           1           1
 AtZEff=   0.0000000   0.0000000   0.0000000   0.0000000   0.0000000   0.0000000   0.0000000   0.0000000   0.0000000   0.0000000
 NQMom=    0.0000000   0.0000000   0.0000000   0.0000000   0.0000000   0.0000000   0.0000000   0.0000000   0.0000000   0.0000000
 NMagM=    0.0000000   1.1316000   0.0000000   0.0000000   0.0000000   2.7928460   2.7928460   2.7928460   2.7928460   2.7928460
 AtZNuc=   8.0000000  15.0000000   6.0000000   6.0000000   6.0000000   1.0000000   1.0000000   1.0000000   1.0000000   1.0000000

  Atom        11          12          13          14          15
 IAtWgt=           1           1           1           1         107
 AtmWgt=   1.0078250   1.0078250   1.0078250   1.0078250 106.9050900
 NucSpn=           1           1           1           1           1
 AtZEff=   0.0000000   0.0000000   0.0000000   0.0000000   0.0000000
 NQMom=    0.0000000   0.0000000   0.0000000   0.0000000   0.0000000
 NMagM=    2.7928460   2.7928460   2.7928460   2.7928460  -0.1135700
 AtZNuc=   1.0000000   1.0000000   1.0000000   1.0000000  47.0000000
 Leave Link  101 at Fri Sep 11 22:37:29 2026, MaxMem=  6442450944 cpu:               0.0 elap:               0.3
 (Enter C:\G16W\l202.exe)
                          Input orientation:                          
 ---------------------------------------------------------------------
 Center     Atomic      Atomic             Coordinates (Angstroms)
 Number     Number       Type             X           Y           Z
 ---------------------------------------------------------------------
      1          8           0        0.241669   -0.102679   -2.007170
      2         15           0        0.065789   -0.027952   -0.546402
      3          6           0        1.447763   -0.796794    0.374556
      4          6           0       -0.051532    1.692361    0.066700
      5          6           0       -1.452867   -0.871503    0.029133
      6          1           0        1.519969   -1.839062    0.069681
      7          1           0        1.304231   -0.734080    1.448588
      8          1           0        2.367643   -0.288171    0.092404
      9          1           0       -0.895479    2.171107   -0.426293
     10          1           0        0.859124    2.216299   -0.217345
     11          1           0       -0.180788    1.731372    1.143663
     12          1           0       -2.305436   -0.408531   -0.464090
     13          1           0       -1.398507   -1.914231   -0.277868
     14          1           0       -1.568779   -0.808079    1.106454
     15         47           0        0.450421   -2.203666   -2.772814
 ---------------------------------------------------------------------
                    Distance matrix (angstroms):
                    1          2          3          4          5
     1  O    0.000000
     2  P    1.473215   0.000000
     3  C    2.758456   1.830064   0.000000
     4  C    2.758455   1.830064   2.922080   0.000000
     5  C    2.758455   1.830064   2.922080   2.922080   0.000000
     6  H    2.993725   2.402981   1.088341   3.865304   3.126591
     7  H    3.670146   2.452007   1.085394   3.104082   3.104082
     8  H    2.993724   2.402981   1.088341   3.126592   3.865304
     9  H    2.993724   2.402982   3.865304   1.088341   3.126591
    10  H    2.993724   2.402982   3.126591   1.088341   3.865304
    11  H    3.670145   2.452008   3.104082   1.085393   3.104081
    12  H    2.993724   2.402982   3.865304   3.126591   1.088341
    13  H    2.993724   2.402982   3.126592   3.865304   1.088341
    14  H    3.670145   2.452008   3.104082   3.104082   1.085393
    15  Ag   2.245870   3.136651   3.588860   4.847042   3.639789
                    6          7          8          9         10
     6  H    0.000000
     7  H    1.780144   0.000000
     8  H    1.767578   1.780145   0.000000
     9  H    4.707636   4.098050   4.118866   0.000000
    10  H    4.118865   3.417337   2.940059   1.767578   0.000000
    11  H    4.098050   2.894255   3.417338   1.780144   1.780144
    12  H    4.118866   4.098050   4.707636   2.940058   4.118866
    13  H    2.940058   3.417338   4.118866   4.118866   4.707636
    14  H    3.417336   2.894256   4.098051   3.417337   4.098051
    15  Ag   3.058864   4.550704   3.943898   5.143563   5.121869
                   11         12         13         14         15
    11  H    0.000000
    12  H    3.417336   0.000000
    13  H    4.098050   1.767578   0.000000
    14  H    2.894256   1.780143   1.780144   0.000000
    15  Ag   5.587641   4.018390   3.118824   4.590593   0.000000
 Symmetry turned off by external request.
 Stoichiometry    C3H9AgOP(2)
 Framework group  C1[X(C3H9AgOP)]
 Deg. of freedom    39
 Full point group                 C1      NOp   1
 Rotational constants (GHZ):           3.5884227           0.7822437           0.7771141
 Leave Link  202 at Fri Sep 11 22:37:29 2026, MaxMem=  6442450944 cpu:               0.0 elap:               0.1
 (Enter C:\G16W\l301.exe)
 Standard basis: def2SVP (5D, 7F)
 Ernie: Thresh=  0.10000D-02 Tol=  0.10000D-05 Strict=F.
   150 basis functions,   265 primitive gaussians,   160 cartesian basis functions
    35 alpha electrons       34 beta electrons
       nuclear repulsion energy       411.2611319902 Hartrees.
 IExCor= 1009 DFT=T Ex+Corr=PBE1PBE ExCW=0 ScaHFX=  0.250000
 ScaDFX=  0.750000  0.750000  1.000000  1.000000 ScalE2=  1.000000  1.000000
 IRadAn=      5 IRanWt=     -1 IRanGd=            0 ICorTp=0 IEmpDi=141
 NAtoms=   15 NActive=   15 NUniq=   15 SFac= 1.00D+00 NAtFMM=   60 NAOKFM=F Big=F
 Integral buffers will be    131072 words long.
 Raffenetti 2 integral format.
 Two-electron integral symmetry is turned off.
 R6Disp:  Grimme-D3(BJ) Dispersion energy=       -0.0140923745 Hartrees.
 Nuclear repulsion after empirical dispersion term =      411.2470396157 Hartrees.
 Leave Link  301 at Fri Sep 11 22:37:30 2026, MaxMem=  6442450944 cpu:               1.0 elap:               0.2
 (Enter C:\G16W\l302.exe)
 NPDir=0 NMtPBC=     1 NCelOv=     1 NCel=       1 NClECP=     1 NCelD=      1
         NCelK=      1 NCelE2=     1 NClLst=     1 CellRange=     0.0.
 One-electron integrals computed using PRISM.
   1 Symmetry operations used in ECPInt.
 ECPInt:  NShTT=    2485 NPrTT=    8632 LenC2=    2474 LenP2D=    7182.
 LDataN:  DoStor=T MaxTD1= 7 Len=  274
 NBasis=   150 RedAO= T EigKep=  2.53D-03  NBF=   150
 NBsUse=   150 1.00D-06 EigRej= -1.00D+00 NBFU=   150
 Precomputing XC quadrature grid using
 IXCGrd= 4 IRadAn=           5 IRanWt=          -1 IRanGd=           0 AccXCQ= 0.00D+00.
 Defaulting to unpruned grid for atomic number  47.
 Generated NRdTot=       0 NPtTot=           0 NUsed=           0 NTot=          32
 NSgBfM=   160   160   160   160   160 MxSgAt=    15 MxSgA2=    15.
 Leave Link  302 at Fri Sep 11 22:37:34 2026, MaxMem=  6442450944 cpu:               4.0 elap:               4.3
 (Enter C:\G16W\l303.exe)
 DipDrv:  MaxL=1.
 Leave Link  303 at Fri Sep 11 22:37:34 2026, MaxMem=  6442450944 cpu:               0.0 elap:               0.2
 (Enter C:\G16W\l401.exe)
 Initial guess from the checkpoint file:  "Me3PO.chk"
 B after Tr=    -0.106614    0.505422    0.664107
         Rot=    0.993922    0.109165    0.006172    0.012828 Ang=  12.64 deg.
 Guess basis will be translated and rotated to current coordinates.
 JPrj=2 DoOrth=T DoCkMO=T.
 Initial guess <Sx>= 0.0000 <Sy>= 0.0000 <Sz>= 0.5000 <S**2>= 0.7515 S= 0.5008
 Leave Link  401 at Fri Sep 11 22:37:36 2026, MaxMem=  6442450944 cpu:               2.0 elap:               1.6
 (Enter C:\G16W\l502.exe)
 Two-electron integral symmetry not used.
 UHF open shell SCF:
 Using DIIS extrapolation, IDIIS=  1040.
 NGot=  6442450944 LenX=  6442396688 LenY=  6442370647
 Requested convergence on RMS density matrix=1.00D-08 within 128 cycles.
 Requested convergence on MAX density matrix=1.00D-06.
 Requested convergence on             energy=1.00D-06.
 No special actions if energy rises.
 Fock matrices will be formed incrementally for  20 cycles.

 Cycle   1  Pass 1  IDiag  1:
 FoFJK:  IHMeth= 1 ICntrl=       0 DoSepK=F KAlg= 0 I1Cent=           0 FoldK=F
 IRaf= 990000000 NMat=       1 IRICut=       1 DoRegI=T DoRafI=F ISym2E= 0 IDoP0=0 IntGTp=1.
 FoFCou: FMM=F IPFlag=           0 FMFlag=      100000 FMFlg1=           0
         NFxFlg=           0 DoJE=F BraDBF=F KetDBF=F FulRan=T
         wScrn=  0.000000 ICntrl=         0 IOpCl=  1 I1Cent=           0 NGrid=           0
         NMat0=    1 NMatS0=      1 NMatT0=    0 NMatD0=    1 NMtDS0=    0 NMtDT0=    0
 Symmetry not used in FoFCou.
 Defaulting to unpruned grid for atomic number  47.
 Defaulting to unpruned grid for atomic number  47.
 Defaulting to unpruned grid for atomic number  47.
 Defaulting to unpruned grid for atomic number  47.
 Defaulting to unpruned grid for atomic number  47.
 Defaulting to unpruned grid for atomic number  47.
 Defaulting to unpruned grid for atomic number  47.
 Defaulting to unpruned grid for atomic number  47.
 E= -682.608246110465    
 DIIS: error= 1.62D-02 at cycle   1 NSaved=   1.
 NSaved= 1 IEnMin= 1 EnMin= -682.608246110465     IErMin= 1 ErrMin= 1.62D-02
 ErrMax= 1.62D-02  0.00D+00 EMaxC= 1.00D-01 BMatC= 2.50D-01 BMatP= 2.50D-01
 IDIUse=3 WtCom= 8.38D-01 WtEn= 1.62D-01
 Coeff-Com:  0.100D+01
 Coeff-En:   0.100D+01
 Coeff:      0.100D+01
 Gap=     0.168 Goal=   None    Shift=    0.000
 Gap=     0.246 Goal=   None    Shift=    0.000
 GapD=    0.168 DampG=1.000 DampE=0.250 DampFc=0.2500 IDamp=-1.
 Damping current iteration by 2.50D-01
 RMSDP=2.96D-03 MaxDP=6.08D-02              OVMax= 9.99D-02

 Cycle   2  Pass 1  IDiag  1:
 RMSU=  7.38D-04    CP:  9.98D-01
 E= -682.627260221207     Delta-E=       -0.019014110742 Rises=F Damp=T
 DIIS: error= 1.25D-02 at cycle   2 NSaved=   2.
 NSaved= 2 IEnMin= 2 EnMin= -682.627260221207     IErMin= 2 ErrMin= 1.25D-02
 ErrMax= 1.25D-02  0.00D+00 EMaxC= 1.00D-01 BMatC= 1.45D-01 BMatP= 2.50D-01
 IDIUse=3 WtCom= 8.75D-01 WtEn= 1.25D-01
 Coeff-Com: -0.302D+01 0.402D+01
 Coeff-En:   0.000D+00 0.100D+01
 Coeff:     -0.264D+01 0.364D+01
 Gap=     0.150 Goal=   None    Shift=    0.000
 Gap=     0.220 Goal=   None    Shift=    0.000
 RMSDP=2.51D-03 MaxDP=5.21D-02 DE=-1.90D-02 OVMax= 1.90D-02

 Cycle   3  Pass 1  IDiag  1:
 RMSU=  1.18D-03    CP:  9.91D-01  3.00D+00
 E= -682.687912551843     Delta-E=       -0.060652330636 Rises=F Damp=F
 DIIS: error= 5.03D-03 at cycle   3 NSaved=   3.
 NSaved= 3 IEnMin= 3 EnMin= -682.687912551843     IErMin= 3 ErrMin= 5.03D-03
 ErrMax= 5.03D-03  0.00D+00 EMaxC= 1.00D-01 BMatC= 1.41D-02 BMatP= 1.45D-01
 IDIUse=3 WtCom= 9.50D-01 WtEn= 5.03D-02
 Coeff-Com: -0.174D+01 0.226D+01 0.473D+00
 Coeff-En:   0.000D+00 0.000D+00 0.100D+01
 Coeff:     -0.165D+01 0.215D+01 0.499D+00
 Gap=     0.148 Goal=   None    Shift=    0.000
 Gap=     0.212 Goal=   None    Shift=    0.000
 RMSDP=5.18D-04 MaxDP=1.97D-02 DE=-6.07D-02 OVMax= 2.03D-02

 Cycle   4  Pass 1  IDiag  1:
 RMSU=  4.83D-04    CP:  9.91D-01  3.00D+00  8.43D-01
 E= -682.690540159640     Delta-E=       -0.002627607797 Rises=F Damp=F
 DIIS: error= 1.82D-03 at cycle   4 NSaved=   4.
 NSaved= 4 IEnMin= 4 EnMin= -682.690540159640     IErMin= 4 ErrMin= 1.82D-03
 ErrMax= 1.82D-03  0.00D+00 EMaxC= 1.00D-01 BMatC= 1.19D-03 BMatP= 1.41D-02
 IDIUse=3 WtCom= 9.82D-01 WtEn= 1.82D-02
 Coeff-Com: -0.618D+00 0.801D+00 0.280D+00 0.538D+00
 Coeff-En:   0.000D+00 0.000D+00 0.194D-01 0.981D+00
 Coeff:     -0.607D+00 0.786D+00 0.275D+00 0.546D+00
 Gap=     0.148 Goal=   None    Shift=    0.000
 Gap=     0.212 Goal=   None    Shift=    0.000
 RMSDP=1.43D-04 MaxDP=3.87D-03 DE=-2.63D-03 OVMax= 5.10D-03

 Cycle   5  Pass 1  IDiag  1:
 RMSU=  1.03D-04    CP:  9.91D-01  3.00D+00  9.03D-01  8.60D-01
 E= -682.690776357498     Delta-E=       -0.000236197859 Rises=F Damp=F
 DIIS: error= 3.96D-04 at cycle   5 NSaved=   5.
 NSaved= 5 IEnMin= 5 EnMin= -682.690776357498     IErMin= 5 ErrMin= 3.96D-04
 ErrMax= 3.96D-04  0.00D+00 EMaxC= 1.00D-01 BMatC= 6.34D-05 BMatP= 1.19D-03
 IDIUse=3 WtCom= 9.96D-01 WtEn= 3.96D-03
 Coeff-Com:  0.759D-01-0.101D+00 0.301D-01 0.231D+00 0.764D+00
 Coeff-En:   0.000D+00 0.000D+00 0.000D+00 0.000D+00 0.100D+01
 Coeff:      0.756D-01-0.101D+00 0.300D-01 0.230D+00 0.765D+00
 Gap=     0.148 Goal=   None    Shift=    0.000
 Gap=     0.213 Goal=   None    Shift=    0.000
 RMSDP=4.46D-05 MaxDP=2.43D-03 DE=-2.36D-04 OVMax= 3.29D-03

 Cycle   6  Pass 1  IDiag  1:
 RMSU=  4.00D-05    CP:  9.91D-01  3.00D+00  9.13D-01  8.89D-01  9.53D-01
 E= -682.690795079667     Delta-E=       -0.000018722169 Rises=F Damp=F
 DIIS: error= 1.13D-04 at cycle   6 NSaved=   6.
 NSaved= 6 IEnMin= 6 EnMin= -682.690795079667     IErMin= 6 ErrMin= 1.13D-04
 ErrMax= 1.13D-04  0.00D+00 EMaxC= 1.00D-01 BMatC= 5.69D-06 BMatP= 6.34D-05
 IDIUse=3 WtCom= 9.99D-01 WtEn= 1.13D-03
 Coeff-Com:  0.745D-01-0.978D-01-0.116D-05 0.765D-01 0.324D+00 0.622D+00
 Coeff-En:   0.000D+00 0.000D+00 0.000D+00 0.000D+00 0.000D+00 0.100D+01
 Coeff:      0.744D-01-0.977D-01-0.116D-05 0.764D-01 0.324D+00 0.623D+00
 Gap=     0.148 Goal=   None    Shift=    0.000
 Gap=     0.213 Goal=   None    Shift=    0.000
 RMSDP=1.62D-05 MaxDP=1.10D-03 DE=-1.87D-05 OVMax= 1.26D-03

 Cycle   7  Pass 1  IDiag  1:
 RMSU=  1.14D-05    CP:  9.91D-01  3.00D+00  9.17D-01  9.01D-01  1.03D+00
                    CP:  1.11D+00
 E= -682.690797343292     Delta-E=       -0.000002263625 Rises=F Damp=F
 DIIS: error= 6.16D-05 at cycle   7 NSaved=   7.
 NSaved= 7 IEnMin= 7 EnMin= -682.690797343292     IErMin= 7 ErrMin= 6.16D-05
 ErrMax= 6.16D-05  0.00D+00 EMaxC= 1.00D-01 BMatC= 7.41D-07 BMatP= 5.69D-06
 IDIUse=1 WtCom= 1.00D+00 WtEn= 0.00D+00
 Coeff-Com: -0.782D-03 0.135D-02-0.543D-02-0.426D-01-0.169D+00 0.698D-01
 Coeff-Com:  0.115D+01
 Coeff:     -0.782D-03 0.135D-02-0.543D-02-0.426D-01-0.169D+00 0.698D-01
 Coeff:      0.115D+01
 Gap=     0.148 Goal=   None    Shift=    0.000
 Gap=     0.213 Goal=   None    Shift=    0.000
 RMSDP=1.44D-05 MaxDP=1.00D-03 DE=-2.26D-06 OVMax= 1.26D-03

 Cycle   8  Pass 1  IDiag  1:
 RMSU=  3.91D-06    CP:  9.91D-01  3.00D+00  9.21D-01  9.06D-01  1.08D+00
                    CP:  1.39D+00  1.29D+00
 E= -682.690798046715     Delta-E=       -0.000000703424 Rises=F Damp=F
 DIIS: error= 6.33D-06 at cycle   8 NSaved=   8.
 NSaved= 8 IEnMin= 8 EnMin= -682.690798046715     IErMin= 8 ErrMin= 6.33D-06
 ErrMax= 6.33D-06  0.00D+00 EMaxC= 1.00D-01 BMatC= 5.06D-08 BMatP= 7.41D-07
 IDIUse=1 WtCom= 1.00D+00 WtEn= 0.00D+00
 Coeff-Com: -0.653D-02 0.870D-02-0.129D-02-0.186D-01-0.794D-01-0.132D-01
 Coeff-Com:  0.378D+00 0.733D+00
 Coeff:     -0.653D-02 0.870D-02-0.129D-02-0.186D-01-0.794D-01-0.132D-01
 Coeff:      0.378D+00 0.733D+00
 Gap=     0.148 Goal=   None    Shift=    0.000
 Gap=     0.213 Goal=   None    Shift=    0.000
 RMSDP=2.07D-06 MaxDP=1.31D-04 DE=-7.03D-07 OVMax= 1.76D-04

 Cycle   9  Pass 1  IDiag  1:
 RMSU=  1.20D-06    CP:  9.91D-01  3.00D+00  9.21D-01  9.07D-01  1.09D+00
                    CP:  1.42D+00  1.34D+00  1.01D+00
 E= -682.690798068365     Delta-E=       -0.000000021650 Rises=F Damp=F
 DIIS: error= 2.31D-06 at cycle   9 NSaved=   9.
 NSaved= 9 IEnMin= 9 EnMin= -682.690798068365     IErMin= 9 ErrMin= 2.31D-06
 ErrMax= 2.31D-06  0.00D+00 EMaxC= 1.00D-01 BMatC= 6.50D-09 BMatP= 5.06D-08
 IDIUse=1 WtCom= 1.00D+00 WtEn= 0.00D+00
 Coeff-Com: -0.253D-02 0.334D-02-0.152D-04-0.332D-02-0.148D-01-0.106D-01
 Coeff-Com:  0.290D-01 0.277D+00 0.722D+00
 Coeff:     -0.253D-02 0.334D-02-0.152D-04-0.332D-02-0.148D-01-0.106D-01
 Coeff:      0.290D-01 0.277D+00 0.722D+00
 Gap=     0.148 Goal=   None    Shift=    0.000
 Gap=     0.213 Goal=   None    Shift=    0.000
 RMSDP=5.76D-07 MaxDP=3.06D-05 DE=-2.17D-08 OVMax= 3.53D-05

 Cycle  10  Pass 1  IDiag  1:
 RMSU=  3.04D-07    CP:  9.91D-01  3.00D+00  9.21D-01  9.07D-01  1.09D+00
                    CP:  1.43D+00  1.34D+00  1.11D+00  9.67D-01
 E= -682.690798070586     Delta-E=       -0.000000002221 Rises=F Damp=F
 DIIS: error= 5.35D-07 at cycle  10 NSaved=  10.
 NSaved=10 IEnMin=10 EnMin= -682.690798070586     IErMin=10 ErrMin= 5.35D-07
 ErrMax= 5.35D-07  0.00D+00 EMaxC= 1.00D-01 BMatC= 2.99D-10 BMatP= 6.50D-09
 IDIUse=1 WtCom= 1.00D+00 WtEn= 0.00D+00
 Coeff-Com:  0.237D-03-0.320D-03 0.122D-03 0.124D-02 0.516D-02 0.134D-04
 Coeff-Com: -0.292D-01-0.288D-01 0.112D+00 0.939D+00
 Coeff:      0.237D-03-0.320D-03 0.122D-03 0.124D-02 0.516D-02 0.134D-04
 Coeff:     -0.292D-01-0.288D-01 0.112D+00 0.939D+00
 Gap=     0.148 Goal=   None    Shift=    0.000
 Gap=     0.213 Goal=   None    Shift=    0.000
 RMSDP=1.79D-07 MaxDP=9.34D-06 DE=-2.22D-09 OVMax= 1.12D-05

 Cycle  11  Pass 1  IDiag  1:
 RMSU=  1.04D-07    CP:  9.91D-01  3.00D+00  9.21D-01  9.06D-01  1.09D+00
                    CP:  1.43D+00  1.34D+00  1.13D+00  1.03D+00  1.15D+00
 E= -682.690798070724     Delta-E=       -0.000000000137 Rises=F Damp=F
 DIIS: error= 2.61D-07 at cycle  11 NSaved=  11.
 NSaved=11 IEnMin=11 EnMin= -682.690798070724     IErMin=11 ErrMin= 2.61D-07
 ErrMax= 2.61D-07  0.00D+00 EMaxC= 1.00D-01 BMatC= 6.76D-11 BMatP= 2.99D-10
 IDIUse=1 WtCom= 1.00D+00 WtEn= 0.00D+00
 Coeff-Com:  0.328D-03-0.435D-03 0.431D-04 0.776D-03 0.344D-02 0.955D-03
 Coeff-Com: -0.142D-01-0.358D-01-0.166D-01 0.352D+00 0.709D+00
 Coeff:      0.328D-03-0.435D-03 0.431D-04 0.776D-03 0.344D-02 0.955D-03
 Coeff:     -0.142D-01-0.358D-01-0.166D-01 0.352D+00 0.709D+00
 Gap=     0.148 Goal=   None    Shift=    0.000
 Gap=     0.213 Goal=   None    Shift=    0.000
 RMSDP=5.79D-08 MaxDP=2.90D-06 DE=-1.37D-10 OVMax= 3.16D-06

 Cycle  12  Pass 1  IDiag  1:
 RMSU=  3.66D-08    CP:  9.91D-01  3.00D+00  9.21D-01  9.06D-01  1.09D+00
                    CP:  1.43D+00  1.34D+00  1.13D+00  1.05D+00  1.26D+00
                    CP:  1.05D+00
 E= -682.690798070736     Delta-E=       -0.000000000013 Rises=F Damp=F
 DIIS: error= 1.27D-07 at cycle  12 NSaved=  12.
 NSaved=12 IEnMin=12 EnMin= -682.690798070736     IErMin=12 ErrMin= 1.27D-07
 ErrMax= 1.27D-07  0.00D+00 EMaxC= 1.00D-01 BMatC= 1.10D-11 BMatP= 6.76D-11
 IDIUse=1 WtCom= 1.00D+00 WtEn= 0.00D+00
 Coeff-Com:  0.683D-04-0.900D-04-0.142D-04 0.116D-04 0.210D-03 0.362D-03
 Coeff-Com:  0.706D-03-0.812D-02-0.272D-01-0.534D-01 0.249D+00 0.839D+00
 Coeff:      0.683D-04-0.900D-04-0.142D-04 0.116D-04 0.210D-03 0.362D-03
 Coeff:      0.706D-03-0.812D-02-0.272D-01-0.534D-01 0.249D+00 0.839D+00
 Gap=     0.148 Goal=   None    Shift=    0.000
 Gap=     0.213 Goal=   None    Shift=    0.000
 RMSDP=2.53D-08 MaxDP=7.35D-07 DE=-1.25D-11 OVMax= 1.67D-06

 Cycle  13  Pass 1  IDiag  1:
 RMSU=  1.26D-08    CP:  9.91D-01  3.00D+00  9.21D-01  9.06D-01  1.09D+00
                    CP:  1.43D+00  1.34D+00  1.13D+00  1.05D+00  1.30D+00
                    CP:  1.22D+00  1.01D+00
 E= -682.690798070765     Delta-E=       -0.000000000029 Rises=F Damp=F
 DIIS: error= 3.68D-08 at cycle  13 NSaved=  13.
 NSaved=13 IEnMin=13 EnMin= -682.690798070765     IErMin=13 ErrMin= 3.68D-08
 ErrMax= 3.68D-08  0.00D+00 EMaxC= 1.00D-01 BMatC= 8.92D-13 BMatP= 1.10D-11
 IDIUse=1 WtCom= 1.00D+00 WtEn= 0.00D+00
 Coeff-Com: -0.298D-04 0.398D-04-0.868D-05-0.941D-04-0.369D-03 0.876D-05
 Coeff-Com:  0.185D-02 0.292D-02-0.301D-02-0.585D-01-0.513D-01 0.176D+00
 Coeff-Com:  0.932D+00
 Coeff:     -0.298D-04 0.398D-04-0.868D-05-0.941D-04-0.369D-03 0.876D-05
 Coeff:      0.185D-02 0.292D-02-0.301D-02-0.585D-01-0.513D-01 0.176D+00
 Coeff:      0.932D+00
 Gap=     0.148 Goal=   None    Shift=    0.000
 Gap=     0.213 Goal=   None    Shift=    0.000
 RMSDP=9.04D-09 MaxDP=2.57D-07 DE=-2.86D-11 OVMax= 3.86D-07

 SCF Done:  E(UPBE1PBE) =  -682.690798071     A.U. after   13 cycles
            NFock= 13  Conv=0.90D-08     -V/T= 2.1586
 <Sx>= 0.0000 <Sy>= 0.0000 <Sz>= 0.5000 <S**2>= 0.7518 S= 0.5009
 <L.S>= 0.000000000000E+00
 KE= 5.892170636988D+02 PE=-2.403794645382D+03 EE= 7.206397439970D+02
 Annihilation of the first spin contaminant:
 S**2 before annihilation     0.7518,   after     0.7500
 Leave Link  502 at Fri Sep 11 22:38:59 2026, MaxMem=  6442450944 cpu:              83.0 elap:              83.1
 (Enter C:\G16W\l508.exe)
 QCSCF skips out because SCF is already converged.
 Leave Link  508 at Fri Sep 11 22:38:59 2026, MaxMem=  6442450944 cpu:               0.0 elap:               0.1
 (Enter C:\G16W\l601.exe)
 Copying SCF densities to generalized density rwf, IOpCl= 1 IROHF=0.

 **********************************************************************

            Population analysis using the SCF Density.

 **********************************************************************

 Alpha  occ. eigenvalues --  -77.29140 -19.18329 -10.25909 -10.25394 -10.25373
 Alpha  occ. eigenvalues --   -6.69368  -4.83426  -4.83350  -4.83331  -3.72160
 Alpha  occ. eigenvalues --   -2.30243  -2.30130  -2.29976  -1.01707  -0.80204
 Alpha  occ. eigenvalues --   -0.74364  -0.74078  -0.56837  -0.48543  -0.48200
 Alpha  occ. eigenvalues --   -0.48165  -0.45435  -0.45296  -0.43089  -0.41905
 Alpha  occ. eigenvalues --   -0.40206  -0.40095  -0.33811  -0.32039  -0.29662
 Alpha  occ. eigenvalues --   -0.29631  -0.29163  -0.28284  -0.26932  -0.13566
 Alpha virt. eigenvalues --    0.01267   0.01637   0.03231   0.06292   0.08087
 Alpha virt. eigenvalues --    0.08508   0.08741   0.10331   0.11556   0.12649
 Alpha virt. eigenvalues --    0.13288   0.13710   0.13909   0.15875   0.16076
 Alpha virt. eigenvalues --    0.16819   0.18002   0.32206   0.32813   0.33745
 Alpha virt. eigenvalues --    0.35529   0.38304   0.39943   0.40250   0.42613
 Alpha virt. eigenvalues --    0.44790   0.48568   0.49884   0.50282   0.53927
 Alpha virt. eigenvalues --    0.55072   0.58071   0.59572   0.60667   0.61271
 Alpha virt. eigenvalues --    0.61428   0.62220   0.64435   0.66885   0.67728
 Alpha virt. eigenvalues --    0.68923   0.69239   0.69947   0.71018   0.71570
 Alpha virt. eigenvalues --    0.72402   0.74007   0.75109   0.80453   0.82216
 Alpha virt. eigenvalues --    0.92928   0.94081   0.99262   1.00120   1.02036
 Alpha virt. eigenvalues --    1.12726   1.17443   1.20379   1.21039   1.22282
 Alpha virt. eigenvalues --    1.29464   1.40314   1.44308   1.48695   1.50462
 Alpha virt. eigenvalues --    1.51199   1.51304   1.63356   1.71202   1.71248
 Alpha virt. eigenvalues --    1.73263   1.76934   1.77149   1.78792   1.81446
 Alpha virt. eigenvalues --    1.90613   1.91314   1.94215   1.94322   1.94492
 Alpha virt. eigenvalues --    1.96107   2.00511   2.01091   2.09179   2.20519
 Alpha virt. eigenvalues --    2.23425   2.23521   2.41909   2.42128   2.43323
 Alpha virt. eigenvalues --    2.44692   2.45064   2.46637   2.65117   2.65302
 Alpha virt. eigenvalues --    2.65344   2.65379   2.65468   2.65527   2.66685
 Alpha virt. eigenvalues --    2.67796   2.68696   2.72575   2.74053   2.77918
 Alpha virt. eigenvalues --    2.83098   2.83791   2.90334   2.92606   2.93473
 Alpha virt. eigenvalues --    2.93872   2.95459   2.95569   3.41546  53.85696
  Beta  occ. eigenvalues --  -77.29139 -19.18143 -10.25898 -10.25381 -10.25358
  Beta  occ. eigenvalues --   -6.69366  -4.83421  -4.83347  -4.83331  -3.71999
  Beta  occ. eigenvalues --   -2.30131  -2.30029  -2.29889  -1.01413  -0.80143
  Beta  occ. eigenvalues --   -0.74335  -0.74045  -0.56732  -0.48403  -0.48172
  Beta  occ. eigenvalues --   -0.48100  -0.45402  -0.45255  -0.43057  -0.41539
  Beta  occ. eigenvalues --   -0.40098  -0.40053  -0.33366  -0.31799  -0.29187
  Beta  occ. eigenvalues --   -0.29162  -0.28568  -0.27802  -0.26101
  Beta virt. eigenvalues --   -0.04820   0.03099   0.03911   0.04287   0.06752
  Beta virt. eigenvalues --    0.08319   0.08815   0.09556   0.10519   0.11862
  Beta virt. eigenvalues --    0.13107   0.13813   0.13939   0.14769   0.15926
  Beta virt. eigenvalues --    0.16760   0.17116   0.18894   0.32360   0.32957
  Beta virt. eigenvalues --    0.35310   0.37269   0.40302   0.40820   0.41123
  Beta virt. eigenvalues --    0.43028   0.45955   0.49565   0.51247   0.51562
  Beta virt. eigenvalues --    0.54333   0.55427   0.58464   0.59736   0.61475
  Beta virt. eigenvalues --    0.61867   0.62275   0.62326   0.65097   0.66982
  Beta virt. eigenvalues --    0.67756   0.68950   0.69344   0.69995   0.71119
  Beta virt. eigenvalues --    0.71692   0.72667   0.74340   0.75217   0.81132
  Beta virt. eigenvalues --    0.82319   0.92974   0.94209   0.99288   1.00272
  Beta virt. eigenvalues --    1.02113   1.12886   1.17474   1.20463   1.21168
  Beta virt. eigenvalues --    1.22348   1.29565   1.40668   1.44365   1.48980
  Beta virt. eigenvalues --    1.50468   1.51223   1.51331   1.63503   1.71219
  Beta virt. eigenvalues --    1.71272   1.73281   1.76962   1.77165   1.78818
  Beta virt. eigenvalues --    1.81465   1.90628   1.91345   1.94234   1.94355
  Beta virt. eigenvalues --    1.94515   1.96140   2.00571   2.01115   2.10272
  Beta virt. eigenvalues --    2.20551   2.23469   2.23553   2.41936   2.42159
  Beta virt. eigenvalues --    2.43348   2.44716   2.45099   2.46664   2.65278
  Beta virt. eigenvalues --    2.65318   2.65348   2.65450   2.65579   2.65608
  Beta virt. eigenvalues --    2.66880   2.68090   2.68722   2.72618   2.74109
  Beta virt. eigenvalues --    2.78239   2.83230   2.84114   2.90357   2.92619
  Beta virt. eigenvalues --    2.93534   2.93899   2.95508   2.95642   3.41773
  Beta virt. eigenvalues --   53.85844
          Condensed to atoms (all electrons):
               1          2          3          4          5          6
     1  O    8.030841   0.500128  -0.035546  -0.034340  -0.035497  -0.001003
     2  P    0.500128  13.089341   0.364212   0.297797   0.362327  -0.016883
     3  C   -0.035546   0.364212   4.921374  -0.056930  -0.080693   0.387416
     4  C   -0.034340   0.297797  -0.056930   4.966060  -0.056774   0.004000
     5  C   -0.035497   0.362327  -0.080693  -0.056774   4.921014  -0.003605
     6  H   -0.001003  -0.016883   0.387416   0.004000  -0.003605   0.527578
     7  H    0.001918  -0.008647   0.350395   0.000232   0.000717  -0.010898
     8  H    0.001419  -0.015212   0.375502  -0.003221   0.004759  -0.010212
     9  H    0.001870  -0.011729   0.004823   0.374936  -0.004027  -0.000127
    10  H    0.001883  -0.011811  -0.003988   0.375001   0.004827  -0.000099
    11  H    0.001694  -0.000501  -0.000524   0.350038  -0.000508  -0.000072
    12  H    0.001472  -0.014826   0.004787  -0.003318   0.375049  -0.000024
    13  H   -0.000911  -0.016513  -0.003663   0.004044   0.387108   0.002077
    14  H    0.001926  -0.008419   0.000720   0.000296   0.350597   0.000203
    15  Ag   0.060524  -0.015354  -0.018900   0.000208  -0.017194   0.015740
               7          8          9         10         11         12
     1  O    0.001918   0.001419   0.001870   0.001883   0.001694   0.001472
     2  P   -0.008647  -0.015212  -0.011729  -0.011811  -0.000501  -0.014826
     3  C    0.350395   0.375502   0.004823  -0.003988  -0.000524   0.004787
     4  C    0.000232  -0.003221   0.374936   0.375001   0.350038  -0.003318
     5  C    0.000717   0.004759  -0.004027   0.004827  -0.000508   0.375049
     6  H   -0.010898  -0.010212  -0.000127  -0.000099  -0.000072  -0.000024
     7  H    0.604904  -0.011041  -0.000223  -0.000064   0.001336  -0.000181
     8  H   -0.011041   0.560224  -0.000122   0.002745  -0.000038  -0.000155
     9  H   -0.000223  -0.000122   0.559824  -0.010381  -0.011486   0.002764
    10  H   -0.000064   0.002745  -0.010381   0.559658  -0.011463  -0.000123
    11  H    0.001336  -0.000038  -0.011486  -0.011463   0.597964  -0.000033
    12  H   -0.000181  -0.000155   0.002764  -0.000123  -0.000033   0.560990
    13  H    0.000214  -0.000025  -0.000100  -0.000128  -0.000076  -0.010107
    14  H    0.001443  -0.000178  -0.000066  -0.000226   0.001303  -0.011155
    15  Ag   0.001250   0.001441   0.000085   0.000104  -0.000146   0.001250
              13         14         15
     1  O   -0.000911   0.001926   0.060524
     2  P   -0.016513  -0.008419  -0.015354
     3  C   -0.003663   0.000720  -0.018900
     4  C    0.004044   0.000296   0.000208
     5  C    0.387108   0.350597  -0.017194
     6  H    0.002077   0.000203   0.015740
     7  H    0.000214   0.001443   0.001250
     8  H   -0.000025  -0.000178   0.001441
     9  H   -0.000100  -0.000066   0.000085
    10  H   -0.000128  -0.000226   0.000104
    11  H   -0.000076   0.001303  -0.000146
    12  H   -0.010107  -0.011155   0.001250
    13  H    0.529564  -0.011032   0.014613
    14  H   -0.011032   0.604708   0.001066
    15  Ag   0.014613   0.001066  19.126475
          Atomic-Atomic Spin Densities.
               1          2          3          4          5          6
     1  O    0.101382  -0.003747   0.000849   0.000379   0.000891  -0.000565
     2  P   -0.003747   0.008729   0.003528  -0.000730   0.003307  -0.000645
     3  C    0.000849   0.003528   0.012200  -0.000107   0.000160  -0.001414
     4  C    0.000379  -0.000730  -0.000107   0.014881   0.000070  -0.000212
     5  C    0.000891   0.003307   0.000160   0.000070   0.010794  -0.000183
     6  H   -0.000565  -0.000645  -0.001414  -0.000212  -0.000183  -0.000591
     7  H   -0.000121  -0.001543  -0.002675  -0.000948  -0.000115   0.000506
     8  H   -0.000234  -0.000187  -0.000829  -0.000290  -0.000029   0.000096
     9  H    0.000000   0.000305   0.000006  -0.001105   0.000023   0.000006
    10  H   -0.000005   0.000270   0.000039  -0.001038  -0.000001   0.000015
    11  H    0.000009  -0.000342   0.000118  -0.006478   0.000055   0.000051
    12  H   -0.000229  -0.000140  -0.000024  -0.000306  -0.000918   0.000016
    13  H   -0.000553  -0.000639  -0.000172  -0.000213  -0.001394   0.000048
    14  H   -0.000113  -0.001401  -0.000094  -0.000918  -0.002553   0.000092
    15  Ag  -0.070282  -0.004395  -0.010701  -0.002281  -0.009702   0.006321
               7          8          9         10         11         12
     1  O   -0.000121  -0.000234   0.000000  -0.000005   0.000009  -0.000229
     2  P   -0.001543  -0.000187   0.000305   0.000270  -0.000342  -0.000140
     3  C   -0.002675  -0.000829   0.000006   0.000039   0.000118  -0.000024
     4  C   -0.000948  -0.000290  -0.001105  -0.001038  -0.006478  -0.000306
     5  C   -0.000115  -0.000029   0.000023  -0.000001   0.000055  -0.000918
     6  H    0.000506   0.000096   0.000006   0.000015   0.000051   0.000016
     7  H    0.003621   0.000415   0.000024   0.000065   0.000536   0.000024
     8  H    0.000415   0.000051   0.000010   0.000041   0.000094   0.000004
     9  H    0.000024   0.000010   0.000046   0.000134   0.000574   0.000045
    10  H    0.000065   0.000041   0.000134   0.000026   0.000548   0.000010
    11  H    0.000536   0.000094   0.000574   0.000548   0.006553   0.000098
    12  H    0.000024   0.000004   0.000045   0.000010   0.000098   0.000130
    13  H    0.000094   0.000015   0.000016   0.000005   0.000051   0.000127
    14  H    0.000320   0.000022   0.000065   0.000022   0.000516   0.000424
    15  Ag   0.001887   0.001330   0.000177   0.000178   0.000429   0.001262
              13         14         15
     1  O   -0.000553  -0.000113  -0.070282
     2  P   -0.000639  -0.001401  -0.004395
     3  C   -0.000172  -0.000094  -0.010701
     4  C   -0.000213  -0.000918  -0.002281
     5  C   -0.001394  -0.002553  -0.009702
     6  H    0.000048   0.000092   0.006321
     7  H    0.000094   0.000320   0.001887
     8  H    0.000015   0.000022   0.001330
     9  H    0.000016   0.000065   0.000177
    10  H    0.000005   0.000022   0.000178
    11  H    0.000051   0.000516   0.000429
    12  H    0.000127   0.000424   0.001262
    13  H   -0.000479   0.000488   0.005923
    14  H    0.000488   0.003367   0.001718
    15  Ag   0.005923   0.001718   1.030727
 Mulliken charges and spin densities:
               1          2
     1  O   -0.496380   0.027662
     2  P    0.506090   0.002371
     3  C   -0.208986   0.000884
     4  C   -0.218027   0.000704
     5  C   -0.208101   0.000407
     6  H    0.105910   0.003541
     7  H    0.068645   0.002091
     8  H    0.094114   0.000510
     9  H    0.093960   0.000324
    10  H    0.094064   0.000309
    11  H    0.072512   0.002813
    12  H    0.093610   0.000523
    13  H    0.104935   0.003318
    14  H    0.068814   0.001953
    15  Ag  -0.171161   0.952590
 Sum of Mulliken charges =   0.00000   1.00000
 Mulliken charges and spin densities with hydrogens summed into heavy atoms:
               1          2
     1  O   -0.496380   0.027662
     2  P    0.506090   0.002371
     3  C    0.059684   0.007025
     4  C    0.042508   0.004151
     5  C    0.059258   0.006201
    15  Ag  -0.171161   0.952590
 Electronic spatial extent (au):  <R**2>=           1500.6949
 Charge=              0.0000 electrons
 Dipole moment (field-independent basis, Debye):
    X=             -0.8479    Y=              3.5822    Z=              5.5701  Tot=              6.6766
 Quadrupole moment (field-independent basis, Debye-Ang):
   XX=            -57.3044   YY=            -69.2661   ZZ=            -74.2897
   XY=              1.8991   XZ=              2.6124   YZ=            -10.4018
 Traceless Quadrupole moment (field-independent basis, Debye-Ang):
   XX=              9.6490   YY=             -2.3127   ZZ=             -7.3363
   XY=              1.8991   XZ=              2.6124   YZ=            -10.4018
 Octapole moment (field-independent basis, Debye-Ang**2):
  XXX=            -33.8085  YYY=            190.1963  ZZZ=            258.2901  XYY=            -17.3908
  XXY=             52.4498  XXZ=             72.0415  XZZ=            -18.1182  YZZ=             79.5311
  YYZ=            105.9668  XYZ=             -5.2221
 Hexadecapole moment (field-independent basis, Debye-Ang**3):
 XXXX=           -314.4565 YYYY=          -1103.4106 ZZZZ=          -1343.9396 XXXY=             69.6078
 XXXZ=             82.0539 YYYX=             88.0731 YYYZ=           -527.2272 ZZZX=             93.9505
 ZZZY=           -495.4919 XXYY=           -219.9226 XXZZ=           -267.0444 YYZZ=           -474.1241
 XXYZ=           -142.7922 YYXZ=             44.6293 ZZXY=             37.2266
 N-N= 4.112470396157D+02 E-N=-2.403794645375D+03  KE= 5.892170636988D+02
                          Isotropic Fermi Contact Couplings
        Atom                 a.u.       MegaHertz       Gauss      10(-4) cm-1
     1  O(17)              0.16451     -99.72752     -35.58526     -33.26552
     2  P(31)             -0.00166      -3.01182      -1.07469      -1.00464
     3  C(13)              0.00860       9.67347       3.45174       3.22672
     4  C(13)              0.00778       8.74878       3.12178       2.91828
     5  C(13)              0.00765       8.60437       3.07025       2.87011
     6  H(1)               0.00000       0.01271       0.00453       0.00424
     7  H(1)               0.00044       1.94850       0.69527       0.64995
     8  H(1)              -0.00006      -0.28238      -0.10076      -0.09419
     9  H(1)              -0.00002      -0.09389      -0.03350      -0.03132
    10  H(1)              -0.00002      -0.09215      -0.03288      -0.03074
    11  H(1)               0.00039       1.74330       0.62205       0.58150
    12  H(1)              -0.00006      -0.25436      -0.09076      -0.08484
    13  H(1)               0.00002       0.07891       0.02816       0.02632
    14  H(1)               0.00040       1.79793       0.64155       0.59972
    15  Ag(107             0.00026      -0.04683      -0.01671      -0.01562
 --------------------------------------------------------
       Center         ----  Spin Dipole Couplings  ----
                      3XX-RR        3YY-RR        3ZZ-RR
 --------------------------------------------------------
     1   Atom       -0.084356      0.154956     -0.070600
     2   Atom       -0.010859     -0.002531      0.013390
     3   Atom       -0.004503      0.004826     -0.000323
     4   Atom       -0.002671      0.004020     -0.001349
     5   Atom       -0.003445      0.003949     -0.000504
     6   Atom       -0.004076     -0.000374      0.004450
     7   Atom       -0.001455     -0.000597      0.002052
     8   Atom       -0.000745      0.000396      0.000349
     9   Atom       -0.000716      0.001279     -0.000563
    10   Atom       -0.000906      0.001388     -0.000481
    11   Atom       -0.000944      0.000407      0.000537
    12   Atom        0.000367      0.000096     -0.000463
    13   Atom       -0.001340     -0.000731      0.002071
    14   Atom       -0.000858     -0.000628      0.001486
    15   Atom        0.021227     -0.040384      0.019157
 --------------------------------------------------------
                        XY            XZ            YZ
 --------------------------------------------------------
     1   Atom       -0.018658     -0.004398      0.050081
     2   Atom        0.000731     -0.002189     -0.011303
     3   Atom       -0.001221      0.000235      0.006054
     4   Atom       -0.000593     -0.000264      0.003321
     5   Atom       -0.001051     -0.001663      0.005446
     6   Atom        0.001348      0.003128      0.004752
     7   Atom        0.000162      0.000428      0.001361
     8   Atom        0.001703      0.001499      0.001761
     9   Atom       -0.001045     -0.000241      0.000904
    10   Atom        0.000643      0.000095      0.001128
    11   Atom       -0.000196     -0.000224      0.001183
    12   Atom       -0.001953     -0.001618      0.001123
    13   Atom       -0.002391     -0.004824      0.003592
    14   Atom       -0.000533     -0.001273      0.001160
    15   Atom        0.006470      0.001550     -0.024933
 --------------------------------------------------------


 ---------------------------------------------------------------------------------
              Anisotropic Spin Dipole Couplings in Principal Axis System
 ---------------------------------------------------------------------------------

       Atom             a.u.   MegaHertz   Gauss  10(-4) cm-1        Axes

              Baa    -0.0859     6.213     2.217     2.072  0.9928  0.0549  0.1061
     1 O(17)  Bbb    -0.0812     5.874     2.096     1.959 -0.0921 -0.2136  0.9726
              Bcc     0.1670   -12.087    -4.313    -4.032 -0.0760  0.9754  0.2070
 
              Baa    -0.0111    -2.395    -0.855    -0.799  0.9884  0.0832  0.1268
     2 P(31)  Bbb    -0.0083    -1.805    -0.644    -0.602 -0.1318  0.8849  0.4468
              Bcc     0.0194     4.200     1.499     1.401 -0.0751 -0.4584  0.8856
 
              Baa    -0.0053    -0.714    -0.255    -0.238  0.7515  0.4024 -0.5228
     3 C(13)  Bbb    -0.0036    -0.479    -0.171    -0.160  0.6564 -0.3761  0.6540
              Bcc     0.0089     1.193     0.426     0.398 -0.0665  0.8346  0.5468
 
              Baa    -0.0029    -0.394    -0.141    -0.131 -0.0776 -0.4349  0.8971
     4 C(13)  Bbb    -0.0027    -0.365    -0.130    -0.122  0.9940  0.0364  0.1036
              Bcc     0.0057     0.759     0.271     0.253 -0.0777  0.8997  0.4295
 
              Baa    -0.0048    -0.639    -0.228    -0.213  0.5998 -0.3710  0.7090
     5 C(13)  Bbb    -0.0031    -0.420    -0.150    -0.140  0.7845  0.4470 -0.4299
              Bcc     0.0079     1.059     0.378     0.353 -0.1574  0.8140  0.5591
 
              Baa    -0.0051    -2.730    -0.974    -0.911  0.9348  0.0810 -0.3459
     6 H(1)   Bbb    -0.0032    -1.692    -0.604    -0.564 -0.2383  0.8650 -0.4416
              Bcc     0.0083     4.422     1.578     1.475  0.2634  0.4952  0.8279
 
              Baa    -0.0015    -0.804    -0.287    -0.268  0.9926  0.0053 -0.1216
     7 H(1)   Bbb    -0.0012    -0.625    -0.223    -0.208 -0.0518  0.9225 -0.3826
              Bcc     0.0027     1.428     0.510     0.476  0.1101  0.3860  0.9159
 
              Baa    -0.0020    -1.073    -0.383    -0.358  0.8633 -0.4617 -0.2040
     8 H(1)   Bbb    -0.0014    -0.730    -0.261    -0.244 -0.1507 -0.6215  0.7688
              Bcc     0.0034     1.803     0.643     0.601  0.4817  0.6329  0.6061
 
              Baa    -0.0012    -0.647    -0.231    -0.216  0.8123  0.4671 -0.3492
     9 H(1)   Bbb    -0.0008    -0.449    -0.160    -0.150  0.4606 -0.1465  0.8754
              Bcc     0.0021     1.096     0.391     0.366 -0.3578  0.8720  0.3342
 
              Baa    -0.0012    -0.645    -0.230    -0.215  0.7172 -0.4194  0.5565
    10 H(1)   Bbb    -0.0008    -0.448    -0.160    -0.150 -0.6654 -0.1751  0.7257
              Bcc     0.0020     1.093     0.390     0.365  0.2069  0.8908  0.4047
 
              Baa    -0.0010    -0.522    -0.186    -0.174  0.9926  0.0438  0.1128
    11 H(1)   Bbb    -0.0007    -0.380    -0.136    -0.127  0.0454  0.7293 -0.6826
              Bcc     0.0017     0.902     0.322     0.301 -0.1122  0.6827  0.7220
 
              Baa    -0.0019    -1.008    -0.360    -0.336  0.7450  0.4595  0.4836
    12 H(1)   Bbb    -0.0013    -0.713    -0.254    -0.238 -0.0664 -0.6703  0.7391
              Bcc     0.0032     1.720     0.614     0.574  0.6638 -0.5827 -0.4689
 
              Baa    -0.0048    -2.538    -0.906    -0.847  0.8016 -0.0551  0.5953
    13 H(1)   Bbb    -0.0029    -1.565    -0.558    -0.522  0.3115  0.8883 -0.3373
              Bcc     0.0077     4.103     1.464     1.369 -0.5102  0.4559  0.7293
 
              Baa    -0.0014    -0.757    -0.270    -0.252  0.9234  0.0683  0.3776
    14 H(1)   Bbb    -0.0011    -0.607    -0.217    -0.202  0.0825  0.9257 -0.3692
              Bcc     0.0026     1.364     0.487     0.455 -0.3748  0.3721  0.8492
 
              Baa    -0.0501     1.086     0.388     0.362 -0.0923  0.9361  0.3393
    15 Ag(107 Bbb     0.0218    -0.472    -0.168    -0.157  0.9891  0.0469  0.1397
              Bcc     0.0283    -0.614    -0.219    -0.205 -0.1149 -0.3485  0.9303
 

 ---------------------------------------------------------------------------------

 No NMR shielding tensors so no spin-rotation constants.
 Leave Link  601 at Fri Sep 11 22:39:03 2026, MaxMem=  6442450944 cpu:               3.0 elap:               3.2
 (Enter C:\G16W\l9999.exe)
 Unable to Open any file for archive entry.
 1|1|UNPC-DESKTOP-2JKEGCA|SP|UPBE1PBE|def2SVP|C3H9Ag1O1P1(2)|JHKIM|11-S
 ep-2026|0||#P PBE1PBE/Def2SVP EmpiricalDispersion=GD3BJ SP SCF=(XQC,Ma
 xCycle=128) NoSymm Guess=Read||Me3P=O t=0.750 dz=+0.00 class=toface||0
 ,2|O,0,0.241669,-0.102679,-2.00717|P,0,0.065789,-0.027952,-0.546402|C,
 0,1.447763,-0.796794,0.374556|C,0,-0.051532,1.692361,0.0667|C,0,-1.452
 867,-0.871503,0.029133|H,0,1.519969,-1.839062,0.069681|H,0,1.304231,-0
 .73408,1.448588|H,0,2.367643,-0.288171,0.092404|H,0,-0.895479,2.171107
 ,-0.426293|H,0,0.859124,2.216299,-0.217345|H,0,-0.180788,1.731372,1.14
 3663|H,0,-2.305436,-0.408531,-0.46409|H,0,-1.398507,-1.914231,-0.27786
 8|H,0,-1.568779,-0.808079,1.106454|Ag,0,0.45042053,-2.20366563,-2.7728
 1389||Version=EM64W-G16RevC.01|HF=-682.6907981|S2=0.751818|S2-1=0.|S2A
 =0.750003|RMSD=9.043e-009|Dipole=-0.3335721,1.4093469,2.1914378|Quadru
 pole=7.1737686,-1.719437,-5.4543315,1.4119363,1.9422629,-7.7334653|PG=
 C01 [X(C3H9Ag1O1P1)]||@
 The archive entry for this job was punched.


 AND HERE I AM, FOR ALL MY LORE,
 THE WRETCHED FOOL I WAS BEFORE.
 CALLED MASTER OF ARTS, AND DOCTOR TO BOOT,
 FOR TEN YEARS ALMOST I CONFUTE
 AND UP AND DOWN, WHEREVER IT GOES
 I DRAG MY STUDENTS BY THE NOSE --
 AND SEE THAT FOR ALL OUR SCIENCE AND ART
 WE CAN KNOW NOTHING.  IT BURNS MY HEART.

                                       -- FAUST
 Job cpu time:       0 days  0 hours  1 minutes 36.0 seconds.
 Elapsed time:       0 days  0 hours  1 minutes 33.7 seconds.
 File lengths (MBytes):  RWF=     24 Int=      0 D2E=      0 Chk=      3 Scr=      1
 Normal termination of Gaussian 16 at Fri Sep 11 22:39:04 2026.
