 Entering Gaussian System, Link 0=C:\G16W\g16.exe
 Input=Me3PO_t0_z1.gjf
 Output=Me3PO_t0_z1.out
 Initial command:
 C:\G16W\l1.exe ".\Gau-72592.inp" "Me3PO_t0_z1.out" /scrdir=".\"
 Entering Link 1 = C:\G16W\l1.exe PID=     37980.
  
 Copyright (c) 1988-2019, Gaussian, Inc.  All Rights Reserved.
  
 This is part of the Gaussian(R) 16 program.  It is based on
 the Gaussian(R) 09 system (copyright 2009, Gaussian, Inc.),
 the Gaussian(R) 03 system (copyright 2003, Gaussian, Inc.),
 the Gaussian(R) 98 system (copyright 1998, Gaussian, Inc.),
 the Gaussian(R) 94 system (copyright 1995, Gaussian, Inc.),
 the Gaussian 92(TM) system (copyright 1992, Gaussian, Inc.),
 the Gaussian 90(TM) system (copyright 1990, Gaussian, Inc.),
 the Gaussian 88(TM) system (copyright 1988, Gaussian, Inc.),
 the Gaussian 86(TM) system (copyright 1986, Carnegie Mellon
 University), and the Gaussian 82(TM) system (copyright 1983,
 Carnegie Mellon University). Gaussian is a federally registered
 trademark of Gaussian, Inc.
  
 This software contains proprietary and confidential information,
 including trade secrets, belonging to Gaussian, Inc.
  
 This software is provided under written license and may be
 used, copied, transmitted, or stored only in accord with that
 written license.
  
 The following legend is applicable only to US Government
 contracts under FAR:
  
                    RESTRICTED RIGHTS LEGEND
  
 Use, reproduction and disclosure by the US Government is
 subject to restrictions as set forth in subparagraphs (a)
 and (c) of the Commercial Computer Software - Restricted
 Rights clause in FAR 52.227-19.
  
 Gaussian, Inc.
 340 Quinnipiac St., Bldg. 40, Wallingford CT 06492
  
  
 ---------------------------------------------------------------
 Warning -- This program may not be used in any manner that
 competes with the business of Gaussian, Inc. or will provide
 assistance to any competitor of Gaussian, Inc.  The licensee
 of this program is prohibited from giving any competitor of
 Gaussian, Inc. access to this program.  By using this program,
 the user acknowledges that Gaussian, Inc. is engaged in the
 business of creating and licensing software in the field of
 computational chemistry and represents and warrants to the
 licensee that it is not a competitor of Gaussian, Inc. and that
 it will not use this program in any manner prohibited above.
 ---------------------------------------------------------------
  

 Cite this work as:
 Gaussian 16, Revision C.01,
 M. J. Frisch, G. W. Trucks, H. B. Schlegel, G. E. Scuseria, 
 M. A. Robb, J. R. Cheeseman, G. Scalmani, V. Barone, 
 G. A. Petersson, H. Nakatsuji, X. Li, M. Caricato, A. V. Marenich, 
 J. Bloino, B. G. Janesko, R. Gomperts, B. Mennucci, H. P. Hratchian, 
 J. V. Ortiz, A. F. Izmaylov, J. L. Sonnenberg, D. Williams-Young, 
 F. Ding, F. Lipparini, F. Egidi, J. Goings, B. Peng, A. Petrone, 
 T. Henderson, D. Ranasinghe, V. G. Zakrzewski, J. Gao, N. Rega, 
 G. Zheng, W. Liang, M. Hada, M. Ehara, K. Toyota, R. Fukuda, 
 J. Hasegawa, M. Ishida, T. Nakajima, Y. Honda, O. Kitao, H. Nakai, 
 T. Vreven, K. Throssell, J. A. Montgomery, Jr., J. E. Peralta, 
 F. Ogliaro, M. J. Bearpark, J. J. Heyd, E. N. Brothers, K. N. Kudin, 
 V. N. Staroverov, T. A. Keith, R. Kobayashi, J. Normand, 
 K. Raghavachari, A. P. Rendell, J. C. Burant, S. S. Iyengar, 
 J. Tomasi, M. Cossi, J. M. Millam, M. Klene, C. Adamo, R. Cammi, 
 J. W. Ochterski, R. L. Martin, K. Morokuma, O. Farkas, 
 J. B. Foresman, and D. J. Fox, Gaussian, Inc., Wallingford CT, 2019.
 
 ******************************************
 Gaussian 16:  EM64W-G16RevC.01 30-May-2019
                11-Sep-2026 
 ******************************************
 %Chk=Me3PO.chk
 %NProcShared=8
 Will use up to    8 processors via shared memory.
 %Mem=48GB
 ----------------------------------------------------------------------
 #P PBE1PBE/Def2SVP EmpiricalDispersion=GD3BJ SP SCF=(XQC,MaxCycle=128)
  NoSymm Guess=Read
 ----------------------------------------------------------------------
 1/38=1,172=1/1;
 2/12=2,15=1,17=6,18=5,40=1/2;
 3/5=43,7=101,11=2,25=1,30=1,74=-13,116=-2,124=41/1,2,3;
 4/5=1/1;
 5/5=2,7=128,8=3,13=1,38=6/2,8;
 6/7=2,8=2,9=2,10=2,28=1/1;
 99/5=1,9=1/99;
 Leave Link    1 at Fri Sep 11 22:30:38 2026, MaxMem=  6442450944 cpu:               0.0 elap:               0.4
 (Enter C:\G16W\l101.exe)
 ------------------------------------
 Me3P=O t=0.000 dz=+0.40 class=toface
 ------------------------------------
 Symbolic Z-matrix:
 Charge =  0 Multiplicity = 2
 O                     0.24167  -0.10268  -2.00717 
 P                     0.06579  -0.02795  -0.5464 
 C                     1.44776  -0.79679   0.37456 
 C                    -0.05153   1.69236   0.0667 
 C                    -1.45287  -0.8715    0.02913 
 H                     1.51997  -1.83906   0.06968 
 H                     1.30423  -0.73408   1.44859 
 H                     2.36764  -0.28817   0.0924 
 H                    -0.89548   2.17111  -0.42629 
 H                     0.85912   2.2163   -0.21735 
 H                    -0.18079   1.73137   1.14366 
 H                    -2.30544  -0.40853  -0.46409 
 H                    -1.39851  -1.91423  -0.27787 
 H                    -1.56878  -0.80808   1.10645 
 Ag                    0.58054  -0.24666  -4.82162 
 
 ITRead=  0  0  0  0  0  0  0  0  0  0  0  0  0  0  0
 MicOpt= -1 -1 -1 -1 -1 -1 -1 -1 -1 -1 -1 -1 -1 -1 -1
 NAtoms=     15 NQM=       15 NQMF=       0 NMMI=      0 NMMIF=      0
                NMic=       0 NMicF=      0.
                    Isotopes and Nuclear Properties:
 (Nuclear quadrupole moments (NQMom) in fm**2, nuclear magnetic moments (NMagM)
  in nuclear magnetons)

  Atom         1           2           3           4           5           6           7           8           9          10
 IAtWgt=          16          31          12          12          12           1           1           1           1           1
 AtmWgt=  15.9949146  30.9737634  12.0000000  12.0000000  12.0000000   1.0078250   1.0078250   1.0078250   1.0078250   1.0078250
 NucSpn=           0           1           0           0           0           1           1           1           1           1
 AtZEff=   0.0000000   0.0000000   0.0000000   0.0000000   0.0000000   0.0000000   0.0000000   0.0000000   0.0000000   0.0000000
 NQMom=    0.0000000   0.0000000   0.0000000   0.0000000   0.0000000   0.0000000   0.0000000   0.0000000   0.0000000   0.0000000
 NMagM=    0.0000000   1.1316000   0.0000000   0.0000000   0.0000000   2.7928460   2.7928460   2.7928460   2.7928460   2.7928460
 AtZNuc=   8.0000000  15.0000000   6.0000000   6.0000000   6.0000000   1.0000000   1.0000000   1.0000000   1.0000000   1.0000000

  Atom        11          12          13          14          15
 IAtWgt=           1           1           1           1         107
 AtmWgt=   1.0078250   1.0078250   1.0078250   1.0078250 106.9050900
 NucSpn=           1           1           1           1           1
 AtZEff=   0.0000000   0.0000000   0.0000000   0.0000000   0.0000000
 NQMom=    0.0000000   0.0000000   0.0000000   0.0000000   0.0000000
 NMagM=    2.7928460   2.7928460   2.7928460   2.7928460  -0.1135700
 AtZNuc=   1.0000000   1.0000000   1.0000000   1.0000000  47.0000000
 Leave Link  101 at Fri Sep 11 22:30:39 2026, MaxMem=  6442450944 cpu:               1.0 elap:               0.4
 (Enter C:\G16W\l202.exe)
                          Input orientation:                          
 ---------------------------------------------------------------------
 Center     Atomic      Atomic             Coordinates (Angstroms)
 Number     Number       Type             X           Y           Z
 ---------------------------------------------------------------------
      1          8           0        0.241669   -0.102679   -2.007170
      2         15           0        0.065789   -0.027952   -0.546402
      3          6           0        1.447763   -0.796794    0.374556
      4          6           0       -0.051532    1.692361    0.066700
      5          6           0       -1.452867   -0.871503    0.029133
      6          1           0        1.519969   -1.839062    0.069681
      7          1           0        1.304231   -0.734080    1.448588
      8          1           0        2.367643   -0.288171    0.092404
      9          1           0       -0.895479    2.171107   -0.426293
     10          1           0        0.859124    2.216299   -0.217345
     11          1           0       -0.180788    1.731372    1.143663
     12          1           0       -2.305436   -0.408531   -0.464090
     13          1           0       -1.398507   -1.914231   -0.277868
     14          1           0       -1.568779   -0.808079    1.106454
     15         47           0        0.580539   -0.246657   -4.821617
 ---------------------------------------------------------------------
                    Distance matrix (angstroms):
                    1          2          3          4          5
     1  O    0.000000
     2  P    1.473215   0.000000
     3  C    2.758456   1.830064   0.000000
     4  C    2.758455   1.830064   2.922080   0.000000
     5  C    2.758455   1.830064   2.922080   2.922080   0.000000
     6  H    2.993725   2.402981   1.088341   3.865304   3.126591
     7  H    3.670146   2.452007   1.085394   3.104082   3.104082
     8  H    2.993724   2.402981   1.088341   3.126592   3.865304
     9  H    2.993724   2.402982   3.865304   1.088341   3.126591
    10  H    2.993724   2.402982   3.126591   1.088341   3.865304
    11  H    3.670145   2.452008   3.104082   1.085393   3.104081
    12  H    2.993724   2.402982   3.865304   3.126591   1.088341
    13  H    2.993724   2.402982   3.126592   3.865304   1.088341
    14  H    3.670145   2.452008   3.104082   3.104082   1.085393
    15  Ag   2.838428   4.311642   5.296691   5.296692   5.296692
                    6          7          8          9         10
     6  H    0.000000
     7  H    1.780144   0.000000
     8  H    1.767578   1.780145   0.000000
     9  H    4.707636   4.098050   4.118866   0.000000
    10  H    4.118865   3.417337   2.940059   1.767578   0.000000
    11  H    4.098050   2.894255   3.417338   1.780144   1.780144
    12  H    4.118866   4.098050   4.707636   2.940058   4.118866
    13  H    2.940058   3.417338   4.118866   4.118866   4.707636
    14  H    3.417336   2.894256   4.098051   3.417337   4.098051
    15  Ag   5.229061   6.330622   5.229060   5.229061   5.229061
                   11         12         13         14         15
    11  H    0.000000
    12  H    3.417336   0.000000
    13  H    4.098050   1.767578   0.000000
    14  H    2.894256   1.780143   1.780144   0.000000
    15  Ag   6.330622   5.229062   5.229061   6.330622   0.000000
 Symmetry turned off by external request.
 This structure is nearly, but not quite of a higher symmetry.
 Consider Symm=Loose if the higher symmetry is desired.
 Stoichiometry    C3H9AgOP(2)
 Framework group  C1[X(C3H9AgOP)]
 Deg. of freedom    39
 Full point group                 C1      NOp   1
 Rotational constants (GHZ):           3.4829583           0.4599567           0.4599567
 Leave Link  202 at Fri Sep 11 22:30:39 2026, MaxMem=  6442450944 cpu:               0.0 elap:               0.1
 (Enter C:\G16W\l301.exe)
 Standard basis: def2SVP (5D, 7F)
 Ernie: Thresh=  0.10000D-02 Tol=  0.10000D-05 Strict=F.
   150 basis functions,   265 primitive gaussians,   160 cartesian basis functions
    35 alpha electrons       34 beta electrons
       nuclear repulsion energy       373.6426282582 Hartrees.
 IExCor= 1009 DFT=T Ex+Corr=PBE1PBE ExCW=0 ScaHFX=  0.250000
 ScaDFX=  0.750000  0.750000  1.000000  1.000000 ScalE2=  1.000000  1.000000
 IRadAn=      5 IRanWt=     -1 IRanGd=            0 ICorTp=0 IEmpDi=141
 NAtoms=   15 NActive=   15 NUniq=   15 SFac= 1.00D+00 NAtFMM=   60 NAOKFM=F Big=F
 Integral buffers will be    131072 words long.
 Raffenetti 2 integral format.
 Two-electron integral symmetry is turned off.
 R6Disp:  Grimme-D3(BJ) Dispersion energy=       -0.0124939053 Hartrees.
 Nuclear repulsion after empirical dispersion term =      373.6301343529 Hartrees.
 Leave Link  301 at Fri Sep 11 22:30:39 2026, MaxMem=  6442450944 cpu:               0.0 elap:               0.2
 (Enter C:\G16W\l302.exe)
 NPDir=0 NMtPBC=     1 NCelOv=     1 NCel=       1 NClECP=     1 NCelD=      1
         NCelK=      1 NCelE2=     1 NClLst=     1 CellRange=     0.0.
 One-electron integrals computed using PRISM.
   1 Symmetry operations used in ECPInt.
 ECPInt:  NShTT=    2485 NPrTT=    8632 LenC2=    2451 LenP2D=    6909.
 LDataN:  DoStor=T MaxTD1= 7 Len=  274
 NBasis=   150 RedAO= T EigKep=  2.92D-03  NBF=   150
 NBsUse=   150 1.00D-06 EigRej= -1.00D+00 NBFU=   150
 Precomputing XC quadrature grid using
 IXCGrd= 4 IRadAn=           5 IRanWt=          -1 IRanGd=           0 AccXCQ= 0.00D+00.
 Defaulting to unpruned grid for atomic number  47.
 Generated NRdTot=       0 NPtTot=           0 NUsed=           0 NTot=          32
 NSgBfM=   160   160   160   160   160 MxSgAt=    15 MxSgA2=    15.
 Leave Link  302 at Fri Sep 11 22:30:46 2026, MaxMem=  6442450944 cpu:               7.0 elap:               6.2
 (Enter C:\G16W\l303.exe)
 DipDrv:  MaxL=1.
 Leave Link  303 at Fri Sep 11 22:30:46 2026, MaxMem=  6442450944 cpu:               0.0 elap:               0.1
 (Enter C:\G16W\l401.exe)
 Initial guess from the checkpoint file:  "Me3PO.chk"
 B after Tr=     0.043726   -0.018578   -0.363162
         Rot=    1.000000    0.000000    0.000000    0.000000 Ang=   0.00 deg.
 Guess basis will be translated and rotated to current coordinates.
 JPrj=2 DoOrth=T DoCkMO=T.
 Initial guess <Sx>= 0.0000 <Sy>= 0.0000 <Sz>= 0.5000 <S**2>= 0.7517 S= 0.5008
 Leave Link  401 at Fri Sep 11 22:30:48 2026, MaxMem=  6442450944 cpu:               2.0 elap:               1.6
 (Enter C:\G16W\l502.exe)
 Two-electron integral symmetry not used.
 UHF open shell SCF:
 Using DIIS extrapolation, IDIIS=  1040.
 NGot=  6442450944 LenX=  6442396688 LenY=  6442370647
 Requested convergence on RMS density matrix=1.00D-08 within 128 cycles.
 Requested convergence on MAX density matrix=1.00D-06.
 Requested convergence on             energy=1.00D-06.
 No special actions if energy rises.
 Fock matrices will be formed incrementally for  20 cycles.

 Cycle   1  Pass 1  IDiag  1:
 FoFJK:  IHMeth= 1 ICntrl=       0 DoSepK=F KAlg= 0 I1Cent=           0 FoldK=F
 IRaf= 960000000 NMat=       1 IRICut=       1 DoRegI=T DoRafI=F ISym2E= 0 IDoP0=0 IntGTp=1.
 FoFCou: FMM=F IPFlag=           0 FMFlag=      100000 FMFlg1=           0
         NFxFlg=           0 DoJE=F BraDBF=F KetDBF=F FulRan=T
         wScrn=  0.000000 ICntrl=         0 IOpCl=  1 I1Cent=           0 NGrid=           0
         NMat0=    1 NMatS0=      1 NMatT0=    0 NMatD0=    1 NMtDS0=    0 NMtDT0=    0
 Symmetry not used in FoFCou.
 Defaulting to unpruned grid for atomic number  47.
 Defaulting to unpruned grid for atomic number  47.
 Defaulting to unpruned grid for atomic number  47.
 Defaulting to unpruned grid for atomic number  47.
 Defaulting to unpruned grid for atomic number  47.
 Defaulting to unpruned grid for atomic number  47.
 Defaulting to unpruned grid for atomic number  47.
 Defaulting to unpruned grid for atomic number  47.
 E= -682.685041332582    
 DIIS: error= 8.98D-03 at cycle   1 NSaved=   1.
 NSaved= 1 IEnMin= 1 EnMin= -682.685041332582     IErMin= 1 ErrMin= 8.98D-03
 ErrMax= 8.98D-03  0.00D+00 EMaxC= 1.00D-01 BMatC= 1.37D-02 BMatP= 1.37D-02
 IDIUse=3 WtCom= 9.10D-01 WtEn= 8.98D-02
 Coeff-Com:  0.100D+01
 Coeff-En:   0.100D+01
 Coeff:      0.100D+01
 Gap=     0.167 Goal=   None    Shift=    0.000
 Gap=     0.239 Goal=   None    Shift=    0.000
 GapD=    0.167 DampG=1.000 DampE=1.000 DampFc=1.0000 IDamp=-1.
 RMSDP=9.03D-04 MaxDP=5.75D-02              OVMax= 4.23D-02

 Cycle   2  Pass 1  IDiag  1:
 RMSU=  8.98D-04    CP:  1.00D+00
 E= -682.687403877476     Delta-E=       -0.002362544894 Rises=F Damp=F
 DIIS: error= 2.04D-03 at cycle   2 NSaved=   2.
 NSaved= 2 IEnMin= 2 EnMin= -682.687403877476     IErMin= 2 ErrMin= 2.04D-03
 ErrMax= 2.04D-03  0.00D+00 EMaxC= 1.00D-01 BMatC= 2.42D-03 BMatP= 1.37D-02
 IDIUse=3 WtCom= 9.80D-01 WtEn= 2.04D-02
 Coeff-Com:  0.195D+00 0.805D+00
 Coeff-En:   0.000D+00 0.100D+01
 Coeff:      0.191D+00 0.809D+00
 Gap=     0.166 Goal=   None    Shift=    0.000
 Gap=     0.226 Goal=   None    Shift=    0.000
 RMSDP=3.53D-04 MaxDP=9.59D-03 DE=-2.36D-03 OVMax= 1.20D-02

 Cycle   3  Pass 1  IDiag  1:
 RMSU=  3.32D-04    CP:  1.00D+00  8.84D-01
 E= -682.687261127708     Delta-E=        0.000142749768 Rises=F Damp=F
 DIIS: error= 2.69D-03 at cycle   3 NSaved=   3.
 NSaved= 3 IEnMin= 2 EnMin= -682.687403877476     IErMin= 2 ErrMin= 2.04D-03
 ErrMax= 2.69D-03  0.00D+00 EMaxC= 1.00D-01 BMatC= 3.43D-03 BMatP= 2.42D-03
 IDIUse=3 WtCom= 1.62D-01 WtEn= 8.38D-01
 Coeff-Com: -0.278D-02 0.546D+00 0.457D+00
 Coeff-En:   0.000D+00 0.551D+00 0.449D+00
 Coeff:     -0.450D-03 0.550D+00 0.450D+00
 Gap=     0.166 Goal=   None    Shift=    0.000
 Gap=     0.223 Goal=   None    Shift=    0.000
 RMSDP=2.34D-04 MaxDP=6.07D-03 DE= 1.43D-04 OVMax= 7.25D-03

 Cycle   4  Pass 1  IDiag  1:
 RMSU=  7.34D-05    CP:  1.00D+00  1.04D+00  4.93D-01
 E= -682.687935907263     Delta-E=       -0.000674779555 Rises=F Damp=F
 DIIS: error= 4.89D-04 at cycle   4 NSaved=   4.
 NSaved= 4 IEnMin= 4 EnMin= -682.687935907263     IErMin= 4 ErrMin= 4.89D-04
 ErrMax= 4.89D-04  0.00D+00 EMaxC= 1.00D-01 BMatC= 6.13D-05 BMatP= 2.42D-03
 IDIUse=3 WtCom= 9.95D-01 WtEn= 4.89D-03
 Coeff-Com: -0.623D-02 0.229D+00 0.214D+00 0.563D+00
 Coeff-En:   0.000D+00 0.000D+00 0.000D+00 0.100D+01
 Coeff:     -0.620D-02 0.228D+00 0.213D+00 0.565D+00
 Gap=     0.166 Goal=   None    Shift=    0.000
 Gap=     0.221 Goal=   None    Shift=    0.000
 RMSDP=4.26D-05 MaxDP=3.70D-03 DE=-6.75D-04 OVMax= 2.46D-03

 Cycle   5  Pass 1  IDiag  1:
 RMSU=  3.49D-05    CP:  1.00D+00  1.06D+00  5.51D-01  8.96D-01
 E= -682.687951806235     Delta-E=       -0.000015898971 Rises=F Damp=F
 DIIS: error= 2.02D-04 at cycle   5 NSaved=   5.
 NSaved= 5 IEnMin= 5 EnMin= -682.687951806235     IErMin= 5 ErrMin= 2.02D-04
 ErrMax= 2.02D-04  0.00D+00 EMaxC= 1.00D-01 BMatC= 4.91D-06 BMatP= 6.13D-05
 IDIUse=3 WtCom= 9.98D-01 WtEn= 2.02D-03
 Coeff-Com: -0.935D-03-0.405D-01-0.268D-01 0.156D+00 0.912D+00
 Coeff-En:   0.000D+00 0.000D+00 0.000D+00 0.000D+00 0.100D+01
 Coeff:     -0.933D-03-0.404D-01-0.268D-01 0.156D+00 0.912D+00
 Gap=     0.166 Goal=   None    Shift=    0.000
 Gap=     0.221 Goal=   None    Shift=    0.000
 RMSDP=2.29D-05 MaxDP=2.08D-03 DE=-1.59D-05 OVMax= 2.33D-03

 Cycle   6  Pass 1  IDiag  1:
 RMSU=  1.01D-05    CP:  1.00D+00  1.07D+00  5.65D-01  1.12D+00  1.13D+00
 E= -682.687954964484     Delta-E=       -0.000003158249 Rises=F Damp=F
 DIIS: error= 5.70D-05 at cycle   6 NSaved=   6.
 NSaved= 6 IEnMin= 6 EnMin= -682.687954964484     IErMin= 6 ErrMin= 5.70D-05
 ErrMax= 5.70D-05  0.00D+00 EMaxC= 1.00D-01 BMatC= 6.35D-07 BMatP= 4.91D-06
 IDIUse=1 WtCom= 1.00D+00 WtEn= 0.00D+00
 Coeff-Com:  0.685D-03-0.524D-01-0.440D-01-0.199D-01 0.325D+00 0.791D+00
 Coeff:      0.685D-03-0.524D-01-0.440D-01-0.199D-01 0.325D+00 0.791D+00
 Gap=     0.166 Goal=   None    Shift=    0.000
 Gap=     0.221 Goal=   None    Shift=    0.000
 RMSDP=9.32D-06 MaxDP=9.42D-04 DE=-3.16D-06 OVMax= 1.07D-03

 Cycle   7  Pass 1  IDiag  1:
 RMSU=  2.60D-06    CP:  1.00D+00  1.07D+00  5.72D-01  1.19D+00  1.28D+00
                    CP:  1.23D+00
 E= -682.687955373959     Delta-E=       -0.000000409475 Rises=F Damp=F
 DIIS: error= 1.34D-05 at cycle   7 NSaved=   7.
 NSaved= 7 IEnMin= 7 EnMin= -682.687955373959     IErMin= 7 ErrMin= 1.34D-05
 ErrMax= 1.34D-05  0.00D+00 EMaxC= 1.00D-01 BMatC= 2.34D-08 BMatP= 6.35D-07
 IDIUse=1 WtCom= 1.00D+00 WtEn= 0.00D+00
 Coeff-Com:  0.214D-03-0.206D-02-0.231D-02-0.149D-01-0.494D-01 0.690D-01
 Coeff-Com:  0.999D+00
 Coeff:      0.214D-03-0.206D-02-0.231D-02-0.149D-01-0.494D-01 0.690D-01
 Coeff:      0.999D+00
 Gap=     0.166 Goal=   None    Shift=    0.000
 Gap=     0.221 Goal=   None    Shift=    0.000
 RMSDP=2.93D-06 MaxDP=3.16D-04 DE=-4.09D-07 OVMax= 3.38D-04

 Cycle   8  Pass 1  IDiag  1:
 RMSU=  6.25D-07    CP:  1.00D+00  1.07D+00  5.74D-01  1.21D+00  1.31D+00
                    CP:  1.41D+00  1.36D+00
 E= -682.687955405005     Delta-E=       -0.000000031045 Rises=F Damp=F
 DIIS: error= 2.56D-06 at cycle   8 NSaved=   8.
 NSaved= 8 IEnMin= 8 EnMin= -682.687955405005     IErMin= 8 ErrMin= 2.56D-06
 ErrMax= 2.56D-06  0.00D+00 EMaxC= 1.00D-01 BMatC= 1.72D-09 BMatP= 2.34D-08
 IDIUse=1 WtCom= 1.00D+00 WtEn= 0.00D+00
 Coeff-Com: -0.196D-04 0.325D-02 0.262D-02-0.127D-02-0.296D-01-0.424D-01
 Coeff-Com:  0.124D+00 0.944D+00
 Coeff:     -0.196D-04 0.325D-02 0.262D-02-0.127D-02-0.296D-01-0.424D-01
 Coeff:      0.124D+00 0.944D+00
 Gap=     0.166 Goal=   None    Shift=    0.000
 Gap=     0.221 Goal=   None    Shift=    0.000
 RMSDP=7.08D-07 MaxDP=6.90D-05 DE=-3.10D-08 OVMax= 7.26D-05

 Cycle   9  Pass 1  IDiag  1:
 RMSU=  1.94D-07    CP:  1.00D+00  1.07D+00  5.74D-01  1.22D+00  1.32D+00
                    CP:  1.45D+00  1.51D+00  1.11D+00
 E= -682.687955406533     Delta-E=       -0.000000001529 Rises=F Damp=F
 DIIS: error= 5.69D-07 at cycle   9 NSaved=   9.
 NSaved= 9 IEnMin= 9 EnMin= -682.687955406533     IErMin= 9 ErrMin= 5.69D-07
 ErrMax= 5.69D-07  0.00D+00 EMaxC= 1.00D-01 BMatC= 3.41D-10 BMatP= 1.72D-09
 IDIUse=1 WtCom= 1.00D+00 WtEn= 0.00D+00
 Coeff-Com: -0.193D-04 0.130D-02 0.110D-02 0.109D-03-0.836D-02-0.152D-01
 Coeff-Com: -0.163D-01 0.345D+00 0.692D+00
 Coeff:     -0.193D-04 0.130D-02 0.110D-02 0.109D-03-0.836D-02-0.152D-01
 Coeff:     -0.163D-01 0.345D+00 0.692D+00
 Gap=     0.166 Goal=   None    Shift=    0.000
 Gap=     0.221 Goal=   None    Shift=    0.000
 RMSDP=1.27D-07 MaxDP=8.60D-06 DE=-1.53D-09 OVMax= 8.67D-06

 Cycle  10  Pass 1  IDiag  1:
 RMSU=  6.72D-08    CP:  1.00D+00  1.07D+00  5.74D-01  1.22D+00  1.32D+00
                    CP:  1.46D+00  1.53D+00  1.19D+00  9.16D-01
 E= -682.687955406652     Delta-E=       -0.000000000119 Rises=F Damp=F
 DIIS: error= 2.53D-07 at cycle  10 NSaved=  10.
 NSaved=10 IEnMin=10 EnMin= -682.687955406652     IErMin=10 ErrMin= 2.53D-07
 ErrMax= 2.53D-07  0.00D+00 EMaxC= 1.00D-01 BMatC= 3.43D-11 BMatP= 3.41D-10
 IDIUse=1 WtCom= 1.00D+00 WtEn= 0.00D+00
 Coeff-Com: -0.160D-05-0.191D-03-0.142D-03 0.193D-03 0.262D-02 0.478D-02
 Coeff-Com: -0.308D-01-0.448D-01 0.203D+00 0.865D+00
 Coeff:     -0.160D-05-0.191D-03-0.142D-03 0.193D-03 0.262D-02 0.478D-02
 Coeff:     -0.308D-01-0.448D-01 0.203D+00 0.865D+00
 Gap=     0.166 Goal=   None    Shift=    0.000
 Gap=     0.221 Goal=   None    Shift=    0.000
 RMSDP=4.67D-08 MaxDP=3.10D-06 DE=-1.19D-10 OVMax= 3.12D-06

 Cycle  11  Pass 1  IDiag  1:
 RMSU=  2.05D-08    CP:  1.00D+00  1.07D+00  5.74D-01  1.22D+00  1.32D+00
                    CP:  1.46D+00  1.54D+00  1.22D+00  1.02D+00  1.02D+00
 E= -682.687955406663     Delta-E=       -0.000000000011 Rises=F Damp=F
 DIIS: error= 3.78D-08 at cycle  11 NSaved=  11.
 NSaved=11 IEnMin=11 EnMin= -682.687955406663     IErMin=11 ErrMin= 3.78D-08
 ErrMax= 3.78D-08  0.00D+00 EMaxC= 1.00D-01 BMatC= 7.88D-13 BMatP= 3.43D-11
 IDIUse=1 WtCom= 1.00D+00 WtEn= 0.00D+00
 Coeff-Com:  0.789D-06-0.753D-04-0.688D-04-0.949D-05 0.400D-03 0.111D-02
 Coeff-Com: -0.142D-03-0.205D-01-0.264D-01 0.523D-01 0.993D+00
 Coeff:      0.789D-06-0.753D-04-0.688D-04-0.949D-05 0.400D-03 0.111D-02
 Coeff:     -0.142D-03-0.205D-01-0.264D-01 0.523D-01 0.993D+00
 Gap=     0.166 Goal=   None    Shift=    0.000
 Gap=     0.221 Goal=   None    Shift=    0.000
 RMSDP=1.18D-08 MaxDP=8.45D-07 DE=-1.09D-11 OVMax= 9.46D-07

 Cycle  12  Pass 1  IDiag  1:
 RMSU=  4.47D-09    CP:  1.00D+00  1.07D+00  5.74D-01  1.22D+00  1.32D+00
                    CP:  1.46D+00  1.54D+00  1.22D+00  1.04D+00  1.09D+00
                    CP:  1.13D+00
 E= -682.687955406662     Delta-E=        0.000000000001 Rises=F Damp=F
 DIIS: error= 1.70D-08 at cycle  12 NSaved=  12.
 NSaved=12 IEnMin=11 EnMin= -682.687955406663     IErMin=12 ErrMin= 1.70D-08
 ErrMax= 1.70D-08  0.00D+00 EMaxC= 1.00D-01 BMatC= 1.45D-13 BMatP= 7.88D-13
 IDIUse=1 WtCom= 1.00D+00 WtEn= 0.00D+00
 Coeff-Com:  0.342D-06-0.139D-04-0.142D-04-0.217D-04 0.805D-05 0.194D-03
 Coeff-Com:  0.126D-02-0.451D-02-0.179D-01-0.241D-01 0.321D+00 0.724D+00
 Coeff:      0.342D-06-0.139D-04-0.142D-04-0.217D-04 0.805D-05 0.194D-03
 Coeff:      0.126D-02-0.451D-02-0.179D-01-0.241D-01 0.321D+00 0.724D+00
 Gap=     0.166 Goal=   None    Shift=    0.000
 Gap=     0.221 Goal=   None    Shift=    0.000
 RMSDP=2.53D-09 MaxDP=9.73D-08 DE= 1.36D-12 OVMax= 1.06D-07

 SCF Done:  E(UPBE1PBE) =  -682.687955407     A.U. after   12 cycles
            NFock= 12  Conv=0.25D-08     -V/T= 2.1586
 <Sx>= 0.0000 <Sy>= 0.0000 <Sz>= 0.5000 <S**2>= 0.7515 S= 0.5007
 <L.S>= 0.000000000000E+00
 KE= 5.892120893133D+02 PE=-2.329284867208D+03 EE= 6.837546881351D+02
 Annihilation of the first spin contaminant:
 S**2 before annihilation     0.7515,   after     0.7500
 Leave Link  502 at Fri Sep 11 22:31:53 2026, MaxMem=  6442450944 cpu:              65.0 elap:              64.4
 (Enter C:\G16W\l508.exe)
 QCSCF skips out because SCF is already converged.
 Leave Link  508 at Fri Sep 11 22:31:53 2026, MaxMem=  6442450944 cpu:               0.0 elap:               0.1
 (Enter C:\G16W\l601.exe)
 Copying SCF densities to generalized density rwf, IOpCl= 1 IROHF=0.

 **********************************************************************

            Population analysis using the SCF Density.

 **********************************************************************

 Alpha  occ. eigenvalues --  -77.27574 -19.15221 -10.24795 -10.24795 -10.24789
 Alpha  occ. eigenvalues --   -6.67803  -4.81829  -4.81791  -4.81791  -3.71967
 Alpha  occ. eigenvalues --   -2.30008  -2.30008  -2.29821  -0.98392  -0.79104
 Alpha  occ. eigenvalues --   -0.73447  -0.73447  -0.55530  -0.47206  -0.47206
 Alpha  occ. eigenvalues --   -0.47145  -0.44525  -0.44525  -0.42446  -0.38906
 Alpha  occ. eigenvalues --   -0.38906  -0.38516  -0.29666  -0.29666  -0.29620
 Alpha  occ. eigenvalues --   -0.29620  -0.29060  -0.28278  -0.28278  -0.14990
 Alpha virt. eigenvalues --    0.01621   0.01621   0.02761   0.05521   0.07656
 Alpha virt. eigenvalues --    0.09206   0.09206   0.10587   0.10587   0.11490
 Alpha virt. eigenvalues --    0.13910   0.14380   0.14380   0.15235   0.16658
 Alpha virt. eigenvalues --    0.16824   0.16824   0.33148   0.33148   0.35013
 Alpha virt. eigenvalues --    0.36002   0.36002   0.41900   0.42065   0.42065
 Alpha virt. eigenvalues --    0.46801   0.48639   0.48639   0.48787   0.48787
 Alpha virt. eigenvalues --    0.53334   0.53334   0.54617   0.57383   0.59436
 Alpha virt. eigenvalues --    0.60427   0.60427   0.63181   0.64835   0.68291
 Alpha virt. eigenvalues --    0.68291   0.69117   0.69117   0.70182   0.70182
 Alpha virt. eigenvalues --    0.70523   0.70523   0.72956   0.74519   0.83823
 Alpha virt. eigenvalues --    0.92301   0.92301   0.99923   0.99923   1.08730
 Alpha virt. eigenvalues --    1.13876   1.13876   1.17606   1.21295   1.21295
 Alpha virt. eigenvalues --    1.29323   1.35793   1.44515   1.44515   1.51369
 Alpha virt. eigenvalues --    1.51369   1.51397   1.64612   1.71572   1.71572
 Alpha virt. eigenvalues --    1.73548   1.77092   1.77092   1.79558   1.81977
 Alpha virt. eigenvalues --    1.90974   1.90974   1.94743   1.94768   1.94768
 Alpha virt. eigenvalues --    1.95832   2.01438   2.01438   2.06325   2.21118
 Alpha virt. eigenvalues --    2.23890   2.23890   2.42397   2.42397   2.43889
 Alpha virt. eigenvalues --    2.45390   2.45390   2.47136   2.65345   2.65348
 Alpha virt. eigenvalues --    2.65424   2.65428   2.65489   2.65490   2.65757
 Alpha virt. eigenvalues --    2.68960   2.69567   2.69567   2.73636   2.73636
 Alpha virt. eigenvalues --    2.85584   2.85584   2.90889   2.93374   2.93374
 Alpha virt. eigenvalues --    2.94175   2.96444   2.96444   3.46614  53.82799
  Beta  occ. eigenvalues --  -77.27570 -19.15158 -10.24795 -10.24795 -10.24789
  Beta  occ. eigenvalues --   -6.67797  -4.81817  -4.81788  -4.81788  -3.71857
  Beta  occ. eigenvalues --   -2.29968  -2.29968  -2.29820  -0.98329  -0.79087
  Beta  occ. eigenvalues --   -0.73445  -0.73445  -0.55485  -0.47201  -0.47201
  Beta  occ. eigenvalues --   -0.47114  -0.44520  -0.44520  -0.42445  -0.38898
  Beta  occ. eigenvalues --   -0.38898  -0.38262  -0.29153  -0.29153  -0.29016
  Beta  occ. eigenvalues --   -0.29016  -0.28404  -0.28098  -0.28098
  Beta virt. eigenvalues --   -0.06044   0.03457   0.04499   0.04499   0.07012
  Beta virt. eigenvalues --    0.08137   0.09219   0.09219   0.10683   0.10683
  Beta virt. eigenvalues --    0.12386   0.14394   0.14394   0.14736   0.16371
  Beta virt. eigenvalues --    0.16663   0.16849   0.16849   0.33205   0.33205
  Beta virt. eigenvalues --    0.37416   0.38675   0.38675   0.41948   0.42267
  Beta virt. eigenvalues --    0.42267   0.47374   0.50872   0.50872   0.50974
  Beta virt. eigenvalues --    0.50974   0.53367   0.53367   0.56200   0.57690
  Beta virt. eigenvalues --    0.59438   0.60531   0.60531   0.63260   0.64886
  Beta virt. eigenvalues --    0.68302   0.68302   0.69131   0.69131   0.70191
  Beta virt. eigenvalues --    0.70191   0.70537   0.70537   0.72982   0.74522
  Beta virt. eigenvalues --    0.83894   0.92331   0.92331   0.99933   0.99933
  Beta virt. eigenvalues --    1.08941   1.13963   1.13963   1.17607   1.21301
  Beta virt. eigenvalues --    1.21301   1.29477   1.36055   1.44535   1.44535
  Beta virt. eigenvalues --    1.51371   1.51371   1.51398   1.64634   1.71574
  Beta virt. eigenvalues --    1.71574   1.73551   1.77095   1.77095   1.79562
  Beta virt. eigenvalues --    1.81978   1.90977   1.90977   1.94744   1.94771
  Beta virt. eigenvalues --    1.94771   1.95842   2.01441   2.01441   2.07601
  Beta virt. eigenvalues --    2.21121   2.23892   2.23892   2.42399   2.42399
  Beta virt. eigenvalues --    2.43891   2.45391   2.45391   2.47139   2.65346
  Beta virt. eigenvalues --    2.65349   2.65454   2.65458   2.65549   2.65549
  Beta virt. eigenvalues --    2.65827   2.68962   2.69615   2.69615   2.73646
  Beta virt. eigenvalues --    2.73646   2.85654   2.85654   2.90892   2.93376
  Beta virt. eigenvalues --    2.93376   2.94176   2.96464   2.96464   3.46723
  Beta virt. eigenvalues --   53.82952
          Condensed to atoms (all electrons):
               1          2          3          4          5          6
     1  O    7.985666   0.577758  -0.043255  -0.043255  -0.043255   0.002376
     2  P    0.577758  13.051103   0.316668   0.316666   0.316667  -0.013568
     3  C   -0.043255   0.316668   4.998891  -0.072288  -0.072287   0.374691
     4  C   -0.043255   0.316666  -0.072288   4.998890  -0.072288   0.005354
     5  C   -0.043255   0.316667  -0.072287  -0.072288   4.998895  -0.003556
     6  H    0.002376  -0.013568   0.374691   0.005354  -0.003556   0.563520
     7  H    0.002053  -0.002206   0.341961   0.001515   0.001515  -0.011689
     8  H    0.002376  -0.013567   0.374691  -0.003556   0.005354  -0.010453
     9  H    0.002376  -0.013568   0.005354   0.374692  -0.003556  -0.000170
    10  H    0.002376  -0.013567  -0.003556   0.374691   0.005354  -0.000142
    11  H    0.002053  -0.002206   0.001515   0.341961   0.001515  -0.000283
    12  H    0.002376  -0.013568   0.005354  -0.003556   0.374691  -0.000142
    13  H    0.002376  -0.013567  -0.003556   0.005354   0.374691   0.002783
    14  H    0.002053  -0.002206   0.001515   0.001515   0.341961  -0.000070
    15  Ag   0.044146  -0.002156  -0.000921  -0.000921  -0.000921   0.000303
               7          8          9         10         11         12
     1  O    0.002053   0.002376   0.002376   0.002376   0.002053   0.002376
     2  P   -0.002206  -0.013567  -0.013568  -0.013567  -0.002206  -0.013568
     3  C    0.341961   0.374691   0.005354  -0.003556   0.001515   0.005354
     4  C    0.001515  -0.003556   0.374692   0.374691   0.341961  -0.003556
     5  C    0.001515   0.005354  -0.003556   0.005354   0.001515   0.374691
     6  H   -0.011689  -0.010453  -0.000170  -0.000142  -0.000283  -0.000142
     7  H    0.612376  -0.011689  -0.000283  -0.000070   0.000641  -0.000283
     8  H   -0.011689   0.563520  -0.000142   0.002783  -0.000070  -0.000170
     9  H   -0.000283  -0.000142   0.563521  -0.010454  -0.011689   0.002783
    10  H   -0.000070   0.002783  -0.010454   0.563521  -0.011689  -0.000142
    11  H    0.000641  -0.000070  -0.011689  -0.011689   0.612377  -0.000070
    12  H   -0.000283  -0.000170   0.002783  -0.000142  -0.000070   0.563520
    13  H   -0.000070  -0.000142  -0.000142  -0.000170  -0.000283  -0.010453
    14  H    0.000641  -0.000283  -0.000070  -0.000283   0.000641  -0.011689
    15  Ag  -0.000106   0.000303   0.000303   0.000303  -0.000106   0.000303
              13         14         15
     1  O    0.002376   0.002053   0.044146
     2  P   -0.013567  -0.002206  -0.002156
     3  C   -0.003556   0.001515  -0.000921
     4  C    0.005354   0.001515  -0.000921
     5  C    0.374691   0.341961  -0.000921
     6  H    0.002783  -0.000070   0.000303
     7  H   -0.000070   0.000641  -0.000106
     8  H   -0.000142  -0.000283   0.000303
     9  H   -0.000142  -0.000070   0.000303
    10  H   -0.000170  -0.000283   0.000303
    11  H   -0.000283   0.000641  -0.000106
    12  H   -0.010453  -0.011689   0.000303
    13  H    0.563520  -0.011689   0.000303
    14  H   -0.011689   0.612376  -0.000106
    15  Ag   0.000303  -0.000106  19.041396
          Atomic-Atomic Spin Densities.
               1          2          3          4          5          6
     1  O    0.030752  -0.005090   0.000104   0.000104   0.000104  -0.000026
     2  P   -0.005090   0.006533   0.000588   0.000588   0.000588  -0.000059
     3  C    0.000104   0.000588  -0.000844   0.000089   0.000089   0.000088
     4  C    0.000104   0.000588   0.000089  -0.000844   0.000089  -0.000008
     5  C    0.000104   0.000588   0.000089   0.000089  -0.000844   0.000005
     6  H   -0.000026  -0.000059   0.000088  -0.000008   0.000005   0.000000
     7  H   -0.000010  -0.000320  -0.000137  -0.000051  -0.000051   0.000004
     8  H   -0.000026  -0.000059   0.000088   0.000005  -0.000008  -0.000005
     9  H   -0.000026  -0.000059  -0.000008   0.000088   0.000005   0.000000
    10  H   -0.000026  -0.000059   0.000005   0.000088  -0.000008   0.000000
    11  H   -0.000010  -0.000320  -0.000051  -0.000137  -0.000051   0.000003
    12  H   -0.000026  -0.000059  -0.000008   0.000005   0.000088   0.000000
    13  H   -0.000026  -0.000059   0.000005  -0.000008   0.000088  -0.000003
    14  H   -0.000010  -0.000320  -0.000051  -0.000051  -0.000137   0.000004
    15  Ag  -0.021845   0.002615  -0.000088  -0.000088  -0.000088   0.000035
               7          8          9         10         11         12
     1  O   -0.000010  -0.000026  -0.000026  -0.000026  -0.000010  -0.000026
     2  P   -0.000320  -0.000059  -0.000059  -0.000059  -0.000320  -0.000059
     3  C   -0.000137   0.000088  -0.000008   0.000005  -0.000051  -0.000008
     4  C   -0.000051   0.000005   0.000088   0.000088  -0.000137   0.000005
     5  C   -0.000051  -0.000008   0.000005  -0.000008  -0.000051   0.000088
     6  H    0.000004  -0.000005   0.000000   0.000000   0.000003   0.000000
     7  H    0.000713   0.000004   0.000003   0.000004   0.000067   0.000003
     8  H    0.000004   0.000000   0.000000  -0.000003   0.000004   0.000000
     9  H    0.000003   0.000000   0.000000  -0.000005   0.000004  -0.000003
    10  H    0.000004  -0.000003  -0.000005   0.000000   0.000004   0.000000
    11  H    0.000067   0.000004   0.000004   0.000004   0.000713   0.000004
    12  H    0.000003   0.000000  -0.000003   0.000000   0.000004   0.000000
    13  H    0.000004   0.000000   0.000000   0.000000   0.000003  -0.000005
    14  H    0.000067   0.000003   0.000004   0.000003   0.000067   0.000004
    15  Ag   0.000038   0.000035   0.000035   0.000035   0.000038   0.000035
              13         14         15
     1  O   -0.000026  -0.000010  -0.021845
     2  P   -0.000059  -0.000320   0.002615
     3  C    0.000005  -0.000051  -0.000088
     4  C   -0.000008  -0.000051  -0.000088
     5  C    0.000088  -0.000137  -0.000088
     6  H   -0.000003   0.000004   0.000035
     7  H    0.000004   0.000067   0.000038
     8  H    0.000000   0.000003   0.000035
     9  H    0.000000   0.000004   0.000035
    10  H    0.000000   0.000003   0.000035
    11  H    0.000003   0.000067   0.000038
    12  H   -0.000005   0.000004   0.000035
    13  H    0.000000   0.000004   0.000035
    14  H    0.000004   0.000713   0.000038
    15  Ag   0.000035   0.000038   1.009865
 Mulliken charges and spin densities:
               1          2
     1  O   -0.498217   0.003942
     2  P    0.511315   0.004506
     3  C   -0.224778  -0.000131
     4  C   -0.224775  -0.000131
     5  C   -0.224780  -0.000131
     6  H    0.091047   0.000039
     7  H    0.065694   0.000338
     8  H    0.091047   0.000039
     9  H    0.091046   0.000039
    10  H    0.091046   0.000039
    11  H    0.065692   0.000338
    12  H    0.091047   0.000039
    13  H    0.091047   0.000039
    14  H    0.065694   0.000338
    15  Ag  -0.082123   0.990696
 Sum of Mulliken charges =   0.00000   1.00000
 Mulliken charges and spin densities with hydrogens summed into heavy atoms:
               1          2
     1  O   -0.498217   0.003942
     2  P    0.511315   0.004506
     3  C    0.023009   0.000285
     4  C    0.023009   0.000285
     5  C    0.023007   0.000285
    15  Ag  -0.082123   0.990696
 Electronic spatial extent (au):  <R**2>=           2239.9943
 Charge=              0.0000 electrons
 Dipole moment (field-independent basis, Debye):
    X=             -0.7677    Y=              0.3262    Z=              6.3759  Tot=              6.4303
 Quadrupole moment (field-independent basis, Debye-Ang):
   XX=            -57.1325   YY=            -56.7756   ZZ=            -86.7437
   XY=              0.1851   XZ=              3.6178   YZ=             -1.5370
 Traceless Quadrupole moment (field-independent basis, Debye-Ang):
   XX=              9.7514   YY=             10.1084   ZZ=            -19.8597
   XY=              0.1851   XZ=              3.6178   YZ=             -1.5370
 Octapole moment (field-independent basis, Debye-Ang**2):
  XXX=            -40.9246  YYY=             15.8843  ZZZ=            483.4069  XYY=            -13.4787
  XXY=              7.2227  XXZ=            114.4128  XZZ=            -31.1627  YZZ=             13.2472
  YYZ=            112.8364  XYZ=             -0.7416
 Hexadecapole moment (field-independent basis, Debye-Ang**3):
 XXXX=           -329.7414 YYYY=           -294.2820 ZZZZ=          -3978.9883 XXXY=              9.2605
 XXXZ=            180.0479 YYYX=              9.1391 YYYZ=            -75.9180 ZZZX=            265.8122
 ZZZY=           -112.9367 XXYY=           -104.0210 XXZZ=           -608.0987 YYZZ=           -593.6639
 XXYZ=            -25.9894 YYXZ=             59.8110 ZZXY=              7.4684
 N-N= 3.736301343529D+02 E-N=-2.329284872066D+03  KE= 5.892120893133D+02
                          Isotropic Fermi Contact Couplings
        Atom                 a.u.       MegaHertz       Gauss      10(-4) cm-1
     1  O(17)              0.09694     -58.76395     -20.96844     -19.60154
     2  P(31)              0.01165      21.10719       7.53157       7.04060
     3  C(13)              0.00029       0.32118       0.11461       0.10713
     4  C(13)              0.00029       0.32120       0.11461       0.10714
     5  C(13)              0.00029       0.32119       0.11461       0.10714
     6  H(1)               0.00001       0.05245       0.01871       0.01749
     7  H(1)               0.00011       0.51103       0.18235       0.17046
     8  H(1)               0.00001       0.05245       0.01872       0.01750
     9  H(1)               0.00001       0.05244       0.01871       0.01749
    10  H(1)               0.00001       0.05245       0.01872       0.01750
    11  H(1)               0.00011       0.51102       0.18235       0.17046
    12  H(1)               0.00001       0.05243       0.01871       0.01749
    13  H(1)               0.00001       0.05244       0.01871       0.01749
    14  H(1)               0.00011       0.51102       0.18234       0.17046
    15  Ag(107             0.00032      -0.05798      -0.02069      -0.01934
 --------------------------------------------------------
       Center         ----  Spin Dipole Couplings  ----
                      3XX-RR        3YY-RR        3ZZ-RR
 --------------------------------------------------------
     1   Atom       -0.016156     -0.016748      0.032904
     2   Atom       -0.009651     -0.010005      0.019656
     3   Atom       -0.000857     -0.000902      0.001759
     4   Atom       -0.000893     -0.000530      0.001423
     5   Atom       -0.000491     -0.000892      0.001383
     6   Atom       -0.000812     -0.000608      0.001419
     7   Atom       -0.000486     -0.000526      0.001012
     8   Atom       -0.000509     -0.000932      0.001441
     9   Atom       -0.000696     -0.000291      0.000987
    10   Atom       -0.000899     -0.000265      0.001165
    11   Atom       -0.000524     -0.000342      0.000866
    12   Atom       -0.000028     -0.000929      0.000957
    13   Atom       -0.000534     -0.000579      0.001113
    14   Atom       -0.000328     -0.000520      0.000849
    15   Atom        0.011107      0.011513     -0.022620
 --------------------------------------------------------
                        XY            XZ            YZ
 --------------------------------------------------------
     1   Atom       -0.000307     -0.005994      0.002547
     2   Atom       -0.000183     -0.003581      0.001521
     3   Atom       -0.000049      0.000516     -0.000321
     4   Atom       -0.000131     -0.000307      0.001015
     5   Atom        0.000138     -0.001041     -0.000340
     6   Atom       -0.000197      0.000420     -0.000739
     7   Atom       -0.000036      0.000180     -0.000121
     8   Atom       -0.000009      0.000825     -0.000008
     9   Atom       -0.000388     -0.000620      0.000988
    10   Atom        0.000115      0.000113      0.001067
    11   Atom       -0.000060     -0.000180      0.000459
    12   Atom        0.000049     -0.001178     -0.000054
    13   Atom        0.000364     -0.000850     -0.000706
    14   Atom        0.000070     -0.000496     -0.000126
    15   Atom        0.000211      0.004120     -0.001751
 --------------------------------------------------------


 ---------------------------------------------------------------------------------
              Anisotropic Spin Dipole Couplings in Principal Axis System
 ---------------------------------------------------------------------------------

       Atom             a.u.   MegaHertz   Gauss  10(-4) cm-1        Axes

              Baa    -0.0169     1.221     0.436     0.407 -0.1114  0.9917 -0.0641
     1 O(17)  Bbb    -0.0169     1.221     0.436     0.407  0.9866  0.1181  0.1128
              Bcc     0.0338    -2.443    -0.872    -0.815 -0.1194  0.0507  0.9916
 
              Baa    -0.0101    -2.180    -0.778    -0.727  0.1168  0.9925 -0.0367
     2 P(31)  Bbb    -0.0101    -2.180    -0.778    -0.727  0.9860 -0.1114  0.1244
              Bcc     0.0202     4.359     1.556     1.454 -0.1194  0.0507  0.9916
 
              Baa    -0.0010    -0.129    -0.046    -0.043  0.8577 -0.4658 -0.2175
     3 C(13)  Bbb    -0.0009    -0.125    -0.045    -0.042  0.4797  0.8773  0.0128
              Bcc     0.0019     0.254     0.091     0.085  0.1849 -0.1153  0.9760
 
              Baa    -0.0010    -0.129    -0.046    -0.043  0.0224  0.9210 -0.3890
     4 C(13)  Bbb    -0.0009    -0.125    -0.045    -0.042  0.9927  0.0258  0.1181
              Bcc     0.0019     0.254     0.091     0.085 -0.1188  0.3888  0.9136
 
              Baa    -0.0010    -0.129    -0.046    -0.043  0.7583  0.5068  0.4100
     5 C(13)  Bbb    -0.0009    -0.125    -0.045    -0.042 -0.5127  0.8521 -0.1051
              Bcc     0.0019     0.254     0.091     0.085 -0.4027 -0.1305  0.9060
 
              Baa    -0.0009    -0.497    -0.178    -0.166  0.8180  0.5742  0.0343
     6 H(1)   Bbb    -0.0008    -0.433    -0.154    -0.144 -0.5472  0.7583  0.3544
              Bcc     0.0017     0.930     0.332     0.310  0.1775 -0.3086  0.9345
 
              Baa    -0.0005    -0.292    -0.104    -0.097  0.4796  0.8774  0.0129
     7 H(1)   Bbb    -0.0005    -0.265    -0.094    -0.088  0.8695 -0.4732 -0.1418
              Bcc     0.0010     0.557     0.199     0.186  0.1183 -0.0792  0.9898
 
              Baa    -0.0009    -0.497    -0.178    -0.166  0.0419  0.9991 -0.0112
     8 H(1)   Bbb    -0.0008    -0.433    -0.154    -0.144  0.9380 -0.0432 -0.3439
              Bcc     0.0017     0.930     0.332     0.310  0.3440 -0.0039  0.9389
 
              Baa    -0.0009    -0.497    -0.178    -0.166  0.8855  0.4620  0.0481
     9 H(1)   Bbb    -0.0008    -0.433    -0.154    -0.144 -0.3655  0.7569 -0.5418
              Bcc     0.0017     0.930     0.332     0.310 -0.2868  0.4622  0.8392
 
              Baa    -0.0009    -0.497    -0.178    -0.166  0.8944 -0.4162  0.1638
    10 H(1)   Bbb    -0.0008    -0.433    -0.154    -0.144  0.4435  0.7778 -0.4454
              Bcc     0.0017     0.930     0.332     0.310  0.0580  0.4710  0.8802
 
              Baa    -0.0005    -0.292    -0.104    -0.097  0.9927  0.0256  0.1182
    11 H(1)   Bbb    -0.0005    -0.265    -0.094    -0.088  0.0134  0.9481 -0.3175
              Bcc     0.0010     0.557     0.199     0.186 -0.1202  0.3168  0.9408
 
              Baa    -0.0009    -0.497    -0.178    -0.166 -0.0888  0.9957 -0.0268
    12 H(1)   Bbb    -0.0008    -0.433    -0.154    -0.144  0.8277  0.0887  0.5541
              Bcc     0.0017     0.930     0.332     0.310 -0.5541 -0.0270  0.8320
 
              Baa    -0.0009    -0.497    -0.178    -0.166  0.8312 -0.5318  0.1621
    13 H(1)   Bbb    -0.0008    -0.433    -0.154    -0.144  0.4095  0.7829  0.4683
              Bcc     0.0017     0.930     0.332     0.310 -0.3760 -0.3229  0.8686
 
              Baa    -0.0005    -0.292    -0.104    -0.097 -0.5131  0.8518 -0.1054
    14 H(1)   Bbb    -0.0005    -0.265    -0.094    -0.088  0.7868  0.5158  0.3390
              Bcc     0.0010     0.557     0.199     0.186 -0.3431 -0.0910  0.9349
 
              Baa    -0.0232     0.503     0.180     0.168 -0.1194  0.0507  0.9916
    15 Ag(107 Bbb     0.0116    -0.252    -0.090    -0.084 -0.3301  0.9399 -0.0878
              Bcc     0.0116    -0.252    -0.090    -0.084  0.9364  0.3378  0.0954
 

 ---------------------------------------------------------------------------------

 No NMR shielding tensors so no spin-rotation constants.
 Leave Link  601 at Fri Sep 11 22:31:55 2026, MaxMem=  6442450944 cpu:               2.0 elap:               2.4
 (Enter C:\G16W\l9999.exe)
 Unable to Open any file for archive entry.
 1|1|UNPC-DESKTOP-2JKEGCA|SP|UPBE1PBE|def2SVP|C3H9Ag1O1P1(2)|JHKIM|11-S
 ep-2026|0||#P PBE1PBE/Def2SVP EmpiricalDispersion=GD3BJ SP SCF=(XQC,Ma
 xCycle=128) NoSymm Guess=Read||Me3P=O t=0.000 dz=+0.40 class=toface||0
 ,2|O,0,0.241669,-0.102679,-2.00717|P,0,0.065789,-0.027952,-0.546402|C,
 0,1.447763,-0.796794,0.374556|C,0,-0.051532,1.692361,0.0667|C,0,-1.452
 867,-0.871503,0.029133|H,0,1.519969,-1.839062,0.069681|H,0,1.304231,-0
 .73408,1.448588|H,0,2.367643,-0.288171,0.092404|H,0,-0.895479,2.171107
 ,-0.426293|H,0,0.859124,2.216299,-0.217345|H,0,-0.180788,1.731372,1.14
 3663|H,0,-2.305436,-0.408531,-0.46409|H,0,-1.398507,-1.914231,-0.27786
 8|H,0,-1.568779,-0.808079,1.106454|Ag,0,0.58053854,-0.2466568,-4.82161
 651||Version=EM64W-G16RevC.01|HF=-682.6879554|S2=0.75147|S2-1=0.|S2A=0
 .750002|RMSD=2.532e-009|Dipole=-0.3020369,0.1283191,2.5084866|Quadrupo
 le=7.2499189,7.5153132,-14.7652321,0.1375906,2.6897781,-1.1427446|PG=C
 01 [X(C3H9Ag1O1P1)]||@
 The archive entry for this job was punched.


 THEREFORE SHALL EVIL COME UPON THEE...
 THOU SHALT NOT KNOW FROM WHENCE IT RISETH...
 AND MISCHIEF SHALL FALL UPON THEE...
 THOU SHALT NOT BE ABLE TO PUT IT OFF...
 AND DESOLATION SHALL COME UPON THEE SUDDENLY...
 WHICH THOU SHALT NOT KNOW...

                                         ISAIAH 47.11
 Job cpu time:       0 days  0 hours  1 minutes 18.0 seconds.
 Elapsed time:       0 days  0 hours  1 minutes 16.3 seconds.
 File lengths (MBytes):  RWF=     24 Int=      0 D2E=      0 Chk=      3 Scr=      1
 Normal termination of Gaussian 16 at Fri Sep 11 22:31:56 2026.
