 Entering Gaussian System, Link 0=C:\G16W\g16.exe
 Input=Mo3O8_t1_z0.gjf
 Output=Mo3O8_t1_z0.out
 Initial command:
 C:\G16W\l1.exe ".\Gau-130876.inp" "Mo3O8_t1_z0.out" /scrdir=".\"
 Entering Link 1 = C:\G16W\l1.exe PID=     77864.
  
 Copyright (c) 1988-2019, Gaussian, Inc.  All Rights Reserved.
  
 This is part of the Gaussian(R) 16 program.  It is based on
 the Gaussian(R) 09 system (copyright 2009, Gaussian, Inc.),
 the Gaussian(R) 03 system (copyright 2003, Gaussian, Inc.),
 the Gaussian(R) 98 system (copyright 1998, Gaussian, Inc.),
 the Gaussian(R) 94 system (copyright 1995, Gaussian, Inc.),
 the Gaussian 92(TM) system (copyright 1992, Gaussian, Inc.),
 the Gaussian 90(TM) system (copyright 1990, Gaussian, Inc.),
 the Gaussian 88(TM) system (copyright 1988, Gaussian, Inc.),
 the Gaussian 86(TM) system (copyright 1986, Carnegie Mellon
 University), and the Gaussian 82(TM) system (copyright 1983,
 Carnegie Mellon University). Gaussian is a federally registered
 trademark of Gaussian, Inc.
  
 This software contains proprietary and confidential information,
 including trade secrets, belonging to Gaussian, Inc.
  
 This software is provided under written license and may be
 used, copied, transmitted, or stored only in accord with that
 written license.
  
 The following legend is applicable only to US Government
 contracts under FAR:
  
                    RESTRICTED RIGHTS LEGEND
  
 Use, reproduction and disclosure by the US Government is
 subject to restrictions as set forth in subparagraphs (a)
 and (c) of the Commercial Computer Software - Restricted
 Rights clause in FAR 52.227-19.
  
 Gaussian, Inc.
 340 Quinnipiac St., Bldg. 40, Wallingford CT 06492
  
  
 ---------------------------------------------------------------
 Warning -- This program may not be used in any manner that
 competes with the business of Gaussian, Inc. or will provide
 assistance to any competitor of Gaussian, Inc.  The licensee
 of this program is prohibited from giving any competitor of
 Gaussian, Inc. access to this program.  By using this program,
 the user acknowledges that Gaussian, Inc. is engaged in the
 business of creating and licensing software in the field of
 computational chemistry and represents and warrants to the
 licensee that it is not a competitor of Gaussian, Inc. and that
 it will not use this program in any manner prohibited above.
 ---------------------------------------------------------------
  

 Cite this work as:
 Gaussian 16, Revision C.01,
 M. J. Frisch, G. W. Trucks, H. B. Schlegel, G. E. Scuseria, 
 M. A. Robb, J. R. Cheeseman, G. Scalmani, V. Barone, 
 G. A. Petersson, H. Nakatsuji, X. Li, M. Caricato, A. V. Marenich, 
 J. Bloino, B. G. Janesko, R. Gomperts, B. Mennucci, H. P. Hratchian, 
 J. V. Ortiz, A. F. Izmaylov, J. L. Sonnenberg, D. Williams-Young, 
 F. Ding, F. Lipparini, F. Egidi, J. Goings, B. Peng, A. Petrone, 
 T. Henderson, D. Ranasinghe, V. G. Zakrzewski, J. Gao, N. Rega, 
 G. Zheng, W. Liang, M. Hada, M. Ehara, K. Toyota, R. Fukuda, 
 J. Hasegawa, M. Ishida, T. Nakajima, Y. Honda, O. Kitao, H. Nakai, 
 T. Vreven, K. Throssell, J. A. Montgomery, Jr., J. E. Peralta, 
 F. Ogliaro, M. J. Bearpark, J. J. Heyd, E. N. Brothers, K. N. Kudin, 
 V. N. Staroverov, T. A. Keith, R. Kobayashi, J. Normand, 
 K. Raghavachari, A. P. Rendell, J. C. Burant, S. S. Iyengar, 
 J. Tomasi, M. Cossi, J. M. Millam, M. Klene, C. Adamo, R. Cammi, 
 J. W. Ochterski, R. L. Martin, K. Morokuma, O. Farkas, 
 J. B. Foresman, and D. J. Fox, Gaussian, Inc., Wallingford CT, 2019.
 
 ******************************************
 Gaussian 16:  EM64W-G16RevC.01 30-May-2019
                11-Sep-2026 
 ******************************************
 %Chk=Mo3O8.chk
 %NProcShared=8
 Will use up to    8 processors via shared memory.
 %Mem=48GB
 ----------------------------------------------------------------------
 #P PBE1PBE/Def2SVP EmpiricalDispersion=GD3BJ SP SCF=(XQC,MaxCycle=128)
  NoSymm Guess=Read
 ----------------------------------------------------------------------
 1/38=1,172=1/1;
 2/12=2,15=1,17=6,18=5,40=1/2;
 3/5=43,7=101,11=2,25=1,30=1,74=-13,116=-2,124=41/1,2,3;
 4/5=1/1;
 5/5=2,7=128,8=3,13=1,38=6/2,8;
 6/7=2,8=2,9=2,10=2,28=1/1;
 99/5=1,9=1/99;
 Leave Link    1 at Fri Sep 11 23:12:23 2026, MaxMem=  6442450944 cpu:               0.0 elap:               0.3
 (Enter C:\G16W\l101.exe)
 --------------------------------------
 Mo3O8 t=0.250 dz=+0.00 class=site2site
 --------------------------------------
 Symbolic Z-matrix:
 Charge =  0 Multiplicity = 2
 Mo                    1.52706  -0.00003  -0.31475 
 O                     2.65451   0.00013  -1.48185 
 O                     0.93048   1.49303   0.25224 
 Mo                   -0.91681   1.55028  -0.05109 
 O                    -1.45906   1.91408   1.44577 
 O                    -1.21034   2.70691  -1.16791 
 O                    -1.71702  0.        -0.5099 
 Mo                   -0.91685  -1.55029  -0.05113 
 O                    -1.45895  -1.91398   1.44582 
 O                    -1.21056  -2.70697  -1.16784 
 O                     0.93045  -1.49316   0.25202 
 Ag                    1.98606   1.15391   2.44707 
 
 ITRead=  0  0  0  0  0  0  0  0  0  0  0  0
 MicOpt= -1 -1 -1 -1 -1 -1 -1 -1 -1 -1 -1 -1
 NAtoms=     12 NQM=       12 NQMF=       0 NMMI=      0 NMMIF=      0
                NMic=       0 NMicF=      0.
                    Isotopes and Nuclear Properties:
 (Nuclear quadrupole moments (NQMom) in fm**2, nuclear magnetic moments (NMagM)
  in nuclear magnetons)

  Atom         1           2           3           4           5           6           7           8           9          10
 IAtWgt=          98          16          16          98          16          16          16          98          16          16
 AtmWgt=  97.9055000  15.9949146  15.9949146  97.9055000  15.9949146  15.9949146  15.9949146  97.9055000  15.9949146  15.9949146
 NucSpn=           0           0           0           0           0           0           0           0           0           0
 AtZEff=   0.0000000   0.0000000   0.0000000   0.0000000   0.0000000   0.0000000   0.0000000   0.0000000   0.0000000   0.0000000
 NQMom=    0.0000000   0.0000000   0.0000000   0.0000000   0.0000000   0.0000000   0.0000000   0.0000000   0.0000000   0.0000000
 NMagM=    0.0000000   0.0000000   0.0000000   0.0000000   0.0000000   0.0000000   0.0000000   0.0000000   0.0000000   0.0000000
 AtZNuc=  42.0000000   8.0000000   8.0000000  42.0000000   8.0000000   8.0000000   8.0000000  42.0000000   8.0000000   8.0000000

  Atom        11          12
 IAtWgt=          16         107
 AtmWgt=  15.9949146 106.9050900
 NucSpn=           0           1
 AtZEff=   0.0000000   0.0000000
 NQMom=    0.0000000   0.0000000
 NMagM=    0.0000000  -0.1135700
 AtZNuc=   8.0000000  47.0000000
 Leave Link  101 at Fri Sep 11 23:12:24 2026, MaxMem=  6442450944 cpu:               0.0 elap:               0.4
 (Enter C:\G16W\l202.exe)
                          Input orientation:                          
 ---------------------------------------------------------------------
 Center     Atomic      Atomic             Coordinates (Angstroms)
 Number     Number       Type             X           Y           Z
 ---------------------------------------------------------------------
      1         42           0        1.527060   -0.000030   -0.314747
      2          8           0        2.654512    0.000128   -1.481849
      3          8           0        0.930476    1.493025    0.252244
      4         42           0       -0.916807    1.550282   -0.051090
      5          8           0       -1.459058    1.914083    1.445767
      6          8           0       -1.210342    2.706910   -1.167908
      7          8           0       -1.717020   -0.000002   -0.509898
      8         42           0       -0.916849   -1.550292   -0.051126
      9          8           0       -1.458945   -1.913975    1.445819
     10          8           0       -1.210558   -2.706971   -1.167843
     11          8           0        0.930452   -1.493159    0.252023
     12         47           0        1.986055    1.153908    2.447067
 ---------------------------------------------------------------------
                    Distance matrix (angstroms):
                    1          2          3          4          5
     1  Mo   0.000000
     2  O    1.622737   0.000000
     3  O    1.704877   2.864982   0.000000
     4  Mo   2.906109   4.147815   1.872897   0.000000
     5  O    3.959816   5.399594   2.704008   1.633085   0.000000
     6  O    3.943194   4.728882   2.841382   1.634391   2.742577
     7  O    3.249944   4.478279   3.133564   1.803947   2.748616
     8  Mo   2.906114   4.147938   3.573013   3.100574   3.812686
     9  O    3.959672   5.399589   4.329157   3.812575   3.828058
    10  O    3.943330   4.729244   4.923478   4.411080   5.314777
    11  O    1.704876   2.865066   2.986184   3.573063   4.329443
    12  Ag   3.028178   4.149027   2.458962   3.850261   3.667325
                    6          7          8          9         10
     6  O    0.000000
     7  O    2.831444   0.000000
     8  Mo   4.411021   1.803925   0.000000
     9  O    5.314692   2.748586   1.633088   0.000000
    10  O    5.413881   2.831444   1.634389   2.742584   0.000000
    11  O    4.923391   3.133552   1.872881   2.703970   2.841352
    12  Ag   5.069202   4.877286   4.688339   4.720427   6.179992
                   11         12
    11  O    0.000000
    12  Ag   3.597149   0.000000
 Symmetry turned off by external request.
 Stoichiometry    AgMo3O8(2)
 Framework group  C1[X(AgMo3O8)]
 Deg. of freedom    30
 Full point group                 C1      NOp   1
 Rotational constants (GHZ):           0.3882926           0.2555980           0.2161905
 Leave Link  202 at Fri Sep 11 23:12:24 2026, MaxMem=  6442450944 cpu:               0.0 elap:               0.1
 (Enter C:\G16W\l301.exe)
 Standard basis: def2SVP (5D, 7F)
 Ernie: Thresh=  0.10000D-02 Tol=  0.10000D-05 Strict=F.
   236 basis functions,   460 primitive gaussians,   264 cartesian basis functions
    63 alpha electrons       62 beta electrons
       nuclear repulsion energy      1225.2420767453 Hartrees.
 IExCor= 1009 DFT=T Ex+Corr=PBE1PBE ExCW=0 ScaHFX=  0.250000
 ScaDFX=  0.750000  0.750000  1.000000  1.000000 ScalE2=  1.000000  1.000000
 IRadAn=      5 IRanWt=     -1 IRanGd=            0 ICorTp=0 IEmpDi=141
 NAtoms=   12 NActive=   12 NUniq=   12 SFac= 1.00D+00 NAtFMM=   60 NAOKFM=F Big=F
 Integral buffers will be    131072 words long.
 Raffenetti 2 integral format.
 Two-electron integral symmetry is turned off.
 R6Disp:  Grimme-D3(BJ) Dispersion energy=       -0.0259680006 Hartrees.
 Nuclear repulsion after empirical dispersion term =     1225.2161087447 Hartrees.
 Leave Link  301 at Fri Sep 11 23:12:25 2026, MaxMem=  6442450944 cpu:               1.0 elap:               0.2
 (Enter C:\G16W\l302.exe)
 NPDir=0 NMtPBC=     1 NCelOv=     1 NCel=       1 NClECP=     1 NCelD=      1
         NCelK=      1 NCelE2=     1 NClLst=     1 CellRange=     0.0.
 One-electron integrals computed using PRISM.
   1 Symmetry operations used in ECPInt.
 ECPInt:  NShTT=    4278 NPrTT=   15042 LenC2=    4127 LenP2D=   11598.
 LDataN:  DoStor=T MaxTD1= 7 Len=  274
 NBasis=   236 RedAO= T EigKep=  1.30D-03  NBF=   236
 NBsUse=   236 1.00D-06 EigRej= -1.00D+00 NBFU=   236
 Precomputing XC quadrature grid using
 IXCGrd= 4 IRadAn=           5 IRanWt=          -1 IRanGd=           0 AccXCQ= 0.00D+00.
 Defaulting to unpruned grid for atomic number  42.
 Defaulting to unpruned grid for atomic number  42.
 Defaulting to unpruned grid for atomic number  47.
 Defaulting to unpruned grid for atomic number  42.
 Generated NRdTot=       0 NPtTot=           0 NUsed=           0 NTot=          32
 NSgBfM=   263   263   263   263   263 MxSgAt=    12 MxSgA2=    12.
 Leave Link  302 at Fri Sep 11 23:12:31 2026, MaxMem=  6442450944 cpu:               6.0 elap:               6.1
 (Enter C:\G16W\l303.exe)
 DipDrv:  MaxL=1.
 Leave Link  303 at Fri Sep 11 23:12:31 2026, MaxMem=  6442450944 cpu:               0.0 elap:               0.2
 (Enter C:\G16W\l401.exe)
 Initial guess from the checkpoint file:  "Mo3O8.chk"
 B after Tr=    -0.416365    0.217483   -0.145639
         Rot=    0.993498    0.065041    0.074043   -0.057002 Ang=  13.07 deg.
 Guess basis will be translated and rotated to current coordinates.
 JPrj=2 DoOrth=T DoCkMO=T.
 Initial guess <Sx>= 0.0000 <Sy>= 0.0000 <Sz>= 0.5000 <S**2>= 0.9817 S= 0.6098
 Leave Link  401 at Fri Sep 11 23:12:41 2026, MaxMem=  6442450944 cpu:              10.0 elap:               9.7
 (Enter C:\G16W\l502.exe)
 Keep R1 and R2 ints in memory in canonical form, NReq=791430846.
 FoFCou: FMM=F IPFlag=           0 FMFlag=           0 FMFlg1=           0
         NFxFlg=           0 DoJE=F BraDBF=F KetDBF=F FulRan=T
         wScrn=  0.000000 ICntrl=       600 IOpCl=  0 I1Cent=           0 NGrid=           0
         NMat0=    1 NMatS0=  27966 NMatT0=    0 NMatD0=    1 NMtDS0=    0 NMtDT0=    0
 Symmetry not used in FoFCou.
 Two-electron integral symmetry not used.
 UHF open shell SCF:
 Using DIIS extrapolation, IDIIS=  1040.
 NGot=  6442450944 LenX=  5660182136 LenY=  5660111999
 Requested convergence on RMS density matrix=1.00D-08 within 128 cycles.
 Requested convergence on MAX density matrix=1.00D-06.
 Requested convergence on             energy=1.00D-06.
 No special actions if energy rises.

 Cycle   1  Pass 1  IDiag  1:
 Defaulting to unpruned grid for atomic number  42.
 Defaulting to unpruned grid for atomic number  42.
 Defaulting to unpruned grid for atomic number  42.
 Defaulting to unpruned grid for atomic number  42.
 Defaulting to unpruned grid for atomic number  42.
 Defaulting to unpruned grid for atomic number  42.
 Defaulting to unpruned grid for atomic number  42.
 Defaulting to unpruned grid for atomic number  42.
 E= -952.180447511835    
 DIIS: error= 2.34D-02 at cycle   1 NSaved=   1.
 NSaved= 1 IEnMin= 1 EnMin= -952.180447511835     IErMin= 1 ErrMin= 2.34D-02
 ErrMax= 2.34D-02  0.00D+00 EMaxC= 1.00D-01 BMatC= 1.20D+00 BMatP= 1.20D+00
 IDIUse=3 WtCom= 7.66D-01 WtEn= 2.34D-01
 Coeff-Com:  0.100D+01
 Coeff-En:   0.100D+01
 Coeff:      0.100D+01
 Gap=     0.150 Goal=   None    Shift=    0.000
 Gap=     0.152 Goal=   None    Shift=    0.000
 GapD=    0.150 DampG=1.000 DampE=0.250 DampFc=0.2500 IDamp=-1.
 Damping current iteration by 2.50D-01
 RMSDP=3.81D-03 MaxDP=1.20D-01              OVMax= 2.04D-01

 Cycle   2  Pass 1  IDiag  1:
 E= -952.259663429291     Delta-E=       -0.079215917455 Rises=F Damp=T
 DIIS: error= 1.76D-02 at cycle   2 NSaved=   2.
 NSaved= 2 IEnMin= 2 EnMin= -952.259663429291     IErMin= 2 ErrMin= 1.76D-02
 ErrMax= 1.76D-02  0.00D+00 EMaxC= 1.00D-01 BMatC= 6.96D-01 BMatP= 1.20D+00
 IDIUse=3 WtCom= 8.24D-01 WtEn= 1.76D-01
 Coeff-Com: -0.292D+01 0.392D+01
 Coeff-En:   0.000D+00 0.100D+01
 Coeff:     -0.240D+01 0.340D+01
 Gap=     0.041 Goal=   None    Shift=    0.000
 Gap=     0.085 Goal=   None    Shift=    0.000
 RMSDP=3.28D-03 MaxDP=7.50D-02 DE=-7.92D-02 OVMax= 1.18D-01

 Cycle   3  Pass 1  IDiag  1:
 E= -952.480802167349     Delta-E=       -0.221138738058 Rises=F Damp=F
 DIIS: error= 1.14D-02 at cycle   3 NSaved=   3.
 NSaved= 3 IEnMin= 3 EnMin= -952.480802167349     IErMin= 3 ErrMin= 1.14D-02
 ErrMax= 1.14D-02  0.00D+00 EMaxC= 1.00D-01 BMatC= 2.78D-01 BMatP= 6.96D-01
 IDIUse=3 WtCom= 8.86D-01 WtEn= 1.14D-01
 Coeff-Com: -0.216D+01 0.283D+01 0.328D+00
 Coeff-En:   0.000D+00 0.000D+00 0.100D+01
 Coeff:     -0.191D+01 0.251D+01 0.405D+00
 Gap=     0.063 Goal=   None    Shift=    0.000
 Gap=     0.085 Goal=   None    Shift=    0.000
 RMSDP=1.44D-03 MaxDP=1.21D-01 DE=-2.21D-01 OVMax= 1.61D-01

 Cycle   4  Pass 1  IDiag  1:
 E= -952.520448950513     Delta-E=       -0.039646783164 Rises=F Damp=F
 DIIS: error= 7.56D-03 at cycle   4 NSaved=   4.
 NSaved= 4 IEnMin= 4 EnMin= -952.520448950513     IErMin= 4 ErrMin= 7.56D-03
 ErrMax= 7.56D-03  0.00D+00 EMaxC= 1.00D-01 BMatC= 9.28D-02 BMatP= 2.78D-01
 IDIUse=3 WtCom= 9.24D-01 WtEn= 7.56D-02
 Coeff-Com: -0.109D+01 0.142D+01 0.330D+00 0.340D+00
 Coeff-En:   0.000D+00 0.000D+00 0.300D+00 0.700D+00
 Coeff:     -0.100D+01 0.131D+01 0.328D+00 0.367D+00
 Gap=     0.054 Goal=   None    Shift=    0.000
 Gap=     0.088 Goal=   None    Shift=    0.000
 RMSDP=5.37D-04 MaxDP=1.75D-02 DE=-3.96D-02 OVMax= 3.21D-02

 Cycle   5  Pass 1  IDiag  1:
 E= -952.536873621828     Delta-E=       -0.016424671315 Rises=F Damp=F
 DIIS: error= 1.41D-03 at cycle   5 NSaved=   5.
 NSaved= 5 IEnMin= 5 EnMin= -952.536873621828     IErMin= 5 ErrMin= 1.41D-03
 ErrMax= 1.41D-03  0.00D+00 EMaxC= 1.00D-01 BMatC= 8.13D-03 BMatP= 9.28D-02
 IDIUse=3 WtCom= 9.86D-01 WtEn= 1.41D-02
 Coeff-Com: -0.816D-01 0.101D+00 0.161D+00 0.316D+00 0.503D+00
 Coeff-En:   0.000D+00 0.000D+00 0.000D+00 0.761D-01 0.924D+00
 Coeff:     -0.805D-01 0.999D-01 0.159D+00 0.312D+00 0.509D+00
 Gap=     0.052 Goal=   None    Shift=    0.000
 Gap=     0.088 Goal=   None    Shift=    0.000
 RMSDP=2.14D-04 MaxDP=7.05D-03 DE=-1.64D-02 OVMax= 1.75D-02

 Cycle   6  Pass 1  IDiag  1:
 E= -952.538526767311     Delta-E=       -0.001653145483 Rises=F Damp=F
 DIIS: error= 4.60D-04 at cycle   6 NSaved=   6.
 NSaved= 6 IEnMin= 6 EnMin= -952.538526767311     IErMin= 6 ErrMin= 4.60D-04
 ErrMax= 4.60D-04  0.00D+00 EMaxC= 1.00D-01 BMatC= 8.09D-04 BMatP= 8.13D-03
 IDIUse=3 WtCom= 9.95D-01 WtEn= 4.60D-03
 Coeff-Com:  0.836D-01-0.112D+00 0.626D-01 0.154D+00 0.336D+00 0.476D+00
 Coeff-En:   0.000D+00 0.000D+00 0.000D+00 0.000D+00 0.000D+00 0.100D+01
 Coeff:      0.832D-01-0.112D+00 0.623D-01 0.153D+00 0.334D+00 0.479D+00
 Gap=     0.052 Goal=   None    Shift=    0.000
 Gap=     0.089 Goal=   None    Shift=    0.000
 RMSDP=1.16D-04 MaxDP=5.98D-03 DE=-1.65D-03 OVMax= 1.34D-02

 Cycle   7  Pass 1  IDiag  1:
 E= -952.538732795438     Delta-E=       -0.000206028126 Rises=F Damp=F
 DIIS: error= 3.34D-04 at cycle   7 NSaved=   7.
 NSaved= 7 IEnMin= 7 EnMin= -952.538732795438     IErMin= 7 ErrMin= 3.34D-04
 ErrMax= 3.34D-04  0.00D+00 EMaxC= 1.00D-01 BMatC= 3.41D-04 BMatP= 8.09D-04
 IDIUse=3 WtCom= 9.97D-01 WtEn= 3.34D-03
 Coeff-Com:  0.899D-01-0.119D+00 0.113D-01 0.423D-01 0.145D+00 0.397D+00
 Coeff-Com:  0.434D+00
 Coeff-En:   0.000D+00 0.000D+00 0.000D+00 0.000D+00 0.000D+00 0.422D-01
 Coeff-En:   0.958D+00
 Coeff:      0.896D-01-0.119D+00 0.113D-01 0.422D-01 0.144D+00 0.395D+00
 Coeff:      0.436D+00
 Gap=     0.052 Goal=   None    Shift=    0.000
 Gap=     0.089 Goal=   None    Shift=    0.000
 RMSDP=8.81D-05 MaxDP=7.19D-03 DE=-2.06D-04 OVMax= 1.17D-02

 Cycle   8  Pass 1  IDiag  1:
 E= -952.538872470869     Delta-E=       -0.000139675431 Rises=F Damp=F
 DIIS: error= 1.26D-04 at cycle   8 NSaved=   8.
 NSaved= 8 IEnMin= 8 EnMin= -952.538872470869     IErMin= 8 ErrMin= 1.26D-04
 ErrMax= 1.26D-04  0.00D+00 EMaxC= 1.00D-01 BMatC= 6.21D-05 BMatP= 3.41D-04
 IDIUse=3 WtCom= 9.99D-01 WtEn= 1.26D-03
 Coeff-Com:  0.321D-01-0.420D-01-0.116D-01-0.254D-01-0.161D-01 0.959D-01
 Coeff-Com:  0.294D+00 0.673D+00
 Coeff-En:   0.000D+00 0.000D+00 0.000D+00 0.000D+00 0.000D+00 0.000D+00
 Coeff-En:   0.000D+00 0.100D+01
 Coeff:      0.321D-01-0.420D-01-0.116D-01-0.254D-01-0.160D-01 0.957D-01
 Coeff:      0.294D+00 0.673D+00
 Gap=     0.051 Goal=   None    Shift=    0.000
 Gap=     0.089 Goal=   None    Shift=    0.000
 RMSDP=1.00D-04 MaxDP=6.44D-03 DE=-1.40D-04 OVMax= 1.29D-02

 Cycle   9  Pass 1  IDiag  1:
 E= -952.538960481744     Delta-E=       -0.000088010875 Rises=F Damp=F
 DIIS: error= 8.85D-05 at cycle   9 NSaved=   9.
 NSaved= 9 IEnMin= 9 EnMin= -952.538960481744     IErMin= 9 ErrMin= 8.85D-05
 ErrMax= 8.85D-05  0.00D+00 EMaxC= 1.00D-01 BMatC= 3.38D-05 BMatP= 6.21D-05
 IDIUse=1 WtCom= 1.00D+00 WtEn= 0.00D+00
 Coeff-Com: -0.172D-01 0.233D-01-0.148D-01-0.438D-01-0.893D-01-0.115D+00
 Coeff-Com:  0.593D-01 0.575D+00 0.622D+00
 Coeff:     -0.172D-01 0.233D-01-0.148D-01-0.438D-01-0.893D-01-0.115D+00
 Coeff:      0.593D-01 0.575D+00 0.622D+00
 Gap=     0.051 Goal=   None    Shift=    0.000
 Gap=     0.090 Goal=   None    Shift=    0.000
 RMSDP=1.04D-04 MaxDP=8.16D-03 DE=-8.80D-05 OVMax= 1.33D-02

 Cycle  10  Pass 1  IDiag  1:
 E= -952.539030245822     Delta-E=       -0.000069764078 Rises=F Damp=F
 DIIS: error= 6.95D-05 at cycle  10 NSaved=  10.
 NSaved=10 IEnMin=10 EnMin= -952.539030245822     IErMin=10 ErrMin= 6.95D-05
 ErrMax= 6.95D-05  0.00D+00 EMaxC= 1.00D-01 BMatC= 1.32D-05 BMatP= 3.38D-05
 IDIUse=1 WtCom= 1.00D+00 WtEn= 0.00D+00
 Coeff-Com: -0.301D-01 0.399D-01-0.512D-02-0.192D-01-0.637D-01-0.139D+00
 Coeff-Com: -0.994D-01 0.647D-01 0.463D+00 0.789D+00
 Coeff:     -0.301D-01 0.399D-01-0.512D-02-0.192D-01-0.637D-01-0.139D+00
 Coeff:     -0.994D-01 0.647D-01 0.463D+00 0.789D+00
 Gap=     0.050 Goal=   None    Shift=    0.000
 Gap=     0.090 Goal=   None    Shift=    0.000
 RMSDP=1.06D-04 MaxDP=7.53D-03 DE=-6.98D-05 OVMax= 1.32D-02

 Cycle  11  Pass 1  IDiag  1:
 E= -952.539078606139     Delta-E=       -0.000048360317 Rises=F Damp=F
 DIIS: error= 5.07D-05 at cycle  11 NSaved=  11.
 NSaved=11 IEnMin=11 EnMin= -952.539078606139     IErMin=11 ErrMin= 5.07D-05
 ErrMax= 5.07D-05  0.00D+00 EMaxC= 1.00D-01 BMatC= 1.01D-05 BMatP= 1.32D-05
 IDIUse=1 WtCom= 1.00D+00 WtEn= 0.00D+00
 Coeff-Com: -0.189D-01 0.249D-01 0.288D-02 0.568D-02-0.153D-01-0.711D-01
 Coeff-Com: -0.125D+00-0.238D+00 0.121D+00 0.736D+00 0.578D+00
 Coeff:     -0.189D-01 0.249D-01 0.288D-02 0.568D-02-0.153D-01-0.711D-01
 Coeff:     -0.125D+00-0.238D+00 0.121D+00 0.736D+00 0.578D+00
 Gap=     0.049 Goal=   None    Shift=    0.000
 Gap=     0.090 Goal=   None    Shift=    0.000
 RMSDP=8.01D-05 MaxDP=6.32D-03 DE=-4.84D-05 OVMax= 1.03D-02

 Cycle  12  Pass 1  IDiag  1:
 E= -952.539103981319     Delta-E=       -0.000025375180 Rises=F Damp=F
 DIIS: error= 3.36D-05 at cycle  12 NSaved=  12.
 NSaved=12 IEnMin=12 EnMin= -952.539103981319     IErMin=12 ErrMin= 3.36D-05
 ErrMax= 3.36D-05  0.00D+00 EMaxC= 1.00D-01 BMatC= 3.60D-06 BMatP= 1.01D-05
 IDIUse=1 WtCom= 1.00D+00 WtEn= 0.00D+00
 Coeff-Com:  0.831D-03-0.125D-02 0.526D-02 0.160D-01 0.213D-01 0.155D-01
 Coeff-Com: -0.559D-01-0.239D+00-0.158D+00 0.198D+00 0.491D+00 0.706D+00
 Coeff:      0.831D-03-0.125D-02 0.526D-02 0.160D-01 0.213D-01 0.155D-01
 Coeff:     -0.559D-01-0.239D+00-0.158D+00 0.198D+00 0.491D+00 0.706D+00
 Gap=     0.049 Goal=   None    Shift=    0.000
 Gap=     0.090 Goal=   None    Shift=    0.000
 RMSDP=6.65D-05 MaxDP=5.61D-03 DE=-2.54D-05 OVMax= 9.10D-03

 Cycle  13  Pass 1  IDiag  1:
 E= -952.539117360554     Delta-E=       -0.000013379235 Rises=F Damp=F
 DIIS: error= 2.60D-05 at cycle  13 NSaved=  13.
 NSaved=13 IEnMin=13 EnMin= -952.539117360554     IErMin=13 ErrMin= 2.60D-05
 ErrMax= 2.60D-05  0.00D+00 EMaxC= 1.00D-01 BMatC= 1.31D-06 BMatP= 3.60D-06
 IDIUse=1 WtCom= 1.00D+00 WtEn= 0.00D+00
 Coeff-Com:  0.830D-02-0.111D-01 0.261D-02 0.879D-02 0.210D-01 0.382D-01
 Coeff-Com:  0.476D-02-0.870D-01-0.171D+00-0.159D+00 0.115D+00 0.502D+00
 Coeff-Com:  0.727D+00
 Coeff:      0.830D-02-0.111D-01 0.261D-02 0.879D-02 0.210D-01 0.382D-01
 Coeff:      0.476D-02-0.870D-01-0.171D+00-0.159D+00 0.115D+00 0.502D+00
 Coeff:      0.727D+00
 Gap=     0.049 Goal=   None    Shift=    0.000
 Gap=     0.091 Goal=   None    Shift=    0.000
 RMSDP=5.12D-05 MaxDP=3.85D-03 DE=-1.34D-05 OVMax= 6.43D-03

 Cycle  14  Pass 1  IDiag  1:
 E= -952.539123348610     Delta-E=       -0.000005988055 Rises=F Damp=F
 DIIS: error= 1.54D-05 at cycle  14 NSaved=  14.
 NSaved=14 IEnMin=14 EnMin= -952.539123348610     IErMin=14 ErrMin= 1.54D-05
 ErrMax= 1.54D-05  0.00D+00 EMaxC= 1.00D-01 BMatC= 5.65D-07 BMatP= 1.31D-06
 IDIUse=1 WtCom= 1.00D+00 WtEn= 0.00D+00
 Coeff-Com:  0.466D-02-0.619D-02 0.266D-03 0.595D-03 0.640D-02 0.185D-01
 Coeff-Com:  0.151D-01 0.178D-01-0.475D-01-0.142D+00-0.735D-01 0.356D-01
 Coeff-Com:  0.475D+00 0.695D+00
 Coeff:      0.466D-02-0.619D-02 0.266D-03 0.595D-03 0.640D-02 0.185D-01
 Coeff:      0.151D-01 0.178D-01-0.475D-01-0.142D+00-0.735D-01 0.356D-01
 Coeff:      0.475D+00 0.695D+00
 Gap=     0.048 Goal=   None    Shift=    0.000
 Gap=     0.091 Goal=   None    Shift=    0.000
 RMSDP=2.27D-05 MaxDP=1.81D-03 DE=-5.99D-06 OVMax= 3.14D-03

 Cycle  15  Pass 1  IDiag  1:
 E= -952.539125303570     Delta-E=       -0.000001954960 Rises=F Damp=F
 DIIS: error= 1.00D-05 at cycle  15 NSaved=  15.
 NSaved=15 IEnMin=15 EnMin= -952.539125303570     IErMin=15 ErrMin= 1.00D-05
 ErrMax= 1.00D-05  0.00D+00 EMaxC= 1.00D-01 BMatC= 3.46D-07 BMatP= 5.65D-07
 IDIUse=1 WtCom= 1.00D+00 WtEn= 0.00D+00
 Coeff-Com:  0.244D-03-0.303D-03-0.627D-03-0.282D-02-0.330D-02 0.274D-03
 Coeff-Com:  0.555D-02 0.399D-01 0.378D-01-0.469D-01-0.914D-01-0.185D+00
 Coeff-Com:  0.138D+00 0.500D+00 0.609D+00
 Coeff:      0.244D-03-0.303D-03-0.627D-03-0.282D-02-0.330D-02 0.274D-03
 Coeff:      0.555D-02 0.399D-01 0.378D-01-0.469D-01-0.914D-01-0.185D+00
 Coeff:      0.138D+00 0.500D+00 0.609D+00
 Gap=     0.048 Goal=   None    Shift=    0.000
 Gap=     0.091 Goal=   None    Shift=    0.000
 RMSDP=1.45D-05 MaxDP=9.88D-04 DE=-1.95D-06 OVMax= 2.00D-03

 Cycle  16  Pass 1  IDiag  1:
 E= -952.539126425124     Delta-E=       -0.000001121554 Rises=F Damp=F
 DIIS: error= 7.23D-06 at cycle  16 NSaved=  16.
 NSaved=16 IEnMin=16 EnMin= -952.539126425124     IErMin=16 ErrMin= 7.23D-06
 ErrMax= 7.23D-06  0.00D+00 EMaxC= 1.00D-01 BMatC= 2.69D-07 BMatP= 3.46D-07
 IDIUse=1 WtCom= 1.00D+00 WtEn= 0.00D+00
 Coeff-Com: -0.296D-02 0.395D-02-0.679D-03-0.315D-02-0.799D-02-0.118D-01
 Coeff-Com: -0.907D-02 0.190D-01 0.807D-01 0.439D-01-0.332D-01-0.227D+00
 Coeff-Com: -0.979D-01 0.576D-01 0.543D+00 0.645D+00
 Coeff:     -0.296D-02 0.395D-02-0.679D-03-0.315D-02-0.799D-02-0.118D-01
 Coeff:     -0.907D-02 0.190D-01 0.807D-01 0.439D-01-0.332D-01-0.227D+00
 Coeff:     -0.979D-01 0.576D-01 0.543D+00 0.645D+00
 Gap=     0.048 Goal=   None    Shift=    0.000
 Gap=     0.091 Goal=   None    Shift=    0.000
 RMSDP=1.46D-05 MaxDP=9.17D-04 DE=-1.12D-06 OVMax= 2.48D-03

 Cycle  17  Pass 1  IDiag  1:
 E= -952.539127475595     Delta-E=       -0.000001050471 Rises=F Damp=F
 DIIS: error= 5.59D-06 at cycle  17 NSaved=  17.
 NSaved=17 IEnMin=17 EnMin= -952.539127475595     IErMin=17 ErrMin= 5.59D-06
 ErrMax= 5.59D-06  0.00D+00 EMaxC= 1.00D-01 BMatC= 2.29D-07 BMatP= 2.69D-07
 IDIUse=1 WtCom= 1.00D+00 WtEn= 0.00D+00
 Coeff-Com: -0.270D-02 0.359D-02-0.268D-03-0.152D-02-0.599D-02-0.977D-02
 Coeff-Com: -0.136D-01-0.627D-02 0.705D-01 0.555D-01 0.136D-01-0.147D+00
 Coeff-Com: -0.930D-01-0.178D+00 0.145D+00 0.557D+00 0.614D+00
 Coeff:     -0.270D-02 0.359D-02-0.268D-03-0.152D-02-0.599D-02-0.977D-02
 Coeff:     -0.136D-01-0.627D-02 0.705D-01 0.555D-01 0.136D-01-0.147D+00
 Coeff:     -0.930D-01-0.178D+00 0.145D+00 0.557D+00 0.614D+00
 Gap=     0.048 Goal=   None    Shift=    0.000
 Gap=     0.091 Goal=   None    Shift=    0.000
 RMSDP=1.33D-05 MaxDP=7.61D-04 DE=-1.05D-06 OVMax= 2.51D-03

 Cycle  18  Pass 1  IDiag  1:
 E= -952.539128381091     Delta-E=       -0.000000905496 Rises=F Damp=F
 DIIS: error= 5.54D-06 at cycle  18 NSaved=  18.
 NSaved=18 IEnMin=18 EnMin= -952.539128381091     IErMin=18 ErrMin= 5.54D-06
 ErrMax= 5.54D-06  0.00D+00 EMaxC= 1.00D-01 BMatC= 2.04D-07 BMatP= 2.29D-07
 IDIUse=1 WtCom= 1.00D+00 WtEn= 0.00D+00
 Coeff-Com: -0.549D-03 0.724D-03 0.232D-03 0.615D-03-0.798D-03-0.214D-03
 Coeff-Com: -0.114D-01-0.261D-01 0.313D-01 0.158D-01 0.387D-01-0.197D-01
 Coeff-Com:  0.675D-01-0.206D+00-0.356D+00 0.813D-01 0.607D+00 0.777D+00
 Coeff:     -0.549D-03 0.724D-03 0.232D-03 0.615D-03-0.798D-03-0.214D-03
 Coeff:     -0.114D-01-0.261D-01 0.313D-01 0.158D-01 0.387D-01-0.197D-01
 Coeff:      0.675D-01-0.206D+00-0.356D+00 0.813D-01 0.607D+00 0.777D+00
 Gap=     0.048 Goal=   None    Shift=    0.000
 Gap=     0.091 Goal=   None    Shift=    0.000
 RMSDP=1.85D-05 MaxDP=1.15D-03 DE=-9.05D-07 OVMax= 3.68D-03

 Cycle  19  Pass 1  IDiag  1:
 E= -952.539129613676     Delta-E=       -0.000001232585 Rises=F Damp=F
 DIIS: error= 5.56D-06 at cycle  19 NSaved=  19.
 NSaved=19 IEnMin=19 EnMin= -952.539129613676     IErMin=18 ErrMin= 5.54D-06
 ErrMax= 5.56D-06  0.00D+00 EMaxC= 1.00D-01 BMatC= 1.90D-07 BMatP= 2.04D-07
 IDIUse=1 WtCom= 1.00D+00 WtEn= 0.00D+00
 Coeff-Com: -0.504D-03 0.665D-03 0.200D-03 0.489D-03-0.819D-03-0.496D-04
 Coeff-Com: -0.109D-01-0.241D-01 0.305D-01 0.130D-01 0.341D-01-0.243D-01
 Coeff-Com:  0.760D-01-0.175D+00-0.335D+00 0.765D-01 0.513D+00 0.630D+00
 Coeff-Com:  0.195D+00
 Coeff:     -0.504D-03 0.665D-03 0.200D-03 0.489D-03-0.819D-03-0.496D-04
 Coeff:     -0.109D-01-0.241D-01 0.305D-01 0.130D-01 0.341D-01-0.243D-01
 Coeff:      0.760D-01-0.175D+00-0.335D+00 0.765D-01 0.513D+00 0.630D+00
 Coeff:      0.195D+00
 Gap=     0.048 Goal=   None    Shift=    0.000
 Gap=     0.091 Goal=   None    Shift=    0.000
 RMSDP=3.07D-06 MaxDP=2.15D-04 DE=-1.23D-06 OVMax= 6.25D-04

 Cycle  20  Pass 1  IDiag  1:
 E= -952.539129814821     Delta-E=       -0.000000201146 Rises=F Damp=F
 DIIS: error= 5.57D-06 at cycle  20 NSaved=  20.
 NSaved=20 IEnMin=20 EnMin= -952.539129814821     IErMin=18 ErrMin= 5.54D-06
 ErrMax= 5.57D-06  0.00D+00 EMaxC= 1.00D-01 BMatC= 1.91D-07 BMatP= 1.90D-07
 IDIUse=1 WtCom= 1.00D+00 WtEn= 0.00D+00
 Coeff-Com: -0.883D-04 0.109D-03 0.416D-03 0.140D-02 0.609D-03 0.173D-02
 Coeff-Com: -0.119D-01-0.365D-01 0.220D-01 0.991D-02 0.569D-01 0.305D-01
 Coeff-Com:  0.958D-01-0.282D+00-0.530D+00-0.619D-01 0.806D+00 0.128D+01
 Coeff-Com:  0.335D+01-0.373D+01
 Coeff:     -0.883D-04 0.109D-03 0.416D-03 0.140D-02 0.609D-03 0.173D-02
 Coeff:     -0.119D-01-0.365D-01 0.220D-01 0.991D-02 0.569D-01 0.305D-01
 Coeff:      0.958D-01-0.282D+00-0.530D+00-0.619D-01 0.806D+00 0.128D+01
 Coeff:      0.335D+01-0.373D+01
 Gap=     0.048 Goal=   None    Shift=    0.000
 Gap=     0.091 Goal=   None    Shift=    0.000
 RMSDP=1.58D-05 MaxDP=1.15D-03 DE=-2.01D-07 OVMax= 3.25D-03

 Cycle  21  Pass 1  IDiag  1:
 E= -952.539128808600     Delta-E=        0.000001006222 Rises=F Damp=F
 DIIS: error= 5.16D-06 at cycle  21 NSaved=  20.
 NSaved=20 IEnMin=19 EnMin= -952.539129814821     IErMin=20 ErrMin= 5.16D-06
 ErrMax= 5.16D-06  0.00D+00 EMaxC= 1.00D-01 BMatC= 1.76D-07 BMatP= 1.90D-07
 IDIUse=1 WtCom= 1.00D+00 WtEn= 0.00D+00
 Large coefficients: NSaved= 20 BigCof=   15.47 CofMax=   10.00 Det=-6.43D-11
 Inversion failed.  Reducing to 19 matrices.
 Large coefficients: NSaved= 19 BigCof=   15.19 CofMax=   10.00 Det=-6.56D-11
 Inversion failed.  Reducing to 18 matrices.
 Large coefficients: NSaved= 18 BigCof=   14.42 CofMax=   10.00 Det=-6.85D-11
 Inversion failed.  Reducing to 17 matrices.
 Large coefficients: NSaved= 17 BigCof=   13.90 CofMax=   10.00 Det=-7.39D-11
 Inversion failed.  Reducing to 16 matrices.
 Large coefficients: NSaved= 16 BigCof=   13.78 CofMax=   10.00 Det=-8.07D-11
 Inversion failed.  Reducing to 15 matrices.
 Large coefficients: NSaved= 15 BigCof=   14.39 CofMax=   10.00 Det=-8.30D-11
 Inversion failed.  Reducing to 14 matrices.
 Large coefficients: NSaved= 14 BigCof=   16.19 CofMax=   10.00 Det=-8.43D-11
 Inversion failed.  Reducing to 13 matrices.
 Large coefficients: NSaved= 13 BigCof=   16.13 CofMax=   10.00 Det=-8.44D-11
 Inversion failed.  Reducing to 12 matrices.
 Large coefficients: NSaved= 12 BigCof=   16.83 CofMax=   10.00 Det=-8.50D-11
 Inversion failed.  Reducing to 11 matrices.
 Large coefficients: NSaved= 11 BigCof=   14.17 CofMax=   10.00 Det=-8.81D-11
 Inversion failed.  Reducing to 10 matrices.
 Large coefficients: NSaved= 10 BigCof=   13.94 CofMax=   10.00 Det=-8.85D-11
 Inversion failed.  Reducing to  9 matrices.
 Large coefficients: NSaved=  9 BigCof=   14.67 CofMax=   10.00 Det=-9.59D-11
 Inversion failed.  Reducing to  8 matrices.
 Large coefficients: NSaved=  8 BigCof=   15.21 CofMax=   10.00 Det=-9.60D-11
 Inversion failed.  Reducing to  7 matrices.
 Large coefficients: NSaved=  7 BigCof=   14.16 CofMax=   10.00 Det=-9.94D-11
 Inversion failed.  Reducing to  6 matrices.
 Large coefficients: NSaved=  6 BigCof=   14.15 CofMax=   10.00 Det=-1.02D-10
 Inversion failed.  Reducing to  5 matrices.
 Large coefficients: NSaved=  5 BigCof=   14.12 CofMax=   10.00 Det=-1.43D-10
 Inversion failed.  Reducing to  4 matrices.
 Large coefficients: NSaved=  4 BigCof=   14.21 CofMax=   10.00 Det=-1.43D-10
 Inversion failed.  Reducing to  3 matrices.
 Large coefficients: NSaved=  3 BigCof=   13.92 CofMax=   10.00 Det=-1.48D-10
 Inversion failed.  Reducing to  2 matrices.
 Coeff-Com: -0.156D+01 0.256D+01
 Coeff:     -0.156D+01 0.256D+01
 Gap=     0.048 Goal=   None    Shift=    0.000
 Gap=     0.091 Goal=   None    Shift=    0.000
 RMSDP=1.40D-05 MaxDP=1.05D-03 DE= 1.01D-06 OVMax= 2.89D-03

 Cycle  22  Pass 1  IDiag  1:
 E= -952.539127940402     Delta-E=        0.000000868198 Rises=F Damp=F
 DIIS: error= 1.10D-05 at cycle  22 NSaved=   3.
 NSaved= 3 IEnMin= 1 EnMin= -952.539129814821     IErMin= 2 ErrMin= 5.16D-06
 ErrMax= 1.10D-05  0.00D+00 EMaxC= 1.00D-01 BMatC= 3.86D-07 BMatP= 1.76D-07
 IDIUse=1 WtCom= 1.00D+00 WtEn= 0.00D+00
 Coeff-Com: -0.236D+01 0.300D+01 0.366D+00
 Coeff:     -0.236D+01 0.300D+01 0.366D+00
 Gap=     0.048 Goal=   None    Shift=    0.000
 Gap=     0.091 Goal=   None    Shift=    0.000
 RMSDP=1.77D-05 MaxDP=1.29D-03 DE= 8.68D-07 OVMax= 3.60D-03

 Cycle  23  Pass 1  IDiag  1:
 E= -952.539126938705     Delta-E=        0.000001001697 Rises=F Damp=F
 DIIS: error= 6.34D-06 at cycle  23 NSaved=   4.
 NSaved= 4 IEnMin= 1 EnMin= -952.539129814821     IErMin= 2 ErrMin= 5.16D-06
 ErrMax= 6.34D-06  0.00D+00 EMaxC= 1.00D-01 BMatC= 2.21D-07 BMatP= 1.76D-07
 IDIUse=1 WtCom= 1.00D+00 WtEn= 0.00D+00
 Coeff-Com: -0.428D+01 0.410D+01 0.396D+00 0.788D+00
 Coeff:     -0.428D+01 0.410D+01 0.396D+00 0.788D+00
 Gap=     0.048 Goal=   None    Shift=    0.000
 Gap=     0.091 Goal=   None    Shift=    0.000
 RMSDP=5.72D-05 MaxDP=4.23D-03 DE= 1.00D-06 OVMax= 1.18D-02

 Cycle  24  Pass 1  IDiag  1:
 E= -952.539123936613     Delta-E=        0.000003002092 Rises=F Damp=F
 DIIS: error= 4.79D-06 at cycle  24 NSaved=   5.
 NSaved= 5 IEnMin= 1 EnMin= -952.539129814821     IErMin= 5 ErrMin= 4.79D-06
 ErrMax= 4.79D-06  0.00D+00 EMaxC= 1.00D-01 BMatC= 1.61D-07 BMatP= 1.76D-07
 IDIUse=1 WtCom= 1.00D+00 WtEn= 0.00D+00
 Coeff-Com: -0.624D+01 0.465D+01 0.323D+00 0.120D+01 0.106D+01
 Coeff:     -0.624D+01 0.465D+01 0.323D+00 0.120D+01 0.106D+01
 Gap=     0.049 Goal=   None    Shift=    0.000
 Gap=     0.090 Goal=   None    Shift=    0.000
 RMSDP=1.40D-04 MaxDP=1.05D-02 DE= 3.00D-06 OVMax= 2.89D-02

 Cycle  25  Pass 1  IDiag  1:
 E= -952.539118446774     Delta-E=        0.000005489839 Rises=F Damp=F
 DIIS: error= 1.13D-05 at cycle  25 NSaved=   6.
 NSaved= 6 IEnMin= 1 EnMin= -952.539129814821     IErMin= 5 ErrMin= 4.79D-06
 ErrMax= 1.13D-05  0.00D+00 EMaxC= 1.00D-01 BMatC= 3.39D-07 BMatP= 1.61D-07
 IDIUse=1 WtCom= 1.00D+00 WtEn= 0.00D+00
 Coeff-Com: -0.660D+01 0.496D+01 0.325D+00 0.125D+01 0.112D+01-0.534D-01
 Coeff:     -0.660D+01 0.496D+01 0.325D+00 0.125D+01 0.112D+01-0.534D-01
 Gap=     0.049 Goal=   None    Shift=    0.000
 Gap=     0.090 Goal=   None    Shift=    0.000
 RMSDP=6.93D-07 MaxDP=6.10D-05 DE= 5.49D-06 OVMax= 1.09D-04

 Cycle  26  Pass 1  IDiag  1:
 E= -952.539118383202     Delta-E=        0.000000063572 Rises=F Damp=F
 DIIS: error= 1.23D-05 at cycle  26 NSaved=   7.
 NSaved= 7 IEnMin= 1 EnMin= -952.539129814821     IErMin= 5 ErrMin= 4.79D-06
 ErrMax= 1.23D-05  0.00D+00 EMaxC= 1.00D-01 BMatC= 4.60D-07 BMatP= 1.61D-07
 IDIUse=1 WtCom= 1.00D+00 WtEn= 0.00D+00
 Coeff-Com: -0.554D+01 0.401D+01 0.309D+00 0.115D+01 0.877D+00 0.127D+01
 Coeff-Com: -0.108D+01
 Coeff:     -0.554D+01 0.401D+01 0.309D+00 0.115D+01 0.877D+00 0.127D+01
 Coeff:     -0.108D+01
 Gap=     0.049 Goal=   None    Shift=    0.000
 Gap=     0.090 Goal=   None    Shift=    0.000
 RMSDP=1.37D-05 MaxDP=1.05D-03 DE= 6.36D-08 OVMax= 2.85D-03

 Cycle  27  Pass 1  IDiag  1:
 E= -952.539118054188     Delta-E=        0.000000329014 Rises=F Damp=F
 DIIS: error= 1.15D-05 at cycle  27 NSaved=   8.
 NSaved= 8 IEnMin= 1 EnMin= -952.539129814821     IErMin= 5 ErrMin= 4.79D-06
 ErrMax= 1.15D-05  0.00D+00 EMaxC= 1.00D-01 BMatC= 4.12D-07 BMatP= 1.61D-07
 IDIUse=1 WtCom= 1.00D+00 WtEn= 0.00D+00
 Coeff-Com: -0.446D+01 0.331D+01 0.268D+00 0.920D+00 0.520D+00 0.232D+01
 Coeff-Com: -0.293D+01 0.104D+01
 Coeff:     -0.446D+01 0.331D+01 0.268D+00 0.920D+00 0.520D+00 0.232D+01
 Coeff:     -0.293D+01 0.104D+01
 Gap=     0.049 Goal=   None    Shift=    0.000
 Gap=     0.090 Goal=   None    Shift=    0.000
 RMSDP=1.49D-05 MaxDP=1.14D-03 DE= 3.29D-07 OVMax= 3.09D-03

 Cycle  28  Pass 1  IDiag  1:
 E= -952.539117783210     Delta-E=        0.000000270978 Rises=F Damp=F
 DIIS: error= 1.00D-05 at cycle  28 NSaved=   9.
 NSaved= 9 IEnMin= 1 EnMin= -952.539129814821     IErMin= 5 ErrMin= 4.79D-06
 ErrMax= 1.00D-05  0.00D+00 EMaxC= 1.00D-01 BMatC= 2.58D-07 BMatP= 1.61D-07
 IDIUse=1 WtCom= 1.00D+00 WtEn= 0.00D+00
 Coeff-Com: -0.331D+01 0.284D+01 0.132D+00 0.411D+00 0.211D+00 0.136D+01
 Coeff-Com: -0.392D+01 0.176D+01 0.151D+01
 Coeff:     -0.331D+01 0.284D+01 0.132D+00 0.411D+00 0.211D+00 0.136D+01
 Coeff:     -0.392D+01 0.176D+01 0.151D+01
 Gap=     0.049 Goal=   None    Shift=    0.000
 Gap=     0.090 Goal=   None    Shift=    0.000
 RMSDP=5.43D-05 MaxDP=4.13D-03 DE= 2.71D-07 OVMax= 1.13D-02

 Cycle  29  Pass 1  IDiag  1:
 E= -952.539116823546     Delta-E=        0.000000959664 Rises=F Damp=F
 DIIS: error= 8.76D-06 at cycle  29 NSaved=  10.
 NSaved=10 IEnMin= 1 EnMin= -952.539129814821     IErMin= 5 ErrMin= 4.79D-06
 ErrMax= 8.76D-06  0.00D+00 EMaxC= 1.00D-01 BMatC= 1.90D-07 BMatP= 1.61D-07
 IDIUse=1 WtCom= 1.00D+00 WtEn= 0.00D+00
 Coeff-Com: -0.163D+01 0.175D+01 0.609D-01 0.551D-01-0.917D-02-0.218D+00
 Coeff-Com: -0.211D+01 0.571D+00 0.153D+01 0.100D+01
 Coeff:     -0.163D+01 0.175D+01 0.609D-01 0.551D-01-0.917D-02-0.218D+00
 Coeff:     -0.211D+01 0.571D+00 0.153D+01 0.100D+01
 Gap=     0.048 Goal=   None    Shift=    0.000
 Gap=     0.090 Goal=   None    Shift=    0.000
 RMSDP=2.46D-05 MaxDP=1.85D-03 DE= 9.60D-07 OVMax= 5.05D-03

 Cycle  30  Pass 1  IDiag  1:
 E= -952.539116730565     Delta-E=        0.000000092981 Rises=F Damp=F
 DIIS: error= 4.63D-06 at cycle  30 NSaved=  11.
 NSaved=11 IEnMin= 1 EnMin= -952.539129814821     IErMin=11 ErrMin= 4.63D-06
 ErrMax= 4.63D-06  0.00D+00 EMaxC= 1.00D-01 BMatC= 3.77D-08 BMatP= 1.61D-07
 IDIUse=1 WtCom= 1.00D+00 WtEn= 0.00D+00
 Coeff-Com: -0.193D+01 0.151D+01 0.565D-01 0.258D+00 0.478D+00-0.196D+01
 Coeff-Com:  0.183D+01-0.127D+01 0.345D+00 0.107D+01 0.605D+00
 Coeff:     -0.193D+01 0.151D+01 0.565D-01 0.258D+00 0.478D+00-0.196D+01
 Coeff:      0.183D+01-0.127D+01 0.345D+00 0.107D+01 0.605D+00
 Gap=     0.048 Goal=   None    Shift=    0.000
 Gap=     0.090 Goal=   None    Shift=    0.000
 RMSDP=3.25D-05 MaxDP=2.46D-03 DE= 9.30D-08 OVMax= 6.77D-03

 Cycle  31  Pass 1  IDiag  1:
 E= -952.539116437028     Delta-E=        0.000000293538 Rises=F Damp=F
 DIIS: error= 6.11D-06 at cycle  31 NSaved=  12.
 NSaved=12 IEnMin= 1 EnMin= -952.539129814821     IErMin=11 ErrMin= 4.63D-06
 ErrMax= 6.11D-06  0.00D+00 EMaxC= 1.00D-01 BMatC= 1.03D-07 BMatP= 3.77D-08
 IDIUse=1 WtCom= 1.00D+00 WtEn= 0.00D+00
 Coeff-Com: -0.168D+00-0.367D+00 0.547D-01 0.330D+00 0.343D+00-0.113D+01
 Coeff-Com:  0.366D+01-0.190D+01-0.154D+01-0.716D+00 0.110D+01 0.133D+01
 Coeff:     -0.168D+00-0.367D+00 0.547D-01 0.330D+00 0.343D+00-0.113D+01
 Coeff:      0.366D+01-0.190D+01-0.154D+01-0.716D+00 0.110D+01 0.133D+01
 Gap=     0.048 Goal=   None    Shift=    0.000
 Gap=     0.090 Goal=   None    Shift=    0.000
 RMSDP=3.66D-05 MaxDP=2.70D-03 DE= 2.94D-07 OVMax= 7.48D-03

 Cycle  32  Pass 1  IDiag  1:
 E= -952.539116529758     Delta-E=       -0.000000092730 Rises=F Damp=F
 DIIS: error= 1.93D-06 at cycle  32 NSaved=  13.
 NSaved=13 IEnMin= 1 EnMin= -952.539129814821     IErMin=13 ErrMin= 1.93D-06
 ErrMax= 1.93D-06  0.00D+00 EMaxC= 1.00D-01 BMatC= 1.43D-08 BMatP= 3.77D-08
 IDIUse=1 WtCom= 1.00D+00 WtEn= 0.00D+00
 Coeff-Com:  0.730D-01-0.460D+00 0.535D-01 0.265D+00 0.204D+00-0.280D+00
 Coeff-Com:  0.249D+01-0.107D+01-0.141D+01-0.123D+01 0.683D+00 0.103D+01
 Coeff-Com:  0.651D+00
 Coeff:      0.730D-01-0.460D+00 0.535D-01 0.265D+00 0.204D+00-0.280D+00
 Coeff:      0.249D+01-0.107D+01-0.141D+01-0.123D+01 0.683D+00 0.103D+01
 Coeff:      0.651D+00
 Gap=     0.048 Goal=   None    Shift=    0.000
 Gap=     0.090 Goal=   None    Shift=    0.000
 RMSDP=8.91D-06 MaxDP=6.26D-04 DE=-9.27D-08 OVMax= 1.37D-03

 Cycle  33  Pass 1  IDiag  1:
 E= -952.539116585050     Delta-E=       -0.000000055292 Rises=F Damp=F
 DIIS: error= 2.07D-06 at cycle  33 NSaved=  14.
 NSaved=14 IEnMin= 1 EnMin= -952.539129814821     IErMin=13 ErrMin= 1.93D-06
 ErrMax= 2.07D-06  0.00D+00 EMaxC= 1.00D-01 BMatC= 2.10D-08 BMatP= 1.43D-08
 IDIUse=1 WtCom= 1.00D+00 WtEn= 0.00D+00
 Coeff-Com:  0.399D+00-0.351D+00-0.571D-02-0.626D-01-0.816D-01 0.445D+00
 Coeff-Com: -0.445D-01 0.257D+00-0.262D+00-0.485D+00-0.229D+00 0.134D+00
 Coeff-Com:  0.498D+00 0.789D+00
 Coeff:      0.399D+00-0.351D+00-0.571D-02-0.626D-01-0.816D-01 0.445D+00
 Coeff:     -0.445D-01 0.257D+00-0.262D+00-0.485D+00-0.229D+00 0.134D+00
 Coeff:      0.498D+00 0.789D+00
 Gap=     0.048 Goal=   None    Shift=    0.000
 Gap=     0.090 Goal=   None    Shift=    0.000
 RMSDP=9.51D-06 MaxDP=6.92D-04 DE=-5.53D-08 OVMax= 1.95D-03

 Cycle  34  Pass 1  IDiag  1:
 E= -952.539116589238     Delta-E=       -0.000000004188 Rises=F Damp=F
 DIIS: error= 1.31D-06 at cycle  34 NSaved=  15.
 NSaved=15 IEnMin= 1 EnMin= -952.539129814821     IErMin=15 ErrMin= 1.31D-06
 ErrMax= 1.31D-06  0.00D+00 EMaxC= 1.00D-01 BMatC= 5.71D-09 BMatP= 1.43D-08
 IDIUse=1 WtCom= 1.00D+00 WtEn= 0.00D+00
 Coeff-Com:  0.535D+00-0.352D+00-0.194D-01-0.138D+00-0.149D+00 0.315D+00
 Coeff-Com: -0.424D+00 0.370D+00 0.469D-01-0.662D-01-0.312D+00-0.448D-01
 Coeff-Com:  0.211D+00 0.491D+00 0.535D+00
 Coeff:      0.535D+00-0.352D+00-0.194D-01-0.138D+00-0.149D+00 0.315D+00
 Coeff:     -0.424D+00 0.370D+00 0.469D-01-0.662D-01-0.312D+00-0.448D-01
 Coeff:      0.211D+00 0.491D+00 0.535D+00
 Gap=     0.048 Goal=   None    Shift=    0.000
 Gap=     0.090 Goal=   None    Shift=    0.000
 RMSDP=8.60D-07 MaxDP=7.87D-05 DE=-4.19D-09 OVMax= 1.35D-04

 Cycle  35  Pass 1  IDiag  1:
 E= -952.539116588600     Delta-E=        0.000000000638 Rises=F Damp=F
 DIIS: error= 1.45D-06 at cycle  35 NSaved=  16.
 NSaved=16 IEnMin= 1 EnMin= -952.539129814821     IErMin=15 ErrMin= 1.31D-06
 ErrMax= 1.45D-06  0.00D+00 EMaxC= 1.00D-01 BMatC= 8.04D-09 BMatP= 5.71D-09
 IDIUse=1 WtCom= 1.00D+00 WtEn= 0.00D+00
 Coeff-Com:  0.333D+00-0.220D+00-0.147D-01-0.902D-01-0.784D-01 0.113D-01
 Coeff-Com: -0.191D+00 0.184D+00 0.101D+00 0.196D+00-0.219D+00-0.605D-01
 Coeff-Com: -0.639D-01 0.745D-01 0.518D+00 0.521D+00
 Coeff:      0.333D+00-0.220D+00-0.147D-01-0.902D-01-0.784D-01 0.113D-01
 Coeff:     -0.191D+00 0.184D+00 0.101D+00 0.196D+00-0.219D+00-0.605D-01
 Coeff:     -0.639D-01 0.745D-01 0.518D+00 0.521D+00
 Gap=     0.048 Goal=   None    Shift=    0.000
 Gap=     0.090 Goal=   None    Shift=    0.000
 RMSDP=1.35D-06 MaxDP=9.95D-05 DE= 6.38D-10 OVMax= 2.68D-04

 Cycle  36  Pass 1  IDiag  1:
 E= -952.539116591359     Delta-E=       -0.000000002759 Rises=F Damp=F
 DIIS: error= 5.66D-07 at cycle  36 NSaved=  17.
 NSaved=17 IEnMin= 1 EnMin= -952.539129814821     IErMin=17 ErrMin= 5.66D-07
 ErrMax= 5.66D-07  0.00D+00 EMaxC= 1.00D-01 BMatC= 1.44D-09 BMatP= 5.71D-09
 IDIUse=1 WtCom= 1.00D+00 WtEn= 0.00D+00
 Coeff-Com:  0.182D+00-0.133D+00-0.657D-02-0.408D-01-0.363D-01-0.613D-01
 Coeff-Com: -0.214D-01 0.413D-01 0.450D-01 0.174D+00-0.954D-01-0.121D-01
 Coeff-Com: -0.109D+00-0.937D-01 0.237D+00 0.341D+00 0.588D+00
 Coeff:      0.182D+00-0.133D+00-0.657D-02-0.408D-01-0.363D-01-0.613D-01
 Coeff:     -0.214D-01 0.413D-01 0.450D-01 0.174D+00-0.954D-01-0.121D-01
 Coeff:     -0.109D+00-0.937D-01 0.237D+00 0.341D+00 0.588D+00
 Gap=     0.048 Goal=   None    Shift=    0.000
 Gap=     0.090 Goal=   None    Shift=    0.000
 RMSDP=2.52D-07 MaxDP=2.78D-05 DE=-2.76D-09 OVMax= 4.14D-05

 Cycle  37  Pass 1  IDiag  1:
 E= -952.539116591994     Delta-E=       -0.000000000635 Rises=F Damp=F
 DIIS: error= 3.08D-07 at cycle  37 NSaved=  18.
 NSaved=18 IEnMin= 1 EnMin= -952.539129814821     IErMin=18 ErrMin= 3.08D-07
 ErrMax= 3.08D-07  0.00D+00 EMaxC= 1.00D-01 BMatC= 2.04D-10 BMatP= 1.44D-09
 IDIUse=1 WtCom= 1.00D+00 WtEn= 0.00D+00
 Coeff-Com:  0.847D-01-0.667D-01-0.892D-03-0.982D-02-0.176D-01-0.557D-01
 Coeff-Com:  0.700D-01-0.459D-01-0.846D-02 0.622D-01 0.775D-02 0.259D-01
 Coeff-Com: -0.528D-01-0.108D+00-0.321D-01 0.271D-01 0.526D+00 0.594D+00
 Coeff:      0.847D-01-0.667D-01-0.892D-03-0.982D-02-0.176D-01-0.557D-01
 Coeff:      0.700D-01-0.459D-01-0.846D-02 0.622D-01 0.775D-02 0.259D-01
 Coeff:     -0.528D-01-0.108D+00-0.321D-01 0.271D-01 0.526D+00 0.594D+00
 Gap=     0.048 Goal=   None    Shift=    0.000
 Gap=     0.090 Goal=   None    Shift=    0.000
 RMSDP=8.25D-07 MaxDP=6.15D-05 DE=-6.35D-10 OVMax= 1.71D-04

 Cycle  38  Pass 1  IDiag  1:
 E= -952.539116591919     Delta-E=        0.000000000075 Rises=F Damp=F
 DIIS: error= 1.34D-07 at cycle  38 NSaved=  19.
 NSaved=19 IEnMin= 1 EnMin= -952.539129814821     IErMin=19 ErrMin= 1.34D-07
 ErrMax= 1.34D-07  0.00D+00 EMaxC= 1.00D-01 BMatC= 5.05D-11 BMatP= 2.04D-10
 IDIUse=1 WtCom= 1.00D+00 WtEn= 0.00D+00
 Coeff-Com: -0.558D-01 0.421D-01 0.171D-02 0.107D-01 0.979D-02-0.261D-01
 Coeff-Com:  0.609D-01-0.366D-01-0.119D-01-0.287D-01 0.298D-01 0.111D-01
 Coeff-Com:  0.121D-01-0.731D-02-0.929D-01-0.109D+00-0.218D-01 0.195D+00
 Coeff-Com:  0.102D+01
 Coeff:     -0.558D-01 0.421D-01 0.171D-02 0.107D-01 0.979D-02-0.261D-01
 Coeff:      0.609D-01-0.366D-01-0.119D-01-0.287D-01 0.298D-01 0.111D-01
 Coeff:      0.121D-01-0.731D-02-0.929D-01-0.109D+00-0.218D-01 0.195D+00
 Coeff:      0.102D+01
 Gap=     0.048 Goal=   None    Shift=    0.000
 Gap=     0.090 Goal=   None    Shift=    0.000
 RMSDP=2.76D-07 MaxDP=1.76D-05 DE= 7.46D-11 OVMax= 5.02D-05

 Cycle  39  Pass 1  IDiag  1:
 E= -952.539116591984     Delta-E=       -0.000000000065 Rises=F Damp=F
 DIIS: error= 1.15D-07 at cycle  39 NSaved=  20.
 NSaved=20 IEnMin= 1 EnMin= -952.539129814821     IErMin=20 ErrMin= 1.15D-07
 ErrMax= 1.15D-07  0.00D+00 EMaxC= 1.00D-01 BMatC= 6.72D-11 BMatP= 5.05D-11
 IDIUse=1 WtCom= 1.00D+00 WtEn= 0.00D+00
 Coeff-Com: -0.436D-01 0.350D-01 0.138D-02 0.765D-02 0.671D-02 0.862D-02
 Coeff-Com:  0.118D-01-0.121D-01-0.743D-02-0.370D-01 0.205D-01 0.101D-02
 Coeff-Com:  0.230D-01 0.209D-01-0.516D-01-0.730D-01-0.140D+00-0.209D-01
 Coeff-Com:  0.792D+00 0.457D+00
 Coeff:     -0.436D-01 0.350D-01 0.138D-02 0.765D-02 0.671D-02 0.862D-02
 Coeff:      0.118D-01-0.121D-01-0.743D-02-0.370D-01 0.205D-01 0.101D-02
 Coeff:      0.230D-01 0.209D-01-0.516D-01-0.730D-01-0.140D+00-0.209D-01
 Coeff:      0.792D+00 0.457D+00
 Gap=     0.048 Goal=   None    Shift=    0.000
 Gap=     0.090 Goal=   None    Shift=    0.000
 RMSDP=1.77D-07 MaxDP=1.23D-05 DE=-6.50D-11 OVMax= 3.32D-05

 Cycle  40  Pass 1  IDiag  1:
 E= -952.539116592024     Delta-E=       -0.000000000040 Rises=F Damp=F
 DIIS: error= 4.33D-08 at cycle  40 NSaved=  20.
 NSaved=20 IEnMin= 1 EnMin= -952.539129814821     IErMin=20 ErrMin= 4.33D-08
 ErrMax= 4.33D-08  0.00D+00 EMaxC= 1.00D-01 BMatC= 5.94D-12 BMatP= 5.05D-11
 IDIUse=1 WtCom= 1.00D+00 WtEn= 0.00D+00
 Coeff-Com: -0.135D-01 0.865D-02 0.583D-03 0.381D-02 0.353D-02 0.214D-01
 Coeff-Com: -0.101D-01 0.208D-02-0.771D-02-0.273D-01 0.933D-02 0.175D-01
 Coeff-Com:  0.216D-01-0.571D-02-0.186D-01-0.114D+00-0.113D+00 0.245D+00
 Coeff-Com:  0.371D+00 0.605D+00
 Coeff:     -0.135D-01 0.865D-02 0.583D-03 0.381D-02 0.353D-02 0.214D-01
 Coeff:     -0.101D-01 0.208D-02-0.771D-02-0.273D-01 0.933D-02 0.175D-01
 Coeff:      0.216D-01-0.571D-02-0.186D-01-0.114D+00-0.113D+00 0.245D+00
 Coeff:      0.371D+00 0.605D+00
 Gap=     0.048 Goal=   None    Shift=    0.000
 Gap=     0.090 Goal=   None    Shift=    0.000
 RMSDP=1.43D-07 MaxDP=1.04D-05 DE=-3.96D-11 OVMax= 2.90D-05

 Cycle  41  Pass 1  IDiag  1:
 E= -952.539116592021     Delta-E=        0.000000000003 Rises=F Damp=F
 DIIS: error= 1.84D-08 at cycle  41 NSaved=  20.
 NSaved=20 IEnMin= 1 EnMin= -952.539129814821     IErMin=20 ErrMin= 1.84D-08
 ErrMax= 1.84D-08  0.00D+00 EMaxC= 1.00D-01 BMatC= 8.47D-13 BMatP= 5.94D-12
 IDIUse=1 WtCom= 1.00D+00 WtEn= 0.00D+00
 Coeff-Com: -0.334D-02 0.146D-02 0.112D-04 0.591D-03 0.156D-02 0.714D-02
 Coeff-Com: -0.801D-02 0.447D-02-0.783D-03-0.220D-02-0.189D-02 0.256D-02
 Coeff-Com:  0.743D-02 0.530D-02-0.134D-01-0.385D-01-0.981D-01-0.114D-01
 Coeff-Com:  0.211D+00 0.936D+00
 Coeff:     -0.334D-02 0.146D-02 0.112D-04 0.591D-03 0.156D-02 0.714D-02
 Coeff:     -0.801D-02 0.447D-02-0.783D-03-0.220D-02-0.189D-02 0.256D-02
 Coeff:      0.743D-02 0.530D-02-0.134D-01-0.385D-01-0.981D-01-0.114D-01
 Coeff:      0.211D+00 0.936D+00
 Gap=     0.048 Goal=   None    Shift=    0.000
 Gap=     0.090 Goal=   None    Shift=    0.000
 RMSDP=1.93D-08 MaxDP=2.03D-06 DE= 2.73D-12 OVMax= 3.09D-06

 Cycle  42  Pass 1  IDiag  1:
 E= -952.539116592016     Delta-E=        0.000000000005 Rises=F Damp=F
 DIIS: error= 1.71D-08 at cycle  42 NSaved=  20.
 NSaved=20 IEnMin= 1 EnMin= -952.539129814821     IErMin=20 ErrMin= 1.71D-08
 ErrMax= 1.71D-08  0.00D+00 EMaxC= 1.00D-01 BMatC= 9.53D-13 BMatP= 8.47D-13
 IDIUse=1 WtCom= 1.00D+00 WtEn= 0.00D+00
 Coeff-Com:  0.445D-03-0.361D-03-0.281D-05-0.357D-04-0.158D-03 0.191D-02
 Coeff-Com: -0.307D-02 0.148D-02 0.399D-03-0.311D-03-0.579D-03-0.423D-04
 Coeff-Com:  0.199D-02 0.562D-02 0.176D-02-0.253D-01-0.524D-01-0.311D-01
 Coeff-Com:  0.210D+00 0.890D+00
 Coeff:      0.445D-03-0.361D-03-0.281D-05-0.357D-04-0.158D-03 0.191D-02
 Coeff:     -0.307D-02 0.148D-02 0.399D-03-0.311D-03-0.579D-03-0.423D-04
 Coeff:      0.199D-02 0.562D-02 0.176D-02-0.253D-01-0.524D-01-0.311D-01
 Coeff:      0.210D+00 0.890D+00
 Gap=     0.048 Goal=   None    Shift=    0.000
 Gap=     0.090 Goal=   None    Shift=    0.000
 RMSDP=1.35D-08 MaxDP=1.59D-06 DE= 5.00D-12 OVMax= 2.48D-06

 Cycle  43  Pass 1  IDiag  1:
 E= -952.539116591945     Delta-E=        0.000000000071 Rises=F Damp=F
 DIIS: error= 3.33D-09 at cycle  43 NSaved=  20.
 NSaved=20 IEnMin= 1 EnMin= -952.539129814821     IErMin=20 ErrMin= 3.33D-09
 ErrMax= 3.33D-09  0.00D+00 EMaxC= 1.00D-01 BMatC= 1.59D-14 BMatP= 8.47D-13
 IDIUse=1 WtCom= 1.00D+00 WtEn= 0.00D+00
 Coeff-Com:  0.608D-03-0.453D-03-0.216D-04-0.747D-04-0.172D-03-0.224D-03
 Coeff-Com:  0.588D-04 0.114D-03 0.120D-03 0.203D-03-0.237D-03-0.639D-03
 Coeff-Com:  0.474D-02 0.595D-02 0.932D-04-0.275D-01-0.441D-01-0.355D-01
 Coeff-Com:  0.407D+00 0.690D+00
 Coeff:      0.608D-03-0.453D-03-0.216D-04-0.747D-04-0.172D-03-0.224D-03
 Coeff:      0.588D-04 0.114D-03 0.120D-03 0.203D-03-0.237D-03-0.639D-03
 Coeff:      0.474D-02 0.595D-02 0.932D-04-0.275D-01-0.441D-01-0.355D-01
 Coeff:      0.407D+00 0.690D+00
 Gap=     0.048 Goal=   None    Shift=    0.000
 Gap=     0.090 Goal=   None    Shift=    0.000
 RMSDP=3.09D-09 MaxDP=2.14D-07 DE= 7.14D-11 OVMax= 6.36D-07

 SCF Done:  E(UPBE1PBE) =  -952.539116592     A.U. after   43 cycles
            NFock= 43  Conv=0.31D-08     -V/T= 2.3132
 <Sx>= 0.0000 <Sy>= 0.0000 <Sz>= 0.5000 <S**2>= 0.7715 S= 0.5107
 <L.S>= 0.000000000000E+00
 KE= 7.253770638458D+02 PE=-4.604361434394D+03 EE= 1.701229145212D+03
 Annihilation of the first spin contaminant:
 S**2 before annihilation     0.7715,   after     0.7502
 Leave Link  502 at Fri Sep 11 23:21:59 2026, MaxMem=  6442450944 cpu:             558.0 elap:             557.9
 (Enter C:\G16W\l508.exe)
 QCSCF skips out because SCF is already converged.
 Leave Link  508 at Fri Sep 11 23:22:01 2026, MaxMem=  6442450944 cpu:               1.0 elap:               0.1
 (Enter C:\G16W\l601.exe)
 Copying SCF densities to generalized density rwf, IOpCl= 1 IROHF=0.

 **********************************************************************

            Population analysis using the SCF Density.

 **********************************************************************

 Alpha  occ. eigenvalues --  -19.29156 -19.27579 -19.27471 -19.24599 -19.24599
 Alpha  occ. eigenvalues --  -19.24490 -19.24266 -19.24218  -3.85252  -2.72925
 Alpha  occ. eigenvalues --   -2.72708  -2.69438  -2.43533  -2.43334  -2.43283
 Alpha  occ. eigenvalues --   -1.74565  -1.74258  -1.73650  -1.72987  -1.72708
 Alpha  occ. eigenvalues --   -1.71971  -1.71428  -1.70678  -1.67238  -1.04123
 Alpha  occ. eigenvalues --   -1.01591  -1.00790  -0.95750  -0.95326  -0.93760
 Alpha  occ. eigenvalues --   -0.93602  -0.93347  -0.55432  -0.54964  -0.54152
 Alpha  occ. eigenvalues --   -0.51678  -0.51095  -0.50975  -0.50577  -0.48379
 Alpha  occ. eigenvalues --   -0.48228  -0.46001  -0.45313  -0.44974  -0.44414
 Alpha  occ. eigenvalues --   -0.43004  -0.42612  -0.42478  -0.42398  -0.42241
 Alpha  occ. eigenvalues --   -0.40711  -0.40330  -0.39124  -0.38620  -0.38008
 Alpha  occ. eigenvalues --   -0.37829  -0.36838  -0.36277  -0.36108  -0.34624
 Alpha  occ. eigenvalues --   -0.34141  -0.27188  -0.22018
 Alpha virt. eigenvalues --   -0.17194  -0.12720  -0.08156  -0.07291  -0.06723
 Alpha virt. eigenvalues --   -0.04974  -0.04351  -0.03472  -0.02967  -0.01450
 Alpha virt. eigenvalues --   -0.00912   0.00114   0.01598   0.03149   0.03431
 Alpha virt. eigenvalues --    0.04119   0.04636   0.05556   0.06252   0.06400
 Alpha virt. eigenvalues --    0.07827   0.08192   0.08469   0.09253   0.10584
 Alpha virt. eigenvalues --    0.10863   0.11375   0.12177   0.13643   0.15318
 Alpha virt. eigenvalues --    0.18086   0.21458   0.24611   0.25362   0.26104
 Alpha virt. eigenvalues --    0.27216   0.28339   0.30707   0.31512   0.32674
 Alpha virt. eigenvalues --    0.33820   0.35358   0.36505   0.37067   0.37753
 Alpha virt. eigenvalues --    0.38495   0.39401   0.39571   0.40373   0.41050
 Alpha virt. eigenvalues --    0.43292   0.43719   0.45278   0.46196   0.47509
 Alpha virt. eigenvalues --    0.48345   0.49383   0.53570   0.56052   0.59733
 Alpha virt. eigenvalues --    0.62148   0.62344   0.64180   0.70060   0.74905
 Alpha virt. eigenvalues --    0.95909   0.99399   0.99839   0.99901   1.01745
 Alpha virt. eigenvalues --    1.02858   1.04078   1.05550   1.08466   1.09170
 Alpha virt. eigenvalues --    1.10370   1.13090   1.13849   1.13940   1.16035
 Alpha virt. eigenvalues --    1.17904   1.22002   1.22471   1.24010   1.24319
 Alpha virt. eigenvalues --    1.25258   1.26535   1.26844   1.28315   1.28858
 Alpha virt. eigenvalues --    1.29631   1.30047   1.31501   1.32187   1.32896
 Alpha virt. eigenvalues --    1.34449   1.37348   1.38570   1.39841   1.41881
 Alpha virt. eigenvalues --    1.43786   1.44082   1.44715   1.47823   1.48727
 Alpha virt. eigenvalues --    1.51183   1.52751   1.53273   1.54421   1.56934
 Alpha virt. eigenvalues --    1.59556   1.61163   1.62997   1.65863   1.70467
 Alpha virt. eigenvalues --    1.71213   1.73924   1.74369   1.76969   1.80307
 Alpha virt. eigenvalues --    1.84937   2.02322   2.51868   2.51898   2.51996
 Alpha virt. eigenvalues --    2.52016   2.52085   2.52589   2.53979   2.57475
 Alpha virt. eigenvalues --    2.57889   2.61235   2.61334   2.61800   2.62705
 Alpha virt. eigenvalues --    2.63028   2.63396   2.63876   2.64516   2.65690
 Alpha virt. eigenvalues --    2.66302   2.66632   2.67009   2.69801   2.71067
 Alpha virt. eigenvalues --    2.72225   2.73530   2.75167   2.76019   2.77954
 Alpha virt. eigenvalues --    2.79927   2.80701   2.83820   2.85170   2.85560
 Alpha virt. eigenvalues --    2.87328   2.88080   2.89039   2.89558   2.91215
 Alpha virt. eigenvalues --    2.93311   2.95891   2.96203   2.97027   2.97142
 Alpha virt. eigenvalues --    3.00294   3.40749   3.46962   3.51530  39.55990
 Alpha virt. eigenvalues --   39.59040  39.62913  53.75426
  Beta  occ. eigenvalues --  -19.28976 -19.27592 -19.27327 -19.24689 -19.24590
  Beta  occ. eigenvalues --  -19.24522 -19.24269 -19.24128  -3.85249  -2.72704
  Beta  occ. eigenvalues --   -2.72545  -2.66833  -2.43524  -2.43327  -2.43258
  Beta  occ. eigenvalues --   -1.74494  -1.74211  -1.73319  -1.72470  -1.72157
  Beta  occ. eigenvalues --   -1.71456  -1.70679  -1.67428  -1.63036  -1.03741
  Beta  occ. eigenvalues --   -1.01541  -1.00219  -0.95607  -0.95197  -0.93887
  Beta  occ. eigenvalues --   -0.93648  -0.93237  -0.55014  -0.54691  -0.52752
  Beta  occ. eigenvalues --   -0.51424  -0.50856  -0.50393  -0.50081  -0.48208
  Beta  occ. eigenvalues --   -0.47883  -0.45813  -0.45171  -0.44769  -0.44293
  Beta  occ. eigenvalues --   -0.42939  -0.42630  -0.42506  -0.42444  -0.42202
  Beta  occ. eigenvalues --   -0.40778  -0.39615  -0.38801  -0.38431  -0.37844
  Beta  occ. eigenvalues --   -0.37706  -0.36704  -0.36205  -0.36030  -0.34598
  Beta  occ. eigenvalues --   -0.34110  -0.26234
  Beta virt. eigenvalues --   -0.17192  -0.12018  -0.10931  -0.06727  -0.06579
  Beta virt. eigenvalues --   -0.06315  -0.04567  -0.03550  -0.03343  -0.02337
  Beta virt. eigenvalues --   -0.01229  -0.00470   0.00363   0.01696   0.03456
  Beta virt. eigenvalues --    0.03681   0.04556   0.04802   0.05936   0.06353
  Beta virt. eigenvalues --    0.06869   0.07922   0.08336   0.08954   0.09341
  Beta virt. eigenvalues --    0.10606   0.10932   0.11399   0.12259   0.13726
  Beta virt. eigenvalues --    0.15322   0.18431   0.21858   0.24806   0.25458
  Beta virt. eigenvalues --    0.26402   0.27102   0.28488   0.31079   0.31755
  Beta virt. eigenvalues --    0.33339   0.34138   0.35813   0.36663   0.37465
  Beta virt. eigenvalues --    0.37962   0.38702   0.39578   0.39627   0.40645
  Beta virt. eigenvalues --    0.41288   0.43366   0.43823   0.45453   0.46167
  Beta virt. eigenvalues --    0.47519   0.48664   0.49780   0.53688   0.56334
  Beta virt. eigenvalues --    0.59772   0.62354   0.62586   0.64487   0.70601
  Beta virt. eigenvalues --    0.75883   0.96101   0.99534   0.99916   1.00049
  Beta virt. eigenvalues --    1.01981   1.03029   1.04213   1.05711   1.08683
  Beta virt. eigenvalues --    1.09611   1.10464   1.13191   1.14092   1.14217
  Beta virt. eigenvalues --    1.16810   1.18933   1.22447   1.22775   1.24482
  Beta virt. eigenvalues --    1.25177   1.25716   1.26733   1.27255   1.28653
  Beta virt. eigenvalues --    1.29147   1.30080   1.30398   1.31677   1.33369
  Beta virt. eigenvalues --    1.34186   1.34788   1.37780   1.38990   1.40117
  Beta virt. eigenvalues --    1.42475   1.44196   1.44392   1.45222   1.49307
  Beta virt. eigenvalues --    1.49497   1.51471   1.53066   1.54123   1.54729
  Beta virt. eigenvalues --    1.57416   1.60452   1.61865   1.63532   1.66390
  Beta virt. eigenvalues --    1.70654   1.71462   1.74262   1.74563   1.77496
  Beta virt. eigenvalues --    1.80548   1.85524   2.02319   2.51875   2.51903
  Beta virt. eigenvalues --    2.51998   2.52023   2.52099   2.52621   2.53997
  Beta virt. eigenvalues --    2.57588   2.58040   2.61239   2.61319   2.61707
  Beta virt. eigenvalues --    2.62575   2.63083   2.63534   2.63902   2.64642
  Beta virt. eigenvalues --    2.65898   2.66482   2.66801   2.67150   2.70083
  Beta virt. eigenvalues --    2.71316   2.72514   2.73863   2.75273   2.76078
  Beta virt. eigenvalues --    2.78316   2.80087   2.81015   2.83962   2.85239
  Beta virt. eigenvalues --    2.85459   2.87475   2.88275   2.89192   2.89659
  Beta virt. eigenvalues --    2.91312   2.93486   2.95974   2.96331   2.97148
  Beta virt. eigenvalues --    2.97411   3.00485   3.41096   3.47150   3.51643
  Beta virt. eigenvalues --   39.56058  39.59096  39.63661  53.75414
          Condensed to atoms (all electrons):
               1          2          3          4          5          6
     1  Mo  12.525010   0.413358   0.128435  -0.051611  -0.009320  -0.003671
     2  O    0.413358   7.923062   0.005606   0.002746   0.000000  -0.000001
     3  O    0.128435   0.005606   8.330651   0.153805  -0.001218   0.004524
     4  Mo  -0.051611   0.002746   0.153805  11.873033   0.411312   0.410322
     5  O   -0.009320   0.000000  -0.001218   0.411312   7.954369   0.008723
     6  O   -0.003671  -0.000001   0.004524   0.410322   0.008723   7.945700
     7  O   -0.037939  -0.000010   0.000100   0.192642   0.002432   0.004191
     8  Mo  -0.090614   0.002013  -0.016335  -0.080952  -0.000888  -0.005008
     9  O   -0.013632   0.000000   0.000005   0.002176   0.000007   0.000000
    10  O   -0.006323  -0.000001  -0.000002  -0.003846   0.000000   0.000000
    11  O    0.187585   0.006173  -0.001312  -0.022851   0.000003  -0.000002
    12  Ag   0.000632  -0.001181  -0.000605   0.043615   0.006991  -0.001915
               7          8          9         10         11         12
     1  Mo  -0.037939  -0.090614  -0.013632  -0.006323   0.187585   0.000632
     2  O   -0.000010   0.002013   0.000000  -0.000001   0.006173  -0.001181
     3  O    0.000100  -0.016335   0.000005  -0.000002  -0.001312  -0.000605
     4  Mo   0.192642  -0.080952   0.002176  -0.003846  -0.022851   0.043615
     5  O    0.002432  -0.000888   0.000007   0.000000   0.000003   0.006991
     6  O    0.004191  -0.005008   0.000000   0.000000  -0.000002  -0.001915
     7  O    8.248862   0.196969   0.002653   0.004396  -0.000281  -0.000154
     8  Mo   0.196969  11.825784   0.411506   0.409086   0.175633   0.052308
     9  O    0.002653   0.411506   7.942336   0.008466   0.000463   0.003357
    10  O    0.004396   0.409086   0.008466   7.946349   0.004234  -0.000055
    11  O   -0.000281   0.175633   0.000463   0.004234   8.227698  -0.008481
    12  Ag  -0.000154   0.052308   0.003357  -0.000055  -0.008481  18.460628
          Atomic-Atomic Spin Densities.
               1          2          3          4          5          6
     1  Mo   1.050330   0.014424  -0.060653  -0.023561   0.000499  -0.000039
     2  O    0.014424  -0.085423   0.000106   0.000321   0.000000   0.000000
     3  O   -0.060653   0.000106   0.086443   0.004865  -0.000101   0.000083
     4  Mo  -0.023561   0.000321   0.004865   0.104061  -0.007346  -0.000810
     5  O    0.000499   0.000000  -0.000101  -0.007346   0.033499   0.000385
     6  O   -0.000039   0.000000   0.000083  -0.000810   0.000385   0.003437
     7  O   -0.001427  -0.000001   0.000278  -0.000409   0.000068   0.000020
     8  Mo   0.001586   0.000518   0.003486  -0.021719   0.000355   0.000017
     9  O   -0.001492   0.000000  -0.000001   0.000399  -0.000021   0.000000
    10  O   -0.000131   0.000000   0.000000  -0.000169   0.000000   0.000000
    11  O   -0.039803   0.000001  -0.000386   0.002871   0.000000   0.000000
    12  Ag  -0.026611   0.000032   0.011725   0.007558  -0.001780  -0.000127
               7          8          9         10         11         12
     1  Mo  -0.001427   0.001586  -0.001492  -0.000131  -0.039803  -0.026611
     2  O   -0.000001   0.000518   0.000000   0.000000   0.000001   0.000032
     3  O    0.000278   0.003486  -0.000001   0.000000  -0.000386   0.011725
     4  Mo  -0.000409  -0.021719   0.000399  -0.000169   0.002871   0.007558
     5  O    0.000068   0.000355  -0.000021   0.000000   0.000000  -0.001780
     6  O    0.000020   0.000017   0.000000   0.000000   0.000000  -0.000127
     7  O   -0.006494   0.002717   0.000001  -0.000012   0.000028  -0.000021
     8  Mo   0.002717   0.062637  -0.007883   0.000353   0.007316  -0.008503
     9  O    0.000001  -0.007883   0.039952   0.000171  -0.000395   0.000049
    10  O   -0.000012   0.000353   0.000171  -0.001622   0.000042   0.000016
    11  O    0.000028   0.007316  -0.000395   0.000042   0.065734  -0.000224
    12  Ag  -0.000021  -0.008503   0.000049   0.000016  -0.000224  -0.065888
 Mulliken charges and spin densities:
               1          2
     1  Mo   0.958090   0.913123
     2  O   -0.351764  -0.070023
     3  O   -0.603654   0.045846
     4  Mo   1.069608   0.066062
     5  O   -0.372412   0.025559
     6  O   -0.362862   0.002966
     7  O   -0.613862  -0.005253
     8  Mo   1.120499   0.040881
     9  O   -0.357337   0.030779
    10  O   -0.362304  -0.001351
    11  O   -0.568862   0.035183
    12  Ag   0.444860  -0.083773
 Sum of Mulliken charges =   0.00000   1.00000
 Mulliken charges and spin densities with hydrogens summed into heavy atoms:
               1          2
     1  Mo   0.958090   0.913123
     2  O   -0.351764  -0.070023
     3  O   -0.603654   0.045846
     4  Mo   1.069608   0.066062
     5  O   -0.372412   0.025559
     6  O   -0.362862   0.002966
     7  O   -0.613862  -0.005253
     8  Mo   1.120499   0.040881
     9  O   -0.357337   0.030779
    10  O   -0.362304  -0.001351
    11  O   -0.568862   0.035183
    12  Ag   0.444860  -0.083773
 Electronic spatial extent (au):  <R**2>=           3064.8653
 Charge=              0.0000 electrons
 Dipole moment (field-independent basis, Debye):
    X=              4.6697    Y=              2.5332    Z=              5.6605  Tot=              7.7630
 Quadrupole moment (field-independent basis, Debye-Ang):
   XX=           -128.0209   YY=           -138.8616   ZZ=           -119.9006
   XY=              6.0508   XZ=             18.0938   YZ=              8.1727
 Traceless Quadrupole moment (field-independent basis, Debye-Ang):
   XX=              0.9068   YY=             -9.9339   ZZ=              9.0271
   XY=              6.0508   XZ=             18.0938   YZ=              8.1727
 Octapole moment (field-independent basis, Debye-Ang**2):
  XXX=            -44.9146  YYY=            -55.7882  ZZZ=            -40.8403  XYY=             14.4123
  XXY=             -8.6634  XXZ=              5.6450  XZZ=             26.6526  YZZ=              2.4540
  YYZ=            -10.2651  XYZ=             17.1726
 Hexadecapole moment (field-independent basis, Debye-Ang**3):
 XXXX=          -1698.8391 YYYY=          -1868.5986 ZZZZ=           -973.2188 XXXY=            -94.0429
 XXXZ=            -62.7920 YYYX=           -104.1803 YYYZ=           -128.1012 ZZZX=            -40.4444
 ZZZY=            -81.2537 XXYY=           -587.6181 XXZZ=           -439.7937 YYZZ=           -497.3330
 XXYZ=            -14.3299 YYXZ=            -41.2930 ZZXY=              7.3556
 N-N= 1.225216108745D+03 E-N=-4.604361434398D+03  KE= 7.253770638458D+02
                          Isotropic Fermi Contact Couplings
        Atom                 a.u.       MegaHertz       Gauss      10(-4) cm-1
     1  Mo(95)             0.00000      -0.00145      -0.00052      -0.00048
     2  O(17)             -0.02759      16.72429       5.96764       5.57862
     3  O(17)              0.01677     -10.16739      -3.62798      -3.39147
     4  Mo(95)             0.00000      -0.00058      -0.00021      -0.00019
     5  O(17)              0.00908      -5.50612      -1.96472      -1.83664
     6  O(17)              0.00017      -0.10179      -0.03632      -0.03395
     7  O(17)             -0.00354       2.14460       0.76525       0.71536
     8  Mo(95)             0.00000      -0.00035      -0.00013      -0.00012
     9  O(17)              0.01074      -6.51041      -2.32308      -2.17164
    10  O(17)             -0.00095       0.57825       0.20633       0.19288
    11  O(17)              0.02637     -15.98550      -5.70402      -5.33219
    12  Ag(107            -0.00004       0.00644       0.00230       0.00215
 --------------------------------------------------------
       Center         ----  Spin Dipole Couplings  ----
                      3XX-RR        3YY-RR        3ZZ-RR
 --------------------------------------------------------
     1   Atom       -0.064841      0.106269     -0.041428
     2   Atom       -0.008060      0.042054     -0.033994
     3   Atom       -0.088271     -0.102483      0.190754
     4   Atom        0.012309      0.011727     -0.024037
     5   Atom        0.044132     -0.007358     -0.036774
     6   Atom       -0.022522     -0.013191      0.035713
     7   Atom        0.002196      0.005721     -0.007917
     8   Atom        0.011199      0.005849     -0.017048
     9   Atom        0.068042     -0.015230     -0.052812
    10   Atom       -0.006591     -0.004257      0.010848
    11   Atom       -0.100022     -0.110008      0.210030
    12   Atom       -0.002867     -0.005111      0.007978
 --------------------------------------------------------
                        XY            XZ            YZ
 --------------------------------------------------------
     1   Atom       -0.013994      0.171565      0.020246
     2   Atom        0.003659     -0.094241      0.008774
     3   Atom        0.079514      0.175798      0.163980
     4   Atom       -0.007750     -0.003592      0.011925
     5   Atom        0.073415     -0.060669     -0.031475
     6   Atom       -0.004959      0.014600     -0.005972
     7   Atom        0.001923      0.001939     -0.001309
     8   Atom        0.006340     -0.003213     -0.010763
     9   Atom       -0.079961     -0.043961      0.020533
    10   Atom        0.004100      0.013016      0.003107
    11   Atom       -0.029077      0.123264     -0.088798
    12   Atom       -0.003179      0.005219     -0.000095
 --------------------------------------------------------


 ---------------------------------------------------------------------------------
              Anisotropic Spin Dipole Couplings in Principal Axis System
 ---------------------------------------------------------------------------------

       Atom             a.u.   MegaHertz   Gauss  10(-4) cm-1        Axes

              Baa    -0.2268     7.923     2.827     2.643  0.7281  0.0720 -0.6816
     1 Mo(95) Bbb     0.1059    -3.699    -1.320    -1.234 -0.3049  0.9247 -0.2280
              Bcc     0.1209    -4.225    -1.507    -1.409  0.6139  0.3738  0.6953
 
              Baa    -0.1167     8.442     3.012     2.816  0.6554 -0.0567  0.7531
     2 O(17)  Bbb     0.0423    -3.060    -1.092    -1.021  0.1080  0.9940 -0.0191
              Bcc     0.0744    -5.382    -1.921    -1.795  0.7475 -0.0938 -0.6576
 
              Baa    -0.1760    12.738     4.545     4.249 -0.2424  0.9237 -0.2968
     3 O(17)  Bbb    -0.1732    12.530     4.471     4.180  0.8823  0.0826 -0.4634
              Bcc     0.3492   -25.268    -9.016    -8.428  0.4035  0.3742  0.8350
 
              Baa    -0.0277     0.967     0.345     0.323  0.0311 -0.2839  0.9584
     4 Mo(95) Bbb     0.0053    -0.184    -0.066    -0.061  0.7658  0.6229  0.1597
              Bcc     0.0224    -0.783    -0.280    -0.261 -0.6423  0.7290  0.2367
 
              Baa    -0.0715     5.171     1.845     1.725  0.5867 -0.3032  0.7509
     5 O(17)  Bbb    -0.0532     3.849     1.373     1.284 -0.2706  0.8006  0.5346
              Bcc     0.1247    -9.020    -3.219    -3.009  0.7633  0.5169 -0.3876
 
              Baa    -0.0269     1.946     0.694     0.649  0.9463  0.2570 -0.1962
     6 O(17)  Bbb    -0.0132     0.954     0.340     0.318 -0.2221  0.9577  0.1833
              Bcc     0.0401    -2.900    -1.035    -0.967  0.2349 -0.1299  0.9633
 
              Baa    -0.0085     0.613     0.219     0.204 -0.1980  0.1166  0.9732
     7 O(17)  Bbb     0.0019    -0.137    -0.049    -0.046  0.8992 -0.3735  0.2277
              Bcc     0.0066    -0.476    -0.170    -0.159  0.3901  0.9203 -0.0309
 
              Baa    -0.0213     0.745     0.266     0.248  0.0211  0.3639  0.9312
     8 Mo(95) Bbb     0.0036    -0.125    -0.044    -0.042 -0.6790  0.6889 -0.2538
              Bcc     0.0178    -0.620    -0.221    -0.207  0.7338  0.6269 -0.2616
 
              Baa    -0.0698     5.053     1.803     1.685  0.4970  0.4486  0.7428
     9 O(17)  Bbb    -0.0595     4.306     1.537     1.436  0.2531  0.7439 -0.6185
              Bcc     0.1293    -9.359    -3.340    -3.122  0.8300 -0.4955 -0.2562
 
              Baa    -0.0140     1.016     0.363     0.339  0.8739 -0.2301 -0.4282
    10 O(17)  Bbb    -0.0047     0.340     0.121     0.114  0.1117  0.9524 -0.2838
              Bcc     0.0187    -1.357    -0.484    -0.453  0.4731  0.2002  0.8580
 
              Baa    -0.1433    10.372     3.701     3.460  0.9193 -0.1582 -0.3604
    11 O(17)  Bbb    -0.1323     9.576     3.417     3.194  0.2301  0.9589  0.1659
              Bcc     0.2757   -19.949    -7.118    -6.654  0.3194 -0.2354  0.9179
 
              Baa    -0.0080     0.174     0.062     0.058  0.6610  0.7200 -0.2116
    12 Ag(107 Bbb    -0.0022     0.048     0.017     0.016 -0.6425  0.6886  0.3362
              Bcc     0.0102    -0.221    -0.079    -0.074  0.3878 -0.0862  0.9177
 

 ---------------------------------------------------------------------------------

 No NMR shielding tensors so no spin-rotation constants.
 Leave Link  601 at Fri Sep 11 23:22:02 2026, MaxMem=  6442450944 cpu:               1.0 elap:               1.7
 (Enter C:\G16W\l9999.exe)
 Unable to Open any file for archive entry.
 1|1|UNPC-DESKTOP-2JKEGCA|SP|UPBE1PBE|def2SVP|Ag1Mo3O8(2)|JHKIM|11-Sep-
 2026|0||#P PBE1PBE/Def2SVP EmpiricalDispersion=GD3BJ SP SCF=(XQC,MaxCy
 cle=128) NoSymm Guess=Read||Mo3O8 t=0.250 dz=+0.00 class=site2site||0,
 2|Mo,0,1.52706,-0.00003,-0.314747|O,0,2.654512,0.000128,-1.481849|O,0,
 0.930476,1.493025,0.252244|Mo,0,-0.916807,1.550282,-0.05109|O,0,-1.459
 058,1.914083,1.445767|O,0,-1.210342,2.70691,-1.167908|O,0,-1.71702,-0.
 000002,-0.509898|Mo,0,-0.916849,-1.550292,-0.051126|O,0,-1.458945,-1.9
 13975,1.445819|O,0,-1.210558,-2.706971,-1.167843|O,0,0.930452,-1.49315
 9,0.252023|Ag,0,1.98605544,1.15390836,2.4470666||Version=EM64W-G16RevC
 .01|HF=-952.5391166|S2=0.771545|S2-1=0.|S2A=0.75023|RMSD=3.088e-009|Di
 pole=1.8371874,0.9966291,2.2270094|Quadrupole=0.6741959,-7.3855986,6.7
 114027,4.4986416,13.452327,6.0761726|PG=C01 [X(Ag1Mo3O8)]||@
 The archive entry for this job was punched.


 HE THAT IS UNAWARE OF HIS IGNORANCE WILL BE MISLED BY HIS KNOWLEDGE.

                                        -- WHATLEY
 Job cpu time:       0 days  0 hours  9 minutes 40.0 seconds.
 Elapsed time:       0 days  0 hours  9 minutes 36.9 seconds.
 File lengths (MBytes):  RWF=     40 Int=      0 D2E=      0 Chk=      5 Scr=      1
 Normal termination of Gaussian 16 at Fri Sep 11 23:22:03 2026.
