 Entering Gaussian System, Link 0=C:\G16W\g16.exe
 Input=Mo3O9_t0_z0.gjf
 Output=Mo3O9_t0_z0.out
 Initial command:
 C:\G16W\l1.exe ".\Gau-116868.inp" "Mo3O9_t0_z0.out" /scrdir=".\"
 Entering Link 1 = C:\G16W\l1.exe PID=    111664.
  
 Copyright (c) 1988-2019, Gaussian, Inc.  All Rights Reserved.
  
 This is part of the Gaussian(R) 16 program.  It is based on
 the Gaussian(R) 09 system (copyright 2009, Gaussian, Inc.),
 the Gaussian(R) 03 system (copyright 2003, Gaussian, Inc.),
 the Gaussian(R) 98 system (copyright 1998, Gaussian, Inc.),
 the Gaussian(R) 94 system (copyright 1995, Gaussian, Inc.),
 the Gaussian 92(TM) system (copyright 1992, Gaussian, Inc.),
 the Gaussian 90(TM) system (copyright 1990, Gaussian, Inc.),
 the Gaussian 88(TM) system (copyright 1988, Gaussian, Inc.),
 the Gaussian 86(TM) system (copyright 1986, Carnegie Mellon
 University), and the Gaussian 82(TM) system (copyright 1983,
 Carnegie Mellon University). Gaussian is a federally registered
 trademark of Gaussian, Inc.
  
 This software contains proprietary and confidential information,
 including trade secrets, belonging to Gaussian, Inc.
  
 This software is provided under written license and may be
 used, copied, transmitted, or stored only in accord with that
 written license.
  
 The following legend is applicable only to US Government
 contracts under FAR:
  
                    RESTRICTED RIGHTS LEGEND
  
 Use, reproduction and disclosure by the US Government is
 subject to restrictions as set forth in subparagraphs (a)
 and (c) of the Commercial Computer Software - Restricted
 Rights clause in FAR 52.227-19.
  
 Gaussian, Inc.
 340 Quinnipiac St., Bldg. 40, Wallingford CT 06492
  
  
 ---------------------------------------------------------------
 Warning -- This program may not be used in any manner that
 competes with the business of Gaussian, Inc. or will provide
 assistance to any competitor of Gaussian, Inc.  The licensee
 of this program is prohibited from giving any competitor of
 Gaussian, Inc. access to this program.  By using this program,
 the user acknowledges that Gaussian, Inc. is engaged in the
 business of creating and licensing software in the field of
 computational chemistry and represents and warrants to the
 licensee that it is not a competitor of Gaussian, Inc. and that
 it will not use this program in any manner prohibited above.
 ---------------------------------------------------------------
  

 Cite this work as:
 Gaussian 16, Revision C.01,
 M. J. Frisch, G. W. Trucks, H. B. Schlegel, G. E. Scuseria, 
 M. A. Robb, J. R. Cheeseman, G. Scalmani, V. Barone, 
 G. A. Petersson, H. Nakatsuji, X. Li, M. Caricato, A. V. Marenich, 
 J. Bloino, B. G. Janesko, R. Gomperts, B. Mennucci, H. P. Hratchian, 
 J. V. Ortiz, A. F. Izmaylov, J. L. Sonnenberg, D. Williams-Young, 
 F. Ding, F. Lipparini, F. Egidi, J. Goings, B. Peng, A. Petrone, 
 T. Henderson, D. Ranasinghe, V. G. Zakrzewski, J. Gao, N. Rega, 
 G. Zheng, W. Liang, M. Hada, M. Ehara, K. Toyota, R. Fukuda, 
 J. Hasegawa, M. Ishida, T. Nakajima, Y. Honda, O. Kitao, H. Nakai, 
 T. Vreven, K. Throssell, J. A. Montgomery, Jr., J. E. Peralta, 
 F. Ogliaro, M. J. Bearpark, J. J. Heyd, E. N. Brothers, K. N. Kudin, 
 V. N. Staroverov, T. A. Keith, R. Kobayashi, J. Normand, 
 K. Raghavachari, A. P. Rendell, J. C. Burant, S. S. Iyengar, 
 J. Tomasi, M. Cossi, J. M. Millam, M. Klene, C. Adamo, R. Cammi, 
 J. W. Ochterski, R. L. Martin, K. Morokuma, O. Farkas, 
 J. B. Foresman, and D. J. Fox, Gaussian, Inc., Wallingford CT, 2019.
 
 ******************************************
 Gaussian 16:  EM64W-G16RevC.01 30-May-2019
                11-Sep-2026 
 ******************************************
 %Chk=Mo3O9.chk
 %NProcShared=8
 Will use up to    8 processors via shared memory.
 %Mem=48GB
 ----------------------------------------------------------------------
 #P PBE1PBE/Def2SVP EmpiricalDispersion=GD3BJ SP SCF=(XQC,MaxCycle=128,
 VShift=300) NoSymm
 ----------------------------------------------------------------------
 1/38=1,172=1/1;
 2/12=2,15=1,17=6,18=5,40=1/2;
 3/5=43,7=101,11=2,25=1,30=1,74=-13,124=41/1,2,3;
 4//1;
 5/5=2,7=128,8=3,10=300,13=1,38=5/2,8;
 6/7=2,8=2,9=2,10=2,28=1/1;
 99/5=1,9=1/99;
 Leave Link    1 at Fri Sep 11 22:45:35 2026, MaxMem=  6442450944 cpu:               0.0 elap:               0.3
 (Enter C:\G16W\l101.exe)
 --------------------------------------
 Mo3O9 t=0.000 dz=+0.00 class=site2site
 --------------------------------------
 Symbolic Z-matrix:
 Charge =  0 Multiplicity = 2
 Mo                    2.        0.        0. 
 O                     3.02      0.        1.36 
 O                     3.02      0.       -1.36 
 O                     1.15      1.99186   0. 
 Mo                   -1.        1.73205   0. 
 O                    -1.51      2.6154    1.36 
 O                    -1.51      2.6154   -1.36 
 O                    -2.3       0.        0. 
 Mo                   -1.       -1.73205   0. 
 O                    -1.51     -2.6154    1.36 
 O                    -1.51     -2.6154   -1.36 
 O                     1.15     -1.99186   0. 
 Ag                    0.        0.        2.3 
 
 ITRead=  0  0  0  0  0  0  0  0  0  0  0  0  0
 MicOpt= -1 -1 -1 -1 -1 -1 -1 -1 -1 -1 -1 -1 -1
 NAtoms=     13 NQM=       13 NQMF=       0 NMMI=      0 NMMIF=      0
                NMic=       0 NMicF=      0.
                    Isotopes and Nuclear Properties:
 (Nuclear quadrupole moments (NQMom) in fm**2, nuclear magnetic moments (NMagM)
  in nuclear magnetons)

  Atom         1           2           3           4           5           6           7           8           9          10
 IAtWgt=          98          16          16          16          98          16          16          16          98          16
 AtmWgt=  97.9055000  15.9949146  15.9949146  15.9949146  97.9055000  15.9949146  15.9949146  15.9949146  97.9055000  15.9949146
 NucSpn=           0           0           0           0           0           0           0           0           0           0
 AtZEff=   0.0000000   0.0000000   0.0000000   0.0000000   0.0000000   0.0000000   0.0000000   0.0000000   0.0000000   0.0000000
 NQMom=    0.0000000   0.0000000   0.0000000   0.0000000   0.0000000   0.0000000   0.0000000   0.0000000   0.0000000   0.0000000
 NMagM=    0.0000000   0.0000000   0.0000000   0.0000000   0.0000000   0.0000000   0.0000000   0.0000000   0.0000000   0.0000000
 AtZNuc=  42.0000000   8.0000000   8.0000000   8.0000000  42.0000000   8.0000000   8.0000000   8.0000000  42.0000000   8.0000000

  Atom        11          12          13
 IAtWgt=          16          16         107
 AtmWgt=  15.9949146  15.9949146 106.9050900
 NucSpn=           0           0           1
 AtZEff=   0.0000000   0.0000000   0.0000000
 NQMom=    0.0000000   0.0000000   0.0000000
 NMagM=    0.0000000   0.0000000  -0.1135700
 AtZNuc=   8.0000000   8.0000000  47.0000000
 Leave Link  101 at Fri Sep 11 22:45:35 2026, MaxMem=  6442450944 cpu:               0.0 elap:               0.3
 (Enter C:\G16W\l202.exe)
                          Input orientation:                          
 ---------------------------------------------------------------------
 Center     Atomic      Atomic             Coordinates (Angstroms)
 Number     Number       Type             X           Y           Z
 ---------------------------------------------------------------------
      1         42           0        2.000000    0.000000    0.000000
      2          8           0        3.020000    0.000000    1.360000
      3          8           0        3.020000    0.000000   -1.360000
      4          8           0        1.150000    1.991858    0.000000
      5         42           0       -1.000000    1.732051    0.000000
      6          8           0       -1.510000    2.615397    1.360000
      7          8           0       -1.510000    2.615397   -1.360000
      8          8           0       -2.300000    0.000000    0.000000
      9         42           0       -1.000000   -1.732051    0.000000
     10          8           0       -1.510000   -2.615397    1.360000
     11          8           0       -1.510000   -2.615397   -1.360000
     12          8           0        1.150000   -1.991858    0.000000
     13         47           0        0.000000    0.000000    2.300000
 ---------------------------------------------------------------------
                    Distance matrix (angstroms):
                    1          2          3          4          5
     1  Mo   0.000000
     2  O    1.700000   0.000000
     3  O    1.700000   2.720000   0.000000
     4  O    2.165640   3.051884   3.051884   0.000000
     5  Mo   3.464102   4.583667   4.583667   2.165641   0.000000
     6  O    4.583667   5.230794   5.895727   3.051885   1.700000
     7  O    4.583667   5.895727   5.230794   3.051885   1.700000
     8  O    4.300000   5.491084   5.491084   3.983717   2.165641
     9  Mo   3.464102   4.583667   4.583667   4.300000   3.464102
    10  O    4.583667   5.230794   5.895727   5.491084   4.583667
    11  O    4.583667   5.895727   5.230794   5.491084   4.583667
    12  O    2.165640   3.051884   3.051884   3.983716   4.300000
    13  Ag   3.047950   3.162910   4.745103   3.252691   3.047950
                    6          7          8          9         10
     6  O    0.000000
     7  O    2.720000   0.000000
     8  O    3.051885   3.051885   0.000000
     9  Mo   4.583667   4.583667   2.165641   0.000000
    10  O    5.230794   5.895728   3.051885   1.700000   0.000000
    11  O    5.895728   5.230794   3.051885   1.700000   2.720000
    12  O    5.491084   5.491084   3.983717   2.165641   3.051885
    13  Ag   3.162910   4.745103   3.252691   3.047950   3.162910
                   11         12         13
    11  O    0.000000
    12  O    3.051885   0.000000
    13  Ag   4.745103   3.252691   0.000000
 Symmetry turned off by external request.
 Stoichiometry    AgMo3O9(2)
 Framework group  C3V[C3(Ag),3SGV(MoO3)]
 Deg. of freedom     8
 Full point group                 C3V     NOp   6
 Rotational constants (GHZ):           0.2832830           0.2832830           0.2193499
 Leave Link  202 at Fri Sep 11 22:45:36 2026, MaxMem=  6442450944 cpu:               1.0 elap:               0.1
 (Enter C:\G16W\l301.exe)
 Standard basis: def2SVP (5D, 7F)
 Ernie: Thresh=  0.10000D-02 Tol=  0.10000D-05 Strict=F.
   250 basis functions,   485 primitive gaussians,   279 cartesian basis functions
    67 alpha electrons       66 beta electrons
       nuclear repulsion energy      1305.9429648997 Hartrees.
 IExCor= 1009 DFT=T Ex+Corr=PBE1PBE ExCW=0 ScaHFX=  0.250000
 ScaDFX=  0.750000  0.750000  1.000000  1.000000 ScalE2=  1.000000  1.000000
 IRadAn=      5 IRanWt=     -1 IRanGd=            0 ICorTp=0 IEmpDi=141
 NAtoms=   13 NActive=   13 NUniq=   13 SFac= 1.00D+00 NAtFMM=   60 NAOKFM=F Big=F
 Integral buffers will be    131072 words long.
 Raffenetti 2 integral format.
 Two-electron integral symmetry is turned off.
 R6Disp:  Grimme-D3(BJ) Dispersion energy=       -0.0268659923 Hartrees.
 Nuclear repulsion after empirical dispersion term =     1305.9160989074 Hartrees.
 Leave Link  301 at Fri Sep 11 22:45:36 2026, MaxMem=  6442450944 cpu:               0.0 elap:               0.4
 (Enter C:\G16W\l302.exe)
 NPDir=0 NMtPBC=     1 NCelOv=     1 NCel=       1 NClECP=     1 NCelD=      1
         NCelK=      1 NCelE2=     1 NClLst=     1 CellRange=     0.0.
 One-electron integrals computed using PRISM.
   1 Symmetry operations used in ECPInt.
 ECPInt:  NShTT=    4851 NPrTT=   17197 LenC2=    4591 LenP2D=   12673.
 LDataN:  DoStor=T MaxTD1= 7 Len=  274
 NBasis=   250 RedAO= T EigKep=  2.34D-03  NBF=   250
 NBsUse=   250 1.00D-06 EigRej= -1.00D+00 NBFU=   250
 Precomputing XC quadrature grid using
 IXCGrd= 4 IRadAn=           5 IRanWt=          -1 IRanGd=           0 AccXCQ= 0.00D+00.
 Defaulting to unpruned grid for atomic number  42.
 Defaulting to unpruned grid for atomic number  42.
 Defaulting to unpruned grid for atomic number  47.
 Defaulting to unpruned grid for atomic number  42.
 Generated NRdTot=       0 NPtTot=           0 NUsed=           0 NTot=          32
 NSgBfM=   276   276   276   276   276 MxSgAt=    13 MxSgA2=    13.
 Leave Link  302 at Fri Sep 11 22:45:45 2026, MaxMem=  6442450944 cpu:               9.0 elap:               8.8
 (Enter C:\G16W\l303.exe)
 DipDrv:  MaxL=1.
 Leave Link  303 at Fri Sep 11 22:45:46 2026, MaxMem=  6442450944 cpu:               1.0 elap:               0.2
 (Enter C:\G16W\l401.exe)
 ExpMin= 3.48D-02 ExpMax= 2.27D+03 ExpMxC= 3.41D+02 IAcc=3 IRadAn=         5 AccDes= 0.00D+00
 Harris functional with IExCor= 1009 and IRadAn=       5 diagonalized for initial guess.
 HarFok:  IExCor= 1009 AccDes= 0.00D+00 IRadAn=         5 IDoV= 1 UseB2=F ITyADJ=14
 ICtDFT=  3500011 ScaDFX=  1.000000  1.000000  1.000000  1.000000
 Defaulting to unpruned grid for atomic number  42.
 FoFCou: FMM=F IPFlag=           0 FMFlag=      100000 FMFlg1=           0
         NFxFlg=           0 DoJE=T BraDBF=F KetDBF=T FulRan=T
         wScrn=  0.000000 ICntrl=       500 IOpCl=  0 I1Cent=   200000004 NGrid=           0
         NMat0=    1 NMatS0=      1 NMatT0=    0 NMatD0=    1 NMtDS0=    0 NMtDT0=    0
 Symmetry not used in FoFCou.
 Harris En= -1028.95585980853    
 JPrj=0 DoOrth=F DoCkMO=F.
 Initial guess <Sx>= 0.0000 <Sy>= 0.0000 <Sz>= 0.5000 <S**2>= 0.7500 S= 0.5000
 Leave Link  401 at Fri Sep 11 22:45:52 2026, MaxMem=  6442450944 cpu:               6.0 elap:               6.2
 (Enter C:\G16W\l502.exe)
 Two-electron integral symmetry not used.
 UHF open shell SCF:
 Using DIIS extrapolation, IDIIS=  1040.
 NGot=  6442450944 LenX=  6442290741 LenY=  6442212459
 Requested convergence on RMS density matrix=1.00D-08 within 128 cycles.
 Requested convergence on MAX density matrix=1.00D-06.
 Requested convergence on             energy=1.00D-06.
 Virtual orbitals will be shifted by   0.300 hartree.
 No special actions if energy rises.
 Fock matrices will be formed incrementally for  20 cycles.

 Cycle   1  Pass 1  IDiag  1:
 FoFJK:  IHMeth= 1 ICntrl=       0 DoSepK=F KAlg= 0 I1Cent=           0 FoldK=F
 IRaf= 900000000 NMat=       1 IRICut=       1 DoRegI=T DoRafI=F ISym2E= 0 IDoP0=0 IntGTp=1.
 FoFCou: FMM=F IPFlag=           0 FMFlag=      100000 FMFlg1=           0
         NFxFlg=           0 DoJE=F BraDBF=F KetDBF=F FulRan=T
         wScrn=  0.000000 ICntrl=         0 IOpCl=  1 I1Cent=           0 NGrid=           0
         NMat0=    1 NMatS0=      1 NMatT0=    0 NMatD0=    1 NMtDS0=    0 NMtDT0=    0
 Symmetry not used in FoFCou.
 Defaulting to unpruned grid for atomic number  42.
 Defaulting to unpruned grid for atomic number  42.
 Defaulting to unpruned grid for atomic number  42.
 Defaulting to unpruned grid for atomic number  42.
 Defaulting to unpruned grid for atomic number  42.
 Defaulting to unpruned grid for atomic number  42.
 Defaulting to unpruned grid for atomic number  42.
 Defaulting to unpruned grid for atomic number  42.
 E= -1023.86609734444    
 DIIS: error= 1.29D-01 at cycle   1 NSaved=   1.
 NSaved= 1 IEnMin= 1 EnMin= -1023.86609734444     IErMin= 1 ErrMin= 1.29D-01
 ErrMax= 1.29D-01  0.00D+00 EMaxC= 1.00D-01 BMatC= 1.57D+01 BMatP= 1.57D+01
 IDIUse=3 WtCom= 0.00D+00 WtEn= 1.00D+00
 Coeff-Com:  0.100D+01
 Coeff-En:   0.100D+01
 Coeff:      0.100D+01
 Gap=    -0.052 Goal=   None    Shift=    0.300
 Gap=     0.317 Goal=   None    Shift=    0.300
 GapD=   -0.052 DampG=0.250 DampE=0.125 DampFc=0.1250 IDamp=-1.
 Damping current iteration by 1.25D-01
 RMSDP=2.13D-02 MaxDP=7.99D-01              OVMax= 7.68D-01

 Cycle   2  Pass 1  IDiag  1:
 RMSU=  2.66D-03    CP:  9.96D-01
 E= -1025.43122928071     Delta-E=       -1.565131936265 Rises=F Damp=T
 DIIS: error= 6.86D-02 at cycle   2 NSaved=   2.
 NSaved= 2 IEnMin= 2 EnMin= -1025.43122928071     IErMin= 2 ErrMin= 6.86D-02
 ErrMax= 6.86D-02  0.00D+00 EMaxC= 1.00D-01 BMatC= 5.15D+00 BMatP= 1.57D+01
 IDIUse=3 WtCom= 3.14D-01 WtEn= 6.86D-01
 Coeff-Com: -0.124D+01 0.224D+01
 Coeff-En:   0.000D+00 0.100D+01
 Coeff:     -0.389D+00 0.139D+01
 Gap=     0.064 Goal=   None    Shift=    0.300
 Gap=     0.019 Goal=   None    Shift=    0.300
 RMSDP=1.44D-02 MaxDP=5.81D-01 DE=-1.57D+00 OVMax= 1.60D-01

 Cycle   3  Pass 1  IDiag  1:
 RMSU=  9.46D-03    CP:  9.76D-01  3.00D+00
 E= -1012.06458684335     Delta-E=       13.366642437359 Rises=F Damp=F
 DIIS: error= 2.93D-01 at cycle   3 NSaved=   3.
 NSaved= 3 IEnMin= 2 EnMin= -1025.43122928071     IErMin= 2 ErrMin= 6.86D-02
 ErrMax= 2.93D-01  0.00D+00 EMaxC= 1.00D-01 BMatC= 8.01D+01 BMatP= 5.15D+00
 IDIUse=2 WtCom= 0.00D+00 WtEn= 1.00D+00
 EnCoef did   100 forward-backward iterations
 Coeff-En:   0.664D+00 0.579D-01 0.278D+00
 Coeff:      0.664D+00 0.579D-01 0.278D+00
 Gap=     0.021 Goal=   None    Shift=    0.000
 Gap=     0.002 Goal=   None    Shift=    0.000
 RMSDP=1.05D-02 MaxDP=4.33D-01 DE= 1.34D+01 OVMax= 4.41D-01

 Cycle   4  Pass 1  IDiag  1:
 RMSU=  5.19D-03    CP:  9.95D-01  2.53D+00  1.81D-01
 E= -1026.57307251636     Delta-E=      -14.508485673008 Rises=F Damp=F
 DIIS: error= 6.96D-02 at cycle   4 NSaved=   4.
 NSaved= 4 IEnMin= 4 EnMin= -1026.57307251636     IErMin= 2 ErrMin= 6.86D-02
 ErrMax= 6.96D-02  0.00D+00 EMaxC= 1.00D-01 BMatC= 5.11D+00 BMatP= 5.15D+00
 IDIUse=3 WtCom= 3.04D-01 WtEn= 6.96D-01
 EnCoef did   100 forward-backward iterations
 Coeff-Com: -0.715D+00 0.143D+01-0.297D-01 0.314D+00
 Coeff-En:   0.277D+00 0.960D-02 0.000D+00 0.714D+00
 Coeff:     -0.251D-01 0.442D+00-0.904D-02 0.592D+00
 Gap=     0.157 Goal=   None    Shift=    0.300
 Gap=     0.159 Goal=   None    Shift=    0.300
 RMSDP=3.11D-03 MaxDP=1.12D-01 DE=-1.45D+01 OVMax= 1.60D-01

 Cycle   5  Pass 1  IDiag  1:
 RMSU=  2.17D-03    CP:  9.94D-01  1.95D+00  1.22D-01  7.11D-01
 E= -1027.46286645085     Delta-E=       -0.889793934491 Rises=F Damp=F
 DIIS: error= 3.52D-02 at cycle   5 NSaved=   5.
 NSaved= 5 IEnMin= 5 EnMin= -1027.46286645085     IErMin= 5 ErrMin= 3.52D-02
 ErrMax= 3.52D-02  0.00D+00 EMaxC= 1.00D-01 BMatC= 7.80D-01 BMatP= 5.11D+00
 IDIUse=3 WtCom= 6.48D-01 WtEn= 3.52D-01
 Coeff-Com: -0.185D+00 0.524D+00-0.414D-01 0.298D+00 0.405D+00
 Coeff-En:   0.633D-02 0.000D+00 0.000D+00 0.000D+00 0.994D+00
 Coeff:     -0.118D+00 0.339D+00-0.268D-01 0.193D+00 0.612D+00
 Gap=     0.123 Goal=   None    Shift=    0.300
 Gap=     0.193 Goal=   None    Shift=    0.300
 RMSDP=1.46D-03 MaxDP=4.60D-02 DE=-8.90D-01 OVMax= 6.82D-02

 Cycle   6  Pass 1  IDiag  1:
 RMSU=  7.88D-04    CP:  9.96D-01  1.66D+00  1.17D-01  7.22D-01  5.66D-01
 E= -1027.57891134732     Delta-E=       -0.116044896472 Rises=F Damp=F
 DIIS: error= 1.35D-02 at cycle   6 NSaved=   6.
 NSaved= 6 IEnMin= 6 EnMin= -1027.57891134732     IErMin= 6 ErrMin= 1.35D-02
 ErrMax= 1.35D-02  0.00D+00 EMaxC= 1.00D-01 BMatC= 1.58D-01 BMatP= 7.80D-01
 IDIUse=3 WtCom= 8.65D-01 WtEn= 1.35D-01
 Coeff-Com: -0.172D+00 0.233D+00 0.140D-02-0.335D-01 0.194D+00 0.777D+00
 Coeff-En:   0.000D+00 0.000D+00 0.000D+00 0.000D+00 0.229D+00 0.771D+00
 Coeff:     -0.149D+00 0.201D+00 0.121D-02-0.290D-01 0.198D+00 0.777D+00
 Gap=     0.109 Goal=   None    Shift=    0.300
 Gap=     0.126 Goal=   None    Shift=    0.300
 RMSDP=3.47D-04 MaxDP=2.04D-02 DE=-1.16D-01 OVMax= 1.64D-02

 Cycle   7  Pass 1  IDiag  1:
 RMSU=  3.00D-04    CP:  9.96D-01  1.69D+00  1.10D-01  7.13D-01  6.28D-01
                    CP:  1.00D+00
 E= -1027.59397609875     Delta-E=       -0.015064751434 Rises=F Damp=F
 DIIS: error= 1.07D-02 at cycle   7 NSaved=   7.
 NSaved= 7 IEnMin= 7 EnMin= -1027.59397609875     IErMin= 7 ErrMin= 1.07D-02
 ErrMax= 1.07D-02  0.00D+00 EMaxC= 1.00D-01 BMatC= 6.74D-02 BMatP= 1.58D-01
 IDIUse=3 WtCom= 8.93D-01 WtEn= 1.07D-01
 Coeff-Com: -0.102D+00 0.121D+00 0.568D-02-0.213D-01 0.127D+00 0.200D+00
 Coeff-Com:  0.669D+00
 Coeff-En:   0.000D+00 0.000D+00 0.000D+00 0.000D+00 0.125D+00 0.000D+00
 Coeff-En:   0.875D+00
 Coeff:     -0.907D-01 0.108D+00 0.507D-02-0.190D-01 0.127D+00 0.179D+00
 Coeff:      0.691D+00
 Gap=     0.108 Goal=   None    Shift=    0.300
 Gap=     0.122 Goal=   None    Shift=    0.300
 RMSDP=2.02D-04 MaxDP=1.63D-02 DE=-1.51D-02 OVMax= 1.53D-02

 Cycle   8  Pass 1  IDiag  1:
 RMSU=  9.58D-05    CP:  9.96D-01  1.72D+00  1.08D-01  7.13D-01  6.79D-01
                    CP:  1.05D+00  1.28D+00
 E= -1027.60198840764     Delta-E=       -0.008012308891 Rises=F Damp=F
 DIIS: error= 6.89D-03 at cycle   8 NSaved=   8.
 NSaved= 8 IEnMin= 8 EnMin= -1027.60198840764     IErMin= 8 ErrMin= 6.89D-03
 ErrMax= 6.89D-03  0.00D+00 EMaxC= 1.00D-01 BMatC= 2.69D-02 BMatP= 6.74D-02
 IDIUse=3 WtCom= 9.31D-01 WtEn= 6.89D-02
 Coeff-Com: -0.476D-01 0.494D-01 0.428D-02-0.270D-02 0.673D-01 0.103D+00
 Coeff-Com: -0.157D+00 0.984D+00
 Coeff-En:   0.000D+00 0.000D+00 0.000D+00 0.000D+00 0.158D-01 0.000D+00
 Coeff-En:   0.000D+00 0.984D+00
 Coeff:     -0.443D-01 0.460D-01 0.399D-02-0.251D-02 0.637D-01 0.955D-01
 Coeff:     -0.146D+00 0.984D+00
 Gap=     0.109 Goal=   None    Shift=    0.300
 Gap=     0.121 Goal=   None    Shift=    0.300
 RMSDP=1.39D-04 MaxDP=1.06D-02 DE=-8.01D-03 OVMax= 1.20D-02

 Cycle   9  Pass 1  IDiag  1:
 RMSU=  6.03D-05    CP:  9.96D-01  1.76D+00  1.08D-01  7.15D-01  7.12D-01
                    CP:  1.07D+00  1.40D+00  1.51D+00
 E= -1027.60586532242     Delta-E=       -0.003876914771 Rises=F Damp=F
 DIIS: error= 3.69D-03 at cycle   9 NSaved=   9.
 NSaved= 9 IEnMin= 9 EnMin= -1027.60586532242     IErMin= 9 ErrMin= 3.69D-03
 ErrMax= 3.69D-03  0.00D+00 EMaxC= 1.00D-01 BMatC= 8.08D-03 BMatP= 2.69D-02
 IDIUse=3 WtCom= 9.63D-01 WtEn= 3.69D-02
 Coeff-Com: -0.750D-02 0.415D-02 0.122D-02 0.101D-01 0.886D-02 0.122D+00
 Coeff-Com: -0.723D+00 0.723D+00 0.862D+00
 Coeff-En:   0.000D+00 0.000D+00 0.000D+00 0.000D+00 0.000D+00 0.000D+00
 Coeff-En:   0.000D+00 0.000D+00 0.100D+01
 Coeff:     -0.722D-02 0.399D-02 0.117D-02 0.975D-02 0.853D-02 0.117D+00
 Coeff:     -0.697D+00 0.696D+00 0.867D+00
 Gap=     0.109 Goal=   None    Shift=    0.300
 Gap=     0.120 Goal=   None    Shift=    0.300
 RMSDP=9.85D-05 MaxDP=8.89D-03 DE=-3.88D-03 OVMax= 1.08D-02

 Cycle  10  Pass 1  IDiag  1:
 RMSU=  3.94D-05    CP:  9.95D-01  1.78D+00  1.09D-01  7.19D-01  7.26D-01
                    CP:  1.09D+00  1.46D+00  1.99D+00  1.25D+00
 E= -1027.60736584381     Delta-E=       -0.001500521390 Rises=F Damp=F
 DIIS: error= 1.49D-03 at cycle  10 NSaved=  10.
 NSaved=10 IEnMin=10 EnMin= -1027.60736584381     IErMin=10 ErrMin= 1.49D-03
 ErrMax= 1.49D-03  0.00D+00 EMaxC= 1.00D-01 BMatC= 1.16D-03 BMatP= 8.08D-03
 IDIUse=3 WtCom= 9.85D-01 WtEn= 1.49D-02
 Coeff-Com:  0.713D-02-0.890D-02-0.163D-03 0.160D-02-0.186D-02 0.411D-01
 Coeff-Com: -0.109D+00-0.186D+00-0.107D+00 0.136D+01
 Coeff-En:   0.000D+00 0.000D+00 0.000D+00 0.000D+00 0.000D+00 0.000D+00
 Coeff-En:   0.000D+00 0.000D+00 0.000D+00 0.100D+01
 Coeff:      0.702D-02-0.877D-02-0.161D-03 0.158D-02-0.183D-02 0.405D-01
 Coeff:     -0.107D+00-0.183D+00-0.105D+00 0.136D+01
 Gap=     0.110 Goal=   None    Shift=    0.300
 Gap=     0.119 Goal=   None    Shift=    0.300
 RMSDP=6.84D-05 MaxDP=8.31D-03 DE=-1.50D-03 OVMax= 9.71D-03

 Cycle  11  Pass 1  IDiag  1:
 RMSU=  2.04D-05    CP:  9.95D-01  1.79D+00  1.10D-01  7.24D-01  7.35D-01
                    CP:  1.11D+00  1.50D+00  2.28D+00  1.57D+00  1.68D+00
 E= -1027.60769758921     Delta-E=       -0.000331745404 Rises=F Damp=F
 DIIS: error= 3.72D-04 at cycle  11 NSaved=  11.
 NSaved=11 IEnMin=11 EnMin= -1027.60769758921     IErMin=11 ErrMin= 3.72D-04
 ErrMax= 3.72D-04  0.00D+00 EMaxC= 1.00D-01 BMatC= 6.23D-05 BMatP= 1.16D-03
 IDIUse=3 WtCom= 9.96D-01 WtEn= 3.72D-03
 Coeff-Com:  0.383D-02-0.466D-02-0.311D-03-0.387D-02 0.488D-02-0.142D-01
 Coeff-Com:  0.179D+00-0.259D+00-0.167D+00 0.277D-01 0.123D+01
 Coeff-En:   0.000D+00 0.000D+00 0.000D+00 0.000D+00 0.000D+00 0.000D+00
 Coeff-En:   0.000D+00 0.000D+00 0.000D+00 0.000D+00 0.100D+01
 Coeff:      0.382D-02-0.464D-02-0.310D-03-0.385D-02 0.486D-02-0.141D-01
 Coeff:      0.178D+00-0.258D+00-0.166D+00 0.276D-01 0.123D+01
 Gap=     0.110 Goal=   None    Shift=    0.300
 Gap=     0.119 Goal=   None    Shift=    0.300
 RMSDP=4.21D-05 MaxDP=6.13D-03 DE=-3.32D-04 OVMax= 7.29D-03

 Cycle  12  Pass 1  IDiag  1:
 RMSU=  1.04D-05    CP:  9.95D-01  1.79D+00  1.10D-01  7.25D-01  7.41D-01
                    CP:  1.12D+00  1.52D+00  2.41D+00  1.86D+00  2.27D+00
                    CP:  1.77D+00
 E= -1027.60776514783     Delta-E=       -0.000067558622 Rises=F Damp=F
 DIIS: error= 2.99D-04 at cycle  12 NSaved=  12.
 NSaved=12 IEnMin=12 EnMin= -1027.60776514783     IErMin=12 ErrMin= 2.99D-04
 ErrMax= 2.99D-04  0.00D+00 EMaxC= 1.00D-01 BMatC= 2.26D-05 BMatP= 6.23D-05
 IDIUse=3 WtCom= 9.97D-01 WtEn= 2.99D-03
 Coeff-Com: -0.145D-02 0.250D-02-0.603D-04-0.700D-03-0.100D-01-0.251D-01
 Coeff-Com:  0.264D-01 0.965D-01 0.558D-01-0.459D+00-0.142D+01 0.274D+01
 Coeff-En:   0.000D+00 0.000D+00 0.000D+00 0.000D+00 0.000D+00 0.000D+00
 Coeff-En:   0.000D+00 0.000D+00 0.000D+00 0.000D+00 0.000D+00 0.100D+01
 Coeff:     -0.144D-02 0.249D-02-0.601D-04-0.698D-03-0.999D-02-0.250D-01
 Coeff:      0.263D-01 0.962D-01 0.557D-01-0.458D+00-0.142D+01 0.273D+01
 Gap=     0.110 Goal=   None    Shift=    0.300
 Gap=     0.119 Goal=   None    Shift=    0.300
 RMSDP=4.17D-05 MaxDP=5.69D-03 DE=-6.76D-05 OVMax= 6.83D-03

 Cycle  13  Pass 1  IDiag  1:
 RMSU=  7.66D-06    CP:  9.95D-01  1.79D+00  1.10D-01  7.26D-01  7.44D-01
                    CP:  1.14D+00  1.55D+00  2.51D+00  2.15D+00  2.85D+00
                    CP:  2.58D+00  2.13D+00
 E= -1027.60780932133     Delta-E=       -0.000044173501 Rises=F Damp=F
 DIIS: error= 2.66D-04 at cycle  13 NSaved=  13.
 NSaved=13 IEnMin=13 EnMin= -1027.60780932133     IErMin=13 ErrMin= 2.66D-04
 ErrMax= 2.66D-04  0.00D+00 EMaxC= 1.00D-01 BMatC= 1.54D-05 BMatP= 2.26D-05
 IDIUse=3 WtCom= 9.97D-01 WtEn= 2.66D-03
 Coeff-Com: -0.164D-02 0.286D-02-0.482D-04 0.679D-04-0.686D-02-0.141D-01
 Coeff-Com: -0.359D-01 0.141D+00 0.434D-01-0.401D+00-0.848D+00 0.112D+01
 Coeff-Com:  0.996D+00
 Coeff-En:   0.000D+00 0.000D+00 0.000D+00 0.000D+00 0.000D+00 0.000D+00
 Coeff-En:   0.000D+00 0.000D+00 0.000D+00 0.000D+00 0.000D+00 0.000D+00
 Coeff-En:   0.100D+01
 Coeff:     -0.164D-02 0.286D-02-0.481D-04 0.678D-04-0.684D-02-0.140D-01
 Coeff:     -0.358D-01 0.140D+00 0.433D-01-0.400D+00-0.846D+00 0.112D+01
 Coeff:      0.996D+00
 Gap=     0.110 Goal=   None    Shift=    0.300
 Gap=     0.119 Goal=   None    Shift=    0.300
 RMSDP=3.08D-05 MaxDP=4.65D-03 DE=-4.42D-05 OVMax= 5.43D-03

 Cycle  14  Pass 1  IDiag  1:
 RMSU=  1.15D-05    CP:  9.95D-01  1.79D+00  1.10D-01  7.27D-01  7.47D-01
                    CP:  1.15D+00  1.58D+00  2.60D+00  2.31D+00  3.00D+00
                    CP:  3.00D+00  3.00D+00  1.60D+00
 E= -1027.60783328718     Delta-E=       -0.000023965847 Rises=F Damp=F
 DIIS: error= 2.19D-04 at cycle  14 NSaved=  14.
 NSaved=14 IEnMin=14 EnMin= -1027.60783328718     IErMin=14 ErrMin= 2.19D-04
 ErrMax= 2.19D-04  0.00D+00 EMaxC= 1.00D-01 BMatC= 1.51D-05 BMatP= 1.54D-05
 IDIUse=3 WtCom= 9.98D-01 WtEn= 2.19D-03
 Coeff-Com: -0.213D-02 0.311D-02-0.109D-04 0.378D-03 0.848D-04 0.713D-02
 Coeff-Com: -0.719D-01 0.106D+00 0.283D-01-0.133D+00-0.242D+00 0.640D-01
 Coeff-Com: -0.835D+00 0.208D+01
 Coeff-En:   0.000D+00 0.000D+00 0.000D+00 0.000D+00 0.000D+00 0.000D+00
 Coeff-En:   0.000D+00 0.000D+00 0.000D+00 0.000D+00 0.000D+00 0.000D+00
 Coeff-En:   0.000D+00 0.100D+01
 Coeff:     -0.213D-02 0.310D-02-0.109D-04 0.377D-03 0.846D-04 0.711D-02
 Coeff:     -0.717D-01 0.105D+00 0.282D-01-0.133D+00-0.242D+00 0.639D-01
 Coeff:     -0.833D+00 0.207D+01
 Gap=     0.110 Goal=   None    Shift=    0.300
 Gap=     0.119 Goal=   None    Shift=    0.300
 RMSDP=2.61D-05 MaxDP=3.77D-03 DE=-2.40D-05 OVMax= 4.53D-03

 Cycle  15  Pass 1  IDiag  1:
 RMSU=  1.04D-05    CP:  9.95D-01  1.79D+00  1.10D-01  7.28D-01  7.50D-01
                    CP:  1.16D+00  1.59D+00  2.69D+00  2.42D+00  3.00D+00
                    CP:  3.00D+00  3.00D+00  2.31D+00  2.48D+00
 E= -1027.60784789075     Delta-E=       -0.000014603572 Rises=F Damp=F
 DIIS: error= 1.82D-04 at cycle  15 NSaved=  15.
 NSaved=15 IEnMin=15 EnMin= -1027.60784789075     IErMin=15 ErrMin= 1.82D-04
 ErrMax= 1.82D-04  0.00D+00 EMaxC= 1.00D-01 BMatC= 1.78D-05 BMatP= 1.51D-05
 IDIUse=3 WtCom= 9.98D-01 WtEn= 2.19D-03
 Coeff-Com: -0.392D-03 0.552D-03-0.273D-04-0.600D-04 0.320D-02 0.646D-02
 Coeff-Com:  0.492D-02-0.596D-01 0.120D-01 0.488D-01 0.205D+00 0.200D+00
 Coeff-Com: -0.221D+01 0.868D+00 0.192D+01
 Coeff-En:   0.000D+00 0.000D+00 0.000D+00 0.000D+00 0.000D+00 0.000D+00
 Coeff-En:   0.000D+00 0.000D+00 0.000D+00 0.000D+00 0.000D+00 0.000D+00
 Coeff-En:   0.000D+00 0.000D+00 0.100D+01
 Coeff:     -0.391D-03 0.551D-03-0.273D-04-0.598D-04 0.319D-02 0.644D-02
 Coeff:      0.491D-02-0.595D-01 0.120D-01 0.487D-01 0.205D+00 0.199D+00
 Coeff:     -0.220D+01 0.866D+00 0.192D+01
 Gap=     0.110 Goal=   None    Shift=    0.300
 Gap=     0.119 Goal=   None    Shift=    0.300
 RMSDP=2.22D-05 MaxDP=3.16D-03 DE=-1.46D-05 OVMax= 3.85D-03

 Cycle  16  Pass 1  IDiag  1:
 RMSU=  8.64D-06    CP:  9.95D-01  1.79D+00  1.10D-01  7.29D-01  7.53D-01
                    CP:  1.17D+00  1.61D+00  2.76D+00  2.51D+00  3.00D+00
                    CP:  3.00D+00  3.00D+00  2.98D+00  3.00D+00  1.78D+00
 E= -1027.60785933798     Delta-E=       -0.000011447227 Rises=F Damp=F
 DIIS: error= 1.40D-04 at cycle  16 NSaved=  16.
 NSaved=16 IEnMin=16 EnMin= -1027.60785933798     IErMin=16 ErrMin= 1.40D-04
 ErrMax= 1.40D-04  0.00D+00 EMaxC= 1.00D-01 BMatC= 6.76D-06 BMatP= 1.51D-05
 IDIUse=3 WtCom= 9.99D-01 WtEn= 1.40D-03
 Coeff-Com: -0.160D-04 0.791D-04-0.125D-04-0.244D-03 0.157D-02 0.809D-03
 Coeff-Com:  0.415D-01-0.820D-01 0.800D-02 0.100D-01 0.154D+00 0.440D+00
 Coeff-Com: -0.167D+01 0.149D+00 0.508D+00 0.144D+01
 Coeff-En:   0.000D+00 0.000D+00 0.000D+00 0.000D+00 0.000D+00 0.000D+00
 Coeff-En:   0.000D+00 0.000D+00 0.000D+00 0.000D+00 0.000D+00 0.000D+00
 Coeff-En:   0.000D+00 0.000D+00 0.000D+00 0.100D+01
 Coeff:     -0.159D-04 0.790D-04-0.125D-04-0.244D-03 0.156D-02 0.808D-03
 Coeff:      0.414D-01-0.819D-01 0.798D-02 0.100D-01 0.154D+00 0.440D+00
 Coeff:     -0.167D+01 0.149D+00 0.507D+00 0.144D+01
 Gap=     0.110 Goal=   None    Shift=    0.300
 Gap=     0.119 Goal=   None    Shift=    0.300
 RMSDP=1.66D-05 MaxDP=2.40D-03 DE=-1.14D-05 OVMax= 2.99D-03

 Cycle  17  Pass 1  IDiag  1:
 RMSU=  3.43D-06    CP:  9.95D-01  1.79D+00  1.10D-01  7.30D-01  7.55D-01
                    CP:  1.17D+00  1.62D+00  2.81D+00  2.58D+00  3.00D+00
                    CP:  3.00D+00  3.00D+00  3.00D+00  3.00D+00  2.40D+00
                    CP:  2.28D+00
 E= -1027.60786539345     Delta-E=       -0.000006055476 Rises=F Damp=F
 DIIS: error= 1.06D-04 at cycle  17 NSaved=  17.
 NSaved=17 IEnMin=17 EnMin= -1027.60786539345     IErMin=17 ErrMin= 1.06D-04
 ErrMax= 1.06D-04  0.00D+00 EMaxC= 1.00D-01 BMatC= 2.74D-06 BMatP= 6.76D-06
 IDIUse=3 WtCom= 9.99D-01 WtEn= 1.06D-03
 Coeff-Com:  0.952D-04-0.785D-04-0.566D-06-0.204D-03-0.195D-03-0.262D-02
 Coeff-Com:  0.478D-01-0.610D-01 0.406D-02-0.301D-01 0.395D-01 0.512D+00
 Coeff-Com: -0.931D+00-0.217D+00-0.400D+00 0.118D+01 0.862D+00
 Coeff-En:   0.000D+00 0.000D+00 0.000D+00 0.000D+00 0.000D+00 0.000D+00
 Coeff-En:   0.000D+00 0.000D+00 0.000D+00 0.000D+00 0.000D+00 0.000D+00
 Coeff-En:   0.000D+00 0.000D+00 0.000D+00 0.000D+00 0.100D+01
 Coeff:      0.951D-04-0.784D-04-0.565D-06-0.204D-03-0.195D-03-0.262D-02
 Coeff:      0.477D-01-0.610D-01 0.405D-02-0.300D-01 0.394D-01 0.511D+00
 Coeff:     -0.930D+00-0.216D+00-0.399D+00 0.117D+01 0.862D+00
 Gap=     0.110 Goal=   None    Shift=    0.300
 Gap=     0.119 Goal=   None    Shift=    0.300
 RMSDP=1.24D-05 MaxDP=1.80D-03 DE=-6.06D-06 OVMax= 2.30D-03

 Cycle  18  Pass 1  IDiag  1:
 RMSU=  2.77D-06    CP:  9.94D-01  1.79D+00  1.10D-01  7.30D-01  7.56D-01
                    CP:  1.17D+00  1.63D+00  2.84D+00  2.63D+00  3.00D+00
                    CP:  3.00D+00  3.00D+00  3.00D+00  3.00D+00  2.87D+00
                    CP:  3.00D+00  1.59D+00
 E= -1027.60786864082     Delta-E=       -0.000003247362 Rises=F Damp=F
 DIIS: error= 8.11D-05 at cycle  18 NSaved=  18.
 NSaved=18 IEnMin=18 EnMin= -1027.60786864082     IErMin=18 ErrMin= 8.11D-05
 ErrMax= 8.11D-05  0.00D+00 EMaxC= 1.00D-01 BMatC= 1.37D-06 BMatP= 2.74D-06
 IDIUse=1 WtCom= 1.00D+00 WtEn= 0.00D+00
 Coeff-Com: -0.482D-04-0.296D-04 0.324D-05 0.298D-03-0.199D-02-0.207D-02
 Coeff-Com: -0.677D-02 0.451D-01-0.765D-02-0.452D-01-0.165D+00 0.141D+00
 Coeff-Com:  0.408D+00-0.814D-01-0.204D+00-0.149D+01 0.103D+00 0.231D+01
 Coeff:     -0.482D-04-0.296D-04 0.324D-05 0.298D-03-0.199D-02-0.207D-02
 Coeff:     -0.677D-02 0.451D-01-0.765D-02-0.452D-01-0.165D+00 0.141D+00
 Coeff:      0.408D+00-0.814D-01-0.204D+00-0.149D+01 0.103D+00 0.231D+01
 Gap=     0.110 Goal=   None    Shift=    0.300
 Gap=     0.119 Goal=   None    Shift=    0.300
 RMSDP=9.54D-06 MaxDP=1.34D-03 DE=-3.25D-06 OVMax= 1.82D-03

 Cycle  19  Pass 1  IDiag  1:
 RMSU=  3.84D-06    CP:  9.94D-01  1.78D+00  1.10D-01  7.31D-01  7.57D-01
                    CP:  1.18D+00  1.63D+00  2.86D+00  2.67D+00  3.00D+00
                    CP:  3.00D+00  3.00D+00  3.00D+00  3.00D+00  3.00D+00
                    CP:  3.00D+00  2.14D+00  3.00D+00
 E= -1027.60787047430     Delta-E=       -0.000001833481 Rises=F Damp=F
 DIIS: error= 6.37D-05 at cycle  19 NSaved=  19.
 NSaved=19 IEnMin=19 EnMin= -1027.60787047430     IErMin=19 ErrMin= 6.37D-05
 ErrMax= 6.37D-05  0.00D+00 EMaxC= 1.00D-01 BMatC= 1.11D-06 BMatP= 1.37D-06
 IDIUse=1 WtCom= 1.00D+00 WtEn= 0.00D+00
 Coeff-Com: -0.182D-03 0.165D-03-0.209D-05 0.294D-03-0.113D-02-0.671D-03
 Coeff-Com: -0.180D-01 0.524D-01-0.761D-02-0.393D-01-0.955D-01-0.135D-01
 Coeff-Com:  0.337D+00 0.183D+00 0.384D-01-0.169D+01-0.165D+00 0.148D+01
 Coeff-Com:  0.944D+00
 Coeff:     -0.182D-03 0.165D-03-0.209D-05 0.294D-03-0.113D-02-0.671D-03
 Coeff:     -0.180D-01 0.524D-01-0.761D-02-0.393D-01-0.955D-01-0.135D-01
 Coeff:      0.337D+00 0.183D+00 0.384D-01-0.169D+01-0.165D+00 0.148D+01
 Coeff:      0.944D+00
 Gap=     0.110 Goal=   None    Shift=    0.300
 Gap=     0.119 Goal=   None    Shift=    0.300
 RMSDP=7.11D-06 MaxDP=1.03D-03 DE=-1.83D-06 OVMax= 1.38D-03

 Cycle  20  Pass 1  IDiag  1:
 RMSU=  4.34D-06    CP:  9.94D-01  1.78D+00  1.10D-01  7.31D-01  7.58D-01
                    CP:  1.18D+00  1.63D+00  2.88D+00  2.69D+00  3.00D+00
                    CP:  3.00D+00  3.00D+00  3.00D+00  3.00D+00  3.00D+00
                    CP:  3.00D+00  2.49D+00  3.00D+00  2.08D+00
 E= -1027.60787153951     Delta-E=       -0.000001065212 Rises=F Damp=F
 DIIS: error= 4.99D-05 at cycle  20 NSaved=  20.
 NSaved=20 IEnMin=20 EnMin= -1027.60787153951     IErMin=20 ErrMin= 4.99D-05
 ErrMax= 4.99D-05  0.00D+00 EMaxC= 1.00D-01 BMatC= 9.36D-07 BMatP= 1.11D-06
 IDIUse=1 WtCom= 1.00D+00 WtEn= 0.00D+00
 Coeff-Com: -0.300D-03 0.415D-03-0.103D-04 0.153D-03 0.293D-03 0.884D-03
 Coeff-Com: -0.185D-01 0.317D-01-0.259D-02-0.244D-01 0.285D-01-0.110D+00
 Coeff-Com: -0.231D-01 0.433D+00 0.234D+00-0.109D+01-0.329D+00-0.952D-02
 Coeff-Com:  0.816D+00 0.106D+01
 Coeff:     -0.300D-03 0.415D-03-0.103D-04 0.153D-03 0.293D-03 0.884D-03
 Coeff:     -0.185D-01 0.317D-01-0.259D-02-0.244D-01 0.285D-01-0.110D+00
 Coeff:     -0.231D-01 0.433D+00 0.234D+00-0.109D+01-0.329D+00-0.952D-02
 Coeff:      0.816D+00 0.106D+01
 Gap=     0.110 Goal=   None    Shift=    0.300
 Gap=     0.119 Goal=   None    Shift=    0.300
 RMSDP=5.53D-06 MaxDP=8.09D-04 DE=-1.07D-06 OVMax= 1.08D-03

 Cycle  21  Pass 1  IDiag  1:
 Restarting incremental Fock formation.
 E= -1027.60787221251     Delta-E=       -0.000000673002 Rises=F Damp=F
 DIIS: error= 3.89D-05 at cycle  21 NSaved=  20.
 NSaved=20 IEnMin=20 EnMin= -1027.60787221251     IErMin=20 ErrMin= 3.89D-05
 ErrMax= 3.89D-05  0.00D+00 EMaxC= 1.00D-01 BMatC= 7.27D-07 BMatP= 9.36D-07
 IDIUse=1 WtCom= 1.00D+00 WtEn= 0.00D+00
 Coeff-Com: -0.212D-03 0.366D-03 0.696D-05 0.441D-03 0.923D-03-0.627D-02
 Coeff-Com: -0.688D-03 0.739D-02-0.144D-01 0.428D-01-0.119D-01-0.217D+00
 Coeff-Com:  0.263D+00 0.106D+00-0.279D-01-0.207D+00-0.418D+00-0.208D+00
 Coeff-Com: -0.110D+00 0.180D+01
 Coeff:     -0.212D-03 0.366D-03 0.696D-05 0.441D-03 0.923D-03-0.627D-02
 Coeff:     -0.688D-03 0.739D-02-0.144D-01 0.428D-01-0.119D-01-0.217D+00
 Coeff:      0.263D+00 0.106D+00-0.279D-01-0.207D+00-0.418D+00-0.208D+00
 Coeff:     -0.110D+00 0.180D+01
 Gap=     0.110 Goal=   None    Shift=    0.300
 Gap=     0.119 Goal=   None    Shift=    0.300
 RMSDP=4.37D-06 MaxDP=6.43D-04 DE=-6.73D-07 OVMax= 8.53D-04

 Cycle  22  Pass 1  IDiag  1:
 RMSU=  4.37D-06    CP:  1.00D+00
 E= -1027.60787267159     Delta-E=       -0.000000459077 Rises=F Damp=F
 DIIS: error= 2.98D-05 at cycle  22 NSaved=  20.
 NSaved=20 IEnMin=20 EnMin= -1027.60787267159     IErMin=20 ErrMin= 2.98D-05
 ErrMax= 2.98D-05  0.00D+00 EMaxC= 1.00D-01 BMatC= 3.93D-07 BMatP= 7.27D-07
 IDIUse=1 WtCom= 1.00D+00 WtEn= 0.00D+00
 Coeff-Com:  0.910D-05 0.201D-04-0.581D-04 0.445D-03-0.181D-02 0.412D-03
 Coeff-Com:  0.544D-02-0.108D-01-0.235D-01 0.510D-01-0.370D-01 0.149D-02
 Coeff-Com: -0.461D-01 0.106D+00-0.331D-01 0.295D+00-0.631D+00-0.602D+00
 Coeff-Com:  0.103D+00 0.182D+01
 Coeff:      0.910D-05 0.201D-04-0.581D-04 0.445D-03-0.181D-02 0.412D-03
 Coeff:      0.544D-02-0.108D-01-0.235D-01 0.510D-01-0.370D-01 0.149D-02
 Coeff:     -0.461D-01 0.106D+00-0.331D-01 0.295D+00-0.631D+00-0.602D+00
 Coeff:      0.103D+00 0.182D+01
 Gap=     0.110 Goal=   None    Shift=    0.300
 Gap=     0.119 Goal=   None    Shift=    0.300
 RMSDP=3.42D-06 MaxDP=4.97D-04 DE=-4.59D-07 OVMax= 6.64D-04

 Cycle  23  Pass 1  IDiag  1:
 RMSU=  4.84D-07    CP:  1.00D+00  1.77D+00
 E= -1027.60787295314     Delta-E=       -0.000000281551 Rises=F Damp=F
 DIIS: error= 2.24D-05 at cycle  23 NSaved=  20.
 NSaved=20 IEnMin=20 EnMin= -1027.60787295314     IErMin=20 ErrMin= 2.24D-05
 ErrMax= 2.24D-05  0.00D+00 EMaxC= 1.00D-01 BMatC= 1.74D-07 BMatP= 3.93D-07
 IDIUse=1 WtCom= 1.00D+00 WtEn= 0.00D+00
 Coeff-Com:  0.403D-04-0.335D-03 0.229D-03-0.593D-03 0.529D-02 0.211D-02
 Coeff-Com: -0.914D-02-0.615D-01 0.730D-01 0.638D-01-0.910D-01-0.101D+00
 Coeff-Com:  0.427D-01 0.684D-01 0.609D+00-0.641D+00-0.604D+00-0.838D+00
 Coeff-Com:  0.172D+01 0.764D+00
 Coeff:      0.403D-04-0.335D-03 0.229D-03-0.593D-03 0.529D-02 0.211D-02
 Coeff:     -0.914D-02-0.615D-01 0.730D-01 0.638D-01-0.910D-01-0.101D+00
 Coeff:      0.427D-01 0.684D-01 0.609D+00-0.641D+00-0.604D+00-0.838D+00
 Coeff:      0.172D+01 0.764D+00
 Gap=     0.110 Goal=   None    Shift=    0.300
 Gap=     0.119 Goal=   None    Shift=    0.300
 RMSDP=2.58D-06 MaxDP=3.74D-04 DE=-2.82D-07 OVMax= 5.06D-04

 Cycle  24  Pass 1  IDiag  1:
 RMSU=  3.91D-07    CP:  1.00D+00  2.36D+00  1.51D+00
 E= -1027.60787311067     Delta-E=       -0.000000157531 Rises=F Damp=F
 DIIS: error= 1.70D-05 at cycle  24 NSaved=  20.
 NSaved=20 IEnMin=20 EnMin= -1027.60787311067     IErMin=20 ErrMin= 1.70D-05
 ErrMax= 1.70D-05  0.00D+00 EMaxC= 1.00D-01 BMatC= 8.84D-08 BMatP= 1.74D-07
 IDIUse=1 WtCom= 1.00D+00 WtEn= 0.00D+00
 Coeff-Com: -0.280D-03-0.655D-03 0.171D-02 0.541D-02-0.624D-02-0.292D-02
 Coeff-Com: -0.751D-02 0.236D-01-0.280D-01 0.448D-01 0.281D-01-0.281D+00
 Coeff-Com:  0.123D+00 0.113D+00 0.195D+00 0.275D+00-0.380D+00-0.116D+01
 Coeff-Com: -0.800D+00 0.285D+01
 Coeff:     -0.280D-03-0.655D-03 0.171D-02 0.541D-02-0.624D-02-0.292D-02
 Coeff:     -0.751D-02 0.236D-01-0.280D-01 0.448D-01 0.281D-01-0.281D+00
 Coeff:      0.123D+00 0.113D+00 0.195D+00 0.275D+00-0.380D+00-0.116D+01
 Coeff:     -0.800D+00 0.285D+01
 Gap=     0.110 Goal=   None    Shift=    0.300
 Gap=     0.119 Goal=   None    Shift=    0.300
 RMSDP=2.09D-06 MaxDP=2.88D-04 DE=-1.58D-07 OVMax= 3.99D-04

 Cycle  25  Pass 1  IDiag  1:
 RMSU=  2.57D-07    CP:  1.00D+00  2.81D+00  2.31D+00  2.15D+00
 E= -1027.60787320689     Delta-E=       -0.000000096216 Rises=F Damp=F
 DIIS: error= 1.28D-05 at cycle  25 NSaved=  20.
 NSaved=20 IEnMin=20 EnMin= -1027.60787320689     IErMin=20 ErrMin= 1.28D-05
 ErrMax= 1.28D-05  0.00D+00 EMaxC= 1.00D-01 BMatC= 5.30D-08 BMatP= 8.84D-08
 IDIUse=1 WtCom= 1.00D+00 WtEn= 0.00D+00
 Coeff-Com: -0.314D-03 0.691D-03 0.261D-02-0.349D-02-0.295D-02 0.255D-01
 Coeff-Com: -0.107D-01-0.963D-01 0.133D+00 0.413D-01-0.230D+00 0.275D-01
 Coeff-Com: -0.106D+00 0.379D+00 0.336D+00 0.155D+00-0.158D+01-0.649D+00
 Coeff-Com:  0.130D+01 0.128D+01
 Coeff:     -0.314D-03 0.691D-03 0.261D-02-0.349D-02-0.295D-02 0.255D-01
 Coeff:     -0.107D-01-0.963D-01 0.133D+00 0.413D-01-0.230D+00 0.275D-01
 Coeff:     -0.106D+00 0.379D+00 0.336D+00 0.155D+00-0.158D+01-0.649D+00
 Coeff:      0.130D+01 0.128D+01
 Gap=     0.110 Goal=   None    Shift=    0.300
 Gap=     0.119 Goal=   None    Shift=    0.300
 RMSDP=1.55D-06 MaxDP=2.21D-04 DE=-9.62D-08 OVMax= 3.00D-04

 Cycle  26  Pass 1  IDiag  1:
 RMSU=  6.57D-07    CP:  1.00D+00  3.00D+00  2.96D+00  3.00D+00  1.59D+00
 E= -1027.60787326146     Delta-E=       -0.000000054571 Rises=F Damp=F
 DIIS: error= 9.32D-06 at cycle  26 NSaved=  20.
 NSaved=20 IEnMin=20 EnMin= -1027.60787326146     IErMin=20 ErrMin= 9.32D-06
 ErrMax= 9.32D-06  0.00D+00 EMaxC= 1.00D-01 BMatC= 2.89D-08 BMatP= 5.30D-08
 IDIUse=1 WtCom= 1.00D+00 WtEn= 0.00D+00
 Coeff-Com:  0.202D-03-0.151D-02 0.191D-02-0.283D-02 0.906D-02 0.937D-03
 Coeff-Com: -0.462D-01 0.547D-01 0.221D-01-0.326D-01-0.879D-01-0.423D-01
 Coeff-Com:  0.131D+00 0.368D-01 0.309D+00-0.477D+00-0.154D-01-0.145D+00
 Coeff-Com: -0.134D+01 0.263D+01
 Coeff:      0.202D-03-0.151D-02 0.191D-02-0.283D-02 0.906D-02 0.937D-03
 Coeff:     -0.462D-01 0.547D-01 0.221D-01-0.326D-01-0.879D-01-0.423D-01
 Coeff:      0.131D+00 0.368D-01 0.309D+00-0.477D+00-0.154D-01-0.145D+00
 Coeff:     -0.134D+01 0.263D+01
 Gap=     0.110 Goal=   None    Shift=    0.300
 Gap=     0.119 Goal=   None    Shift=    0.300
 RMSDP=1.14D-06 MaxDP=1.55D-04 DE=-5.46D-08 OVMax= 2.19D-04

 Cycle  27  Pass 1  IDiag  1:
 RMSU=  4.07D-07    CP:  1.00D+00  3.00D+00  3.00D+00  3.00D+00  2.22D+00
                    CP:  2.59D+00
 E= -1027.60787329116     Delta-E=       -0.000000029700 Rises=F Damp=F
 DIIS: error= 7.12D-06 at cycle  27 NSaved=  20.
 NSaved=20 IEnMin=20 EnMin= -1027.60787329116     IErMin=20 ErrMin= 7.12D-06
 ErrMax= 7.12D-06  0.00D+00 EMaxC= 1.00D-01 BMatC= 1.78D-08 BMatP= 2.89D-08
 IDIUse=1 WtCom= 1.00D+00 WtEn= 0.00D+00
 Coeff-Com: -0.123D-04-0.831D-04 0.188D-03-0.526D-02 0.311D-02 0.247D-01
 Coeff-Com: -0.371D-01 0.131D-02 0.711D-02-0.699D-02 0.952D-01-0.134D+00
 Coeff-Com: -0.678D-01-0.169D+00 0.575D+00 0.144D-02 0.309D+00-0.238D+01
 Coeff-Com:  0.797D+00 0.199D+01
 Coeff:     -0.123D-04-0.831D-04 0.188D-03-0.526D-02 0.311D-02 0.247D-01
 Coeff:     -0.371D-01 0.131D-02 0.711D-02-0.699D-02 0.952D-01-0.134D+00
 Coeff:     -0.678D-01-0.169D+00 0.575D+00 0.144D-02 0.309D+00-0.238D+01
 Coeff:      0.797D+00 0.199D+01
 Gap=     0.110 Goal=   None    Shift=    0.300
 Gap=     0.119 Goal=   None    Shift=    0.300
 RMSDP=8.56D-07 MaxDP=1.18D-04 DE=-2.97D-08 OVMax= 1.65D-04

 Cycle  28  Pass 1  IDiag  1:
 RMSU=  5.35D-07    CP:  1.00D+00  3.00D+00  3.00D+00  3.00D+00  2.62D+00
                    CP:  3.00D+00  1.69D+00
 E= -1027.60787330747     Delta-E=       -0.000000016313 Rises=F Damp=F
 DIIS: error= 5.26D-06 at cycle  28 NSaved=  20.
 NSaved=20 IEnMin=20 EnMin= -1027.60787330747     IErMin=20 ErrMin= 5.26D-06
 ErrMax= 5.26D-06  0.00D+00 EMaxC= 1.00D-01 BMatC= 1.04D-08 BMatP= 1.78D-08
 IDIUse=1 WtCom= 1.00D+00 WtEn= 0.00D+00
 Coeff-Com: -0.385D-04-0.936D-05-0.493D-02 0.746D-02 0.860D-02-0.252D-01
 Coeff-Com:  0.166D-02 0.115D-01 0.926D-02 0.652D-01-0.135D+00-0.556D-01
 Coeff-Com: -0.128D+00 0.500D+00-0.260D-01 0.273D+00-0.174D+01 0.374D+00
 Coeff-Com:  0.869D+00 0.995D+00
 Coeff:     -0.385D-04-0.936D-05-0.493D-02 0.746D-02 0.860D-02-0.252D-01
 Coeff:      0.166D-02 0.115D-01 0.926D-02 0.652D-01-0.135D+00-0.556D-01
 Coeff:     -0.128D+00 0.500D+00-0.260D-01 0.273D+00-0.174D+01 0.374D+00
 Coeff:      0.869D+00 0.995D+00
 Gap=     0.110 Goal=   None    Shift=    0.300
 Gap=     0.119 Goal=   None    Shift=    0.300
 RMSDP=6.25D-07 MaxDP=8.93D-05 DE=-1.63D-08 OVMax= 1.22D-04

 Cycle  29  Pass 1  IDiag  1:
 RMSU=  8.46D-08    CP:  1.00D+00  3.00D+00  3.00D+00  3.00D+00  2.85D+00
                    CP:  3.00D+00  2.14D+00  2.10D+00
 E= -1027.60787331611     Delta-E=       -0.000000008640 Rises=F Damp=F
 DIIS: error= 3.83D-06 at cycle  29 NSaved=  20.
 NSaved=20 IEnMin=20 EnMin= -1027.60787331611     IErMin=20 ErrMin= 3.83D-06
 ErrMax= 3.83D-06  0.00D+00 EMaxC= 1.00D-01 BMatC= 5.54D-09 BMatP= 1.04D-08
 IDIUse=1 WtCom= 1.00D+00 WtEn= 0.00D+00
 Coeff-Com: -0.636D-03 0.617D-03 0.467D-02-0.192D-01 0.128D-01 0.188D-01
 Coeff-Com: -0.216D-01 0.451D-02-0.398D-02-0.260D-01 0.320D-02 0.270D-01
 Coeff-Com:  0.131D-01-0.486D-01 0.148D+00-0.187D+00 0.151D+00-0.563D+00
 Coeff-Com: -0.909D+00 0.239D+01
 Coeff:     -0.636D-03 0.617D-03 0.467D-02-0.192D-01 0.128D-01 0.188D-01
 Coeff:     -0.216D-01 0.451D-02-0.398D-02-0.260D-01 0.320D-02 0.270D-01
 Coeff:      0.131D-01-0.486D-01 0.148D+00-0.187D+00 0.151D+00-0.563D+00
 Coeff:     -0.909D+00 0.239D+01
 Gap=     0.110 Goal=   None    Shift=    0.300
 Gap=     0.119 Goal=   None    Shift=    0.300
 RMSDP=4.51D-07 MaxDP=6.47D-05 DE=-8.64D-09 OVMax= 8.87D-05

 Cycle  30  Pass 1  IDiag  1:
 RMSU=  4.11D-08    CP:  1.00D+00  3.00D+00  3.00D+00  3.00D+00  3.00D+00
                    CP:  3.00D+00  2.44D+00  2.90D+00  1.61D+00
 E= -1027.60787332072     Delta-E=       -0.000000004611 Rises=F Damp=F
 DIIS: error= 2.82D-06 at cycle  30 NSaved=  20.
 NSaved=20 IEnMin=20 EnMin= -1027.60787332072     IErMin=20 ErrMin= 2.82D-06
 ErrMax= 2.82D-06  0.00D+00 EMaxC= 1.00D-01 BMatC= 2.94D-09 BMatP= 5.54D-09
 IDIUse=1 WtCom= 1.00D+00 WtEn= 0.00D+00
 Coeff-Com:  0.242D-02-0.405D-02-0.418D-02 0.977D-02 0.116D-01-0.226D-01
 Coeff-Com: -0.198D-01 0.954D-02 0.308D-01 0.129D-01 0.955D-02-0.134D+00
 Coeff-Com:  0.723D-02 0.128D+00-0.211D-01 0.272D+00-0.246D-01-0.148D+01
 Coeff-Com: -0.236D-01 0.224D+01
 Coeff:      0.242D-02-0.405D-02-0.418D-02 0.977D-02 0.116D-01-0.226D-01
 Coeff:     -0.198D-01 0.954D-02 0.308D-01 0.129D-01 0.955D-02-0.134D+00
 Coeff:      0.723D-02 0.128D+00-0.211D-01 0.272D+00-0.246D-01-0.148D+01
 Coeff:     -0.236D-01 0.224D+01
 Gap=     0.110 Goal=   None    Shift=    0.300
 Gap=     0.119 Goal=   None    Shift=    0.300
 RMSDP=3.24D-07 MaxDP=4.69D-05 DE=-4.61D-09 OVMax= 6.49D-05

 Cycle  31  Pass 1  IDiag  1:
 RMSU=  2.55D-07    CP:  1.00D+00  3.00D+00  3.00D+00  3.00D+00  3.00D+00
                    CP:  3.00D+00  2.62D+00  3.00D+00  2.23D+00  1.84D+00
 E= -1027.60787332307     Delta-E=       -0.000000002349 Rises=F Damp=F
 DIIS: error= 2.06D-06 at cycle  31 NSaved=  20.
 NSaved=20 IEnMin=20 EnMin= -1027.60787332307     IErMin=20 ErrMin= 2.06D-06
 ErrMax= 2.06D-06  0.00D+00 EMaxC= 1.00D-01 BMatC= 1.69D-09 BMatP= 2.94D-09
 IDIUse=1 WtCom= 1.00D+00 WtEn= 0.00D+00
 Coeff-Com: -0.481D-03-0.446D-02 0.428D-02 0.528D-02-0.885D-02-0.968D-02
 Coeff-Com:  0.242D-01-0.151D-02-0.882D-02-0.865D-02-0.192D-01 0.603D-02
 Coeff-Com:  0.143D+00-0.324D+00 0.244D+00 0.248D+00-0.632D+00-0.297D+00
 Coeff-Com:  0.866D-01 0.155D+01
 Coeff:     -0.481D-03-0.446D-02 0.428D-02 0.528D-02-0.885D-02-0.968D-02
 Coeff:      0.242D-01-0.151D-02-0.882D-02-0.865D-02-0.192D-01 0.603D-02
 Coeff:      0.143D+00-0.324D+00 0.244D+00 0.248D+00-0.632D+00-0.297D+00
 Coeff:      0.866D-01 0.155D+01
 Gap=     0.110 Goal=   None    Shift=    0.300
 Gap=     0.119 Goal=   None    Shift=    0.300
 RMSDP=2.32D-07 MaxDP=3.50D-05 DE=-2.35D-09 OVMax= 4.67D-05

 Cycle  32  Pass 1  IDiag  1:
 RMSU=  3.85D-08    CP:  1.00D+00  3.00D+00  3.00D+00  3.00D+00  3.00D+00
                    CP:  3.00D+00  2.71D+00  3.00D+00  2.74D+00  2.25D+00
                    CP:  1.87D+00
 E= -1027.60787332426     Delta-E=       -0.000000001188 Rises=F Damp=F
 DIIS: error= 1.54D-06 at cycle  32 NSaved=  20.
 NSaved=20 IEnMin=20 EnMin= -1027.60787332426     IErMin=20 ErrMin= 1.54D-06
 ErrMax= 1.54D-06  0.00D+00 EMaxC= 1.00D-01 BMatC= 1.01D-09 BMatP= 1.69D-09
 IDIUse=1 WtCom= 1.00D+00 WtEn= 0.00D+00
 Coeff-Com:  0.280D-02-0.973D-03-0.602D-02 0.916D-03-0.609D-02 0.814D-02
 Coeff-Com:  0.263D-02-0.940D-02 0.115D-01-0.660D-02 0.130D-01 0.414D-02
 Coeff-Com: -0.229D+00 0.181D+00 0.340D+00 0.101D+00-0.663D+00-0.973D+00
 Coeff-Com:  0.564D+00 0.166D+01
 Coeff:      0.280D-02-0.973D-03-0.602D-02 0.916D-03-0.609D-02 0.814D-02
 Coeff:      0.263D-02-0.940D-02 0.115D-01-0.660D-02 0.130D-01 0.414D-02
 Coeff:     -0.229D+00 0.181D+00 0.340D+00 0.101D+00-0.663D+00-0.973D+00
 Coeff:      0.564D+00 0.166D+01
 Gap=     0.110 Goal=   None    Shift=    0.300
 Gap=     0.119 Goal=   None    Shift=    0.300
 RMSDP=1.73D-07 MaxDP=2.49D-05 DE=-1.19D-09 OVMax= 3.52D-05

 Cycle  33  Pass 1  IDiag  1:
 RMSU=  3.62D-08    CP:  1.00D+00  3.00D+00  3.00D+00  3.00D+00  3.00D+00
                    CP:  3.00D+00  2.76D+00  3.00D+00  3.00D+00  2.58D+00
                    CP:  2.50D+00  1.49D+00
 E= -1027.60787332493     Delta-E=       -0.000000000668 Rises=F Damp=F
 DIIS: error= 1.12D-06 at cycle  33 NSaved=  20.
 NSaved=20 IEnMin=20 EnMin= -1027.60787332493     IErMin=20 ErrMin= 1.12D-06
 ErrMax= 1.12D-06  0.00D+00 EMaxC= 1.00D-01 BMatC= 5.79D-10 BMatP= 1.01D-09
 IDIUse=1 WtCom= 1.00D+00 WtEn= 0.00D+00
 Coeff-Com:  0.103D-02-0.147D-02-0.311D-02-0.758D-03 0.714D-02-0.230D-02
 Coeff-Com: -0.387D-02-0.867D-02 0.178D-01 0.267D-03 0.397D-02-0.173D+00
 Coeff-Com:  0.137D+00 0.203D+00 0.572D-01-0.359D+00-0.429D+00-0.184D-01
 Coeff-Com:  0.162D+00 0.141D+01
 Coeff:      0.103D-02-0.147D-02-0.311D-02-0.758D-03 0.714D-02-0.230D-02
 Coeff:     -0.387D-02-0.867D-02 0.178D-01 0.267D-03 0.397D-02-0.173D+00
 Coeff:      0.137D+00 0.203D+00 0.572D-01-0.359D+00-0.429D+00-0.184D-01
 Coeff:      0.162D+00 0.141D+01
 Gap=     0.110 Goal=   None    Shift=    0.300
 Gap=     0.119 Goal=   None    Shift=    0.300
 RMSDP=1.31D-07 MaxDP=1.90D-05 DE=-6.68D-10 OVMax= 2.65D-05

 Cycle  34  Pass 1  IDiag  1:
 RMSU=  2.04D-08    CP:  1.00D+00  3.00D+00  3.00D+00  3.00D+00  2.98D+00
                    CP:  3.00D+00  2.79D+00  3.00D+00  3.00D+00  2.81D+00
                    CP:  2.99D+00  1.82D+00  1.89D+00
 E= -1027.60787332541     Delta-E=       -0.000000000480 Rises=F Damp=F
 DIIS: error= 8.07D-07 at cycle  34 NSaved=  20.
 NSaved=20 IEnMin=20 EnMin= -1027.60787332541     IErMin=20 ErrMin= 8.07D-07
 ErrMax= 8.07D-07  0.00D+00 EMaxC= 1.00D-01 BMatC= 3.21D-10 BMatP= 5.79D-10
 IDIUse=1 WtCom= 1.00D+00 WtEn= 0.00D+00
 Coeff-Com:  0.182D-02-0.609D-02 0.231D-02 0.994D-02-0.126D-01-0.281D-02
 Coeff-Com: -0.178D-01 0.568D-01-0.645D-02 0.142D-01-0.132D+00 0.388D-01
 Coeff-Com:  0.473D-01-0.731D-02 0.122D+00 0.110D+00-0.509D+00-0.224D+00
 Coeff-Com: -0.898D+00 0.241D+01
 Coeff:      0.182D-02-0.609D-02 0.231D-02 0.994D-02-0.126D-01-0.281D-02
 Coeff:     -0.178D-01 0.568D-01-0.645D-02 0.142D-01-0.132D+00 0.388D-01
 Coeff:      0.473D-01-0.731D-02 0.122D+00 0.110D+00-0.509D+00-0.224D+00
 Coeff:     -0.898D+00 0.241D+01
 Gap=     0.110 Goal=   None    Shift=    0.300
 Gap=     0.119 Goal=   None    Shift=    0.300
 RMSDP=9.48D-08 MaxDP=1.35D-05 DE=-4.80D-10 OVMax= 1.89D-05

 Cycle  35  Pass 1  IDiag  1:
 RMSU=  8.46D-08    CP:  1.00D+00  3.00D+00  3.00D+00  3.00D+00  2.95D+00
                    CP:  3.00D+00  2.80D+00  3.00D+00  3.00D+00  3.00D+00
                    CP:  3.00D+00  2.10D+00  2.59D+00  1.82D+00
 E= -1027.60787332558     Delta-E=       -0.000000000169 Rises=F Damp=F
 DIIS: error= 5.74D-07 at cycle  35 NSaved=  20.
 NSaved=20 IEnMin=20 EnMin= -1027.60787332558     IErMin=20 ErrMin= 5.74D-07
 ErrMax= 5.74D-07  0.00D+00 EMaxC= 1.00D-01 BMatC= 1.60D-10 BMatP= 3.21D-10
 IDIUse=1 WtCom= 1.00D+00 WtEn= 0.00D+00
 Coeff-Com: -0.259D-03-0.192D-02 0.426D-02-0.506D-02-0.420D-02 0.385D-02
 Coeff-Com:  0.957D-02 0.154D-02 0.188D-01-0.604D-01 0.136D-01 0.257D-01
 Coeff-Com: -0.267D-01 0.574D-01-0.637D-01-0.850D-01 0.557D+00-0.161D+01
 Coeff-Com:  0.306D+00 0.186D+01
 Coeff:     -0.259D-03-0.192D-02 0.426D-02-0.506D-02-0.420D-02 0.385D-02
 Coeff:      0.957D-02 0.154D-02 0.188D-01-0.604D-01 0.136D-01 0.257D-01
 Coeff:     -0.267D-01 0.574D-01-0.637D-01-0.850D-01 0.557D+00-0.161D+01
 Coeff:      0.306D+00 0.186D+01
 Gap=     0.110 Goal=   None    Shift=    0.300
 Gap=     0.119 Goal=   None    Shift=    0.300
 RMSDP=6.87D-08 MaxDP=9.94D-06 DE=-1.69D-10 OVMax= 1.36D-05

 Cycle  36  Pass 1  IDiag  1:
 RMSU=  7.82D-09    CP:  1.00D+00  3.00D+00  3.00D+00  3.00D+00  2.91D+00
                    CP:  3.00D+00  2.81D+00  3.00D+00  3.00D+00  3.00D+00
                    CP:  3.00D+00  2.34D+00  3.00D+00  2.51D+00  1.75D+00
 E= -1027.60787332568     Delta-E=       -0.000000000105 Rises=F Damp=F
 DIIS: error= 4.16D-07 at cycle  36 NSaved=  20.
 NSaved=20 IEnMin=20 EnMin= -1027.60787332568     IErMin=20 ErrMin= 4.16D-07
 ErrMax= 4.16D-07  0.00D+00 EMaxC= 1.00D-01 BMatC= 8.84D-11 BMatP= 1.60D-10
 IDIUse=1 WtCom= 1.00D+00 WtEn= 0.00D+00
 Coeff-Com: -0.278D-02 0.298D-02-0.162D-02-0.254D-02 0.483D-02 0.717D-04
 Coeff-Com:  0.454D-02 0.107D-01-0.464D-01 0.191D-01 0.383D-01-0.392D-01
 Coeff-Com: -0.314D-01-0.442D-02 0.867D-01 0.351D+00-0.102D+01-0.164D+00
 Coeff-Com:  0.563D+00 0.123D+01
 Coeff:     -0.278D-02 0.298D-02-0.162D-02-0.254D-02 0.483D-02 0.717D-04
 Coeff:      0.454D-02 0.107D-01-0.464D-01 0.191D-01 0.383D-01-0.392D-01
 Coeff:     -0.314D-01-0.442D-02 0.867D-01 0.351D+00-0.102D+01-0.164D+00
 Coeff:      0.563D+00 0.123D+01
 Gap=     0.110 Goal=   None    Shift=    0.300
 Gap=     0.119 Goal=   None    Shift=    0.300
 RMSDP=4.99D-08 MaxDP=7.24D-06 DE=-1.05D-10 OVMax= 9.87D-06

 Cycle  37  Pass 1  IDiag  1:
 RMSU=  1.06D-08    CP:  1.00D+00  3.00D+00  3.00D+00  3.00D+00  2.88D+00
                    CP:  3.00D+00  2.81D+00  3.00D+00  3.00D+00  3.00D+00
                    CP:  3.00D+00  2.52D+00  3.00D+00  3.00D+00  2.29D+00
                    CP:  2.02D+00
 E= -1027.60787332580     Delta-E=       -0.000000000115 Rises=F Damp=F
 DIIS: error= 2.98D-07 at cycle  37 NSaved=  20.
 NSaved=20 IEnMin=20 EnMin= -1027.60787332580     IErMin=20 ErrMin= 2.98D-07
 ErrMax= 2.98D-07  0.00D+00 EMaxC= 1.00D-01 BMatC= 4.91D-11 BMatP= 8.84D-11
 IDIUse=1 WtCom= 1.00D+00 WtEn= 0.00D+00
 Coeff-Com:  0.809D-03-0.200D-02-0.138D-02 0.819D-05 0.153D-02 0.259D-02
 Coeff-Com:  0.442D-02-0.153D-01 0.473D-02 0.146D-01-0.393D-01-0.214D-01
 Coeff-Com:  0.558D-01 0.801D-01 0.339D-01-0.325D+00-0.115D+00-0.456D+00
 Coeff-Com:  0.720D+00 0.106D+01
 Coeff:      0.809D-03-0.200D-02-0.138D-02 0.819D-05 0.153D-02 0.259D-02
 Coeff:      0.442D-02-0.153D-01 0.473D-02 0.146D-01-0.393D-01-0.214D-01
 Coeff:      0.558D-01 0.801D-01 0.339D-01-0.325D+00-0.115D+00-0.456D+00
 Coeff:      0.720D+00 0.106D+01
 Gap=     0.110 Goal=   None    Shift=    0.300
 Gap=     0.119 Goal=   None    Shift=    0.300
 RMSDP=3.60D-08 MaxDP=5.18D-06 DE=-1.15D-10 OVMax= 7.15D-06

 Cycle  38  Pass 1  IDiag  1:
 RMSU=  8.49D-09    CP:  1.00D+00  3.00D+00  3.00D+00  3.00D+00  2.87D+00
                    CP:  3.00D+00  2.81D+00  3.00D+00  3.00D+00  3.00D+00
                    CP:  3.00D+00  2.60D+00  3.00D+00  3.00D+00  2.68D+00
                    CP:  2.87D+00  1.71D+00
 E= -1027.60787332580     Delta-E=       -0.000000000002 Rises=F Damp=F
 DIIS: error= 2.11D-07 at cycle  38 NSaved=  20.
 NSaved=20 IEnMin=20 EnMin= -1027.60787332580     IErMin=20 ErrMin= 2.11D-07
 ErrMax= 2.11D-07  0.00D+00 EMaxC= 1.00D-01 BMatC= 2.60D-11 BMatP= 4.91D-11
 IDIUse=1 WtCom= 1.00D+00 WtEn= 0.00D+00
 Coeff-Com:  0.990D-03-0.116D-02 0.108D-02-0.863D-02 0.377D-02 0.283D-02
 Coeff-Com: -0.177D-02 0.101D-01 0.236D-01-0.360D-01-0.734D-01-0.300D-01
 Coeff-Com:  0.179D+00 0.157D+00-0.598D-02-0.431D+00-0.490D+00-0.601D-01
 Coeff-Com:  0.911D+00 0.850D+00
 Coeff:      0.990D-03-0.116D-02 0.108D-02-0.863D-02 0.377D-02 0.283D-02
 Coeff:     -0.177D-02 0.101D-01 0.236D-01-0.360D-01-0.734D-01-0.300D-01
 Coeff:      0.179D+00 0.157D+00-0.598D-02-0.431D+00-0.490D+00-0.601D-01
 Coeff:      0.911D+00 0.850D+00
 Gap=     0.110 Goal=   None    Shift=    0.300
 Gap=     0.119 Goal=   None    Shift=    0.300
 RMSDP=2.44D-08 MaxDP=3.55D-06 DE=-1.82D-12 OVMax= 4.86D-06

 Cycle  39  Pass 1  IDiag  1:
 RMSU=  5.28D-09    CP:  1.00D+00  3.00D+00  3.00D+00  3.00D+00  2.85D+00
                    CP:  3.00D+00  2.81D+00  3.00D+00  3.00D+00  3.00D+00
                    CP:  3.00D+00  2.68D+00  3.00D+00  3.00D+00  2.95D+00
                    CP:  3.00D+00  2.13D+00  1.58D+00
 E= -1027.60787332581     Delta-E=       -0.000000000015 Rises=F Damp=F
 DIIS: error= 1.55D-07 at cycle  39 NSaved=  20.
 NSaved=20 IEnMin=20 EnMin= -1027.60787332581     IErMin=20 ErrMin= 1.55D-07
 ErrMax= 1.55D-07  0.00D+00 EMaxC= 1.00D-01 BMatC= 1.30D-11 BMatP= 2.60D-11
 IDIUse=1 WtCom= 1.00D+00 WtEn= 0.00D+00
 Coeff-Com:  0.171D-03-0.992D-03 0.154D-02-0.251D-03-0.204D-02-0.233D-02
 Coeff-Com:  0.670D-02-0.505D-02-0.194D-01 0.235D-01 0.222D-01-0.777D-01
 Coeff-Com:  0.488D-02 0.110D+00 0.506D-01 0.698D-01-0.731D+00-0.447D-02
 Coeff-Com: -0.351D+00 0.191D+01
 Coeff:      0.171D-03-0.992D-03 0.154D-02-0.251D-03-0.204D-02-0.233D-02
 Coeff:      0.670D-02-0.505D-02-0.194D-01 0.235D-01 0.222D-01-0.777D-01
 Coeff:      0.488D-02 0.110D+00 0.506D-01 0.698D-01-0.731D+00-0.447D-02
 Coeff:     -0.351D+00 0.191D+01
 Gap=     0.110 Goal=   None    Shift=    0.300
 Gap=     0.119 Goal=   None    Shift=    0.300
 RMSDP=1.81D-08 MaxDP=2.65D-06 DE=-1.55D-11 OVMax= 3.65D-06

 Cycle  40  Pass 1  IDiag  1:
 RMSU=  1.25D-08    CP:  1.00D+00  3.00D+00  3.00D+00  3.00D+00  2.85D+00
                    CP:  3.00D+00  2.81D+00  3.00D+00  3.00D+00  3.00D+00
                    CP:  3.00D+00  2.74D+00  3.00D+00  3.00D+00  3.00D+00
                    CP:  3.00D+00  2.41D+00  1.97D+00  1.69D+00
 E= -1027.60787332579     Delta-E=        0.000000000019 Rises=F Damp=F
 DIIS: error= 1.11D-07 at cycle  40 NSaved=  20.
 NSaved=20 IEnMin=19 EnMin= -1027.60787332581     IErMin=20 ErrMin= 1.11D-07
 ErrMax= 1.11D-07  0.00D+00 EMaxC= 1.00D-01 BMatC= 6.92D-12 BMatP= 1.30D-11
 IDIUse=1 WtCom= 1.00D+00 WtEn= 0.00D+00
 Coeff-Com:  0.148D-03 0.469D-03-0.941D-03 0.238D-02-0.865D-02 0.734D-02
 Coeff-Com: -0.980D-03-0.110D-01 0.236D-01-0.423D-02-0.888D-01 0.563D-01
 Coeff-Com:  0.556D-01 0.665D-01 0.178D+00-0.528D+00-0.302D+00-0.258D+00
 Coeff-Com:  0.617D+00 0.120D+01
 Coeff:      0.148D-03 0.469D-03-0.941D-03 0.238D-02-0.865D-02 0.734D-02
 Coeff:     -0.980D-03-0.110D-01 0.236D-01-0.423D-02-0.888D-01 0.563D-01
 Coeff:      0.556D-01 0.665D-01 0.178D+00-0.528D+00-0.302D+00-0.258D+00
 Coeff:      0.617D+00 0.120D+01
 Gap=     0.110 Goal=   None    Shift=    0.300
 Gap=     0.119 Goal=   None    Shift=    0.300
 RMSDP=1.28D-08 MaxDP=1.91D-06 DE= 1.86D-11 OVMax= 2.57D-06

 Cycle  41  Pass 1  IDiag  1:
 Restarting incremental Fock formation.
 E= -1027.60787332591     Delta-E=       -0.000000000115 Rises=F Damp=F
 DIIS: error= 7.98D-08 at cycle  41 NSaved=  20.
 NSaved=20 IEnMin=20 EnMin= -1027.60787332591     IErMin=20 ErrMin= 7.98D-08
 ErrMax= 7.98D-08  0.00D+00 EMaxC= 1.00D-01 BMatC= 3.67D-12 BMatP= 6.92D-12
 IDIUse=1 WtCom= 1.00D+00 WtEn= 0.00D+00
 Coeff-Com:  0.135D-02-0.103D-02 0.464D-02-0.152D-01 0.790D-02 0.362D-02
 Coeff-Com: -0.320D-02 0.195D-01-0.771D-02-0.905D-01 0.558D-01 0.542D-03
 Coeff-Com:  0.104D+00 0.172D+00-0.192D+00-0.444D+00-0.129D+00-0.402D+00
 Coeff-Com:  0.975D+00 0.940D+00
 Coeff:      0.135D-02-0.103D-02 0.464D-02-0.152D-01 0.790D-02 0.362D-02
 Coeff:     -0.320D-02 0.195D-01-0.771D-02-0.905D-01 0.558D-01 0.542D-03
 Coeff:      0.104D+00 0.172D+00-0.192D+00-0.444D+00-0.129D+00-0.402D+00
 Coeff:      0.975D+00 0.940D+00
 Gap=     0.110 Goal=   None    Shift=    0.300
 Gap=     0.119 Goal=   None    Shift=    0.300
 RMSDP=9.06D-09 MaxDP=1.35D-06 DE=-1.15D-10 OVMax= 1.79D-06

 Cycle  42  Pass 1  IDiag  1:
 RMSU=  9.05D-09    CP:  1.00D+00
 E= -1027.60787332582     Delta-E=        0.000000000090 Rises=F Damp=F
 DIIS: error= 5.77D-08 at cycle  42 NSaved=  20.
 NSaved=20 IEnMin=19 EnMin= -1027.60787332591     IErMin=20 ErrMin= 5.77D-08
 ErrMax= 5.77D-08  0.00D+00 EMaxC= 1.00D-01 BMatC= 1.79D-12 BMatP= 3.67D-12
 IDIUse=1 WtCom= 1.00D+00 WtEn= 0.00D+00
 Coeff-Com: -0.118D-04 0.244D-02-0.683D-02 0.253D-02 0.632D-02 0.671D-03
 Coeff-Com: -0.705D-02-0.107D-01 0.295D-02 0.210D-01-0.322D-01 0.119D-01
 Coeff-Com: -0.354D-01 0.158D+00-0.586D-01 0.125D+00-0.704D+00-0.214D+00
 Coeff-Com:  0.724D-01 0.167D+01
 Coeff:     -0.118D-04 0.244D-02-0.683D-02 0.253D-02 0.632D-02 0.671D-03
 Coeff:     -0.705D-02-0.107D-01 0.295D-02 0.210D-01-0.322D-01 0.119D-01
 Coeff:     -0.354D-01 0.158D+00-0.586D-01 0.125D+00-0.704D+00-0.214D+00
 Coeff:      0.724D-01 0.167D+01
 Gap=     0.110 Goal=   None    Shift=    0.300
 Gap=     0.119 Goal=   None    Shift=    0.300
 RMSDP=6.60D-09 MaxDP=9.83D-07 DE= 9.00D-11 OVMax= 1.27D-06

 SCF Done:  E(UPBE1PBE) =  -1027.60787333     A.U. after   42 cycles
            NFock= 42  Conv=0.66D-08     -V/T= 2.2913
 <Sx>= 0.0000 <Sy>= 0.0000 <Sz>= 0.5000 <S**2>= 0.7617 S= 0.5058
 <L.S>= 0.000000000000E+00
 KE= 7.958033900399D+02 PE=-4.937452020339D+03 EE= 1.808124658065D+03
 Annihilation of the first spin contaminant:
 S**2 before annihilation     0.7617,   after     0.7501
 Leave Link  502 at Fri Sep 11 22:54:55 2026, MaxMem=  6442450944 cpu:             543.0 elap:             542.5
 (Enter C:\G16W\l508.exe)
 QCSCF skips out because SCF is already converged.
 Leave Link  508 at Fri Sep 11 22:54:56 2026, MaxMem=  6442450944 cpu:               1.0 elap:               0.8
 (Enter C:\G16W\l601.exe)
 Copying SCF densities to generalized density rwf, IOpCl= 1 IROHF=0.

 **********************************************************************

            Population analysis using the SCF Density.

 **********************************************************************

 Alpha  occ. eigenvalues --  -19.30193 -19.30193 -19.30192 -19.29415 -19.29415
 Alpha  occ. eigenvalues --  -19.29415 -19.28615 -19.28615 -19.28612  -3.88904
 Alpha  occ. eigenvalues --   -2.77498  -2.77481  -2.77480  -2.47276  -2.46844
 Alpha  occ. eigenvalues --   -2.46844  -1.77725  -1.77702  -1.77702  -1.76921
 Alpha  occ. eigenvalues --   -1.76697  -1.76696  -1.74914  -1.74914  -1.74766
 Alpha  occ. eigenvalues --   -0.99059  -0.98935  -0.98935  -0.97945  -0.97889
 Alpha  occ. eigenvalues --   -0.97889  -0.96648  -0.95977  -0.95977  -0.50462
 Alpha  occ. eigenvalues --   -0.50021  -0.49949  -0.49949  -0.49159  -0.49159
 Alpha  occ. eigenvalues --   -0.47679  -0.47679  -0.47609  -0.47127  -0.47127
 Alpha  occ. eigenvalues --   -0.46265  -0.46265  -0.45597  -0.45403  -0.45403
 Alpha  occ. eigenvalues --   -0.45280  -0.45280  -0.44689  -0.43559  -0.41454
 Alpha  occ. eigenvalues --   -0.41454  -0.41297  -0.39877  -0.38785  -0.38194
 Alpha  occ. eigenvalues --   -0.38194  -0.37910  -0.37910  -0.36225  -0.35558
 Alpha  occ. eigenvalues --   -0.35558  -0.29754
 Alpha virt. eigenvalues --   -0.18727  -0.14487  -0.13818  -0.13760  -0.13760
 Alpha virt. eigenvalues --   -0.12364  -0.12364  -0.12171  -0.12171  -0.09950
 Alpha virt. eigenvalues --   -0.09419  -0.06383  -0.06028  -0.06027  -0.04928
 Alpha virt. eigenvalues --   -0.04928  -0.01538  -0.01538   0.04260   0.04883
 Alpha virt. eigenvalues --    0.04883   0.05764   0.07119   0.07480   0.07480
 Alpha virt. eigenvalues --    0.09587   0.09587   0.10833   0.10933   0.10933
 Alpha virt. eigenvalues --    0.13440   0.17697   0.17697   0.18494   0.20908
 Alpha virt. eigenvalues --    0.25323   0.25323   0.26045   0.29422   0.29422
 Alpha virt. eigenvalues --    0.31886   0.31886   0.32079   0.33011   0.33011
 Alpha virt. eigenvalues --    0.35326   0.37198   0.37198   0.37923   0.39684
 Alpha virt. eigenvalues --    0.39684   0.41625   0.41626   0.42773   0.47544
 Alpha virt. eigenvalues --    0.48604   0.48840   0.48840   0.52971   0.53135
 Alpha virt. eigenvalues --    0.53135   0.54440   0.54440   0.61858   0.71084
 Alpha virt. eigenvalues --    0.71084   0.91915   0.95551   0.95552   0.96620
 Alpha virt. eigenvalues --    0.98392   0.98392   0.99235   0.99235   0.99584
 Alpha virt. eigenvalues --    1.01724   1.02022   1.02022   1.02781   1.06855
 Alpha virt. eigenvalues --    1.06855   1.07787   1.11378   1.11378   1.12023
 Alpha virt. eigenvalues --    1.14019   1.14742   1.14742   1.19000   1.21012
 Alpha virt. eigenvalues --    1.21013   1.23856   1.23856   1.24895   1.24895
 Alpha virt. eigenvalues --    1.26039   1.27304   1.28198   1.28198   1.28619
 Alpha virt. eigenvalues --    1.28619   1.28619   1.29869   1.31334   1.31334
 Alpha virt. eigenvalues --    1.39690   1.44373   1.44373   1.45895   1.47689
 Alpha virt. eigenvalues --    1.47689   1.50556   1.50556   1.50909   1.54601
 Alpha virt. eigenvalues --    1.54601   1.56116   1.57000   1.57000   1.57368
 Alpha virt. eigenvalues --    1.65645   1.67610   1.67610   1.74029   1.75438
 Alpha virt. eigenvalues --    1.75438   2.10506   2.48327   2.48578   2.48739
 Alpha virt. eigenvalues --    2.48740   2.49059   2.49069   2.49070   2.55620
 Alpha virt. eigenvalues --    2.55932   2.55932   2.58359   2.59002   2.59133
 Alpha virt. eigenvalues --    2.59133   2.60351   2.60351   2.60416   2.61287
 Alpha virt. eigenvalues --    2.61287   2.62749   2.62749   2.62804   2.63738
 Alpha virt. eigenvalues --    2.63738   2.64438   2.66728   2.66912   2.66912
 Alpha virt. eigenvalues --    2.70239   2.70569   2.70569   2.74896   2.74896
 Alpha virt. eigenvalues --    2.75245   2.77143   2.77143   2.77491   2.77491
 Alpha virt. eigenvalues --    2.77948   2.79109   2.79109   2.79359   2.81470
 Alpha virt. eigenvalues --    2.81538   2.81538   2.81931   2.86817   2.86818
 Alpha virt. eigenvalues --    2.87208   3.14628   3.20741   3.20741  39.34710
 Alpha virt. eigenvalues --   39.41886  39.41886  53.79178
  Beta  occ. eigenvalues --  -19.30212 -19.30212 -19.30212 -19.29308 -19.29308
  Beta  occ. eigenvalues --  -19.29308 -19.28244 -19.28244 -19.28240  -3.88818
  Beta  occ. eigenvalues --   -2.77315  -2.77299  -2.77299  -2.47124  -2.46836
  Beta  occ. eigenvalues --   -2.46836  -1.77677  -1.77656  -1.77656  -1.76547
  Beta  occ. eigenvalues --   -1.76340  -1.76340  -1.74689  -1.74689  -1.74549
  Beta  occ. eigenvalues --   -0.99008  -0.98918  -0.98918  -0.97692  -0.97636
  Beta  occ. eigenvalues --   -0.97635  -0.95708  -0.95011  -0.95011  -0.49967
  Beta  occ. eigenvalues --   -0.49813  -0.49813  -0.49555  -0.48847  -0.48847
  Beta  occ. eigenvalues --   -0.47449  -0.47449  -0.47119  -0.46853  -0.46853
  Beta  occ. eigenvalues --   -0.45876  -0.45875  -0.45617  -0.45176  -0.45175
  Beta  occ. eigenvalues --   -0.44937  -0.44937  -0.43937  -0.43626  -0.40973
  Beta  occ. eigenvalues --   -0.40973  -0.39718  -0.39652  -0.38494  -0.37850
  Beta  occ. eigenvalues --   -0.37850  -0.36975  -0.36975  -0.35700  -0.34887
  Beta  occ. eigenvalues --   -0.34887
  Beta virt. eigenvalues --   -0.22977  -0.17602  -0.14637  -0.13826  -0.12612
  Beta virt. eigenvalues --   -0.12612  -0.12140  -0.12140  -0.11664  -0.11664
  Beta virt. eigenvalues --   -0.09419  -0.08668  -0.05924  -0.05458  -0.05458
  Beta virt. eigenvalues --   -0.04639  -0.04639  -0.01188  -0.01188   0.04586
  Beta virt. eigenvalues --    0.05045   0.05045   0.05887   0.07559   0.07559
  Beta virt. eigenvalues --    0.07669   0.09818   0.09818   0.10858   0.11144
  Beta virt. eigenvalues --    0.11144   0.13740   0.18013   0.18013   0.18851
  Beta virt. eigenvalues --    0.21562   0.25851   0.25852   0.26495   0.29747
  Beta virt. eigenvalues --    0.29747   0.32134   0.32134   0.32410   0.33169
  Beta virt. eigenvalues --    0.33169   0.35392   0.37326   0.37326   0.37932
  Beta virt. eigenvalues --    0.39848   0.39848   0.41825   0.41826   0.42947
  Beta virt. eigenvalues --    0.48060   0.48657   0.49238   0.49239   0.53530
  Beta virt. eigenvalues --    0.53530   0.53671   0.54780   0.54781   0.62506
  Beta virt. eigenvalues --    0.71503   0.71503   0.92052   0.95860   0.95860
  Beta virt. eigenvalues --    0.96953   0.98738   0.98738   0.99366   0.99366
  Beta virt. eigenvalues --    0.99850   1.02014   1.02152   1.02152   1.02887
  Beta virt. eigenvalues --    1.07037   1.07037   1.07734   1.11774   1.11774
  Beta virt. eigenvalues --    1.12269   1.14987   1.15125   1.15125   1.19159
  Beta virt. eigenvalues --    1.21228   1.21228   1.24191   1.24191   1.25052
  Beta virt. eigenvalues --    1.25052   1.26245   1.27452   1.28179   1.28179
  Beta virt. eigenvalues --    1.28579   1.28771   1.28771   1.29935   1.31479
  Beta virt. eigenvalues --    1.31479   1.39886   1.44563   1.44563   1.46249
  Beta virt. eigenvalues --    1.48002   1.48003   1.50877   1.50877   1.51269
  Beta virt. eigenvalues --    1.54762   1.54762   1.56440   1.57118   1.57118
  Beta virt. eigenvalues --    1.57509   1.65832   1.67865   1.67865   1.74295
  Beta virt. eigenvalues --    1.75769   1.75769   2.10903   2.48394   2.48674
  Beta virt. eigenvalues --    2.48771   2.48773   2.49094   2.49096   2.49144
  Beta virt. eigenvalues --    2.55627   2.56022   2.56022   2.58400   2.59218
  Beta virt. eigenvalues --    2.59218   2.59296   2.60470   2.60650   2.60650
  Beta virt. eigenvalues --    2.61372   2.61372   2.63579   2.63579   2.63798
  Beta virt. eigenvalues --    2.64622   2.64622   2.65437   2.66976   2.67222
  Beta virt. eigenvalues --    2.67222   2.70563   2.70877   2.70877   2.75050
  Beta virt. eigenvalues --    2.75050   2.75347   2.77395   2.77395   2.78015
  Beta virt. eigenvalues --    2.78015   2.78195   2.79455   2.79479   2.79479
  Beta virt. eigenvalues --    2.81638   2.81707   2.81707   2.82771   2.87036
  Beta virt. eigenvalues --    2.87036   2.87408   3.14803   3.20921   3.20921
  Beta virt. eigenvalues --   39.34761  39.41936  39.41936  53.79251
          Condensed to atoms (all electrons):
               1          2          3          4          5          6
     1  Mo  11.647514   0.396834   0.388159   0.246343   0.033910  -0.001527
     2  O    0.396834   7.918192   0.004202  -0.000505  -0.001528   0.000000
     3  O    0.388159   0.004202   7.933440   0.000628  -0.002395   0.000000
     4  O    0.246343  -0.000505   0.000628   8.040759   0.246344  -0.000505
     5  Mo   0.033910  -0.001528  -0.002395   0.246344  11.647589   0.396833
     6  O   -0.001527   0.000000   0.000000  -0.000505   0.396833   7.918194
     7  O   -0.002395   0.000000   0.000000   0.000628   0.388155   0.004203
     8  O   -0.001634   0.000000   0.000000   0.000066   0.246340  -0.000505
     9  Mo   0.033910  -0.001528  -0.002395  -0.001633   0.033938  -0.001527
    10  O   -0.001527   0.000000   0.000000   0.000000  -0.001527   0.000000
    11  O   -0.002395   0.000000   0.000000   0.000000  -0.002395   0.000000
    12  O    0.246343  -0.000505   0.000628   0.000067  -0.001633   0.000000
    13  Ag   0.006861   0.012079   0.002034  -0.001968   0.006876   0.012078
               7          8          9         10         11         12
     1  Mo  -0.002395  -0.001634   0.033910  -0.001527  -0.002395   0.246343
     2  O    0.000000   0.000000  -0.001528   0.000000   0.000000  -0.000505
     3  O    0.000000   0.000000  -0.002395   0.000000   0.000000   0.000628
     4  O    0.000628   0.000066  -0.001633   0.000000   0.000000   0.000067
     5  Mo   0.388155   0.246340   0.033938  -0.001527  -0.002395  -0.001633
     6  O    0.004203  -0.000505  -0.001527   0.000000   0.000000   0.000000
     7  O    7.933451   0.000628  -0.002395   0.000000   0.000000   0.000000
     8  O    0.000628   8.040745   0.246340  -0.000505   0.000628   0.000066
     9  Mo  -0.002395   0.246340  11.647589   0.396833   0.388155   0.246344
    10  O    0.000000  -0.000505   0.396833   7.918194   0.004203  -0.000505
    11  O    0.000000   0.000628   0.388155   0.004203   7.933451   0.000628
    12  O    0.000000   0.000066   0.246344  -0.000505   0.000628   8.040759
    13  Ag   0.002034  -0.001969   0.006876   0.012078   0.002034  -0.001968
              13
     1  Mo   0.006861
     2  O    0.012079
     3  O    0.002034
     4  O   -0.001968
     5  Mo   0.006876
     6  O    0.012078
     7  O    0.002034
     8  O   -0.001969
     9  Mo   0.006876
    10  O    0.012078
    11  O    0.002034
    12  O   -0.001968
    13  Ag  18.426245
          Atomic-Atomic Spin Densities.
               1          2          3          4          5          6
     1  Mo   0.083216   0.000689  -0.007714  -0.012018   0.028419  -0.000335
     2  O    0.000689  -0.010117   0.000943   0.000189  -0.000336   0.000000
     3  O   -0.007714   0.000943   0.044723   0.000323  -0.000721   0.000000
     4  O   -0.012018   0.000189   0.000323   0.154730  -0.012024   0.000189
     5  Mo   0.028419  -0.000336  -0.000721  -0.012024   0.083247   0.000690
     6  O   -0.000335   0.000000   0.000000   0.000189   0.000690  -0.010120
     7  O   -0.000720   0.000000   0.000000   0.000323  -0.007715   0.000943
     8  O   -0.004616   0.000000   0.000000   0.000118  -0.012026   0.000189
     9  Mo   0.028419  -0.000336  -0.000721  -0.004616   0.028431  -0.000336
    10  O   -0.000335   0.000000   0.000000   0.000000  -0.000336   0.000000
    11  O   -0.000720   0.000000   0.000000   0.000000  -0.000720   0.000000
    12  O   -0.012018   0.000189   0.000323   0.000118  -0.004616   0.000000
    13  Ag   0.022276   0.000808   0.000802  -0.003570   0.022280   0.000808
               7          8          9         10         11         12
     1  Mo  -0.000720  -0.004616   0.028419  -0.000335  -0.000720  -0.012018
     2  O    0.000000   0.000000  -0.000336   0.000000   0.000000   0.000189
     3  O    0.000000   0.000000  -0.000721   0.000000   0.000000   0.000323
     4  O    0.000323   0.000118  -0.004616   0.000000   0.000000   0.000118
     5  Mo  -0.007715  -0.012026   0.028431  -0.000336  -0.000720  -0.004616
     6  O    0.000943   0.000189  -0.000336   0.000000   0.000000   0.000000
     7  O    0.044727   0.000323  -0.000720   0.000000   0.000000   0.000000
     8  O    0.000323   0.154763  -0.012026   0.000189   0.000323   0.000118
     9  Mo  -0.000720  -0.012026   0.083247   0.000690  -0.007715  -0.012024
    10  O    0.000000   0.000189   0.000690  -0.010120   0.000943   0.000189
    11  O    0.000000   0.000323  -0.007715   0.000943   0.044727   0.000323
    12  O    0.000000   0.000118  -0.012024   0.000189   0.000323   0.154730
    13  Ag   0.000801  -0.003570   0.022280   0.000808   0.000801  -0.003570
              13
     1  Mo   0.022276
     2  O    0.000808
     3  O    0.000802
     4  O   -0.003570
     5  Mo   0.022280
     6  O    0.000808
     7  O    0.000801
     8  O   -0.003570
     9  Mo   0.022280
    10  O    0.000808
    11  O    0.000801
    12  O   -0.003570
    13  Ag   0.104077
 Mulliken charges and spin densities:
               1          2
     1  Mo   1.009604   0.124542
     2  O   -0.327244  -0.007970
     3  O   -0.324300   0.037958
     4  O   -0.530224   0.123763
     5  Mo   1.009492   0.124573
     6  O   -0.327243  -0.007971
     7  O   -0.324309   0.037962
     8  O   -0.530201   0.123786
     9  Mo   1.009492   0.124573
    10  O   -0.327243  -0.007971
    11  O   -0.324309   0.037962
    12  O   -0.530224   0.123763
    13  Ag   0.516711   0.165030
 Sum of Mulliken charges =   0.00000   1.00000
 Mulliken charges and spin densities with hydrogens summed into heavy atoms:
               1          2
     1  Mo   1.009604   0.124542
     2  O   -0.327244  -0.007970
     3  O   -0.324300   0.037958
     4  O   -0.530224   0.123763
     5  Mo   1.009492   0.124573
     6  O   -0.327243  -0.007971
     7  O   -0.324309   0.037962
     8  O   -0.530201   0.123786
     9  Mo   1.009492   0.124573
    10  O   -0.327243  -0.007971
    11  O   -0.324309   0.037962
    12  O   -0.530224   0.123763
    13  Ag   0.516711   0.165030
 Electronic spatial extent (au):  <R**2>=           3613.6225
 Charge=              0.0000 electrons
 Dipole moment (field-independent basis, Debye):
    X=              0.0001    Y=              0.0000    Z=              4.8623  Tot=              4.8623
 Quadrupole moment (field-independent basis, Debye-Ang):
   XX=           -153.6623   YY=           -153.6627   ZZ=           -124.4222
   XY=              0.0000   XZ=              0.0000   YZ=              0.0000
 Traceless Quadrupole moment (field-independent basis, Debye-Ang):
   XX=             -9.7465   YY=             -9.7470   ZZ=             19.4935
   XY=              0.0000   XZ=              0.0000   YZ=              0.0000
 Octapole moment (field-independent basis, Debye-Ang**2):
  XXX=            -12.8440  YYY=              0.0000  ZZZ=            -71.5220  XYY=             12.8441
  XXY=              0.0000  XXZ=            -42.4383  XZZ=              0.0002  YZZ=              0.0000
  YYZ=            -42.4381  XYZ=              0.0000
 Hexadecapole moment (field-independent basis, Debye-Ang**3):
 XXXX=          -2223.2411 YYYY=          -2223.2459 ZZZZ=           -926.6402 XXXY=              0.0000
 XXXZ=             -2.0452 YYYX=              0.0000 YYYZ=              0.0000 ZZZX=              0.0003
 ZZZY=              0.0000 XXYY=           -741.0821 XXZZ=           -581.5557 YYZZ=           -581.5561
 XXYZ=              0.0000 YYXZ=              2.0452 ZZXY=              0.0000
 N-N= 1.305916098907D+03 E-N=-4.937452021448D+03  KE= 7.958033900399D+02
                          Isotropic Fermi Contact Couplings
        Atom                 a.u.       MegaHertz       Gauss      10(-4) cm-1
     1  Mo(95)             0.00000       0.00037       0.00013       0.00012
     2  O(17)              0.00114      -0.69031      -0.24632      -0.23026
     3  O(17)              0.01070      -6.48809      -2.31511      -2.16419
     4  O(17)              0.03031     -18.37394      -6.55628      -6.12889
     5  Mo(95)             0.00000       0.00037       0.00013       0.00012
     6  O(17)              0.00114      -0.68990      -0.24617      -0.23013
     7  O(17)              0.01070      -6.48903      -2.31545      -2.16451
     8  O(17)              0.03032     -18.37776      -6.55764      -6.13016
     9  Mo(95)             0.00000       0.00037       0.00013       0.00012
    10  O(17)              0.00114      -0.68990      -0.24617      -0.23013
    11  O(17)              0.01070      -6.48903      -2.31545      -2.16451
    12  O(17)              0.03031     -18.37394      -6.55628      -6.12889
    13  Ag(107             0.00012      -0.02177      -0.00777      -0.00726
 --------------------------------------------------------
       Center         ----  Spin Dipole Couplings  ----
                      3XX-RR        3YY-RR        3ZZ-RR
 --------------------------------------------------------
     1   Atom        0.027283     -0.002390     -0.024893
     2   Atom        0.001427     -0.020993      0.019566
     3   Atom       -0.067970     -0.152976      0.220946
     4   Atom       -0.108913      0.244518     -0.135605
     5   Atom        0.005028      0.019867     -0.024895
     6   Atom       -0.015397     -0.004180      0.019577
     7   Atom       -0.131739     -0.089230      0.220969
     8   Atom        0.421325     -0.285683     -0.135643
     9   Atom        0.005028      0.019867     -0.024895
    10   Atom       -0.015397     -0.004180      0.019577
    11   Atom       -0.131739     -0.089230      0.220969
    12   Atom       -0.108913      0.244518     -0.135605
    13   Atom       -0.028071     -0.028070      0.056141
 --------------------------------------------------------
                        XY            XZ            YZ
 --------------------------------------------------------
     1   Atom        0.000000     -0.003957      0.000000
     2   Atom        0.000000      0.063765      0.000000
     3   Atom        0.000000      0.016590      0.000000
     4   Atom        0.306093     -0.146520     -0.253770
     5   Atom       -0.012851      0.001979     -0.003427
     6   Atom       -0.009702     -0.031889      0.055235
     7   Atom       -0.036814     -0.008306      0.014371
     8   Atom        0.000000      0.293067      0.000000
     9   Atom        0.012851      0.001979      0.003427
    10   Atom        0.009702     -0.031889     -0.055235
    11   Atom        0.036814     -0.008306     -0.014371
    12   Atom       -0.306093     -0.146520      0.253770
    13   Atom        0.000000      0.000001      0.000000
 --------------------------------------------------------


 ---------------------------------------------------------------------------------
              Anisotropic Spin Dipole Couplings in Principal Axis System
 ---------------------------------------------------------------------------------

       Atom             a.u.   MegaHertz   Gauss  10(-4) cm-1        Axes

              Baa    -0.0252     0.880     0.314     0.294  0.0752  0.0000  0.9972
     1 Mo(95) Bbb    -0.0024     0.083     0.030     0.028  0.0000  1.0000  0.0000
              Bcc     0.0276    -0.963    -0.344    -0.321  0.9972  0.0000 -0.0752
 
              Baa    -0.0539     3.901     1.392     1.301  0.7553  0.0000 -0.6554
     2 O(17)  Bbb    -0.0210     1.519     0.542     0.507  0.0000  1.0000  0.0000
              Bcc     0.0749    -5.420    -1.934    -1.808  0.6554  0.0000  0.7553
 
              Baa    -0.1530    11.069     3.950     3.692  0.0000  1.0000  0.0000
     3 O(17)  Bbb    -0.0689     4.987     1.779     1.663  0.9984  0.0000 -0.0571
              Bcc     0.2219   -16.056    -5.729    -5.356  0.0571  0.0000  0.9984
 
              Baa    -0.2856    20.669     7.375     6.894  0.8660 -0.5000  0.0001
     4 O(17)  Bbb    -0.2614    18.914     6.749     6.309  0.1972  0.3416  0.9189
              Bcc     0.5470   -39.583   -14.124   -13.203  0.4595  0.7958 -0.3945
 
              Baa    -0.0252     0.880     0.314     0.294 -0.0376  0.0651  0.9972
     5 Mo(95) Bbb    -0.0024     0.084     0.030     0.028  0.8660  0.5000  0.0000
              Bcc     0.0276    -0.964    -0.344    -0.321 -0.4986  0.8636 -0.0752
 
              Baa    -0.0539     3.902     1.392     1.302  0.3777 -0.6540  0.6554
     6 O(17)  Bbb    -0.0210     1.519     0.542     0.507  0.8660  0.5000 -0.0001
              Bcc     0.0749    -5.421    -1.934    -1.808 -0.3277  0.5676  0.7553
 
              Baa    -0.1530    11.071     3.950     3.693  0.8660  0.5000  0.0000
     7 O(17)  Bbb    -0.0689     4.987     1.780     1.664 -0.4992  0.8646 -0.0572
              Bcc     0.2219   -16.058    -5.730    -5.356 -0.0286  0.0495  0.9984
 
              Baa    -0.2857    20.672     7.376     6.895  0.0000  1.0000  0.0000
     8 O(17)  Bbb    -0.2614    18.917     6.750     6.310 -0.3944  0.0000  0.9189
              Bcc     0.5471   -39.589   -14.126   -13.206  0.9189  0.0000  0.3944
 
              Baa    -0.0252     0.880     0.314     0.294 -0.0376 -0.0651  0.9972
     9 Mo(95) Bbb    -0.0024     0.084     0.030     0.028  0.8660 -0.5000  0.0000
              Bcc     0.0276    -0.964    -0.344    -0.321  0.4986  0.8636  0.0752
 
              Baa    -0.0539     3.902     1.392     1.302  0.3777  0.6540  0.6554
    10 O(17)  Bbb    -0.0210     1.519     0.542     0.507  0.8660 -0.5000 -0.0001
              Bcc     0.0749    -5.421    -1.934    -1.808 -0.3277 -0.5676  0.7553
 
              Baa    -0.1530    11.071     3.950     3.693  0.8660 -0.5000  0.0000
    11 O(17)  Bbb    -0.0689     4.987     1.780     1.664  0.4992  0.8646  0.0572
              Bcc     0.2219   -16.058    -5.730    -5.356 -0.0286 -0.0495  0.9984
 
              Baa    -0.2856    20.669     7.375     6.894  0.8660  0.5000  0.0001
    12 O(17)  Bbb    -0.2614    18.914     6.749     6.309  0.1972 -0.3416  0.9189
              Bcc     0.5470   -39.583   -14.124   -13.203 -0.4595  0.7958  0.3945
 
              Baa    -0.0281     0.609     0.217     0.203  1.0000  0.0000  0.0000
    13 Ag(107 Bbb    -0.0281     0.609     0.217     0.203  0.0000  1.0000  0.0000
              Bcc     0.0561    -1.218    -0.435    -0.406  0.0000  0.0000  1.0000
 

 ---------------------------------------------------------------------------------

 No NMR shielding tensors so no spin-rotation constants.
 Leave Link  601 at Fri Sep 11 22:54:59 2026, MaxMem=  6442450944 cpu:               3.0 elap:               2.9
 (Enter C:\G16W\l9999.exe)
 Unable to Open any file for archive entry.
 1|1|UNPC-DESKTOP-2JKEGCA|SP|UPBE1PBE|def2SVP|Ag1Mo3O9(2)|JHKIM|11-Sep-
 2026|0||#P PBE1PBE/Def2SVP EmpiricalDispersion=GD3BJ SP SCF=(XQC,MaxCy
 cle=128,VShift=300) NoSymm||Mo3O9 t=0.000 dz=+0.00 class=site2site||0,
 2|Mo,0,2.,0.,0.|O,0,3.02,0.,1.36|O,0,3.02,0.,-1.36|O,0,1.15,1.991858,0
 .|Mo,0,-1.,1.732051,0.|O,0,-1.51,2.615397,1.36|O,0,-1.51,2.615397,-1.3
 6|O,0,-2.3,0.,0.|Mo,0,-1.,-1.732051,0.|O,0,-1.51,-2.615397,1.36|O,0,-1
 .51,-2.615397,-1.36|O,0,1.15,-1.991858,0.|Ag,0,0.,0.,2.3||Version=EM64
 W-G16RevC.01|HF=-1027.6078733|S2=0.761658|S2-1=0.|S2A=0.750112|RMSD=6.
 602e-009|Dipole=0.0000313,0.0000001,1.9129621|Quadrupole=-7.2463138,-7
 .2466305,14.4929444,-0.0000007,0.0000209,0.0000013|PG=C03V [C3(Ag1),3S
 GV(Mo1O3)]||@
 The archive entry for this job was punched.


 THE MOST BEAUTIFUL EXPERIENCE WE CAN HAVE IS THE MYSTERIOUS.
 IT IS THE FUNDAMENTAL EMOTION WHICH STANDS AT AT THE CRADLE 
 OF TRUE ART AND TRUE SCIENCE.

                                    -- ALBERT EINSTEIN
 Job cpu time:       0 days  0 hours  9 minutes 26.0 seconds.
 Elapsed time:       0 days  0 hours  9 minutes 24.2 seconds.
 File lengths (MBytes):  RWF=     63 Int=      0 D2E=      0 Chk=      5 Scr=      1
 Normal termination of Gaussian 16 at Fri Sep 11 22:55:01 2026.
