 Entering Gaussian System, Link 0=C:\G16W\g16.exe
 Input=Mo3O8_t1_z1.gjf
 Output=Mo3O8_t1_z1.out
 Initial command:
 C:\G16W\l1.exe ".\Gau-57212.inp" "Mo3O8_t1_z1.out" /scrdir=".\"
 Entering Link 1 = C:\G16W\l1.exe PID=     69056.
  
 Copyright (c) 1988-2019, Gaussian, Inc.  All Rights Reserved.
  
 This is part of the Gaussian(R) 16 program.  It is based on
 the Gaussian(R) 09 system (copyright 2009, Gaussian, Inc.),
 the Gaussian(R) 03 system (copyright 2003, Gaussian, Inc.),
 the Gaussian(R) 98 system (copyright 1998, Gaussian, Inc.),
 the Gaussian(R) 94 system (copyright 1995, Gaussian, Inc.),
 the Gaussian 92(TM) system (copyright 1992, Gaussian, Inc.),
 the Gaussian 90(TM) system (copyright 1990, Gaussian, Inc.),
 the Gaussian 88(TM) system (copyright 1988, Gaussian, Inc.),
 the Gaussian 86(TM) system (copyright 1986, Carnegie Mellon
 University), and the Gaussian 82(TM) system (copyright 1983,
 Carnegie Mellon University). Gaussian is a federally registered
 trademark of Gaussian, Inc.
  
 This software contains proprietary and confidential information,
 including trade secrets, belonging to Gaussian, Inc.
  
 This software is provided under written license and may be
 used, copied, transmitted, or stored only in accord with that
 written license.
  
 The following legend is applicable only to US Government
 contracts under FAR:
  
                    RESTRICTED RIGHTS LEGEND
  
 Use, reproduction and disclosure by the US Government is
 subject to restrictions as set forth in subparagraphs (a)
 and (c) of the Commercial Computer Software - Restricted
 Rights clause in FAR 52.227-19.
  
 Gaussian, Inc.
 340 Quinnipiac St., Bldg. 40, Wallingford CT 06492
  
  
 ---------------------------------------------------------------
 Warning -- This program may not be used in any manner that
 competes with the business of Gaussian, Inc. or will provide
 assistance to any competitor of Gaussian, Inc.  The licensee
 of this program is prohibited from giving any competitor of
 Gaussian, Inc. access to this program.  By using this program,
 the user acknowledges that Gaussian, Inc. is engaged in the
 business of creating and licensing software in the field of
 computational chemistry and represents and warrants to the
 licensee that it is not a competitor of Gaussian, Inc. and that
 it will not use this program in any manner prohibited above.
 ---------------------------------------------------------------
  

 Cite this work as:
 Gaussian 16, Revision C.01,
 M. J. Frisch, G. W. Trucks, H. B. Schlegel, G. E. Scuseria, 
 M. A. Robb, J. R. Cheeseman, G. Scalmani, V. Barone, 
 G. A. Petersson, H. Nakatsuji, X. Li, M. Caricato, A. V. Marenich, 
 J. Bloino, B. G. Janesko, R. Gomperts, B. Mennucci, H. P. Hratchian, 
 J. V. Ortiz, A. F. Izmaylov, J. L. Sonnenberg, D. Williams-Young, 
 F. Ding, F. Lipparini, F. Egidi, J. Goings, B. Peng, A. Petrone, 
 T. Henderson, D. Ranasinghe, V. G. Zakrzewski, J. Gao, N. Rega, 
 G. Zheng, W. Liang, M. Hada, M. Ehara, K. Toyota, R. Fukuda, 
 J. Hasegawa, M. Ishida, T. Nakajima, Y. Honda, O. Kitao, H. Nakai, 
 T. Vreven, K. Throssell, J. A. Montgomery, Jr., J. E. Peralta, 
 F. Ogliaro, M. J. Bearpark, J. J. Heyd, E. N. Brothers, K. N. Kudin, 
 V. N. Staroverov, T. A. Keith, R. Kobayashi, J. Normand, 
 K. Raghavachari, A. P. Rendell, J. C. Burant, S. S. Iyengar, 
 J. Tomasi, M. Cossi, J. M. Millam, M. Klene, C. Adamo, R. Cammi, 
 J. W. Ochterski, R. L. Martin, K. Morokuma, O. Farkas, 
 J. B. Foresman, and D. J. Fox, Gaussian, Inc., Wallingford CT, 2019.
 
 ******************************************
 Gaussian 16:  EM64W-G16RevC.01 30-May-2019
                11-Sep-2026 
 ******************************************
 %Chk=Mo3O8.chk
 %NProcShared=8
 Will use up to    8 processors via shared memory.
 %Mem=48GB
 ----------------------------------------------------------------------
 #P PBE1PBE/Def2SVP EmpiricalDispersion=GD3BJ SP SCF=(XQC,MaxCycle=128)
  NoSymm Guess=Read
 ----------------------------------------------------------------------
 1/38=1,172=1/1;
 2/12=2,15=1,17=6,18=5,40=1/2;
 3/5=43,7=101,11=2,25=1,30=1,74=-13,116=-2,124=41/1,2,3;
 4/5=1/1;
 5/5=2,7=128,8=3,13=1,38=6/2,8;
 6/7=2,8=2,9=2,10=2,28=1/1;
 99/5=1,9=1/99;
 Leave Link    1 at Fri Sep 11 23:22:03 2026, MaxMem=  6442450944 cpu:               0.0 elap:               0.1
 (Enter C:\G16W\l101.exe)
 --------------------------------------
 Mo3O8 t=0.250 dz=+0.40 class=site2site
 --------------------------------------
 Symbolic Z-matrix:
 Charge =  0 Multiplicity = 2
 Mo                    1.52706  -0.00003  -0.31475 
 O                     2.65451   0.00013  -1.48185 
 O                     0.93048   1.49303   0.25224 
 Mo                   -0.91681   1.55028  -0.05109 
 O                    -1.45906   1.91408   1.44577 
 O                    -1.21034   2.70691  -1.16791 
 O                    -1.71702  0.        -0.5099 
 Mo                   -0.91685  -1.55029  -0.05113 
 O                    -1.45895  -1.91398   1.44582 
 O                    -1.21056  -2.70697  -1.16784 
 O                     0.93045  -1.49316   0.25202 
 Ag                    2.12872   1.25609   2.80652 
 
 ITRead=  0  0  0  0  0  0  0  0  0  0  0  0
 MicOpt= -1 -1 -1 -1 -1 -1 -1 -1 -1 -1 -1 -1
 NAtoms=     12 NQM=       12 NQMF=       0 NMMI=      0 NMMIF=      0
                NMic=       0 NMicF=      0.
                    Isotopes and Nuclear Properties:
 (Nuclear quadrupole moments (NQMom) in fm**2, nuclear magnetic moments (NMagM)
  in nuclear magnetons)

  Atom         1           2           3           4           5           6           7           8           9          10
 IAtWgt=          98          16          16          98          16          16          16          98          16          16
 AtmWgt=  97.9055000  15.9949146  15.9949146  97.9055000  15.9949146  15.9949146  15.9949146  97.9055000  15.9949146  15.9949146
 NucSpn=           0           0           0           0           0           0           0           0           0           0
 AtZEff=   0.0000000   0.0000000   0.0000000   0.0000000   0.0000000   0.0000000   0.0000000   0.0000000   0.0000000   0.0000000
 NQMom=    0.0000000   0.0000000   0.0000000   0.0000000   0.0000000   0.0000000   0.0000000   0.0000000   0.0000000   0.0000000
 NMagM=    0.0000000   0.0000000   0.0000000   0.0000000   0.0000000   0.0000000   0.0000000   0.0000000   0.0000000   0.0000000
 AtZNuc=  42.0000000   8.0000000   8.0000000  42.0000000   8.0000000   8.0000000   8.0000000  42.0000000   8.0000000   8.0000000

  Atom        11          12
 IAtWgt=          16         107
 AtmWgt=  15.9949146 106.9050900
 NucSpn=           0           1
 AtZEff=   0.0000000   0.0000000
 NQMom=    0.0000000   0.0000000
 NMagM=    0.0000000  -0.1135700
 AtZNuc=   8.0000000  47.0000000
 Leave Link  101 at Fri Sep 11 23:22:03 2026, MaxMem=  6442450944 cpu:               0.0 elap:               0.2
 (Enter C:\G16W\l202.exe)
                          Input orientation:                          
 ---------------------------------------------------------------------
 Center     Atomic      Atomic             Coordinates (Angstroms)
 Number     Number       Type             X           Y           Z
 ---------------------------------------------------------------------
      1         42           0        1.527060   -0.000030   -0.314747
      2          8           0        2.654512    0.000128   -1.481849
      3          8           0        0.930476    1.493025    0.252244
      4         42           0       -0.916807    1.550282   -0.051090
      5          8           0       -1.459058    1.914083    1.445767
      6          8           0       -1.210342    2.706910   -1.167908
      7          8           0       -1.717020   -0.000002   -0.509898
      8         42           0       -0.916849   -1.550292   -0.051126
      9          8           0       -1.458945   -1.913975    1.445819
     10          8           0       -1.210558   -2.706971   -1.167843
     11          8           0        0.930452   -1.493159    0.252023
     12         47           0        2.128717    1.256090    2.806520
 ---------------------------------------------------------------------
                    Distance matrix (angstroms):
                    1          2          3          4          5
     1  Mo   0.000000
     2  O    1.622737   0.000000
     3  O    1.704877   2.864982   0.000000
     4  Mo   2.906109   4.147815   1.872897   0.000000
     5  O    3.959816   5.399594   2.704008   1.633085   0.000000
     6  O    3.943194   4.728882   2.841382   1.634391   2.742577
     7  O    3.249944   4.478279   3.133564   1.803947   2.748616
     8  Mo   2.906114   4.147938   3.573013   3.100574   3.812686
     9  O    3.959672   5.399589   4.329157   3.812575   3.828058
    10  O    3.943330   4.729244   4.923478   4.411080   5.314777
    11  O    1.704876   2.865066   2.986184   3.573063   4.329443
    12  Ag   3.417914   4.499334   2.831297   4.186610   3.893165
                    6          7          8          9         10
     6  O    0.000000
     7  O    2.831444   0.000000
     8  Mo   4.411021   1.803925   0.000000
     9  O    5.314692   2.748586   1.633088   0.000000
    10  O    5.413881   2.831444   1.634389   2.742584   0.000000
    11  O    4.923391   3.133552   1.872881   2.703970   2.841352
    12  Ag   5.389830   5.231261   5.031639   4.977161   6.530863
                   11         12
    11  O    0.000000
    12  Ag   3.939500   0.000000
 Symmetry turned off by external request.
 Stoichiometry    AgMo3O8(2)
 Framework group  C1[X(AgMo3O8)]
 Deg. of freedom    30
 Full point group                 C1      NOp   1
 Rotational constants (GHZ):           0.3774629           0.2277058           0.1984441
 Leave Link  202 at Fri Sep 11 23:22:03 2026, MaxMem=  6442450944 cpu:               0.0 elap:               0.1
 (Enter C:\G16W\l301.exe)
 Standard basis: def2SVP (5D, 7F)
 Ernie: Thresh=  0.10000D-02 Tol=  0.10000D-05 Strict=F.
   236 basis functions,   460 primitive gaussians,   264 cartesian basis functions
    63 alpha electrons       62 beta electrons
       nuclear repulsion energy      1202.2914440108 Hartrees.
 IExCor= 1009 DFT=T Ex+Corr=PBE1PBE ExCW=0 ScaHFX=  0.250000
 ScaDFX=  0.750000  0.750000  1.000000  1.000000 ScalE2=  1.000000  1.000000
 IRadAn=      5 IRanWt=     -1 IRanGd=            0 ICorTp=0 IEmpDi=141
 NAtoms=   12 NActive=   12 NUniq=   12 SFac= 1.00D+00 NAtFMM=   60 NAOKFM=F Big=F
 Integral buffers will be    131072 words long.
 Raffenetti 2 integral format.
 Two-electron integral symmetry is turned off.
 R6Disp:  Grimme-D3(BJ) Dispersion energy=       -0.0260051623 Hartrees.
 Nuclear repulsion after empirical dispersion term =     1202.2654388485 Hartrees.
 Leave Link  301 at Fri Sep 11 23:22:04 2026, MaxMem=  6442450944 cpu:               1.0 elap:               0.2
 (Enter C:\G16W\l302.exe)
 NPDir=0 NMtPBC=     1 NCelOv=     1 NCel=       1 NClECP=     1 NCelD=      1
         NCelK=      1 NCelE2=     1 NClLst=     1 CellRange=     0.0.
 One-electron integrals computed using PRISM.
   1 Symmetry operations used in ECPInt.
 ECPInt:  NShTT=    4278 NPrTT=   15042 LenC2=    4109 LenP2D=   11498.
 LDataN:  DoStor=T MaxTD1= 7 Len=  274
 NBasis=   236 RedAO= T EigKep=  1.51D-03  NBF=   236
 NBsUse=   236 1.00D-06 EigRej= -1.00D+00 NBFU=   236
 Precomputing XC quadrature grid using
 IXCGrd= 4 IRadAn=           5 IRanWt=          -1 IRanGd=           0 AccXCQ= 0.00D+00.
 Defaulting to unpruned grid for atomic number  42.
 Defaulting to unpruned grid for atomic number  42.
 Defaulting to unpruned grid for atomic number  42.
 Defaulting to unpruned grid for atomic number  47.
 Generated NRdTot=       0 NPtTot=           0 NUsed=           0 NTot=          32
 NSgBfM=   263   263   263   263   263 MxSgAt=    12 MxSgA2=    12.
 Leave Link  302 at Fri Sep 11 23:22:10 2026, MaxMem=  6442450944 cpu:               6.0 elap:               5.9
 (Enter C:\G16W\l303.exe)
 DipDrv:  MaxL=1.
 Leave Link  303 at Fri Sep 11 23:22:10 2026, MaxMem=  6442450944 cpu:               0.0 elap:               0.2
 (Enter C:\G16W\l401.exe)
 Initial guess from the checkpoint file:  "Mo3O8.chk"
 B after Tr=     0.066226    0.041464    0.124466
         Rot=    0.999960   -0.002486    0.008558   -0.000448 Ang=  -1.02 deg.
 Guess basis will be translated and rotated to current coordinates.
 JPrj=2 DoOrth=T DoCkMO=T.
 Initial guess <Sx>= 0.0000 <Sy>= 0.0000 <Sz>= 0.5000 <S**2>= 0.7728 S= 0.5113
 Leave Link  401 at Fri Sep 11 23:22:20 2026, MaxMem=  6442450944 cpu:              10.0 elap:               9.5
 (Enter C:\G16W\l502.exe)
 Keep R1 and R2 ints in memory in canonical form, NReq=791430846.
 FoFCou: FMM=F IPFlag=           0 FMFlag=           0 FMFlg1=           0
         NFxFlg=           0 DoJE=F BraDBF=F KetDBF=F FulRan=T
         wScrn=  0.000000 ICntrl=       600 IOpCl=  0 I1Cent=           0 NGrid=           0
         NMat0=    1 NMatS0=  27966 NMatT0=    0 NMatD0=    1 NMtDS0=    0 NMtDT0=    0
 Symmetry not used in FoFCou.
 Two-electron integral symmetry not used.
 UHF open shell SCF:
 Using DIIS extrapolation, IDIIS=  1040.
 NGot=  6442450944 LenX=  5660182136 LenY=  5660111999
 Requested convergence on RMS density matrix=1.00D-08 within 128 cycles.
 Requested convergence on MAX density matrix=1.00D-06.
 Requested convergence on             energy=1.00D-06.
 No special actions if energy rises.

 Cycle   1  Pass 1  IDiag  1:
 Defaulting to unpruned grid for atomic number  42.
 Defaulting to unpruned grid for atomic number  42.
 Defaulting to unpruned grid for atomic number  42.
 Defaulting to unpruned grid for atomic number  42.
 Defaulting to unpruned grid for atomic number  42.
 Defaulting to unpruned grid for atomic number  42.
 Defaulting to unpruned grid for atomic number  42.
 Defaulting to unpruned grid for atomic number  42.
 E= -952.521859089294    
 DIIS: error= 5.82D-03 at cycle   1 NSaved=   1.
 NSaved= 1 IEnMin= 1 EnMin= -952.521859089294     IErMin= 1 ErrMin= 5.82D-03
 ErrMax= 5.82D-03  0.00D+00 EMaxC= 1.00D-01 BMatC= 8.12D-02 BMatP= 8.12D-02
 IDIUse=3 WtCom= 9.42D-01 WtEn= 5.82D-02
 Coeff-Com:  0.100D+01
 Coeff-En:   0.100D+01
 Coeff:      0.100D+01
 Gap=     0.075 Goal=   None    Shift=    0.000
 Gap=     0.118 Goal=   None    Shift=    0.000
 GapD=    0.075 DampG=0.500 DampE=1.000 DampFc=0.5000 IDamp=-1.
 Damping current iteration by 5.00D-01
 RMSDP=9.66D-04 MaxDP=3.80D-02              OVMax= 7.74D-02

 Cycle   2  Pass 1  IDiag  1:
 E= -952.524571448097     Delta-E=       -0.002712358802 Rises=F Damp=T
 DIIS: error= 2.88D-03 at cycle   2 NSaved=   2.
 NSaved= 2 IEnMin= 2 EnMin= -952.524571448097     IErMin= 2 ErrMin= 2.88D-03
 ErrMax= 2.88D-03  0.00D+00 EMaxC= 1.00D-01 BMatC= 2.19D-02 BMatP= 8.12D-02
 IDIUse=3 WtCom= 9.71D-01 WtEn= 2.88D-02
 Coeff-Com: -0.721D+00 0.172D+01
 Coeff-En:   0.000D+00 0.100D+01
 Coeff:     -0.700D+00 0.170D+01
 Gap=     0.048 Goal=   None    Shift=    0.000
 Gap=     0.079 Goal=   None    Shift=    0.000
 RMSDP=7.09D-04 MaxDP=3.55D-02 DE=-2.71D-03 OVMax= 5.63D-02

 Cycle   3  Pass 1  IDiag  1:
 E= -952.515141205519     Delta-E=        0.009430242578 Rises=F Damp=F
 DIIS: error= 4.33D-03 at cycle   3 NSaved=   3.
 NSaved= 3 IEnMin= 2 EnMin= -952.524571448097     IErMin= 2 ErrMin= 2.88D-03
 ErrMax= 4.33D-03  0.00D+00 EMaxC= 1.00D-01 BMatC= 6.52D-02 BMatP= 2.19D-02
 IDIUse=3 WtCom= 1.32D-01 WtEn= 8.68D-01
 Coeff-Com: -0.703D+00 0.142D+01 0.285D+00
 Coeff-En:   0.000D+00 0.870D+00 0.130D+00
 Coeff:     -0.927D-01 0.942D+00 0.150D+00
 Gap=     0.036 Goal=   None    Shift=    0.000
 Gap=     0.074 Goal=   None    Shift=    0.000
 RMSDP=5.28D-04 MaxDP=3.31D-02 DE= 9.43D-03 OVMax= 4.87D-02

 Cycle   4  Pass 1  IDiag  1:
 E= -952.528486734807     Delta-E=       -0.013345529288 Rises=F Damp=F
 DIIS: error= 5.52D-04 at cycle   4 NSaved=   4.
 NSaved= 4 IEnMin= 4 EnMin= -952.528486734807     IErMin= 4 ErrMin= 5.52D-04
 ErrMax= 5.52D-04  0.00D+00 EMaxC= 1.00D-01 BMatC= 6.25D-04 BMatP= 2.19D-02
 IDIUse=3 WtCom= 9.94D-01 WtEn= 5.52D-03
 Coeff-Com: -0.272D+00 0.536D+00 0.145D+00 0.590D+00
 Coeff-En:   0.000D+00 0.000D+00 0.000D+00 0.100D+01
 Coeff:     -0.270D+00 0.533D+00 0.144D+00 0.593D+00
 Gap=     0.038 Goal=   None    Shift=    0.000
 Gap=     0.075 Goal=   None    Shift=    0.000
 RMSDP=1.96D-04 MaxDP=1.43D-02 DE=-1.33D-02 OVMax= 3.74D-02

 Cycle   5  Pass 1  IDiag  1:
 E= -952.528787296193     Delta-E=       -0.000300561386 Rises=F Damp=F
 DIIS: error= 1.88D-04 at cycle   5 NSaved=   5.
 NSaved= 5 IEnMin= 5 EnMin= -952.528787296193     IErMin= 5 ErrMin= 1.88D-04
 ErrMax= 1.88D-04  0.00D+00 EMaxC= 1.00D-01 BMatC= 2.27D-04 BMatP= 6.25D-04
 IDIUse=3 WtCom= 9.98D-01 WtEn= 1.88D-03
 Coeff-Com: -0.613D-01 0.118D+00 0.573D-01 0.424D+00 0.462D+00
 Coeff-En:   0.000D+00 0.000D+00 0.000D+00 0.000D+00 0.100D+01
 Coeff:     -0.612D-01 0.118D+00 0.572D-01 0.423D+00 0.463D+00
 Gap=     0.038 Goal=   None    Shift=    0.000
 Gap=     0.075 Goal=   None    Shift=    0.000
 RMSDP=1.33D-04 MaxDP=1.06D-02 DE=-3.01D-04 OVMax= 2.67D-02

 Cycle   6  Pass 1  IDiag  1:
 E= -952.528941970517     Delta-E=       -0.000154674324 Rises=F Damp=F
 DIIS: error= 1.93D-04 at cycle   6 NSaved=   6.
 NSaved= 6 IEnMin= 6 EnMin= -952.528941970517     IErMin= 5 ErrMin= 1.88D-04
 ErrMax= 1.93D-04  0.00D+00 EMaxC= 1.00D-01 BMatC= 1.03D-04 BMatP= 2.27D-04
 IDIUse=3 WtCom= 9.98D-01 WtEn= 1.88D-03
 Coeff-Com:  0.207D-01-0.437D-01 0.215D-01 0.250D+00 0.347D+00 0.405D+00
 Coeff-En:   0.000D+00 0.000D+00 0.000D+00 0.000D+00 0.000D+00 0.100D+01
 Coeff:      0.207D-01-0.437D-01 0.215D-01 0.250D+00 0.346D+00 0.406D+00
 Gap=     0.039 Goal=   None    Shift=    0.000
 Gap=     0.075 Goal=   None    Shift=    0.000
 RMSDP=1.19D-04 MaxDP=9.12D-03 DE=-1.55D-04 OVMax= 2.43D-02

 Cycle   7  Pass 1  IDiag  1:
 E= -952.529078268526     Delta-E=       -0.000136298008 Rises=F Damp=F
 DIIS: error= 1.33D-04 at cycle   7 NSaved=   7.
 NSaved= 7 IEnMin= 7 EnMin= -952.529078268526     IErMin= 7 ErrMin= 1.33D-04
 ErrMax= 1.33D-04  0.00D+00 EMaxC= 1.00D-01 BMatC= 8.23D-05 BMatP= 1.03D-04
 IDIUse=3 WtCom= 9.99D-01 WtEn= 1.33D-03
 Coeff-Com:  0.560D-01-0.112D+00 0.647D-02 0.133D+00 0.148D+00 0.313D+00
 Coeff-Com:  0.456D+00
 Coeff-En:   0.000D+00 0.000D+00 0.000D+00 0.000D+00 0.000D+00 0.000D+00
 Coeff-En:   0.100D+01
 Coeff:      0.560D-01-0.112D+00 0.646D-02 0.132D+00 0.148D+00 0.313D+00
 Coeff:      0.457D+00
 Gap=     0.039 Goal=   None    Shift=    0.000
 Gap=     0.075 Goal=   None    Shift=    0.000
 RMSDP=1.41D-04 MaxDP=1.08D-02 DE=-1.36D-04 OVMax= 2.93D-02

 Cycle   8  Pass 1  IDiag  1:
 E= -952.529235094057     Delta-E=       -0.000156825531 Rises=F Damp=F
 DIIS: error= 1.35D-04 at cycle   8 NSaved=   8.
 NSaved= 8 IEnMin= 8 EnMin= -952.529235094057     IErMin= 7 ErrMin= 1.33D-04
 ErrMax= 1.35D-04  0.00D+00 EMaxC= 1.00D-01 BMatC= 8.55D-05 BMatP= 8.23D-05
 IDIUse=3 WtCom= 9.99D-01 WtEn= 1.33D-03
 Coeff-Com:  0.543D-01-0.109D+00 0.742D-02 0.133D+00 0.139D+00 0.289D+00
 Coeff-Com:  0.411D+00 0.750D-01
 Coeff-En:   0.000D+00 0.000D+00 0.000D+00 0.000D+00 0.000D+00 0.000D+00
 Coeff-En:   0.000D+00 0.100D+01
 Coeff:      0.542D-01-0.109D+00 0.742D-02 0.133D+00 0.139D+00 0.288D+00
 Coeff:      0.411D+00 0.763D-01
 Gap=     0.039 Goal=   None    Shift=    0.000
 Gap=     0.075 Goal=   None    Shift=    0.000
 RMSDP=1.59D-05 MaxDP=1.20D-03 DE=-1.57D-04 OVMax= 3.29D-03

 Cycle   9  Pass 1  IDiag  1:
 E= -952.529252955485     Delta-E=       -0.000017861428 Rises=F Damp=F
 DIIS: error= 1.34D-04 at cycle   9 NSaved=   9.
 NSaved= 9 IEnMin= 9 EnMin= -952.529252955485     IErMin= 7 ErrMin= 1.33D-04
 ErrMax= 1.34D-04  0.00D+00 EMaxC= 1.00D-01 BMatC= 8.62D-05 BMatP= 8.23D-05
 IDIUse=3 WtCom= 9.99D-01 WtEn= 1.33D-03
 Coeff-Com:  0.668D-01-0.134D+00 0.867D-03 0.106D+00 0.126D+00 0.338D+00
 Coeff-Com:  0.657D+00 0.341D+01-0.357D+01
 Coeff-En:   0.000D+00 0.000D+00 0.000D+00 0.000D+00 0.000D+00 0.000D+00
 Coeff-En:   0.000D+00 0.000D+00 0.100D+01
 Coeff:      0.667D-01-0.133D+00 0.866D-03 0.106D+00 0.126D+00 0.337D+00
 Coeff:      0.656D+00 0.341D+01-0.356D+01
 Gap=     0.039 Goal=   None    Shift=    0.000
 Gap=     0.075 Goal=   None    Shift=    0.000
 RMSDP=8.46D-05 MaxDP=6.28D-03 DE=-1.79D-05 OVMax= 1.71D-02

 Cycle  10  Pass 1  IDiag  1:
 E= -952.529161935497     Delta-E=        0.000091019988 Rises=F Damp=F
 DIIS: error= 1.29D-04 at cycle  10 NSaved=  10.
 NSaved=10 IEnMin= 9 EnMin= -952.529252955485     IErMin=10 ErrMin= 1.29D-04
 ErrMax= 1.29D-04  0.00D+00 EMaxC= 1.00D-01 BMatC= 8.26D-05 BMatP= 8.23D-05
 IDIUse=3 WtCom= 9.99D-01 WtEn= 1.29D-03
 Large coefficients: NSaved= 10 BigCof=   10.48 CofMax=   10.00 Det=-1.49D-08
 Inversion failed.  Reducing to  9 matrices.
 Large coefficients: NSaved=  9 BigCof=   11.06 CofMax=   10.00 Det=-1.54D-08
 Inversion failed.  Reducing to  8 matrices.
 Large coefficients: NSaved=  8 BigCof=   22.17 CofMax=   10.00 Det=-1.64D-08
 Inversion failed.  Reducing to  7 matrices.
 Large coefficients: NSaved=  7 BigCof=   23.19 CofMax=   10.00 Det=-1.67D-08
 Inversion failed.  Reducing to  6 matrices.
 Large coefficients: NSaved=  6 BigCof=   22.39 CofMax=   10.00 Det=-2.08D-08
 Inversion failed.  Reducing to  5 matrices.
 Large coefficients: NSaved=  5 BigCof=   23.43 CofMax=   10.00 Det=-2.11D-08
 Inversion failed.  Reducing to  4 matrices.
 Large coefficients: NSaved=  4 BigCof=   27.44 CofMax=   10.00 Det=-2.39D-08
 Inversion failed.  Reducing to  3 matrices.
 Large coefficients: NSaved=  3 BigCof=   21.10 CofMax=   10.00 Det=-2.71D-08
 Inversion failed.  Reducing to  2 matrices.
 Coeff-Com: -0.951D+00 0.195D+01
 Coeff-En:   0.000D+00 0.100D+01
 Coeff:     -0.950D+00 0.195D+01
 Gap=     0.041 Goal=   None    Shift=    0.000
 Gap=     0.076 Goal=   None    Shift=    0.000
 RMSDP=1.36D-04 MaxDP=8.74D-03 DE= 9.10D-05 OVMax= 2.44D-02

 Cycle  11  Pass 1  IDiag  1:
 E= -952.529264790623     Delta-E=       -0.000102855126 Rises=F Damp=F
 DIIS: error= 2.80D-04 at cycle  11 NSaved=   3.
 NSaved= 3 IEnMin= 3 EnMin= -952.529264790623     IErMin= 2 ErrMin= 1.29D-04
 ErrMax= 2.80D-04  0.00D+00 EMaxC= 1.00D-01 BMatC= 2.96D-04 BMatP= 8.26D-05
 IDIUse=3 WtCom= 9.99D-01 WtEn= 1.29D-03
 Coeff-Com: -0.206D+01 0.274D+01 0.319D+00
 Coeff-En:   0.417D+00 0.000D+00 0.583D+00
 Coeff:     -0.206D+01 0.274D+01 0.319D+00
 Gap=     0.040 Goal=   None    Shift=    0.000
 Gap=     0.075 Goal=   None    Shift=    0.000
 RMSDP=6.63D-05 MaxDP=7.46D-03 DE=-1.03D-04 OVMax= 1.06D-02

 Cycle  12  Pass 1  IDiag  1:
 E= -952.529265102855     Delta-E=       -0.000000312232 Rises=F Damp=F
 DIIS: error= 1.69D-04 at cycle  12 NSaved=   4.
 NSaved= 4 IEnMin= 4 EnMin= -952.529265102855     IErMin= 2 ErrMin= 1.29D-04
 ErrMax= 1.69D-04  0.00D+00 EMaxC= 1.00D-01 BMatC= 1.04D-04 BMatP= 8.26D-05
 IDIUse=3 WtCom= 9.99D-01 WtEn= 1.29D-03
 Coeff-Com: -0.296D+01 0.320D+01 0.329D+00 0.434D+00
 Coeff-En:   0.000D+00 0.000D+00 0.498D+00 0.502D+00
 Coeff:     -0.296D+01 0.319D+01 0.330D+00 0.434D+00
 Gap=     0.041 Goal=   None    Shift=    0.000
 Gap=     0.075 Goal=   None    Shift=    0.000
 RMSDP=6.15D-05 MaxDP=5.46D-03 DE=-3.12D-07 OVMax= 1.02D-02

 Cycle  13  Pass 1  IDiag  1:
 E= -952.529225760755     Delta-E=        0.000039342100 Rises=F Damp=F
 DIIS: error= 1.31D-04 at cycle  13 NSaved=   5.
 NSaved= 5 IEnMin= 4 EnMin= -952.529265102855     IErMin= 2 ErrMin= 1.29D-04
 ErrMax= 1.31D-04  0.00D+00 EMaxC= 1.00D-01 BMatC= 7.53D-05 BMatP= 8.26D-05
 IDIUse=3 WtCom= 9.99D-01 WtEn= 1.29D-03
 Rare condition: small coef for last iteration:  0.000D+00
 Coeff-Com: -0.620D+01 0.467D+01 0.261D+00 0.727D+00 0.154D+01
 Coeff-En:   0.000D+00 0.000D+00 0.000D+00 0.000D+00 0.100D+01
 Coeff:     -0.620D+01 0.467D+01 0.261D+00 0.727D+00 0.154D+01
 Gap=     0.042 Goal=   None    Shift=    0.000
 Gap=     0.074 Goal=   None    Shift=    0.000
 RMSDP=3.20D-04 MaxDP=2.93D-02 DE= 3.93D-05 OVMax= 4.96D-02

 Cycle  14  Pass 1  IDiag  1:
 E= -952.529036767659     Delta-E=        0.000188993096 Rises=F Damp=F
 DIIS: error= 1.86D-04 at cycle  14 NSaved=   6.
 NSaved= 6 IEnMin= 4 EnMin= -952.529265102855     IErMin= 2 ErrMin= 1.29D-04
 ErrMax= 1.86D-04  0.00D+00 EMaxC= 1.00D-01 BMatC= 7.55D-05 BMatP= 7.53D-05
 IDIUse=3 WtCom= 9.99D-01 WtEn= 1.29D-03
 Rare condition: small coef for last iteration:  0.000D+00
 Coeff-Com: -0.742D+01 0.467D+01 0.178D+00 0.631D+00 0.238D+01 0.557D+00
 Coeff-En:   0.000D+00 0.000D+00 0.000D+00 0.000D+00 0.000D+00 0.100D+01
 Coeff:     -0.742D+01 0.467D+01 0.178D+00 0.631D+00 0.238D+01 0.557D+00
 Gap=     0.046 Goal=   None    Shift=    0.000
 Gap=     0.073 Goal=   None    Shift=    0.000
 RMSDP=3.45D-04 MaxDP=3.26D-02 DE= 1.89D-04 OVMax= 4.99D-02

 Cycle  15  Pass 1  IDiag  1:
 E= -952.528908920246     Delta-E=        0.000127847412 Rises=F Damp=F
 DIIS: error= 2.01D-04 at cycle  15 NSaved=   7.
 NSaved= 7 IEnMin= 4 EnMin= -952.529265102855     IErMin= 2 ErrMin= 1.29D-04
 ErrMax= 2.01D-04  0.00D+00 EMaxC= 1.00D-01 BMatC= 8.17D-05 BMatP= 7.53D-05
 IDIUse=3 WtCom= 9.99D-01 WtEn= 1.29D-03
 Rare condition: small coef for last iteration:  0.000D+00
 Coeff-Com: -0.679D+01 0.407D+01 0.178D+00 0.539D+00 0.236D+01 0.473D+00
 Coeff-Com:  0.174D+00
 Coeff-En:   0.000D+00 0.000D+00 0.000D+00 0.000D+00 0.000D+00 0.000D+00
 Coeff-En:   0.100D+01
 Coeff:     -0.679D+01 0.407D+01 0.178D+00 0.539D+00 0.236D+01 0.473D+00
 Coeff:      0.174D+00
 Gap=     0.047 Goal=   None    Shift=    0.000
 Gap=     0.074 Goal=   None    Shift=    0.000
 RMSDP=5.25D-05 MaxDP=4.58D-03 DE= 1.28D-04 OVMax= 6.79D-03

 Cycle  16  Pass 1  IDiag  1:
 E= -952.528904998587     Delta-E=        0.000003921659 Rises=F Damp=F
 DIIS: error= 1.67D-04 at cycle  16 NSaved=   8.
 NSaved= 8 IEnMin= 4 EnMin= -952.529265102855     IErMin= 2 ErrMin= 1.29D-04
 ErrMax= 1.67D-04  0.00D+00 EMaxC= 1.00D-01 BMatC= 6.51D-05 BMatP= 7.53D-05
 IDIUse=3 WtCom= 9.99D-01 WtEn= 1.29D-03
 Rare condition: small coef for last iteration:  0.000D+00
 Coeff-Com: -0.423D+01 0.217D+01 0.176D+00 0.268D+00 0.181D+01 0.247D-01
 Coeff-Com: -0.119D+01 0.196D+01
 Coeff-En:   0.000D+00 0.000D+00 0.000D+00 0.000D+00 0.000D+00 0.000D+00
 Coeff-En:   0.000D+00 0.100D+01
 Coeff:     -0.423D+01 0.217D+01 0.176D+00 0.268D+00 0.181D+01 0.247D-01
 Coeff:     -0.119D+01 0.196D+01
 Gap=     0.049 Goal=   None    Shift=    0.000
 Gap=     0.074 Goal=   None    Shift=    0.000
 RMSDP=1.74D-04 MaxDP=1.63D-02 DE= 3.92D-06 OVMax= 2.32D-02

 Cycle  17  Pass 1  IDiag  1:
 E= -952.528865628765     Delta-E=        0.000039369822 Rises=F Damp=F
 DIIS: error= 1.54D-04 at cycle  17 NSaved=   9.
 NSaved= 9 IEnMin= 4 EnMin= -952.529265102855     IErMin= 2 ErrMin= 1.29D-04
 ErrMax= 1.54D-04  0.00D+00 EMaxC= 1.00D-01 BMatC= 4.00D-05 BMatP= 6.51D-05
 IDIUse=3 WtCom= 9.99D-01 WtEn= 1.29D-03
 Rare condition: small coef for last iteration:  0.000D+00
 Coeff-Com: -0.378D+01 0.247D+01 0.142D+00 0.216D+00 0.114D+01-0.401D-01
 Coeff-Com: -0.180D+01 0.199D+01 0.654D+00
 Coeff-En:   0.000D+00 0.000D+00 0.000D+00 0.000D+00 0.000D+00 0.000D+00
 Coeff-En:   0.000D+00 0.000D+00 0.100D+01
 Coeff:     -0.378D+01 0.247D+01 0.142D+00 0.216D+00 0.114D+01-0.401D-01
 Coeff:     -0.180D+01 0.199D+01 0.654D+00
 Gap=     0.050 Goal=   None    Shift=    0.000
 Gap=     0.074 Goal=   None    Shift=    0.000
 RMSDP=1.07D-04 MaxDP=8.46D-03 DE= 3.94D-05 OVMax= 1.75D-02

 Cycle  18  Pass 1  IDiag  1:
 E= -952.528819564999     Delta-E=        0.000046063766 Rises=F Damp=F
 DIIS: error= 1.54D-04 at cycle  18 NSaved=  10.
 NSaved=10 IEnMin= 4 EnMin= -952.529265102855     IErMin= 2 ErrMin= 1.29D-04
 ErrMax= 1.54D-04  0.00D+00 EMaxC= 1.00D-01 BMatC= 3.38D-05 BMatP= 4.00D-05
 IDIUse=3 WtCom= 9.99D-01 WtEn= 1.29D-03
 Rare condition: small coef for last iteration:  0.000D+00
 Coeff-Com: -0.436D+01 0.333D+01 0.114D+00 0.263D+00 0.863D+00 0.829D-01
 Coeff-Com: -0.165D+01 0.124D+01 0.476D+00 0.648D+00
 Coeff-En:   0.000D+00 0.000D+00 0.000D+00 0.000D+00 0.000D+00 0.000D+00
 Coeff-En:   0.000D+00 0.000D+00 0.000D+00 0.100D+01
 Coeff:     -0.436D+01 0.333D+01 0.114D+00 0.263D+00 0.863D+00 0.829D-01
 Coeff:     -0.165D+01 0.124D+01 0.476D+00 0.648D+00
 Gap=     0.051 Goal=   None    Shift=    0.000
 Gap=     0.074 Goal=   None    Shift=    0.000
 RMSDP=1.06D-04 MaxDP=8.41D-03 DE= 4.61D-05 OVMax= 1.96D-02

 Cycle  19  Pass 1  IDiag  1:
 E= -952.528761807155     Delta-E=        0.000057757844 Rises=F Damp=F
 DIIS: error= 1.70D-04 at cycle  19 NSaved=  11.
 NSaved=11 IEnMin= 4 EnMin= -952.529265102855     IErMin= 2 ErrMin= 1.29D-04
 ErrMax= 1.70D-04  0.00D+00 EMaxC= 1.00D-01 BMatC= 4.92D-05 BMatP= 3.38D-05
 IDIUse=3 WtCom= 9.99D-01 WtEn= 1.29D-03
 Rare condition: small coef for last iteration:  0.000D+00
 Coeff-Com: -0.440D+01 0.336D+01 0.115D+00 0.266D+00 0.870D+00 0.872D-01
 Coeff-Com: -0.164D+01 0.122D+01 0.460D+00 0.649D+00 0.181D-01
 Coeff-En:   0.000D+00 0.000D+00 0.000D+00 0.000D+00 0.000D+00 0.000D+00
 Coeff-En:   0.000D+00 0.000D+00 0.000D+00 0.000D+00 0.100D+01
 Coeff:     -0.440D+01 0.336D+01 0.115D+00 0.266D+00 0.870D+00 0.872D-01
 Coeff:     -0.164D+01 0.122D+01 0.460D+00 0.649D+00 0.181D-01
 Gap=     0.051 Goal=   None    Shift=    0.000
 Gap=     0.074 Goal=   None    Shift=    0.000
 RMSDP=3.87D-06 MaxDP=3.08D-04 DE= 5.78D-05 OVMax= 7.32D-04

 Cycle  20  Pass 1  IDiag  1:
 E= -952.528759491217     Delta-E=        0.000002315937 Rises=F Damp=F
 DIIS: error= 1.72D-04 at cycle  20 NSaved=  12.
 NSaved=12 IEnMin= 4 EnMin= -952.529265102855     IErMin= 2 ErrMin= 1.29D-04
 ErrMax= 1.72D-04  0.00D+00 EMaxC= 1.00D-01 BMatC= 4.99D-05 BMatP= 3.38D-05
 IDIUse=3 WtCom= 9.99D-01 WtEn= 1.29D-03
 Large coefficients: NSaved= 12 BigCof=   34.66 CofMax=   10.00 Det=-9.68D-10
 Inversion failed.  Reducing to 11 matrices.
 Large coefficients: NSaved= 11 BigCof=   21.98 CofMax=   10.00 Det=-1.08D-09
 Inversion failed.  Reducing to 10 matrices.
 Large coefficients: NSaved= 10 BigCof=   10.51 CofMax=   10.00 Det=-1.27D-09
 Inversion failed.  Reducing to  9 matrices.
 Large coefficients: NSaved=  9 BigCof=   19.43 CofMax=   10.00 Det=-1.37D-09
 Inversion failed.  Reducing to  8 matrices.
 Large coefficients: NSaved=  8 BigCof=   26.74 CofMax=   10.00 Det=-1.93D-09
 Inversion failed.  Reducing to  7 matrices.
 Large coefficients: NSaved=  7 BigCof=   29.76 CofMax=   10.00 Det=-1.95D-09
 Inversion failed.  Reducing to  6 matrices.
 Large coefficients: NSaved=  6 BigCof=   45.71 CofMax=   10.00 Det=-2.12D-09
 Inversion failed.  Reducing to  5 matrices.
 Large coefficients: NSaved=  5 BigCof=   49.16 CofMax=   10.00 Det=-2.63D-09
 Inversion failed.  Reducing to  4 matrices.
 Large coefficients: NSaved=  4 BigCof=   49.71 CofMax=   10.00 Det=-2.67D-09
 Inversion failed.  Reducing to  3 matrices.
 Large coefficients: NSaved=  3 BigCof=   77.91 CofMax=   10.00 Det=-4.74D-09
 Inversion failed.  Reducing to  2 matrices.
 Large coefficients: NSaved=  2 BigCof=   78.47 CofMax=   10.00 Det=-4.75D-09
 Coeff-Com:  0.785D+02-0.775D+02
 Coeff-En:   0.000D+00 0.100D+01
 Coeff:      0.784D+02-0.774D+02
 Gap=     0.047 Goal=   None    Shift=    0.000
 Gap=     0.074 Goal=   None    Shift=    0.000
 RMSDP=3.79D-04 MaxDP=2.89D-02 DE= 2.32D-06 OVMax= 7.04D-02

 Cycle  21  Pass 1  IDiag  1:
 E= -952.528930865598     Delta-E=       -0.000171374381 Rises=F Damp=F
 DIIS: error= 2.15D-04 at cycle  21 NSaved=   3.
 NSaved= 3 IEnMin= 3 EnMin= -952.528930865598     IErMin= 1 ErrMin= 1.70D-04
 ErrMax= 2.15D-04  0.00D+00 EMaxC= 1.00D-01 BMatC= 1.43D-04 BMatP= 4.92D-05
 IDIUse=3 WtCom= 9.99D-01 WtEn= 1.29D-03
 Large coefficients: NSaved=  3 BigCof=   64.63 CofMax=   10.00 Det=-4.50D-09
 Inversion failed.  Reducing to  2 matrices.
 Coeff-Com:  0.679D+00 0.321D+00
 Coeff-En:   0.000D+00 0.100D+01
 Coeff:      0.678D+00 0.322D+00
 Gap=     0.049 Goal=   None    Shift=    0.000
 Gap=     0.074 Goal=   None    Shift=    0.000
 RMSDP=1.82D-04 MaxDP=1.47D-02 DE=-1.71D-04 OVMax= 3.58D-02

 Cycle  22  Pass 1  IDiag  1:
 E= -952.528828906714     Delta-E=        0.000101958884 Rises=F Damp=F
 DIIS: error= 2.86D-04 at cycle  22 NSaved=   3.
 NSaved= 3 IEnMin= 2 EnMin= -952.528930865598     IErMin= 1 ErrMin= 1.72D-04
 ErrMax= 2.86D-04  0.00D+00 EMaxC= 1.00D-01 BMatC= 2.04D-04 BMatP= 4.99D-05
 IDIUse=3 WtCom= 9.99D-01 WtEn= 1.29D-03
 Rare condition: small coef for last iteration:  0.000D+00
 Coeff-Com:  0.532D+00 0.246D+00 0.222D+00
 Coeff-En:   0.000D+00 0.000D+00 0.100D+01
 Coeff:      0.532D+00 0.246D+00 0.222D+00
 Gap=     0.048 Goal=   None    Shift=    0.000
 Gap=     0.074 Goal=   None    Shift=    0.000
 RMSDP=4.15D-05 MaxDP=3.26D-03 DE= 1.02D-04 OVMax= 5.19D-03

 Cycle  23  Pass 1  IDiag  1:
 E= -952.528887272869     Delta-E=       -0.000058366155 Rises=F Damp=F
 DIIS: error= 1.02D-04 at cycle  23 NSaved=   4.
 NSaved= 4 IEnMin= 2 EnMin= -952.528930865598     IErMin= 4 ErrMin= 1.02D-04
 ErrMax= 1.02D-04  0.00D+00 EMaxC= 1.00D-01 BMatC= 1.19D-05 BMatP= 4.99D-05
 IDIUse=3 WtCom= 9.99D-01 WtEn= 1.02D-03
 Coeff-Com:  0.354D+00 0.169D+00 0.122D+00 0.355D+00
 Coeff-En:   0.000D+00 0.000D+00 0.000D+00 0.100D+01
 Coeff:      0.354D+00 0.169D+00 0.121D+00 0.355D+00
 Gap=     0.048 Goal=   None    Shift=    0.000
 Gap=     0.074 Goal=   None    Shift=    0.000
 RMSDP=3.18D-05 MaxDP=2.50D-03 DE=-5.84D-05 OVMax= 6.05D-03

 Cycle  24  Pass 1  IDiag  1:
 E= -952.528902716690     Delta-E=       -0.000015443820 Rises=F Damp=F
 DIIS: error= 4.52D-05 at cycle  24 NSaved=   5.
 NSaved= 5 IEnMin= 2 EnMin= -952.528930865598     IErMin= 5 ErrMin= 4.52D-05
 ErrMax= 4.52D-05  0.00D+00 EMaxC= 1.00D-01 BMatC= 6.53D-06 BMatP= 1.19D-05
 IDIUse=1 WtCom= 1.00D+00 WtEn= 0.00D+00
 Coeff-Com:  0.222D-01 0.275D-01-0.685D-01 0.224D+00 0.795D+00
 Coeff:      0.222D-01 0.275D-01-0.685D-01 0.224D+00 0.795D+00
 Gap=     0.047 Goal=   None    Shift=    0.000
 Gap=     0.074 Goal=   None    Shift=    0.000
 RMSDP=8.06D-05 MaxDP=6.29D-03 DE=-1.54D-05 OVMax= 1.55D-02

 Cycle  25  Pass 1  IDiag  1:
 E= -952.528939342564     Delta-E=       -0.000036625875 Rises=F Damp=F
 DIIS: error= 3.84D-05 at cycle  25 NSaved=   6.
 NSaved= 6 IEnMin= 6 EnMin= -952.528939342564     IErMin= 6 ErrMin= 3.84D-05
 ErrMax= 3.84D-05  0.00D+00 EMaxC= 1.00D-01 BMatC= 5.43D-06 BMatP= 6.53D-06
 IDIUse=1 WtCom= 1.00D+00 WtEn= 0.00D+00
 Coeff-Com: -0.144D+00-0.200D-01-0.988D-01 0.586D-01 0.645D+00 0.559D+00
 Coeff:     -0.144D+00-0.200D-01-0.988D-01 0.586D-01 0.645D+00 0.559D+00
 Gap=     0.046 Goal=   None    Shift=    0.000
 Gap=     0.074 Goal=   None    Shift=    0.000
 RMSDP=8.91D-05 MaxDP=6.81D-03 DE=-3.66D-05 OVMax= 1.71D-02

 Cycle  26  Pass 1  IDiag  1:
 E= -952.528980244494     Delta-E=       -0.000040901929 Rises=F Damp=F
 DIIS: error= 4.61D-05 at cycle  26 NSaved=   7.
 NSaved= 7 IEnMin= 7 EnMin= -952.528980244494     IErMin= 6 ErrMin= 3.84D-05
 ErrMax= 4.61D-05  0.00D+00 EMaxC= 1.00D-01 BMatC= 6.75D-06 BMatP= 5.43D-06
 IDIUse=1 WtCom= 1.00D+00 WtEn= 0.00D+00
 Coeff-Com: -0.229D+00-0.249D-01-0.828D-01 0.132D-01 0.413D+00 0.525D+00
 Coeff-Com:  0.385D+00
 Coeff:     -0.229D+00-0.249D-01-0.828D-01 0.132D-01 0.413D+00 0.525D+00
 Coeff:      0.385D+00
 Gap=     0.046 Goal=   None    Shift=    0.000
 Gap=     0.074 Goal=   None    Shift=    0.000
 RMSDP=8.74D-05 MaxDP=6.65D-03 DE=-4.09D-05 OVMax= 1.69D-02

 Cycle  27  Pass 1  IDiag  1:
 E= -952.529021554580     Delta-E=       -0.000041310086 Rises=F Damp=F
 DIIS: error= 5.93D-05 at cycle  27 NSaved=   8.
 NSaved= 8 IEnMin= 8 EnMin= -952.529021554580     IErMin= 6 ErrMin= 3.84D-05
 ErrMax= 5.93D-05  0.00D+00 EMaxC= 1.00D-01 BMatC= 8.81D-06 BMatP= 5.43D-06
 IDIUse=1 WtCom= 1.00D+00 WtEn= 0.00D+00
 Coeff-Com: -0.155D+00-0.690D-01-0.159D+00-0.400D-01 0.715D+00 0.855D+00
 Coeff-Com:  0.113D+01-0.127D+01
 Coeff:     -0.155D+00-0.690D-01-0.159D+00-0.400D-01 0.715D+00 0.855D+00
 Coeff:      0.113D+01-0.127D+01
 Gap=     0.047 Goal=   None    Shift=    0.000
 Gap=     0.074 Goal=   None    Shift=    0.000
 RMSDP=2.00D-04 MaxDP=1.52D-02 DE=-4.13D-05 OVMax= 3.84D-02

 Cycle  28  Pass 1  IDiag  1:
 E= -952.528926635051     Delta-E=        0.000094919529 Rises=F Damp=F
 DIIS: error= 5.90D-05 at cycle  28 NSaved=   9.
 NSaved= 9 IEnMin= 8 EnMin= -952.529021554580     IErMin= 6 ErrMin= 3.84D-05
 ErrMax= 5.90D-05  0.00D+00 EMaxC= 1.00D-01 BMatC= 9.08D-06 BMatP= 5.43D-06
 IDIUse=1 WtCom= 1.00D+00 WtEn= 0.00D+00
 Coeff-Com:  0.189D-01-0.167D+00-0.268D+00-0.405D+00 0.521D+00 0.176D+01
 Coeff-Com:  0.632D+01-0.930D+01 0.252D+01
 Coeff:      0.189D-01-0.167D+00-0.268D+00-0.405D+00 0.521D+00 0.176D+01
 Coeff:      0.632D+01-0.930D+01 0.252D+01
 Gap=     0.054 Goal=   None    Shift=    0.000
 Gap=     0.073 Goal=   None    Shift=    0.000
 RMSDP=8.79D-04 MaxDP=6.72D-02 DE= 9.49D-05 OVMax= 1.62D-01

 Cycle  29  Pass 1  IDiag  1:
 E= -952.528150173997     Delta-E=        0.000776461054 Rises=F Damp=F
 DIIS: error= 5.00D-04 at cycle  29 NSaved=  10.
 NSaved=10 IEnMin= 8 EnMin= -952.529021554580     IErMin= 6 ErrMin= 3.84D-05
 ErrMax= 5.00D-04  0.00D+00 EMaxC= 1.00D-01 BMatC= 5.10D-04 BMatP= 5.43D-06
 IDIUse=1 WtCom= 1.00D+00 WtEn= 0.00D+00
 Coeff-Com:  0.165D+00-0.162D+00-0.277D+00-0.384D+00 0.548D+00 0.153D+01
 Coeff-Com:  0.481D+01-0.737D+01 0.223D+01-0.947D-01
 Coeff:      0.165D+00-0.162D+00-0.277D+00-0.384D+00 0.548D+00 0.153D+01
 Coeff:      0.481D+01-0.737D+01 0.223D+01-0.947D-01
 Gap=     0.054 Goal=   None    Shift=    0.000
 Gap=     0.073 Goal=   None    Shift=    0.000
 RMSDP=1.91D-04 MaxDP=1.54D-02 DE= 7.76D-04 OVMax= 3.48D-02

 Cycle  30  Pass 1  IDiag  1:
 E= -952.528425176873     Delta-E=       -0.000275002876 Rises=F Damp=F
 DIIS: error= 3.60D-04 at cycle  30 NSaved=  11.
 NSaved=11 IEnMin= 8 EnMin= -952.529021554580     IErMin= 6 ErrMin= 3.84D-05
 ErrMax= 3.60D-04  0.00D+00 EMaxC= 1.00D-01 BMatC= 2.76D-04 BMatP= 5.43D-06
 IDIUse=1 WtCom= 1.00D+00 WtEn= 0.00D+00
 Coeff-Com:  0.399D+00-0.919D-01-0.201D+00-0.207D+00 0.498D+00 0.876D+00
 Coeff-Com:  0.197D+01-0.384D+01 0.149D+01-0.916D+00 0.102D+01
 Coeff:      0.399D+00-0.919D-01-0.201D+00-0.207D+00 0.498D+00 0.876D+00
 Coeff:      0.197D+01-0.384D+01 0.149D+01-0.916D+00 0.102D+01
 Gap=     0.051 Goal=   None    Shift=    0.000
 Gap=     0.073 Goal=   None    Shift=    0.000
 RMSDP=2.49D-04 MaxDP=1.86D-02 DE=-2.75D-04 OVMax= 4.66D-02

 Cycle  31  Pass 1  IDiag  1:
 E= -952.528660116089     Delta-E=       -0.000234939216 Rises=F Damp=F
 DIIS: error= 2.37D-04 at cycle  31 NSaved=  12.
 NSaved=12 IEnMin= 8 EnMin= -952.529021554580     IErMin= 6 ErrMin= 3.84D-05
 ErrMax= 2.37D-04  0.00D+00 EMaxC= 1.00D-01 BMatC= 1.19D-04 BMatP= 5.43D-06
 IDIUse=1 WtCom= 1.00D+00 WtEn= 0.00D+00
 Coeff-Com:  0.294D+00-0.520D-01-0.116D+00-0.177D+00 0.254D+00 0.793D+00
 Coeff-Com:  0.261D+01-0.455D+01 0.142D+01-0.110D+01 0.104D+01 0.581D+00
 Coeff:      0.294D+00-0.520D-01-0.116D+00-0.177D+00 0.254D+00 0.793D+00
 Coeff:      0.261D+01-0.455D+01 0.142D+01-0.110D+01 0.104D+01 0.581D+00
 Gap=     0.053 Goal=   None    Shift=    0.000
 Gap=     0.073 Goal=   None    Shift=    0.000
 RMSDP=1.20D-04 MaxDP=9.55D-03 DE=-2.35D-04 OVMax= 2.20D-02

 Cycle  32  Pass 1  IDiag  1:
 E= -952.528549898083     Delta-E=        0.000110218006 Rises=F Damp=F
 DIIS: error= 3.13D-04 at cycle  32 NSaved=  13.
 NSaved=13 IEnMin= 8 EnMin= -952.529021554580     IErMin= 6 ErrMin= 3.84D-05
 ErrMax= 3.13D-04  0.00D+00 EMaxC= 1.00D-01 BMatC= 1.99D-04 BMatP= 5.43D-06
 IDIUse=1 WtCom= 1.00D+00 WtEn= 0.00D+00
 Coeff-Com:  0.897D-01-0.410D-01-0.811D-01-0.149D+00 0.241D+00 0.782D+00
 Coeff-Com:  0.256D+01-0.402D+01 0.898D+00-0.108D+01 0.554D+00 0.522D+00
 Coeff-Com:  0.715D+00
 Coeff:      0.897D-01-0.410D-01-0.811D-01-0.149D+00 0.241D+00 0.782D+00
 Coeff:      0.256D+01-0.402D+01 0.898D+00-0.108D+01 0.554D+00 0.522D+00
 Coeff:      0.715D+00
 Gap=     0.052 Goal=   None    Shift=    0.000
 Gap=     0.073 Goal=   None    Shift=    0.000
 RMSDP=8.65D-05 MaxDP=6.36D-03 DE= 1.10D-04 OVMax= 1.62D-02

 Cycle  33  Pass 1  IDiag  1:
 E= -952.528624418225     Delta-E=       -0.000074520142 Rises=F Damp=F
 DIIS: error= 2.73D-04 at cycle  33 NSaved=  14.
 NSaved=14 IEnMin= 8 EnMin= -952.529021554580     IErMin= 6 ErrMin= 3.84D-05
 ErrMax= 2.73D-04  0.00D+00 EMaxC= 1.00D-01 BMatC= 1.53D-04 BMatP= 5.43D-06
 IDIUse=1 WtCom= 1.00D+00 WtEn= 0.00D+00
 Coeff-Com: -0.386D+00-0.386D-01-0.257D-01-0.129D+00 0.168D+00 0.871D+00
 Coeff-Com:  0.323D+01-0.385D+01 0.592D-01-0.682D+00-0.672D+00 0.156D+00
 Coeff-Com:  0.665D+00 0.164D+01
 Coeff:     -0.386D+00-0.386D-01-0.257D-01-0.129D+00 0.168D+00 0.871D+00
 Coeff:      0.323D+01-0.385D+01 0.592D-01-0.682D+00-0.672D+00 0.156D+00
 Coeff:      0.665D+00 0.164D+01
 Gap=     0.051 Goal=   None    Shift=    0.000
 Gap=     0.073 Goal=   None    Shift=    0.000
 RMSDP=1.49D-04 MaxDP=1.09D-02 DE=-7.45D-05 OVMax= 2.88D-02

 Cycle  34  Pass 1  IDiag  1:
 E= -952.528722100857     Delta-E=       -0.000097682632 Rises=F Damp=F
 DIIS: error= 2.37D-04 at cycle  34 NSaved=  15.
 NSaved=15 IEnMin= 8 EnMin= -952.529021554580     IErMin= 6 ErrMin= 3.84D-05
 ErrMax= 2.37D-04  0.00D+00 EMaxC= 1.00D-01 BMatC= 1.15D-04 BMatP= 5.43D-06
 IDIUse=1 WtCom= 1.00D+00 WtEn= 0.00D+00
 Coeff-Com: -0.291D+00-0.187D-01-0.685D-02-0.777D-01 0.116D+00 0.693D+00
 Coeff-Com:  0.295D+01-0.353D+01 0.142D+00-0.283D+00-0.693D+00-0.889D-01
 Coeff-Com: -0.749D+00 0.190D+01 0.927D+00
 Coeff:     -0.291D+00-0.187D-01-0.685D-02-0.777D-01 0.116D+00 0.693D+00
 Coeff:      0.295D+01-0.353D+01 0.142D+00-0.283D+00-0.693D+00-0.889D-01
 Coeff:     -0.749D+00 0.190D+01 0.927D+00
 Gap=     0.050 Goal=   None    Shift=    0.000
 Gap=     0.074 Goal=   None    Shift=    0.000
 RMSDP=1.27D-04 MaxDP=9.40D-03 DE=-9.77D-05 OVMax= 2.49D-02

 Cycle  35  Pass 1  IDiag  1:
 E= -952.528792779518     Delta-E=       -0.000070678661 Rises=F Damp=F
 DIIS: error= 2.14D-04 at cycle  35 NSaved=  16.
 NSaved=16 IEnMin= 8 EnMin= -952.529021554580     IErMin= 6 ErrMin= 3.84D-05
 ErrMax= 2.14D-04  0.00D+00 EMaxC= 1.00D-01 BMatC= 9.43D-05 BMatP= 5.43D-06
 IDIUse=1 WtCom= 1.00D+00 WtEn= 0.00D+00
 Coeff-Com: -0.195D+00-0.182D-01-0.179D-01-0.685D-01 0.146D+00 0.639D+00
 Coeff-Com:  0.274D+01-0.344D+01 0.289D+00-0.183D+00-0.541D+00-0.107D+00
 Coeff-Com: -0.112D+01 0.165D+01 0.858D+00 0.367D+00
 Coeff:     -0.195D+00-0.182D-01-0.179D-01-0.685D-01 0.146D+00 0.639D+00
 Coeff:      0.274D+01-0.344D+01 0.289D+00-0.183D+00-0.541D+00-0.107D+00
 Coeff:     -0.112D+01 0.165D+01 0.858D+00 0.367D+00
 Gap=     0.050 Goal=   None    Shift=    0.000
 Gap=     0.074 Goal=   None    Shift=    0.000
 RMSDP=4.81D-05 MaxDP=3.57D-03 DE=-7.07D-05 OVMax= 9.58D-03

 Cycle  36  Pass 1  IDiag  1:
 E= -952.528815997838     Delta-E=       -0.000023218319 Rises=F Damp=F
 DIIS: error= 2.09D-04 at cycle  36 NSaved=  17.
 NSaved=17 IEnMin= 8 EnMin= -952.529021554580     IErMin= 6 ErrMin= 3.84D-05
 ErrMax= 2.09D-04  0.00D+00 EMaxC= 1.00D-01 BMatC= 9.06D-05 BMatP= 5.43D-06
 IDIUse=1 WtCom= 1.00D+00 WtEn= 0.00D+00
 Coeff-Com: -0.211D+00-0.174D-01-0.144D-01-0.692D-01 0.135D+00 0.645D+00
 Coeff-Com:  0.278D+01-0.346D+01 0.266D+00-0.197D+00-0.571D+00-0.115D+00
 Coeff-Com: -0.110D+01 0.173D+01 0.919D+00 0.437D+00-0.163D+00
 Coeff:     -0.211D+00-0.174D-01-0.144D-01-0.692D-01 0.135D+00 0.645D+00
 Coeff:      0.278D+01-0.346D+01 0.266D+00-0.197D+00-0.571D+00-0.115D+00
 Coeff:     -0.110D+01 0.173D+01 0.919D+00 0.437D+00-0.163D+00
 Gap=     0.050 Goal=   None    Shift=    0.000
 Gap=     0.074 Goal=   None    Shift=    0.000
 RMSDP=1.50D-05 MaxDP=1.12D-03 DE=-2.32D-05 OVMax= 2.98D-03

 Cycle  37  Pass 1  IDiag  1:
 E= -952.528808748113     Delta-E=        0.000007249725 Rises=F Damp=F
 DIIS: error= 2.11D-04 at cycle  37 NSaved=  18.
 NSaved=18 IEnMin= 8 EnMin= -952.529021554580     IErMin= 6 ErrMin= 3.84D-05
 ErrMax= 2.11D-04  0.00D+00 EMaxC= 1.00D-01 BMatC= 9.19D-05 BMatP= 5.43D-06
 IDIUse=1 WtCom= 1.00D+00 WtEn= 0.00D+00
 Coeff-Com: -0.144D+00-0.162D-01-0.181D-01-0.661D-01 0.148D+00 0.611D+00
 Coeff-Com:  0.272D+01-0.355D+01 0.401D+00-0.211D+00-0.443D+00-0.180D+00
 Coeff-Com: -0.148D+01 0.180D+01 0.114D+01 0.139D+01-0.653D+01 0.543D+01
 Coeff:     -0.144D+00-0.162D-01-0.181D-01-0.661D-01 0.148D+00 0.611D+00
 Coeff:      0.272D+01-0.355D+01 0.401D+00-0.211D+00-0.443D+00-0.180D+00
 Coeff:     -0.148D+01 0.180D+01 0.114D+01 0.139D+01-0.653D+01 0.543D+01
 Gap=     0.050 Goal=   None    Shift=    0.000
 Gap=     0.073 Goal=   None    Shift=    0.000
 RMSDP=1.03D-04 MaxDP=7.76D-03 DE= 7.25D-06 OVMax= 2.03D-02

 Cycle  38  Pass 1  IDiag  1:
 E= -952.528752613272     Delta-E=        0.000056134841 Rises=F Damp=F
 DIIS: error= 2.31D-04 at cycle  38 NSaved=  19.
 NSaved=19 IEnMin= 8 EnMin= -952.529021554580     IErMin= 6 ErrMin= 3.84D-05
 ErrMax= 2.31D-04  0.00D+00 EMaxC= 1.00D-01 BMatC= 1.11D-04 BMatP= 5.43D-06
 IDIUse=1 WtCom= 1.00D+00 WtEn= 0.00D+00
 Large coefficients: NSaved= 19 BigCof=   10.71 CofMax=   10.00 Det=-2.07D-10
 Inversion failed.  Reducing to 18 matrices.
 Coeff-Com:  0.948D-02-0.150D-01-0.361D-01-0.464D-01 0.238D+00 0.537D+00
 Coeff-Com:  0.239D+01-0.344D+01 0.615D+00-0.269D+00-0.272D+00-0.233D+01
 Coeff-Com:  0.157D+01 0.111D+01 0.182D+01-0.986D+01 0.829D+01 0.680D+00
 Coeff:      0.948D-02-0.150D-01-0.361D-01-0.464D-01 0.238D+00 0.537D+00
 Coeff:      0.239D+01-0.344D+01 0.615D+00-0.269D+00-0.272D+00-0.233D+01
 Coeff:      0.157D+01 0.111D+01 0.182D+01-0.986D+01 0.829D+01 0.680D+00
 Gap=     0.050 Goal=   None    Shift=    0.000
 Gap=     0.073 Goal=   None    Shift=    0.000
 RMSDP=1.77D-05 MaxDP=1.18D-03 DE= 5.61D-05 OVMax= 3.39D-03

 Cycle  39  Pass 1  IDiag  1:
 E= -952.528760881454     Delta-E=       -0.000008268182 Rises=F Damp=F
 DIIS: error= 2.29D-04 at cycle  39 NSaved=  19.
 NSaved=19 IEnMin= 8 EnMin= -952.529021554580     IErMin= 6 ErrMin= 3.84D-05
 ErrMax= 2.29D-04  0.00D+00 EMaxC= 1.00D-01 BMatC= 1.11D-04 BMatP= 5.43D-06
 IDIUse=1 WtCom= 1.00D+00 WtEn= 0.00D+00
 Coeff-Com:  0.670D-02-0.147D-01-0.351D-01-0.463D-01 0.235D+00 0.535D+00
 Coeff-Com:  0.239D+01-0.343D+01 0.609D+00-0.272D+00-0.277D+00-0.232D+01
 Coeff-Com:  0.157D+01 0.111D+01 0.182D+01-0.984D+01 0.830D+01 0.736D+00
 Coeff-Com: -0.844D-01
 Coeff:      0.670D-02-0.147D-01-0.351D-01-0.463D-01 0.235D+00 0.535D+00
 Coeff:      0.239D+01-0.343D+01 0.609D+00-0.272D+00-0.277D+00-0.232D+01
 Coeff:      0.157D+01 0.111D+01 0.182D+01-0.984D+01 0.830D+01 0.736D+00
 Coeff:     -0.844D-01
 Gap=     0.050 Goal=   None    Shift=    0.000
 Gap=     0.073 Goal=   None    Shift=    0.000
 RMSDP=1.76D-06 MaxDP=1.38D-04 DE=-8.27D-06 OVMax= 3.55D-04

 Cycle  40  Pass 1  IDiag  1:
 E= -952.528761867828     Delta-E=       -0.000000986374 Rises=F Damp=F
 DIIS: error= 2.29D-04 at cycle  40 NSaved=  20.
 NSaved=20 IEnMin= 8 EnMin= -952.529021554580     IErMin= 6 ErrMin= 3.84D-05
 ErrMax= 2.29D-04  0.00D+00 EMaxC= 1.00D-01 BMatC= 1.11D-04 BMatP= 5.43D-06
 IDIUse=1 WtCom= 1.00D+00 WtEn= 0.00D+00
 Large coefficients: NSaved= 20 BigCof=   12.24 CofMax=   10.00 Det=-2.74D-11
 Inversion failed.  Reducing to 19 matrices.
 Large coefficients: NSaved= 19 BigCof=   13.77 CofMax=   10.00 Det=-2.93D-11
 Inversion failed.  Reducing to 18 matrices.
 Large coefficients: NSaved= 18 BigCof=   15.24 CofMax=   10.00 Det=-2.94D-11
 Inversion failed.  Reducing to 17 matrices.
 Large coefficients: NSaved= 17 BigCof=   23.21 CofMax=   10.00 Det=-2.95D-11
 Inversion failed.  Reducing to 16 matrices.
 Large coefficients: NSaved= 16 BigCof=   20.92 CofMax=   10.00 Det=-5.25D-11
 Inversion failed.  Reducing to 15 matrices.
 Large coefficients: NSaved= 15 BigCof=   22.06 CofMax=   10.00 Det=-5.26D-11
 Inversion failed.  Reducing to 14 matrices.
 Large coefficients: NSaved= 14 BigCof=   22.06 CofMax=   10.00 Det=-8.37D-11
 Inversion failed.  Reducing to 13 matrices.
 Large coefficients: NSaved= 13 BigCof=   22.58 CofMax=   10.00 Det=-8.40D-11
 Inversion failed.  Reducing to 12 matrices.
 Large coefficients: NSaved= 12 BigCof=   20.66 CofMax=   10.00 Det=-8.56D-11
 Inversion failed.  Reducing to 11 matrices.
 Large coefficients: NSaved= 11 BigCof=   25.50 CofMax=   10.00 Det=-8.65D-11
 Inversion failed.  Reducing to 10 matrices.
 Large coefficients: NSaved= 10 BigCof=   42.83 CofMax=   10.00 Det=-9.05D-11
 Inversion failed.  Reducing to  9 matrices.
 Large coefficients: NSaved=  9 BigCof=   53.00 CofMax=   10.00 Det=-9.25D-11
 Inversion failed.  Reducing to  8 matrices.
 Large coefficients: NSaved=  8 BigCof=   55.24 CofMax=   10.00 Det=-9.28D-11
 Inversion failed.  Reducing to  7 matrices.
 Large coefficients: NSaved=  7 BigCof=   55.24 CofMax=   10.00 Det=-9.28D-11
 Inversion failed.  Reducing to  6 matrices.
 Large coefficients: NSaved=  6 BigCof=   82.12 CofMax=   10.00 Det=-9.75D-11
 Inversion failed.  Reducing to  5 matrices.
 Large coefficients: NSaved=  5 BigCof=   81.53 CofMax=   10.00 Det=-9.75D-11
 Inversion failed.  Reducing to  4 matrices.
 Large coefficients: NSaved=  4 BigCof=   92.17 CofMax=   10.00 Det=-9.92D-11
 Inversion failed.  Reducing to  3 matrices.
 Large coefficients: NSaved=  3 BigCof=   94.05 CofMax=   10.00 Det=-9.96D-11
 Inversion failed.  Reducing to  2 matrices.
 Large coefficients: NSaved=  2 BigCof=  460.56 CofMax=   10.00 Det=-4.19D-10
 Coeff-Com: -0.460D+03 0.461D+03
 Coeff:     -0.460D+03 0.461D+03
 Gap=     0.045 Goal=   None    Shift=    0.000
 Gap=     0.074 Goal=   None    Shift=    0.000
 RMSDP=8.77D-04 MaxDP=6.55D-02 DE=-9.86D-07 OVMax= 1.75D-01

 Cycle  41  Pass 1  IDiag  1:
 E= -952.529201287828     Delta-E=       -0.000439420000 Rises=F Damp=F
 DIIS: error= 2.24D-04 at cycle  41 NSaved=   3.
 NSaved= 3 IEnMin= 3 EnMin= -952.529201287828     IErMin= 3 ErrMin= 2.24D-04
 ErrMax= 2.24D-04  0.00D+00 EMaxC= 1.00D-01 BMatC= 1.45D-04 BMatP= 1.11D-04
 IDIUse=1 WtCom= 1.00D+00 WtEn= 0.00D+00
 Large coefficients: NSaved=  3 BigCof=  458.08 CofMax=   10.00 Det=-4.19D-10
 Inversion failed.  Reducing to  2 matrices.
 Coeff-Com:  0.633D+00 0.367D+00
 Coeff:      0.633D+00 0.367D+00
 Gap=     0.049 Goal=   None    Shift=    0.000
 Gap=     0.074 Goal=   None    Shift=    0.000
 RMSDP=5.15D-04 MaxDP=3.87D-02 DE=-4.39D-04 OVMax= 1.06D-01

 Cycle  42  Pass 1  IDiag  1:
 E= -952.528680655043     Delta-E=        0.000520632784 Rises=F Damp=F
 DIIS: error= 6.60D-04 at cycle  42 NSaved=   3.
 NSaved= 3 IEnMin= 2 EnMin= -952.529201287828     IErMin= 2 ErrMin= 2.24D-04
 ErrMax= 6.60D-04  0.00D+00 EMaxC= 1.00D-01 BMatC= 1.08D-03 BMatP= 1.11D-04
 IDIUse=1 WtCom= 1.00D+00 WtEn= 0.00D+00
 Coeff-Com:  0.620D+00 0.160D+00 0.220D+00
 Coeff:      0.620D+00 0.160D+00 0.220D+00
 Gap=     0.048 Goal=   None    Shift=    0.000
 Gap=     0.074 Goal=   None    Shift=    0.000
 RMSDP=1.25D-04 MaxDP=1.59D-02 DE= 5.21D-04 OVMax= 2.04D-02

 Cycle  43  Pass 1  IDiag  1:
 E= -952.528944549259     Delta-E=       -0.000263894215 Rises=F Damp=F
 DIIS: error= 1.81D-04 at cycle  43 NSaved=   4.
 NSaved= 4 IEnMin= 2 EnMin= -952.529201287828     IErMin= 4 ErrMin= 1.81D-04
 ErrMax= 1.81D-04  0.00D+00 EMaxC= 1.00D-01 BMatC= 3.77D-05 BMatP= 1.11D-04
 IDIUse=1 WtCom= 1.00D+00 WtEn= 0.00D+00
 Coeff-Com:  0.468D+00 0.683D-01 0.127D+00 0.337D+00
 Coeff:      0.468D+00 0.683D-01 0.127D+00 0.337D+00
 Gap=     0.047 Goal=   None    Shift=    0.000
 Gap=     0.074 Goal=   None    Shift=    0.000
 RMSDP=2.32D-05 MaxDP=2.88D-03 DE=-2.64D-04 OVMax= 3.37D-03

 Cycle  44  Pass 1  IDiag  1:
 E= -952.528950242431     Delta-E=       -0.000005693173 Rises=F Damp=F
 DIIS: error= 5.83D-05 at cycle  44 NSaved=   5.
 NSaved= 5 IEnMin= 2 EnMin= -952.529201287828     IErMin= 5 ErrMin= 5.83D-05
 ErrMax= 5.83D-05  0.00D+00 EMaxC= 1.00D-01 BMatC= 1.12D-05 BMatP= 3.77D-05
 IDIUse=1 WtCom= 1.00D+00 WtEn= 0.00D+00
 Coeff-Com:  0.203D+00-0.420D-01-0.641D-02 0.203D+00 0.643D+00
 Coeff:      0.203D+00-0.420D-01-0.641D-02 0.203D+00 0.643D+00
 Gap=     0.047 Goal=   None    Shift=    0.000
 Gap=     0.074 Goal=   None    Shift=    0.000
 RMSDP=1.79D-05 MaxDP=1.13D-03 DE=-5.69D-06 OVMax= 2.62D-03

 Cycle  45  Pass 1  IDiag  1:
 E= -952.528953957882     Delta-E=       -0.000003715450 Rises=F Damp=F
 DIIS: error= 4.22D-05 at cycle  45 NSaved=   6.
 NSaved= 6 IEnMin= 2 EnMin= -952.529201287828     IErMin= 6 ErrMin= 4.22D-05
 ErrMax= 4.22D-05  0.00D+00 EMaxC= 1.00D-01 BMatC= 5.87D-06 BMatP= 1.12D-05
 IDIUse=1 WtCom= 1.00D+00 WtEn= 0.00D+00
 Coeff-Com: -0.494D-02-0.767D-01-0.553D-01 0.672D-01 0.554D+00 0.516D+00
 Coeff:     -0.494D-02-0.767D-01-0.553D-01 0.672D-01 0.554D+00 0.516D+00
 Gap=     0.047 Goal=   None    Shift=    0.000
 Gap=     0.074 Goal=   None    Shift=    0.000
 RMSDP=4.13D-05 MaxDP=3.27D-03 DE=-3.72D-06 OVMax= 7.69D-03

 Cycle  46  Pass 1  IDiag  1:
 E= -952.528972256252     Delta-E=       -0.000018298370 Rises=F Damp=F
 DIIS: error= 4.95D-05 at cycle  46 NSaved=   7.
 NSaved= 7 IEnMin= 2 EnMin= -952.529201287828     IErMin= 6 ErrMin= 4.22D-05
 ErrMax= 4.95D-05  0.00D+00 EMaxC= 1.00D-01 BMatC= 6.70D-06 BMatP= 5.87D-06
 IDIUse=1 WtCom= 1.00D+00 WtEn= 0.00D+00
 Coeff-Com: -0.122D+00-0.743D-01-0.602D-01 0.216D-01 0.367D+00 0.480D+00
 Coeff-Com:  0.387D+00
 Coeff:     -0.122D+00-0.743D-01-0.602D-01 0.216D-01 0.367D+00 0.480D+00
 Coeff:      0.387D+00
 Gap=     0.046 Goal=   None    Shift=    0.000
 Gap=     0.074 Goal=   None    Shift=    0.000
 RMSDP=5.45D-05 MaxDP=4.26D-03 DE=-1.83D-05 OVMax= 1.03D-02

 Cycle  47  Pass 1  IDiag  1:
 E= -952.528997474031     Delta-E=       -0.000025217780 Rises=F Damp=F
 DIIS: error= 5.50D-05 at cycle  47 NSaved=   8.
 NSaved= 8 IEnMin= 2 EnMin= -952.529201287828     IErMin= 6 ErrMin= 4.22D-05
 ErrMax= 5.50D-05  0.00D+00 EMaxC= 1.00D-01 BMatC= 7.46D-06 BMatP= 5.87D-06
 IDIUse=1 WtCom= 1.00D+00 WtEn= 0.00D+00
 Coeff-Com: -0.739D-01-0.820D-01-0.671D-01 0.250D-01 0.473D+00 0.579D+00
 Coeff-Com:  0.611D+00-0.464D+00
 Coeff:     -0.739D-01-0.820D-01-0.671D-01 0.250D-01 0.473D+00 0.579D+00
 Coeff:      0.611D+00-0.464D+00
 Gap=     0.047 Goal=   None    Shift=    0.000
 Gap=     0.074 Goal=   None    Shift=    0.000
 RMSDP=5.64D-05 MaxDP=4.36D-03 DE=-2.52D-05 OVMax= 1.07D-02

 Cycle  48  Pass 1  IDiag  1:
 E= -952.528970801369     Delta-E=        0.000026672662 Rises=F Damp=F
 DIIS: error= 5.33D-05 at cycle  48 NSaved=   9.
 NSaved= 9 IEnMin= 2 EnMin= -952.529201287828     IErMin= 6 ErrMin= 4.22D-05
 ErrMax= 5.33D-05  0.00D+00 EMaxC= 1.00D-01 BMatC= 7.27D-06 BMatP= 5.87D-06
 IDIUse=1 WtCom= 1.00D+00 WtEn= 0.00D+00
 Large coefficients: NSaved=  9 BigCof=   10.18 CofMax=   10.00 Det=-1.05D-08
 Inversion failed.  Reducing to  8 matrices.
 Coeff-Com:  0.729D-01-0.138D-01 0.424D-02 0.836D-01 0.611D+00 0.278D+01
 Coeff-Com: -0.673D+01 0.419D+01
 Coeff:      0.729D-01-0.138D-01 0.424D-02 0.836D-01 0.611D+00 0.278D+01
 Coeff:     -0.673D+01 0.419D+01
 Gap=     0.049 Goal=   None    Shift=    0.000
 Gap=     0.073 Goal=   None    Shift=    0.000
 RMSDP=3.37D-04 MaxDP=2.63D-02 DE= 2.67D-05 OVMax= 6.30D-02

 Cycle  49  Pass 1  IDiag  1:
 E= -952.528807238528     Delta-E=        0.000163562841 Rises=F Damp=F
 DIIS: error= 1.01D-04 at cycle  49 NSaved=   9.
 NSaved= 9 IEnMin= 2 EnMin= -952.529201287828     IErMin= 5 ErrMin= 4.22D-05
 ErrMax= 1.01D-04  0.00D+00 EMaxC= 1.00D-01 BMatC= 1.74D-05 BMatP= 5.87D-06
 IDIUse=1 WtCom= 1.00D+00 WtEn= 0.00D+00
 Coeff-Com: -0.243D+00-0.197D-01-0.938D-01-0.295D+00 0.557D+00 0.330D+01
 Coeff-Com: -0.862D+01 0.582D+01 0.597D+00
 Coeff:     -0.243D+00-0.197D-01-0.938D-01-0.295D+00 0.557D+00 0.330D+01
 Coeff:     -0.862D+01 0.582D+01 0.597D+00
 Gap=     0.051 Goal=   None    Shift=    0.000
 Gap=     0.073 Goal=   None    Shift=    0.000
 RMSDP=1.62D-04 MaxDP=1.25D-02 DE= 1.64D-04 OVMax= 3.05D-02

 Cycle  50  Pass 1  IDiag  1:
 E= -952.528711098019     Delta-E=        0.000096140509 Rises=F Damp=F
 DIIS: error= 1.54D-04 at cycle  50 NSaved=  10.
 NSaved=10 IEnMin= 2 EnMin= -952.529201287828     IErMin= 5 ErrMin= 4.22D-05
 ErrMax= 1.54D-04  0.00D+00 EMaxC= 1.00D-01 BMatC= 3.96D-05 BMatP= 5.87D-06
 IDIUse=1 WtCom= 1.00D+00 WtEn= 0.00D+00
 Coeff-Com:  0.117D+01 0.407D-02 0.167D+00 0.705D+00 0.635D+00 0.197D+01
 Coeff-Com: -0.375D+01 0.152D+01 0.518D+00-0.194D+01
 Coeff:      0.117D+01 0.407D-02 0.167D+00 0.705D+00 0.635D+00 0.197D+01
 Coeff:     -0.375D+01 0.152D+01 0.518D+00-0.194D+01
 Gap=     0.045 Goal=   None    Shift=    0.000
 Gap=     0.073 Goal=   None    Shift=    0.000
 RMSDP=7.09D-04 MaxDP=5.45D-02 DE= 9.61D-05 OVMax= 1.37D-01

 Cycle  51  Pass 1  IDiag  1:
 E= -952.529050910723     Delta-E=       -0.000339812705 Rises=F Damp=F
 DIIS: error= 1.85D-04 at cycle  51 NSaved=  11.
 NSaved=11 IEnMin= 2 EnMin= -952.529201287828     IErMin= 5 ErrMin= 4.22D-05
 ErrMax= 1.85D-04  0.00D+00 EMaxC= 1.00D-01 BMatC= 6.60D-05 BMatP= 5.87D-06
 IDIUse=1 WtCom= 1.00D+00 WtEn= 0.00D+00
 Coeff-Com:  0.121D+00-0.157D-02-0.219D-01 0.664D-01 0.684D+00 0.311D+01
 Coeff-Com: -0.797D+01 0.471D+01 0.178D+01-0.261D+01 0.113D+01
 Coeff:      0.121D+00-0.157D-02-0.219D-01 0.664D-01 0.684D+00 0.311D+01
 Coeff:     -0.797D+01 0.471D+01 0.178D+01-0.261D+01 0.113D+01
 Gap=     0.046 Goal=   None    Shift=    0.000
 Gap=     0.074 Goal=   None    Shift=    0.000
 RMSDP=3.23D-04 MaxDP=2.31D-02 DE=-3.40D-04 OVMax= 6.41D-02

 Cycle  52  Pass 1  IDiag  1:
 E= -952.529185258748     Delta-E=       -0.000134348025 Rises=F Damp=F
 DIIS: error= 3.13D-04 at cycle  52 NSaved=  12.
 NSaved=12 IEnMin= 2 EnMin= -952.529201287828     IErMin= 5 ErrMin= 4.22D-05
 ErrMax= 3.13D-04  0.00D+00 EMaxC= 1.00D-01 BMatC= 2.06D-04 BMatP= 5.87D-06
 IDIUse=1 WtCom= 1.00D+00 WtEn= 0.00D+00
 Coeff-Com:  0.285D+00 0.265D-02-0.455D-01-0.675D-01 0.585D+00 0.313D+01
 Coeff-Com: -0.805D+01 0.490D+01 0.196D+01-0.264D+01 0.114D+01-0.193D+00
 Coeff:      0.285D+00 0.265D-02-0.455D-01-0.675D-01 0.585D+00 0.313D+01
 Coeff:     -0.805D+01 0.490D+01 0.196D+01-0.264D+01 0.114D+01-0.193D+00
 Gap=     0.047 Goal=   None    Shift=    0.000
 Gap=     0.074 Goal=   None    Shift=    0.000
 RMSDP=2.04D-04 MaxDP=1.45D-02 DE=-1.34D-04 OVMax= 3.96D-02

 Cycle  53  Pass 1  IDiag  1:
 E= -952.529082685870     Delta-E=        0.000102572879 Rises=F Damp=F
 DIIS: error= 2.58D-04 at cycle  53 NSaved=  13.
 NSaved=13 IEnMin= 2 EnMin= -952.529201287828     IErMin= 5 ErrMin= 4.22D-05
 ErrMax= 2.58D-04  0.00D+00 EMaxC= 1.00D-01 BMatC= 1.36D-04 BMatP= 5.87D-06
 IDIUse=1 WtCom= 1.00D+00 WtEn= 0.00D+00
 Coeff-Com: -0.192D+00 0.197D-02-0.128D+00-0.418D+00 0.447D+00 0.330D+01
 Coeff-Com: -0.896D+01 0.581D+01 0.231D+01-0.244D+01 0.120D+01-0.978D+00
 Coeff-Com:  0.106D+01
 Coeff:     -0.192D+00 0.197D-02-0.128D+00-0.418D+00 0.447D+00 0.330D+01
 Coeff:     -0.896D+01 0.581D+01 0.231D+01-0.244D+01 0.120D+01-0.978D+00
 Coeff:      0.106D+01
 Gap=     0.048 Goal=   None    Shift=    0.000
 Gap=     0.074 Goal=   None    Shift=    0.000
 RMSDP=1.51D-04 MaxDP=1.10D-02 DE= 1.03D-04 OVMax= 2.81D-02

 Cycle  54  Pass 1  IDiag  1:
 E= -952.528999331620     Delta-E=        0.000083354250 Rises=F Damp=F
 DIIS: error= 2.47D-04 at cycle  54 NSaved=  14.
 NSaved=14 IEnMin= 2 EnMin= -952.529201287828     IErMin= 5 ErrMin= 4.22D-05
 ErrMax= 2.47D-04  0.00D+00 EMaxC= 1.00D-01 BMatC= 1.32D-04 BMatP= 5.87D-06
 IDIUse=1 WtCom= 1.00D+00 WtEn= 0.00D+00
 Coeff-Com: -0.830D+00 0.320D-03-0.111D+00-0.381D+00 0.344D+00 0.265D+01
 Coeff-Com: -0.740D+01 0.484D+01 0.193D+01-0.183D+01 0.101D+01-0.174D+01
 Coeff-Com:  0.175D+01 0.776D+00
 Coeff:     -0.830D+00 0.320D-03-0.111D+00-0.381D+00 0.344D+00 0.265D+01
 Coeff:     -0.740D+01 0.484D+01 0.193D+01-0.183D+01 0.101D+01-0.174D+01
 Coeff:      0.175D+01 0.776D+00
 Gap=     0.048 Goal=   None    Shift=    0.000
 Gap=     0.074 Goal=   None    Shift=    0.000
 RMSDP=6.02D-05 MaxDP=4.25D-03 DE= 8.34D-05 OVMax= 1.27D-02

 Cycle  55  Pass 1  IDiag  1:
 E= -952.529006322801     Delta-E=       -0.000006991182 Rises=F Damp=F
 DIIS: error= 2.75D-04 at cycle  55 NSaved=  15.
 NSaved=15 IEnMin= 2 EnMin= -952.529201287828     IErMin= 5 ErrMin= 4.22D-05
 ErrMax= 2.75D-04  0.00D+00 EMaxC= 1.00D-01 BMatC= 1.74D-04 BMatP= 5.87D-06
 IDIUse=1 WtCom= 1.00D+00 WtEn= 0.00D+00
 Coeff-Com: -0.118D+01 0.312D-02-0.841D-01-0.274D+00 0.293D+00 0.200D+01
 Coeff-Com: -0.559D+01 0.365D+01 0.146D+01-0.133D+01 0.865D+00-0.236D+01
 Coeff-Com:  0.223D+01 0.879D+00 0.428D+00
 Coeff:     -0.118D+01 0.312D-02-0.841D-01-0.274D+00 0.293D+00 0.200D+01
 Coeff:     -0.559D+01 0.365D+01 0.146D+01-0.133D+01 0.865D+00-0.236D+01
 Coeff:      0.223D+01 0.879D+00 0.428D+00
 Gap=     0.048 Goal=   None    Shift=    0.000
 Gap=     0.074 Goal=   None    Shift=    0.000
 RMSDP=4.92D-05 MaxDP=3.54D-03 DE=-6.99D-06 OVMax= 1.04D-02

 Cycle  56  Pass 1  IDiag  1:
 E= -952.529012716572     Delta-E=       -0.000006393771 Rises=F Damp=F
 DIIS: error= 2.96D-04 at cycle  56 NSaved=  16.
 NSaved=16 IEnMin= 2 EnMin= -952.529201287828     IErMin= 5 ErrMin= 4.22D-05
 ErrMax= 2.96D-04  0.00D+00 EMaxC= 1.00D-01 BMatC= 2.10D-04 BMatP= 5.87D-06
 IDIUse=1 WtCom= 1.00D+00 WtEn= 0.00D+00
 Coeff-Com: -0.112D+01 0.407D-02-0.866D-01-0.262D+00 0.311D+00 0.193D+01
 Coeff-Com: -0.532D+01 0.350D+01 0.135D+01-0.128D+01 0.907D+00-0.254D+01
 Coeff-Com:  0.240D+01 0.625D+00 0.888D-01 0.484D+00
 Coeff:     -0.112D+01 0.407D-02-0.866D-01-0.262D+00 0.311D+00 0.193D+01
 Coeff:     -0.532D+01 0.350D+01 0.135D+01-0.128D+01 0.907D+00-0.254D+01
 Coeff:      0.240D+01 0.625D+00 0.888D-01 0.484D+00
 Gap=     0.048 Goal=   None    Shift=    0.000
 Gap=     0.074 Goal=   None    Shift=    0.000
 RMSDP=2.08D-05 MaxDP=1.60D-03 DE=-6.39D-06 OVMax= 3.66D-03

 Cycle  57  Pass 1  IDiag  1:
 E= -952.529001232674     Delta-E=        0.000011483899 Rises=F Damp=F
 DIIS: error= 2.97D-04 at cycle  57 NSaved=  17.
 NSaved=17 IEnMin= 2 EnMin= -952.529201287828     IErMin= 5 ErrMin= 4.22D-05
 ErrMax= 2.97D-04  0.00D+00 EMaxC= 1.00D-01 BMatC= 2.08D-04 BMatP= 5.87D-06
 IDIUse=1 WtCom= 1.00D+00 WtEn= 0.00D+00
 Coeff-Com: -0.971D+00 0.358D-02-0.112D+00-0.313D+00 0.379D+00 0.217D+01
 Coeff-Com: -0.595D+01 0.394D+01 0.140D+01-0.139D+01 0.106D+01-0.261D+01
 Coeff-Com:  0.258D+01 0.279D+00-0.865D+00-0.505D+00 0.190D+01
 Coeff:     -0.971D+00 0.358D-02-0.112D+00-0.313D+00 0.379D+00 0.217D+01
 Coeff:     -0.595D+01 0.394D+01 0.140D+01-0.139D+01 0.106D+01-0.261D+01
 Coeff:      0.258D+01 0.279D+00-0.865D+00-0.505D+00 0.190D+01
 Gap=     0.049 Goal=   None    Shift=    0.000
 Gap=     0.074 Goal=   None    Shift=    0.000
 RMSDP=7.02D-05 MaxDP=4.98D-03 DE= 1.15D-05 OVMax= 1.28D-02

 Cycle  58  Pass 1  IDiag  1:
 E= -952.528966655018     Delta-E=        0.000034577655 Rises=F Damp=F
 DIIS: error= 2.89D-04 at cycle  58 NSaved=  18.
 NSaved=18 IEnMin= 2 EnMin= -952.529201287828     IErMin= 5 ErrMin= 4.22D-05
 ErrMax= 2.89D-04  0.00D+00 EMaxC= 1.00D-01 BMatC= 1.96D-04 BMatP= 5.87D-06
 IDIUse=1 WtCom= 1.00D+00 WtEn= 0.00D+00
 Coeff-Com: -0.916D+00-0.661D-04-0.119D+00-0.339D+00 0.384D+00 0.231D+01
 Coeff-Com: -0.628D+01 0.415D+01 0.151D+01-0.150D+01 0.109D+01-0.238D+01
 Coeff-Com:  0.239D+01 0.315D+00-0.964D+00-0.119D+01 0.203D+01 0.513D+00
 Coeff:     -0.916D+00-0.661D-04-0.119D+00-0.339D+00 0.384D+00 0.231D+01
 Coeff:     -0.628D+01 0.415D+01 0.151D+01-0.150D+01 0.109D+01-0.238D+01
 Coeff:      0.239D+01 0.315D+00-0.964D+00-0.119D+01 0.203D+01 0.513D+00
 Gap=     0.049 Goal=   None    Shift=    0.000
 Gap=     0.074 Goal=   None    Shift=    0.000
 RMSDP=2.42D-05 MaxDP=1.72D-03 DE= 3.46D-05 OVMax= 4.59D-03

 Cycle  59  Pass 1  IDiag  1:
 E= -952.528957081132     Delta-E=        0.000009573886 Rises=F Damp=F
 DIIS: error= 2.82D-04 at cycle  59 NSaved=  19.
 NSaved=19 IEnMin= 2 EnMin= -952.529201287828     IErMin= 5 ErrMin= 4.22D-05
 ErrMax= 2.82D-04  0.00D+00 EMaxC= 1.00D-01 BMatC= 1.88D-04 BMatP= 5.87D-06
 IDIUse=1 WtCom= 1.00D+00 WtEn= 0.00D+00
 Coeff-Com: -0.109D+01-0.372D-02-0.117D+00-0.360D+00 0.347D+00 0.228D+01
 Coeff-Com: -0.627D+01 0.415D+01 0.156D+01-0.150D+01 0.104D+01-0.217D+01
 Coeff-Com:  0.222D+01 0.566D+00-0.582D+00-0.153D+01 0.132D+01-0.801D+00
 Coeff-Com:  0.194D+01
 Coeff:     -0.109D+01-0.372D-02-0.117D+00-0.360D+00 0.347D+00 0.228D+01
 Coeff:     -0.627D+01 0.415D+01 0.156D+01-0.150D+01 0.104D+01-0.217D+01
 Coeff:      0.222D+01 0.566D+00-0.582D+00-0.153D+01 0.132D+01-0.801D+00
 Coeff:      0.194D+01
 Gap=     0.049 Goal=   None    Shift=    0.000
 Gap=     0.074 Goal=   None    Shift=    0.000
 RMSDP=1.30D-05 MaxDP=9.28D-04 DE= 9.57D-06 OVMax= 2.76D-03

 Cycle  60  Pass 1  IDiag  1:
 E= -952.528957287057     Delta-E=       -0.000000205925 Rises=F Damp=F
 DIIS: error= 2.89D-04 at cycle  60 NSaved=  20.
 NSaved=20 IEnMin= 2 EnMin= -952.529201287828     IErMin= 5 ErrMin= 4.22D-05
 ErrMax= 2.89D-04  0.00D+00 EMaxC= 1.00D-01 BMatC= 1.97D-04 BMatP= 5.87D-06
 IDIUse=1 WtCom= 1.00D+00 WtEn= 0.00D+00
 Coeff-Com: -0.107D+01-0.414D-02-0.115D+00-0.341D+00 0.363D+00 0.228D+01
 Coeff-Com: -0.624D+01 0.410D+01 0.153D+01-0.149D+01 0.106D+01-0.224D+01
 Coeff-Com:  0.229D+01 0.503D+00-0.741D+00-0.153D+01 0.159D+01-0.142D+00
 Coeff-Com:  0.153D+01-0.314D+00
 Coeff:     -0.107D+01-0.414D-02-0.115D+00-0.341D+00 0.363D+00 0.228D+01
 Coeff:     -0.624D+01 0.410D+01 0.153D+01-0.149D+01 0.106D+01-0.224D+01
 Coeff:      0.229D+01 0.503D+00-0.741D+00-0.153D+01 0.159D+01-0.142D+00
 Coeff:      0.153D+01-0.314D+00
 Gap=     0.049 Goal=   None    Shift=    0.000
 Gap=     0.074 Goal=   None    Shift=    0.000
 RMSDP=4.15D-06 MaxDP=2.77D-04 DE=-2.06D-07 OVMax= 7.71D-04

 Cycle  61  Pass 1  IDiag  1:
 E= -952.528958899392     Delta-E=       -0.000001612334 Rises=F Damp=F
 DIIS: error= 2.90D-04 at cycle  61 NSaved=  20.
 NSaved=20 IEnMin= 2 EnMin= -952.529201287828     IErMin= 5 ErrMin= 4.22D-05
 ErrMax= 2.90D-04  0.00D+00 EMaxC= 1.00D-01 BMatC= 1.99D-04 BMatP= 5.87D-06
 IDIUse=1 WtCom= 1.00D+00 WtEn= 0.00D+00
 Coeff-Com: -0.212D+01 0.513D-02-0.831D-01-0.237D+00 0.201D+00 0.885D+00
 Coeff-Com: -0.271D+01 0.200D+01 0.454D+00 0.642D+00-0.401D+01 0.376D+01
 Coeff-Com:  0.101D+01 0.132D+00 0.478D+00 0.834D+00-0.142D+01 0.109D+01
 Coeff-Com:  0.112D+01-0.102D+01
 Coeff:     -0.212D+01 0.513D-02-0.831D-01-0.237D+00 0.201D+00 0.885D+00
 Coeff:     -0.271D+01 0.200D+01 0.454D+00 0.642D+00-0.401D+01 0.376D+01
 Coeff:      0.101D+01 0.132D+00 0.478D+00 0.834D+00-0.142D+01 0.109D+01
 Coeff:      0.112D+01-0.102D+01
 Gap=     0.049 Goal=   None    Shift=    0.000
 Gap=     0.074 Goal=   None    Shift=    0.000
 RMSDP=5.93D-05 MaxDP=3.89D-03 DE=-1.61D-06 OVMax= 1.26D-02

 Cycle  62  Pass 1  IDiag  1:
 E= -952.528956423225     Delta-E=        0.000002476167 Rises=F Damp=F
 DIIS: error= 3.17D-04 at cycle  62 NSaved=  20.
 NSaved=20 IEnMin= 1 EnMin= -952.529201287828     IErMin= 4 ErrMin= 4.22D-05
 ErrMax= 3.17D-04  0.00D+00 EMaxC= 1.00D-01 BMatC= 2.50D-04 BMatP= 5.87D-06
 IDIUse=1 WtCom= 1.00D+00 WtEn= 0.00D+00
 Coeff-Com:  0.265D-01 0.353D-01 0.408D+00 0.551D+00 0.687D+00-0.116D+01
 Coeff-Com:  0.427D+00-0.461D+00 0.722D+00-0.523D+01 0.441D+01-0.208D+01
 Coeff-Com: -0.368D+01 0.383D+01 0.594D+01 0.722D+01-0.911D+01-0.269D+01
 Coeff-Com:  0.263D+01-0.147D+01
 Coeff:      0.265D-01 0.353D-01 0.408D+00 0.551D+00 0.687D+00-0.116D+01
 Coeff:      0.427D+00-0.461D+00 0.722D+00-0.523D+01 0.441D+01-0.208D+01
 Coeff:     -0.368D+01 0.383D+01 0.594D+01 0.722D+01-0.911D+01-0.269D+01
 Coeff:      0.263D+01-0.147D+01
 Gap=     0.050 Goal=   None    Shift=    0.000
 Gap=     0.074 Goal=   None    Shift=    0.000
 RMSDP=3.64D-04 MaxDP=2.72D-02 DE= 2.48D-06 OVMax= 7.28D-02

 Cycle  63  Pass 1  IDiag  1:
 E= -952.528823248582     Delta-E=        0.000133174643 Rises=F Damp=F
 DIIS: error= 2.74D-04 at cycle  63 NSaved=  20.
 NSaved=20 IEnMin= 1 EnMin= -952.529201287828     IErMin= 4 ErrMin= 4.22D-05
 ErrMax= 2.74D-04  0.00D+00 EMaxC= 1.00D-01 BMatC= 1.67D-04 BMatP= 5.87D-06
 IDIUse=1 WtCom= 1.00D+00 WtEn= 0.00D+00
 Large coefficients: NSaved= 20 BigCof=   15.12 CofMax=   10.00 Det=-4.74D-10
 Inversion failed.  Reducing to 19 matrices.
 Large coefficients: NSaved= 19 BigCof=   17.59 CofMax=   10.00 Det=-4.99D-10
 Inversion failed.  Reducing to 18 matrices.
 Large coefficients: NSaved= 18 BigCof=   15.23 CofMax=   10.00 Det=-5.25D-10
 Inversion failed.  Reducing to 17 matrices.
 Large coefficients: NSaved= 17 BigCof=   14.69 CofMax=   10.00 Det=-5.38D-10
 Inversion failed.  Reducing to 16 matrices.
 Large coefficients: NSaved= 16 BigCof=   11.27 CofMax=   10.00 Det=-6.10D-10
 Inversion failed.  Reducing to 15 matrices.
 Coeff-Com:  0.414D-01-0.538D+00 0.816D+00-0.340D-01 0.633D+00-0.485D+01
 Coeff-Com:  0.472D+01 0.165D+01 0.263D+00-0.345D+01 0.349D+01 0.169D+01
 Coeff-Com: -0.650D+01 0.514D+01-0.207D+01
 Coeff:      0.414D-01-0.538D+00 0.816D+00-0.340D-01 0.633D+00-0.485D+01
 Coeff:      0.472D+01 0.165D+01 0.263D+00-0.345D+01 0.349D+01 0.169D+01
 Coeff:     -0.650D+01 0.514D+01-0.207D+01
 Gap=     0.048 Goal=   None    Shift=    0.000
 Gap=     0.074 Goal=   None    Shift=    0.000
 RMSDP=2.84D-04 MaxDP=2.13D-02 DE= 1.33D-04 OVMax= 5.50D-02

 Cycle  64  Pass 1  IDiag  1:
 E= -952.528949428785     Delta-E=       -0.000126180203 Rises=F Damp=F
 DIIS: error= 2.93D-04 at cycle  64 NSaved=  16.
 NSaved=16 IEnMin= 1 EnMin= -952.529201287828     IErMin= 2 ErrMin= 4.95D-05
 ErrMax= 2.93D-04  0.00D+00 EMaxC= 1.00D-01 BMatC= 1.89D-04 BMatP= 6.70D-06
 IDIUse=1 WtCom= 1.00D+00 WtEn= 0.00D+00
 Coeff-Com:  0.433D-01-0.318D+00 0.483D+00 0.752D-01 0.737D+00-0.495D+01
 Coeff-Com:  0.486D+01 0.171D+01-0.379D+00-0.426D+01 0.445D+01 0.232D+01
 Coeff-Com: -0.721D+01 0.540D+01-0.246D+01 0.505D+00
 Coeff:      0.433D-01-0.318D+00 0.483D+00 0.752D-01 0.737D+00-0.495D+01
 Coeff:      0.486D+01 0.171D+01-0.379D+00-0.426D+01 0.445D+01 0.232D+01
 Coeff:     -0.721D+01 0.540D+01-0.246D+01 0.505D+00
 Gap=     0.048 Goal=   None    Shift=    0.000
 Gap=     0.074 Goal=   None    Shift=    0.000
 RMSDP=6.38D-05 MaxDP=4.65D-03 DE=-1.26D-04 OVMax= 1.29D-02

 Cycle  65  Pass 1  IDiag  1:
 E= -952.528972358546     Delta-E=       -0.000022929761 Rises=F Damp=F
 DIIS: error= 2.97D-04 at cycle  65 NSaved=  17.
 NSaved=17 IEnMin= 1 EnMin= -952.529201287828     IErMin= 2 ErrMin= 4.95D-05
 ErrMax= 2.97D-04  0.00D+00 EMaxC= 1.00D-01 BMatC= 2.10D-04 BMatP= 6.70D-06
 IDIUse=1 WtCom= 1.00D+00 WtEn= 0.00D+00
 Coeff-Com:  0.425D-01 0.527D-01 0.195D-01 0.232D+00 0.733D+00-0.491D+01
 Coeff-Com:  0.473D+01 0.145D+01-0.933D+00-0.391D+01 0.465D+01 0.229D+01
 Coeff-Com: -0.653D+01 0.465D+01-0.257D+01 0.382D+00 0.614D+00
 Coeff:      0.425D-01 0.527D-01 0.195D-01 0.232D+00 0.733D+00-0.491D+01
 Coeff:      0.473D+01 0.145D+01-0.933D+00-0.391D+01 0.465D+01 0.229D+01
 Coeff:     -0.653D+01 0.465D+01-0.257D+01 0.382D+00 0.614D+00
 Gap=     0.049 Goal=   None    Shift=    0.000
 Gap=     0.074 Goal=   None    Shift=    0.000
 RMSDP=5.69D-06 MaxDP=4.15D-04 DE=-2.29D-05 OVMax= 9.19D-04

 Cycle  66  Pass 1  IDiag  1:
 E= -952.528972393790     Delta-E=       -0.000000035244 Rises=F Damp=F
 DIIS: error= 3.01D-04 at cycle  66 NSaved=  18.
 NSaved=18 IEnMin= 1 EnMin= -952.529201287828     IErMin= 2 ErrMin= 4.95D-05
 ErrMax= 3.01D-04  0.00D+00 EMaxC= 1.00D-01 BMatC= 2.03D-04 BMatP= 6.70D-06
 IDIUse=1 WtCom= 1.00D+00 WtEn= 0.00D+00
 Coeff-Com:  0.431D-01 0.175D-01 0.270D+00 0.567D-02 0.712D+00-0.508D+01
 Coeff-Com:  0.478D+01 0.135D+01-0.937D+00-0.305D+01 0.421D+01 0.175D+01
 Coeff-Com: -0.590D+01 0.411D+01-0.257D+01-0.414D-01 0.543D+00 0.781D+00
 Coeff:      0.431D-01 0.175D-01 0.270D+00 0.567D-02 0.712D+00-0.508D+01
 Coeff:      0.478D+01 0.135D+01-0.937D+00-0.305D+01 0.421D+01 0.175D+01
 Coeff:     -0.590D+01 0.411D+01-0.257D+01-0.414D-01 0.543D+00 0.781D+00
 Gap=     0.049 Goal=   None    Shift=    0.000
 Gap=     0.074 Goal=   None    Shift=    0.000
 RMSDP=1.68D-05 MaxDP=1.24D-03 DE=-3.52D-08 OVMax= 3.46D-03

 Cycle  67  Pass 1  IDiag  1:
 E= -952.528976425428     Delta-E=       -0.000004031638 Rises=F Damp=F
 DIIS: error= 3.06D-04 at cycle  67 NSaved=  19.
 NSaved=19 IEnMin= 1 EnMin= -952.529201287828     IErMin= 2 ErrMin= 4.95D-05
 ErrMax= 3.06D-04  0.00D+00 EMaxC= 1.00D-01 BMatC= 2.11D-04 BMatP= 6.70D-06
 IDIUse=1 WtCom= 1.00D+00 WtEn= 0.00D+00
 Coeff-Com:  0.414D-01-0.118D+00 0.510D+00-0.109D+00 0.683D+00-0.482D+01
 Coeff-Com:  0.460D+01 0.172D+01-0.108D+01-0.585D+01 0.534D+01 0.392D+01
 Coeff-Com: -0.670D+01 0.472D+01-0.329D+01 0.583D+00 0.141D+01 0.245D+01
 Coeff-Com: -0.301D+01
 Coeff:      0.414D-01-0.118D+00 0.510D+00-0.109D+00 0.683D+00-0.482D+01
 Coeff:      0.460D+01 0.172D+01-0.108D+01-0.585D+01 0.534D+01 0.392D+01
 Coeff:     -0.670D+01 0.472D+01-0.329D+01 0.583D+00 0.141D+01 0.245D+01
 Coeff:     -0.301D+01
 Gap=     0.048 Goal=   None    Shift=    0.000
 Gap=     0.074 Goal=   None    Shift=    0.000
 RMSDP=7.49D-05 MaxDP=5.53D-03 DE=-4.03D-06 OVMax= 1.47D-02

 Cycle  68  Pass 1  IDiag  1:
 E= -952.528995868953     Delta-E=       -0.000019443525 Rises=F Damp=F
 DIIS: error= 3.37D-04 at cycle  68 NSaved=  20.
 NSaved=20 IEnMin= 1 EnMin= -952.529201287828     IErMin= 2 ErrMin= 4.95D-05
 ErrMax= 3.37D-04  0.00D+00 EMaxC= 1.00D-01 BMatC= 2.59D-04 BMatP= 6.70D-06
 IDIUse=1 WtCom= 1.00D+00 WtEn= 0.00D+00
 Coeff-Com:  0.406D-01-0.893D-01 0.534D+00-0.151D+00 0.665D+00-0.478D+01
 Coeff-Com:  0.452D+01 0.180D+01-0.102D+01-0.590D+01 0.518D+01 0.398D+01
 Coeff-Com: -0.669D+01 0.465D+01-0.331D+01 0.569D+00 0.161D+01 0.310D+01
 Coeff-Com: -0.394D+01 0.225D+00
 Coeff:      0.406D-01-0.893D-01 0.534D+00-0.151D+00 0.665D+00-0.478D+01
 Coeff:      0.452D+01 0.180D+01-0.102D+01-0.590D+01 0.518D+01 0.398D+01
 Coeff:     -0.669D+01 0.465D+01-0.331D+01 0.569D+00 0.161D+01 0.310D+01
 Coeff:     -0.394D+01 0.225D+00
 Gap=     0.048 Goal=   None    Shift=    0.000
 Gap=     0.074 Goal=   None    Shift=    0.000
 RMSDP=3.98D-06 MaxDP=3.48D-04 DE=-1.94D-05 OVMax= 5.62D-04

 Cycle  69  Pass 1  IDiag  1:
 E= -952.528997764086     Delta-E=       -0.000001895134 Rises=F Damp=F
 DIIS: error= 3.38D-04 at cycle  69 NSaved=  20.
 NSaved=20 IEnMin= 1 EnMin= -952.529201287828     IErMin= 2 ErrMin= 4.95D-05
 ErrMax= 3.38D-04  0.00D+00 EMaxC= 1.00D-01 BMatC= 2.59D-04 BMatP= 6.70D-06
 IDIUse=1 WtCom= 1.00D+00 WtEn= 0.00D+00
 Large coefficients: NSaved= 20 BigCof=   15.83 CofMax=   10.00 Det=-1.60D-09
 Inversion failed.  Reducing to 19 matrices.
 Coeff-Com:  0.403D-01 0.125D+01-0.282D+01 0.207D+01 0.726D+00-0.492D+01
 Coeff-Com:  0.439D+01-0.739D+00-0.185D+01 0.249D+01 0.288D+01-0.214D+01
 Coeff-Com: -0.177D+01 0.139D+01-0.699D+00-0.254D+01 0.282D+01-0.640D+01
 Coeff-Com:  0.685D+01
 Coeff:      0.403D-01 0.125D+01-0.282D+01 0.207D+01 0.726D+00-0.492D+01
 Coeff:      0.439D+01-0.739D+00-0.185D+01 0.249D+01 0.288D+01-0.214D+01
 Coeff:     -0.177D+01 0.139D+01-0.699D+00-0.254D+01 0.282D+01-0.640D+01
 Coeff:      0.685D+01
 Gap=     0.051 Goal=   None    Shift=    0.000
 Gap=     0.073 Goal=   None    Shift=    0.000
 RMSDP=7.71D-04 MaxDP=5.79D-02 DE=-1.90D-06 OVMax= 1.49D-01

 Cycle  70  Pass 1  IDiag  1:
 E= -952.528605722389     Delta-E=        0.000392041698 Rises=F Damp=F
 DIIS: error= 3.54D-04 at cycle  70 NSaved=  20.
 NSaved=20 IEnMin= 1 EnMin= -952.529201287828     IErMin= 2 ErrMin= 4.95D-05
 ErrMax= 3.54D-04  0.00D+00 EMaxC= 1.00D-01 BMatC= 2.63D-04 BMatP= 6.70D-06
 IDIUse=1 WtCom= 1.00D+00 WtEn= 0.00D+00
 Coeff-Com:  0.195D-01 0.112D+00 0.560D-02 0.949D-01 0.324D+00-0.303D+01
 Coeff-Com:  0.269D+01 0.785D+00-0.563D+00-0.302D+01 0.253D+01 0.215D+01
 Coeff-Com: -0.176D+01 0.124D+01 0.367D+00-0.387D+00 0.402D+00 0.544D-01
 Coeff-Com: -0.354D-01-0.966D+00
 Coeff:      0.195D-01 0.112D+00 0.560D-02 0.949D-01 0.324D+00-0.303D+01
 Coeff:      0.269D+01 0.785D+00-0.563D+00-0.302D+01 0.253D+01 0.215D+01
 Coeff:     -0.176D+01 0.124D+01 0.367D+00-0.387D+00 0.402D+00 0.544D-01
 Coeff:     -0.354D-01-0.966D+00
 Gap=     0.047 Goal=   None    Shift=    0.000
 Gap=     0.074 Goal=   None    Shift=    0.000
 RMSDP=6.29D-04 MaxDP=4.74D-02 DE= 3.92D-04 OVMax= 1.21D-01

 Cycle  71  Pass 1  IDiag  1:
 E= -952.528951641607     Delta-E=       -0.000345919218 Rises=F Damp=F
 DIIS: error= 3.00D-04 at cycle  71 NSaved=  20.
 NSaved=20 IEnMin= 1 EnMin= -952.529201287828     IErMin= 2 ErrMin= 4.95D-05
 ErrMax= 3.00D-04  0.00D+00 EMaxC= 1.00D-01 BMatC= 1.98D-04 BMatP= 6.70D-06
 IDIUse=1 WtCom= 1.00D+00 WtEn= 0.00D+00
 Coeff-Com:  0.181D-01 0.418D+00-0.438D+00 0.294D+00 0.218D+00-0.264D+01
 Coeff-Com:  0.215D+01 0.365D+00-0.948D+00-0.252D+01 0.234D+01 0.203D+01
 Coeff-Com: -0.247D+00 0.766D+00 0.526D+00-0.699D+00 0.367D+00-0.627D+00
 Coeff-Com: -0.997D+00 0.624D+00
 Coeff:      0.181D-01 0.418D+00-0.438D+00 0.294D+00 0.218D+00-0.264D+01
 Coeff:      0.215D+01 0.365D+00-0.948D+00-0.252D+01 0.234D+01 0.203D+01
 Coeff:     -0.247D+00 0.766D+00 0.526D+00-0.699D+00 0.367D+00-0.627D+00
 Coeff:     -0.997D+00 0.624D+00
 Gap=     0.049 Goal=   None    Shift=    0.000
 Gap=     0.074 Goal=   None    Shift=    0.000
 RMSDP=6.77D-05 MaxDP=4.80D-03 DE=-3.46D-04 OVMax= 1.28D-02

 Cycle  72  Pass 1  IDiag  1:
 E= -952.528921834077     Delta-E=        0.000029807530 Rises=F Damp=F
 DIIS: error= 2.94D-04 at cycle  72 NSaved=  20.
 NSaved=20 IEnMin= 1 EnMin= -952.529201287828     IErMin= 2 ErrMin= 4.95D-05
 ErrMax= 2.94D-04  0.00D+00 EMaxC= 1.00D-01 BMatC= 1.88D-04 BMatP= 6.70D-06
 IDIUse=1 WtCom= 1.00D+00 WtEn= 0.00D+00
 Coeff-Com:  0.283D-01 0.252D-01 0.583D+00-0.785D-01 0.727D+00-0.578D+01
 Coeff-Com:  0.506D+01-0.954D+00-0.262D+01 0.154D+01 0.405D+01-0.741D+00
 Coeff-Com:  0.313D+00-0.556D+00-0.322D+01 0.398D+01-0.212D+01 0.351D+01
 Coeff-Com: -0.939D+00-0.181D+01
 Coeff:      0.283D-01 0.252D-01 0.583D+00-0.785D-01 0.727D+00-0.578D+01
 Coeff:      0.506D+01-0.954D+00-0.262D+01 0.154D+01 0.405D+01-0.741D+00
 Coeff:      0.313D+00-0.556D+00-0.322D+01 0.398D+01-0.212D+01 0.351D+01
 Coeff:     -0.939D+00-0.181D+01
 Gap=     0.052 Goal=   None    Shift=    0.000
 Gap=     0.073 Goal=   None    Shift=    0.000
 RMSDP=3.92D-04 MaxDP=2.93D-02 DE= 2.98D-05 OVMax= 7.37D-02

 Cycle  73  Pass 1  IDiag  1:
 E= -952.528711960237     Delta-E=        0.000209873840 Rises=F Damp=F
 DIIS: error= 3.32D-04 at cycle  73 NSaved=  20.
 NSaved=20 IEnMin= 1 EnMin= -952.529201287828     IErMin= 2 ErrMin= 4.95D-05
 ErrMax= 3.32D-04  0.00D+00 EMaxC= 1.00D-01 BMatC= 2.17D-04 BMatP= 6.70D-06
 IDIUse=1 WtCom= 1.00D+00 WtEn= 0.00D+00
 Coeff-Com:  0.239D-01 0.151D+01-0.287D+01 0.178D+01 0.227D+00-0.270D+01
 Coeff-Com:  0.213D+01-0.115D+00-0.157D+01-0.244D+01 0.278D+01 0.191D+01
 Coeff-Com: -0.663D+00 0.782D+00 0.933D+00-0.137D+01-0.428D+01 0.409D+01
 Coeff-Com:  0.230D+01-0.145D+01
 Coeff:      0.239D-01 0.151D+01-0.287D+01 0.178D+01 0.227D+00-0.270D+01
 Coeff:      0.213D+01-0.115D+00-0.157D+01-0.244D+01 0.278D+01 0.191D+01
 Coeff:     -0.663D+00 0.782D+00 0.933D+00-0.137D+01-0.428D+01 0.409D+01
 Coeff:      0.230D+01-0.145D+01
 Gap=     0.051 Goal=   None    Shift=    0.000
 Gap=     0.074 Goal=   None    Shift=    0.000
 RMSDP=9.42D-05 MaxDP=7.81D-03 DE= 2.10D-04 OVMax= 1.64D-02

 Cycle  74  Pass 1  IDiag  1:
 E= -952.528777565535     Delta-E=       -0.000065605298 Rises=F Damp=F
 DIIS: error= 3.11D-04 at cycle  74 NSaved=  20.
 NSaved=20 IEnMin= 1 EnMin= -952.529201287828     IErMin= 2 ErrMin= 4.95D-05
 ErrMax= 3.11D-04  0.00D+00 EMaxC= 1.00D-01 BMatC= 1.89D-04 BMatP= 6.70D-06
 IDIUse=1 WtCom= 1.00D+00 WtEn= 0.00D+00
 Coeff-Com:  0.240D-01 0.109D+01-0.170D+01 0.108D+01 0.321D+00-0.341D+01
 Coeff-Com:  0.276D+01-0.166D+00-0.193D+01-0.259D+01 0.358D+01 0.210D+01
 Coeff-Com: -0.341D+00 0.607D+00 0.420D-02-0.708D-01-0.297D+01 0.346D+01
 Coeff-Com: -0.169D+01 0.838D+00
 Coeff:      0.240D-01 0.109D+01-0.170D+01 0.108D+01 0.321D+00-0.341D+01
 Coeff:      0.276D+01-0.166D+00-0.193D+01-0.259D+01 0.358D+01 0.210D+01
 Coeff:     -0.341D+00 0.607D+00 0.420D-02-0.708D-01-0.297D+01 0.346D+01
 Coeff:     -0.169D+01 0.838D+00
 Gap=     0.051 Goal=   None    Shift=    0.000
 Gap=     0.074 Goal=   None    Shift=    0.000
 RMSDP=2.69D-05 MaxDP=2.08D-03 DE=-6.56D-05 OVMax= 5.39D-03

 Cycle  75  Pass 1  IDiag  1:
 E= -952.528790050239     Delta-E=       -0.000012484705 Rises=F Damp=F
 DIIS: error= 3.11D-04 at cycle  75 NSaved=  20.
 NSaved=20 IEnMin= 1 EnMin= -952.529201287828     IErMin= 2 ErrMin= 4.95D-05
 ErrMax= 3.11D-04  0.00D+00 EMaxC= 1.00D-01 BMatC= 1.87D-04 BMatP= 6.70D-06
 IDIUse=1 WtCom= 1.00D+00 WtEn= 0.00D+00
 Coeff-Com:  0.219D-01-0.123D+00 0.628D+00-0.203D+00 0.490D+00-0.427D+01
 Coeff-Com:  0.372D+01-0.224D+00-0.162D+01-0.269D+00 0.285D+01 0.512D+00
 Coeff-Com:  0.706D+00-0.151D+00-0.203D+01 0.214D+01-0.120D+00 0.262D-01
 Coeff-Com: -0.592D+01 0.484D+01
 Coeff:      0.219D-01-0.123D+00 0.628D+00-0.203D+00 0.490D+00-0.427D+01
 Coeff:      0.372D+01-0.224D+00-0.162D+01-0.269D+00 0.285D+01 0.512D+00
 Coeff:      0.706D+00-0.151D+00-0.203D+01 0.214D+01-0.120D+00 0.262D-01
 Coeff:     -0.592D+01 0.484D+01
 Gap=     0.050 Goal=   None    Shift=    0.000
 Gap=     0.074 Goal=   None    Shift=    0.000
 RMSDP=1.67D-04 MaxDP=1.19D-02 DE=-1.25D-05 OVMax= 3.31D-02

 Cycle  76  Pass 1  IDiag  1:
 E= -952.528863146134     Delta-E=       -0.000073095895 Rises=F Damp=F
 DIIS: error= 3.06D-04 at cycle  76 NSaved=  20.
 NSaved=20 IEnMin= 1 EnMin= -952.529201287828     IErMin= 2 ErrMin= 4.95D-05
 ErrMax= 3.06D-04  0.00D+00 EMaxC= 1.00D-01 BMatC= 1.88D-04 BMatP= 6.70D-06
 IDIUse=1 WtCom= 1.00D+00 WtEn= 0.00D+00
 Coeff-Com:  0.113D-01-0.308D+00 0.142D+01-0.690D+00 0.542D+00-0.462D+01
 Coeff-Com:  0.413D+01-0.429D+00-0.246D+01-0.174D+01 0.387D+01 0.165D+01
 Coeff-Com: -0.288D+00 0.138D+00-0.148D+01 0.183D+01-0.133D+01 0.187D+01
 Coeff-Com: -0.164D+01 0.532D+00
 Coeff:      0.113D-01-0.308D+00 0.142D+01-0.690D+00 0.542D+00-0.462D+01
 Coeff:      0.413D+01-0.429D+00-0.246D+01-0.174D+01 0.387D+01 0.165D+01
 Coeff:     -0.288D+00 0.138D+00-0.148D+01 0.183D+01-0.133D+01 0.187D+01
 Coeff:     -0.164D+01 0.532D+00
 Gap=     0.051 Goal=   None    Shift=    0.000
 Gap=     0.074 Goal=   None    Shift=    0.000
 RMSDP=9.98D-05 MaxDP=7.36D-03 DE=-7.31D-05 OVMax= 1.82D-02

 Cycle  77  Pass 1  IDiag  1:
 E= -952.528807569851     Delta-E=        0.000055576283 Rises=F Damp=F
 DIIS: error= 3.17D-04 at cycle  77 NSaved=  20.
 NSaved=20 IEnMin= 1 EnMin= -952.529201287828     IErMin= 2 ErrMin= 4.95D-05
 ErrMax= 3.17D-04  0.00D+00 EMaxC= 1.00D-01 BMatC= 1.98D-04 BMatP= 6.70D-06
 IDIUse=1 WtCom= 1.00D+00 WtEn= 0.00D+00
 Coeff-Com:  0.291D-01 0.111D+01-0.182D+01 0.128D+01 0.575D+00-0.457D+01
 Coeff-Com:  0.387D+01-0.957D+00-0.278D+01-0.110D+00 0.394D+01 0.311D+00
 Coeff-Com:  0.868D-01 0.258D-01-0.147D+01 0.154D+01-0.458D+01 0.523D+01
 Coeff-Com:  0.129D+00-0.852D+00
 Coeff:      0.291D-01 0.111D+01-0.182D+01 0.128D+01 0.575D+00-0.457D+01
 Coeff:      0.387D+01-0.957D+00-0.278D+01-0.110D+00 0.394D+01 0.311D+00
 Coeff:      0.868D-01 0.258D-01-0.147D+01 0.154D+01-0.458D+01 0.523D+01
 Coeff:      0.129D+00-0.852D+00
 Gap=     0.053 Goal=   None    Shift=    0.000
 Gap=     0.074 Goal=   None    Shift=    0.000
 RMSDP=3.08D-04 MaxDP=2.30D-02 DE= 5.56D-05 OVMax= 5.99D-02

 Cycle  78  Pass 1  IDiag  1:
 E= -952.528629053204     Delta-E=        0.000178516648 Rises=F Damp=F
 DIIS: error= 3.66D-04 at cycle  78 NSaved=  20.
 NSaved=20 IEnMin= 1 EnMin= -952.529201287828     IErMin= 2 ErrMin= 4.95D-05
 ErrMax= 3.66D-04  0.00D+00 EMaxC= 1.00D-01 BMatC= 2.59D-04 BMatP= 6.70D-06
 IDIUse=1 WtCom= 1.00D+00 WtEn= 0.00D+00
 Coeff-Com:  0.631D-02-0.312D+00 0.101D+01-0.537D+00 0.246D+00-0.246D+01
 Coeff-Com:  0.220D+01 0.401D+00-0.822D+00-0.220D+01 0.210D+01 0.170D+01
 Coeff-Com: -0.283D+00 0.522D+00-0.895D-02 0.301D-01 0.174D+01-0.216D+01
 Coeff-Com:  0.143D+01-0.160D+01
 Coeff:      0.631D-02-0.312D+00 0.101D+01-0.537D+00 0.246D+00-0.246D+01
 Coeff:      0.220D+01 0.401D+00-0.822D+00-0.220D+01 0.210D+01 0.170D+01
 Coeff:     -0.283D+00 0.522D+00-0.895D-02 0.301D-01 0.174D+01-0.216D+01
 Coeff:      0.143D+01-0.160D+01
 Gap=     0.048 Goal=   None    Shift=    0.000
 Gap=     0.074 Goal=   None    Shift=    0.000
 RMSDP=5.94D-04 MaxDP=4.39D-02 DE= 1.79D-04 OVMax= 1.13D-01

 Cycle  79  Pass 1  IDiag  1:
 E= -952.528953519404     Delta-E=       -0.000324466201 Rises=F Damp=F
 DIIS: error= 3.00D-04 at cycle  79 NSaved=  20.
 NSaved=20 IEnMin= 1 EnMin= -952.529201287828     IErMin= 2 ErrMin= 4.95D-05
 ErrMax= 3.00D-04  0.00D+00 EMaxC= 1.00D-01 BMatC= 2.02D-04 BMatP= 6.70D-06
 IDIUse=1 WtCom= 1.00D+00 WtEn= 0.00D+00
 Coeff-Com:  0.286D-02-0.340D-01 0.672D+00-0.363D+00 0.220D+00-0.263D+01
 Coeff-Com:  0.232D+01 0.239D+00-0.162D+01-0.417D+01 0.311D+01 0.323D+01
 Coeff-Com: -0.500D+00 0.859D+00 0.715D+00-0.974D+00-0.229D+00-0.183D+00
 Coeff-Com: -0.108D+01 0.141D+01
 Coeff:      0.286D-02-0.340D-01 0.672D+00-0.363D+00 0.220D+00-0.263D+01
 Coeff:      0.232D+01 0.239D+00-0.162D+01-0.417D+01 0.311D+01 0.323D+01
 Coeff:     -0.500D+00 0.859D+00 0.715D+00-0.974D+00-0.229D+00-0.183D+00
 Coeff:     -0.108D+01 0.141D+01
 Gap=     0.050 Goal=   None    Shift=    0.000
 Gap=     0.074 Goal=   None    Shift=    0.000
 RMSDP=1.42D-04 MaxDP=1.01D-02 DE=-3.24D-04 OVMax= 2.67D-02

 Cycle  80  Pass 1  IDiag  1:
 E= -952.528885003164     Delta-E=        0.000068516240 Rises=F Damp=F
 DIIS: error= 3.07D-04 at cycle  80 NSaved=  20.
 NSaved=20 IEnMin= 1 EnMin= -952.529201287828     IErMin= 2 ErrMin= 4.95D-05
 ErrMax= 3.07D-04  0.00D+00 EMaxC= 1.00D-01 BMatC= 1.91D-04 BMatP= 6.70D-06
 IDIUse=1 WtCom= 1.00D+00 WtEn= 0.00D+00
 Coeff-Com:  0.483D-01 0.143D+01-0.274D+01 0.192D+01 0.779D+00-0.543D+01
 Coeff-Com:  0.455D+01-0.135D+01-0.256D+01 0.386D+01 0.355D+01-0.261D+01
 Coeff-Com:  0.796D+00-0.773D+00-0.357D+01 0.416D+01-0.415D+01 0.553D+01
 Coeff-Com: -0.299D+01 0.548D+00
 Coeff:      0.483D-01 0.143D+01-0.274D+01 0.192D+01 0.779D+00-0.543D+01
 Coeff:      0.455D+01-0.135D+01-0.256D+01 0.386D+01 0.355D+01-0.261D+01
 Coeff:      0.796D+00-0.773D+00-0.357D+01 0.416D+01-0.415D+01 0.553D+01
 Coeff:     -0.299D+01 0.548D+00
 Gap=     0.053 Goal=   None    Shift=    0.000
 Gap=     0.073 Goal=   None    Shift=    0.000
 RMSDP=5.12D-04 MaxDP=3.84D-02 DE= 6.85D-05 OVMax= 9.87D-02

 Cycle  81  Pass 1  IDiag  1:
 E= -952.528593678543     Delta-E=        0.000291324622 Rises=F Damp=F
 DIIS: error= 3.65D-04 at cycle  81 NSaved=  20.
 NSaved=20 IEnMin= 1 EnMin= -952.529201287828     IErMin= 2 ErrMin= 4.95D-05
 ErrMax= 3.65D-04  0.00D+00 EMaxC= 1.00D-01 BMatC= 2.73D-04 BMatP= 6.70D-06
 IDIUse=1 WtCom= 1.00D+00 WtEn= 0.00D+00
 Coeff-Com:  0.143D-01 0.473D-02 0.456D+00-0.212D+00 0.205D+00-0.268D+01
 Coeff-Com:  0.226D+01 0.371D+00-0.940D+00-0.210D+01 0.259D+01 0.156D+01
 Coeff-Com: -0.316D+00 0.632D+00 0.228D+00-0.266D+00 0.156D+01-0.190D+01
 Coeff-Com:  0.538D+00-0.101D+01
 Coeff:      0.143D-01 0.473D-02 0.456D+00-0.212D+00 0.205D+00-0.268D+01
 Coeff:      0.226D+01 0.371D+00-0.940D+00-0.210D+01 0.259D+01 0.156D+01
 Coeff:     -0.316D+00 0.632D+00 0.228D+00-0.266D+00 0.156D+01-0.190D+01
 Coeff:      0.538D+00-0.101D+01
 Gap=     0.047 Goal=   None    Shift=    0.000
 Gap=     0.073 Goal=   None    Shift=    0.000
 RMSDP=6.31D-04 MaxDP=4.71D-02 DE= 2.91D-04 OVMax= 1.21D-01

 Cycle  82  Pass 1  IDiag  1:
 E= -952.528946296046     Delta-E=       -0.000352617503 Rises=F Damp=F
 DIIS: error= 2.99D-04 at cycle  82 NSaved=  20.
 NSaved=20 IEnMin= 1 EnMin= -952.529201287828     IErMin= 2 ErrMin= 4.95D-05
 ErrMax= 2.99D-04  0.00D+00 EMaxC= 1.00D-01 BMatC= 1.97D-04 BMatP= 6.70D-06
 IDIUse=1 WtCom= 1.00D+00 WtEn= 0.00D+00
 Coeff-Com:  0.113D-01 0.266D-01 0.501D+00-0.255D+00 0.230D+00-0.276D+01
 Coeff-Com:  0.236D+01 0.306D+00-0.130D+01-0.298D+01 0.306D+01 0.228D+01
 Coeff-Com: -0.223D+00 0.684D+00 0.199D+00-0.292D+00 0.123D+01-0.147D+01
 Coeff-Com: -0.954D+00 0.361D+00
 Coeff:      0.113D-01 0.266D-01 0.501D+00-0.255D+00 0.230D+00-0.276D+01
 Coeff:      0.236D+01 0.306D+00-0.130D+01-0.298D+01 0.306D+01 0.228D+01
 Coeff:     -0.223D+00 0.684D+00 0.199D+00-0.292D+00 0.123D+01-0.147D+01
 Coeff:     -0.954D+00 0.361D+00
 Gap=     0.049 Goal=   None    Shift=    0.000
 Gap=     0.074 Goal=   None    Shift=    0.000
 RMSDP=3.62D-05 MaxDP=2.75D-03 DE=-3.53D-04 OVMax= 6.47D-03

 Cycle  83  Pass 1  IDiag  1:
 E= -952.528927023422     Delta-E=        0.000019272624 Rises=F Damp=F
 DIIS: error= 3.04D-04 at cycle  83 NSaved=  20.
 NSaved=20 IEnMin= 1 EnMin= -952.529201287828     IErMin= 2 ErrMin= 4.95D-05
 ErrMax= 3.04D-04  0.00D+00 EMaxC= 1.00D-01 BMatC= 1.96D-04 BMatP= 6.70D-06
 IDIUse=1 WtCom= 1.00D+00 WtEn= 0.00D+00
 Coeff-Com:  0.404D-01 0.868D+00-0.148D+01 0.116D+01 0.705D+00-0.532D+01
 Coeff-Com:  0.453D+01-0.109D+01-0.228D+01 0.314D+01 0.309D+01-0.207D+01
 Coeff-Com:  0.200D+00-0.577D+00-0.293D+01 0.351D+01-0.428D+01 0.532D+01
 Coeff-Com: -0.194D+01 0.397D+00
 Coeff:      0.404D-01 0.868D+00-0.148D+01 0.116D+01 0.705D+00-0.532D+01
 Coeff:      0.453D+01-0.109D+01-0.228D+01 0.314D+01 0.309D+01-0.207D+01
 Coeff:      0.200D+00-0.577D+00-0.293D+01 0.351D+01-0.428D+01 0.532D+01
 Coeff:     -0.194D+01 0.397D+00
 Gap=     0.052 Goal=   None    Shift=    0.000
 Gap=     0.073 Goal=   None    Shift=    0.000
 RMSDP=5.31D-04 MaxDP=3.98D-02 DE= 1.93D-05 OVMax= 1.02D-01

 Cycle  84  Pass 1  IDiag  1:
 E= -952.528641790083     Delta-E=        0.000285233339 Rises=F Damp=F
 DIIS: error= 3.45D-04 at cycle  84 NSaved=  20.
 NSaved=20 IEnMin= 1 EnMin= -952.529201287828     IErMin= 2 ErrMin= 4.95D-05
 ErrMax= 3.45D-04  0.00D+00 EMaxC= 1.00D-01 BMatC= 2.43D-04 BMatP= 6.70D-06
 IDIUse=1 WtCom= 1.00D+00 WtEn= 0.00D+00
 Coeff-Com:  0.156D-01 0.277D+00-0.132D+00 0.149D+00 0.173D+00-0.262D+01
 Coeff-Com:  0.214D+01 0.399D+00-0.895D+00-0.252D+01 0.245D+01 0.189D+01
 Coeff-Com: -0.361D+00 0.740D+00 0.604D+00-0.705D+00 0.725D+00-0.113D+01
 Coeff-Com:  0.989D+00-0.119D+01
 Coeff:      0.156D-01 0.277D+00-0.132D+00 0.149D+00 0.173D+00-0.262D+01
 Coeff:      0.214D+01 0.399D+00-0.895D+00-0.252D+01 0.245D+01 0.189D+01
 Coeff:     -0.361D+00 0.740D+00 0.604D+00-0.705D+00 0.725D+00-0.113D+01
 Coeff:      0.989D+00-0.119D+01
 Gap=     0.048 Goal=   None    Shift=    0.000
 Gap=     0.074 Goal=   None    Shift=    0.000
 RMSDP=5.32D-04 MaxDP=3.98D-02 DE= 2.85D-04 OVMax= 1.01D-01

 Cycle  85  Pass 1  IDiag  1:
 E= -952.528931261959     Delta-E=       -0.000289471876 Rises=F Damp=F
 DIIS: error= 2.97D-04 at cycle  85 NSaved=  20.
 NSaved=20 IEnMin= 1 EnMin= -952.529201287828     IErMin= 2 ErrMin= 4.95D-05
 ErrMax= 2.97D-04  0.00D+00 EMaxC= 1.00D-01 BMatC= 1.92D-04 BMatP= 6.70D-06
 IDIUse=1 WtCom= 1.00D+00 WtEn= 0.00D+00
 Coeff-Com:  0.156D-01 0.472D+00-0.534D+00 0.378D+00 0.206D+00-0.267D+01
 Coeff-Com:  0.220D+01 0.265D+00-0.127D+01-0.295D+01 0.298D+01 0.219D+01
 Coeff-Com: -0.238D+00 0.739D+00 0.510D+00-0.699D+00 0.174D+00-0.500D+00
 Coeff-Com: -0.116D+01 0.887D+00
 Coeff:      0.156D-01 0.472D+00-0.534D+00 0.378D+00 0.206D+00-0.267D+01
 Coeff:      0.220D+01 0.265D+00-0.127D+01-0.295D+01 0.298D+01 0.219D+01
 Coeff:     -0.238D+00 0.739D+00 0.510D+00-0.699D+00 0.174D+00-0.500D+00
 Coeff:     -0.116D+01 0.887D+00
 Gap=     0.049 Goal=   None    Shift=    0.000
 Gap=     0.074 Goal=   None    Shift=    0.000
 RMSDP=5.31D-05 MaxDP=3.84D-03 DE=-2.89D-04 OVMax= 9.93D-03

 Cycle  86  Pass 1  IDiag  1:
 E= -952.528905612408     Delta-E=        0.000025649551 Rises=F Damp=F
 DIIS: error= 3.00D-04 at cycle  86 NSaved=  20.
 NSaved=20 IEnMin= 1 EnMin= -952.529201287828     IErMin= 2 ErrMin= 4.95D-05
 ErrMax= 3.00D-04  0.00D+00 EMaxC= 1.00D-01 BMatC= 1.88D-04 BMatP= 6.70D-06
 IDIUse=1 WtCom= 1.00D+00 WtEn= 0.00D+00
 Coeff-Com:  0.329D-01 0.855D+00-0.143D+01 0.111D+01 0.673D+00-0.512D+01
 Coeff-Com:  0.442D+01-0.108D+01-0.256D+01 0.195D+01 0.340D+01-0.117D+01
 Coeff-Com:  0.439D-01-0.347D+00-0.232D+01 0.268D+01-0.458D+01 0.534D+01
 Coeff-Com:  0.486D-01-0.952D+00
 Coeff:      0.329D-01 0.855D+00-0.143D+01 0.111D+01 0.673D+00-0.512D+01
 Coeff:      0.442D+01-0.108D+01-0.256D+01 0.195D+01 0.340D+01-0.117D+01
 Coeff:      0.439D-01-0.347D+00-0.232D+01 0.268D+01-0.458D+01 0.534D+01
 Coeff:      0.486D-01-0.952D+00
 Gap=     0.052 Goal=   None    Shift=    0.000
 Gap=     0.073 Goal=   None    Shift=    0.000
 RMSDP=4.93D-04 MaxDP=3.69D-02 DE= 2.56D-05 OVMax= 9.32D-02

 Cycle  87  Pass 1  IDiag  1:
 E= -952.528624647086     Delta-E=        0.000280965322 Rises=F Damp=F
 DIIS: error= 3.60D-04 at cycle  87 NSaved=  20.
 NSaved=20 IEnMin= 1 EnMin= -952.529201287828     IErMin= 2 ErrMin= 4.95D-05
 ErrMax= 3.60D-04  0.00D+00 EMaxC= 1.00D-01 BMatC= 2.58D-04 BMatP= 6.70D-06
 IDIUse=1 WtCom= 1.00D+00 WtEn= 0.00D+00
 Coeff-Com:  0.165D-01 0.739D+00-0.123D+01 0.802D+00 0.182D+00-0.230D+01
 Coeff-Com:  0.185D+01 0.214D+00-0.113D+01-0.271D+01 0.262D+01 0.194D+01
 Coeff-Com: -0.201D+00 0.726D+00 0.707D+00-0.970D+00-0.513D+00 0.862D-01
 Coeff-Com:  0.132D+01-0.116D+01
 Coeff:      0.165D-01 0.739D+00-0.123D+01 0.802D+00 0.182D+00-0.230D+01
 Coeff:      0.185D+01 0.214D+00-0.113D+01-0.271D+01 0.262D+01 0.194D+01
 Coeff:     -0.201D+00 0.726D+00 0.707D+00-0.970D+00-0.513D+00 0.862D-01
 Coeff:      0.132D+01-0.116D+01
 Gap=     0.049 Goal=   None    Shift=    0.000
 Gap=     0.074 Goal=   None    Shift=    0.000
 RMSDP=4.32D-04 MaxDP=3.23D-02 DE= 2.81D-04 OVMax= 8.14D-02

 Cycle  88  Pass 1  IDiag  1:
 E= -952.528881905054     Delta-E=       -0.000257257968 Rises=F Damp=F
 DIIS: error= 2.90D-04 at cycle  88 NSaved=  20.
 NSaved=20 IEnMin= 1 EnMin= -952.529201287828     IErMin= 2 ErrMin= 4.95D-05
 ErrMax= 2.90D-04  0.00D+00 EMaxC= 1.00D-01 BMatC= 1.78D-04 BMatP= 6.70D-06
 IDIUse=1 WtCom= 1.00D+00 WtEn= 0.00D+00
 Coeff-Com:  0.164D-01 0.658D+00-0.989D+00 0.649D+00 0.194D+00-0.242D+01
 Coeff-Com:  0.197D+01 0.143D+00-0.129D+01-0.283D+01 0.283D+01 0.209D+01
 Coeff-Com: -0.124D+00 0.627D+00 0.397D+00-0.592D+00-0.854D+00 0.610D+00
 Coeff-Com: -0.115D+01 0.107D+01
 Coeff:      0.164D-01 0.658D+00-0.989D+00 0.649D+00 0.194D+00-0.242D+01
 Coeff:      0.197D+01 0.143D+00-0.129D+01-0.283D+01 0.283D+01 0.209D+01
 Coeff:     -0.124D+00 0.627D+00 0.397D+00-0.592D+00-0.854D+00 0.610D+00
 Coeff:     -0.115D+01 0.107D+01
 Gap=     0.050 Goal=   None    Shift=    0.000
 Gap=     0.074 Goal=   None    Shift=    0.000
 RMSDP=2.91D-05 MaxDP=2.09D-03 DE=-2.57D-04 OVMax= 5.38D-03

 Cycle  89  Pass 1  IDiag  1:
 E= -952.528866626034     Delta-E=        0.000015279020 Rises=F Damp=F
 DIIS: error= 2.96D-04 at cycle  89 NSaved=  20.
 NSaved=20 IEnMin= 1 EnMin= -952.529201287828     IErMin= 2 ErrMin= 4.95D-05
 ErrMax= 2.96D-04  0.00D+00 EMaxC= 1.00D-01 BMatC= 1.80D-04 BMatP= 6.70D-06
 IDIUse=1 WtCom= 1.00D+00 WtEn= 0.00D+00
 Coeff-Com:  0.260D-01 0.224D+00 0.196D+00 0.777D-01 0.718D+00-0.546D+01
 Coeff-Com:  0.477D+01-0.749D+00-0.265D+01 0.548D+00 0.380D+01 0.964D-01
 Coeff-Com:  0.115D-01-0.125D+00-0.243D+01 0.292D+01-0.222D+01 0.321D+01
 Coeff-Com: -0.269D+01 0.711D+00
 Coeff:      0.260D-01 0.224D+00 0.196D+00 0.777D-01 0.718D+00-0.546D+01
 Coeff:      0.477D+01-0.749D+00-0.265D+01 0.548D+00 0.380D+01 0.964D-01
 Coeff:      0.115D-01-0.125D+00-0.243D+01 0.292D+01-0.222D+01 0.321D+01
 Coeff:     -0.269D+01 0.711D+00
 Gap=     0.052 Goal=   None    Shift=    0.000
 Gap=     0.074 Goal=   None    Shift=    0.000
 RMSDP=2.32D-04 MaxDP=1.72D-02 DE= 1.53D-05 OVMax= 4.26D-02

 Cycle  90  Pass 1  IDiag  1:
 E= -952.528736849378     Delta-E=        0.000129776656 Rises=F Damp=F
 DIIS: error= 3.21D-04 at cycle  90 NSaved=  20.
 NSaved=20 IEnMin= 1 EnMin= -952.529201287828     IErMin= 2 ErrMin= 4.95D-05
 ErrMax= 3.21D-04  0.00D+00 EMaxC= 1.00D-01 BMatC= 2.04D-04 BMatP= 6.70D-06
 IDIUse=1 WtCom= 1.00D+00 WtEn= 0.00D+00
 Coeff-Com:  0.217D-01 0.101D+01-0.153D+01 0.103D+01 0.371D+00-0.358D+01
 Coeff-Com:  0.297D+01-0.326D+00-0.243D+01-0.273D+01 0.425D+01 0.207D+01
 Coeff-Com: -0.206D+00 0.605D+00-0.936D-01-0.207D-01-0.247D+01 0.279D+01
 Coeff-Com:  0.635D+00-0.138D+01
 Coeff:      0.217D-01 0.101D+01-0.153D+01 0.103D+01 0.371D+00-0.358D+01
 Coeff:      0.297D+01-0.326D+00-0.243D+01-0.273D+01 0.425D+01 0.207D+01
 Coeff:     -0.206D+00 0.605D+00-0.936D-01-0.207D-01-0.247D+01 0.279D+01
 Coeff:      0.635D+00-0.138D+01
 Gap=     0.051 Goal=   None    Shift=    0.000
 Gap=     0.074 Goal=   None    Shift=    0.000
 RMSDP=4.06D-05 MaxDP=3.39D-03 DE= 1.30D-04 OVMax= 6.62D-03

 Cycle  91  Pass 1  IDiag  1:
 E= -952.528760919805     Delta-E=       -0.000024070427 Rises=F Damp=F
 DIIS: error= 3.23D-04 at cycle  91 NSaved=  20.
 NSaved=20 IEnMin= 1 EnMin= -952.529201287828     IErMin= 2 ErrMin= 4.95D-05
 ErrMax= 3.23D-04  0.00D+00 EMaxC= 1.00D-01 BMatC= 2.03D-04 BMatP= 6.70D-06
 IDIUse=1 WtCom= 1.00D+00 WtEn= 0.00D+00
 Coeff-Com:  0.208D-01 0.809D+00-0.104D+01 0.736D+00 0.406D+00-0.385D+01
 Coeff-Com:  0.324D+01-0.315D+00-0.249D+01-0.280D+01 0.441D+01 0.219D+01
 Coeff-Com: -0.143D+00 0.528D+00-0.427D+00 0.416D+00-0.211D+01 0.255D+01
 Coeff-Com: -0.140D+01 0.263D+00
 Coeff:      0.208D-01 0.809D+00-0.104D+01 0.736D+00 0.406D+00-0.385D+01
 Coeff:      0.324D+01-0.315D+00-0.249D+01-0.280D+01 0.441D+01 0.219D+01
 Coeff:     -0.143D+00 0.528D+00-0.427D+00 0.416D+00-0.211D+01 0.255D+01
 Coeff:     -0.140D+01 0.263D+00
 Gap=     0.051 Goal=   None    Shift=    0.000
 Gap=     0.074 Goal=   None    Shift=    0.000
 RMSDP=2.65D-05 MaxDP=2.02D-03 DE=-2.41D-05 OVMax= 5.25D-03

 Cycle  92  Pass 1  IDiag  1:
 E= -952.528773914778     Delta-E=       -0.000012994972 Rises=F Damp=F
 DIIS: error= 3.23D-04 at cycle  92 NSaved=  20.
 NSaved=20 IEnMin= 1 EnMin= -952.529201287828     IErMin= 2 ErrMin= 4.95D-05
 ErrMax= 3.23D-04  0.00D+00 EMaxC= 1.00D-01 BMatC= 2.00D-04 BMatP= 6.70D-06
 IDIUse=1 WtCom= 1.00D+00 WtEn= 0.00D+00
 Coeff-Com:  0.178D-01 0.304D+00-0.369D-01 0.116D+00 0.505D+00-0.394D+01
 Coeff-Com:  0.342D+01-0.283D+00-0.213D+01-0.132D+01 0.315D+01 0.133D+01
 Coeff-Com: -0.439D-01 0.456D+00-0.826D+00 0.862D+00-0.689D+00 0.996D+00
 Coeff-Com: -0.611D+01 0.522D+01
 Coeff:      0.178D-01 0.304D+00-0.369D-01 0.116D+00 0.505D+00-0.394D+01
 Coeff:      0.342D+01-0.283D+00-0.213D+01-0.132D+01 0.315D+01 0.133D+01
 Coeff:     -0.439D-01 0.456D+00-0.826D+00 0.862D+00-0.689D+00 0.996D+00
 Coeff:     -0.611D+01 0.522D+01
 Gap=     0.051 Goal=   None    Shift=    0.000
 Gap=     0.074 Goal=   None    Shift=    0.000
 RMSDP=1.03D-04 MaxDP=7.55D-03 DE=-1.30D-05 OVMax= 2.03D-02

 Cycle  93  Pass 1  IDiag  1:
 E= -952.528830014024     Delta-E=       -0.000056099246 Rises=F Damp=F
 DIIS: error= 2.94D-04 at cycle  93 NSaved=  20.
 NSaved=20 IEnMin= 1 EnMin= -952.529201287828     IErMin= 2 ErrMin= 4.95D-05
 ErrMax= 2.94D-04  0.00D+00 EMaxC= 1.00D-01 BMatC= 1.80D-04 BMatP= 6.70D-06
 IDIUse=1 WtCom= 1.00D+00 WtEn= 0.00D+00
 Coeff-Com:  0.206D-01 0.611D+00-0.645D+00 0.533D+00 0.565D+00-0.454D+01
 Coeff-Com:  0.394D+01-0.686D+00-0.279D+01-0.121D+01 0.409D+01 0.125D+01
 Coeff-Com: -0.843D-01 0.191D+00-0.137D+01 0.150D+01-0.312D+01 0.377D+01
 Coeff-Com: -0.803D+00-0.218D+00
 Coeff:      0.206D-01 0.611D+00-0.645D+00 0.533D+00 0.565D+00-0.454D+01
 Coeff:      0.394D+01-0.686D+00-0.279D+01-0.121D+01 0.409D+01 0.125D+01
 Coeff:     -0.843D-01 0.191D+00-0.137D+01 0.150D+01-0.312D+01 0.377D+01
 Coeff:     -0.803D+00-0.218D+00
 Gap=     0.052 Goal=   None    Shift=    0.000
 Gap=     0.074 Goal=   None    Shift=    0.000
 RMSDP=2.04D-04 MaxDP=1.52D-02 DE=-5.61D-05 OVMax= 3.88D-02

 Cycle  94  Pass 1  IDiag  1:
 E= -952.528710677294     Delta-E=        0.000119336729 Rises=F Damp=F
 DIIS: error= 3.40D-04 at cycle  94 NSaved=  20.
 NSaved=20 IEnMin= 1 EnMin= -952.529201287828     IErMin= 2 ErrMin= 4.95D-05
 ErrMax= 3.40D-04  0.00D+00 EMaxC= 1.00D-01 BMatC= 2.21D-04 BMatP= 6.70D-06
 IDIUse=1 WtCom= 1.00D+00 WtEn= 0.00D+00
 Coeff-Com:  0.144D-01 0.426D+00-0.349D+00 0.305D+00 0.419D+00-0.368D+01
 Coeff-Com:  0.320D+01-0.340D+00-0.219D+01-0.225D+01 0.355D+01 0.198D+01
 Coeff-Com: -0.896D-01 0.251D+00-0.938D+00 0.989D+00-0.248D+01 0.278D+01
 Coeff-Com:  0.725D+00-0.133D+01
 Coeff:      0.144D-01 0.426D+00-0.349D+00 0.305D+00 0.419D+00-0.368D+01
 Coeff:      0.320D+01-0.340D+00-0.219D+01-0.225D+01 0.355D+01 0.198D+01
 Coeff:     -0.896D-01 0.251D+00-0.938D+00 0.989D+00-0.248D+01 0.278D+01
 Coeff:      0.725D+00-0.133D+01
 Gap=     0.051 Goal=   None    Shift=    0.000
 Gap=     0.074 Goal=   None    Shift=    0.000
 RMSDP=1.27D-04 MaxDP=9.49D-03 DE= 1.19D-04 OVMax= 2.39D-02

 Cycle  95  Pass 1  IDiag  1:
 E= -952.528786871366     Delta-E=       -0.000076194072 Rises=F Damp=F
 DIIS: error= 3.22D-04 at cycle  95 NSaved=  20.
 NSaved=20 IEnMin= 1 EnMin= -952.529201287828     IErMin= 2 ErrMin= 4.95D-05
 ErrMax= 3.22D-04  0.00D+00 EMaxC= 1.00D-01 BMatC= 1.95D-04 BMatP= 6.70D-06
 IDIUse=1 WtCom= 1.00D+00 WtEn= 0.00D+00
 Coeff-Com:  0.181D-01 0.732D+00-0.956D+00 0.639D+00 0.356D+00-0.313D+01
 Coeff-Com:  0.263D+01-0.189D+00-0.212D+01-0.256D+01 0.356D+01 0.199D+01
 Coeff-Com: -0.160D+00 0.695D+00 0.840D-01-0.253D+00-0.133D+01 0.150D+01
 Coeff-Com: -0.223D+01 0.173D+01
 Coeff:      0.181D-01 0.732D+00-0.956D+00 0.639D+00 0.356D+00-0.313D+01
 Coeff:      0.263D+01-0.189D+00-0.212D+01-0.256D+01 0.356D+01 0.199D+01
 Coeff:     -0.160D+00 0.695D+00 0.840D-01-0.253D+00-0.133D+01 0.150D+01
 Coeff:     -0.223D+01 0.173D+01
 Gap=     0.051 Goal=   None    Shift=    0.000
 Gap=     0.074 Goal=   None    Shift=    0.000
 RMSDP=3.11D-05 MaxDP=2.82D-03 DE=-7.62D-05 OVMax= 5.28D-03

 Cycle  96  Pass 1  IDiag  1:
 E= -952.528809550323     Delta-E=       -0.000022678957 Rises=F Damp=F
 DIIS: error= 2.99D-04 at cycle  96 NSaved=  20.
 NSaved=20 IEnMin= 1 EnMin= -952.529201287828     IErMin= 2 ErrMin= 4.95D-05
 ErrMax= 2.99D-04  0.00D+00 EMaxC= 1.00D-01 BMatC= 1.82D-04 BMatP= 6.70D-06
 IDIUse=1 WtCom= 1.00D+00 WtEn= 0.00D+00
 Coeff-Com:  0.226D-01 0.766D+00-0.104D+01 0.790D+00 0.596D+00-0.461D+01
 Coeff-Com:  0.401D+01-0.756D+00-0.287D+01-0.996D+00 0.423D+01 0.102D+01
 Coeff-Com: -0.117D-01 0.154D+00-0.146D+01 0.157D+01-0.327D+01 0.391D+01
 Coeff-Com: -0.413D+00-0.646D+00
 Coeff:      0.226D-01 0.766D+00-0.104D+01 0.790D+00 0.596D+00-0.461D+01
 Coeff:      0.401D+01-0.756D+00-0.287D+01-0.996D+00 0.423D+01 0.102D+01
 Coeff:     -0.117D-01 0.154D+00-0.146D+01 0.157D+01-0.327D+01 0.391D+01
 Coeff:     -0.413D+00-0.646D+00
 Gap=     0.052 Goal=   None    Shift=    0.000
 Gap=     0.074 Goal=   None    Shift=    0.000
 RMSDP=1.81D-04 MaxDP=1.34D-02 DE=-2.27D-05 OVMax= 3.36D-02

 Cycle  97  Pass 1  IDiag  1:
 E= -952.528696514361     Delta-E=        0.000113035962 Rises=F Damp=F
 DIIS: error= 3.44D-04 at cycle  97 NSaved=  20.
 NSaved=20 IEnMin= 1 EnMin= -952.529201287828     IErMin= 2 ErrMin= 4.95D-05
 ErrMax= 3.44D-04  0.00D+00 EMaxC= 1.00D-01 BMatC= 2.27D-04 BMatP= 6.70D-06
 IDIUse=1 WtCom= 1.00D+00 WtEn= 0.00D+00
 Coeff-Com:  0.164D-01 0.597D+00-0.754D+00 0.536D+00 0.354D+00-0.337D+01
 Coeff-Com:  0.287D+01-0.271D+00-0.206D+01-0.244D+01 0.357D+01 0.201D+01
 Coeff-Com: -0.859D-01 0.333D+00-0.588D+00 0.540D+00-0.247D+01 0.267D+01
 Coeff-Com:  0.105D+01-0.153D+01
 Coeff:      0.164D-01 0.597D+00-0.754D+00 0.536D+00 0.354D+00-0.337D+01
 Coeff:      0.287D+01-0.271D+00-0.206D+01-0.244D+01 0.357D+01 0.201D+01
 Coeff:     -0.859D-01 0.333D+00-0.588D+00 0.540D+00-0.247D+01 0.267D+01
 Coeff:      0.105D+01-0.153D+01
 Gap=     0.051 Goal=   None    Shift=    0.000
 Gap=     0.074 Goal=   None    Shift=    0.000
 RMSDP=1.53D-04 MaxDP=1.14D-02 DE= 1.13D-04 OVMax= 2.86D-02

 Cycle  98  Pass 1  IDiag  1:
 E= -952.528790214761     Delta-E=       -0.000093700400 Rises=F Damp=F
 DIIS: error= 3.20D-04 at cycle  98 NSaved=  20.
 NSaved=20 IEnMin= 1 EnMin= -952.529201287828     IErMin= 2 ErrMin= 4.95D-05
 ErrMax= 3.20D-04  0.00D+00 EMaxC= 1.00D-01 BMatC= 1.94D-04 BMatP= 6.70D-06
 IDIUse=1 WtCom= 1.00D+00 WtEn= 0.00D+00
 Coeff-Com:  0.188D-01 0.812D+00-0.112D+01 0.737D+00 0.369D+00-0.320D+01
 Coeff-Com:  0.269D+01-0.246D+00-0.224D+01-0.257D+01 0.375D+01 0.199D+01
 Coeff-Com: -0.175D+00 0.682D+00 0.503D-01-0.249D+00-0.169D+01 0.191D+01
 Coeff-Com: -0.170D+01 0.117D+01
 Coeff:      0.188D-01 0.812D+00-0.112D+01 0.737D+00 0.369D+00-0.320D+01
 Coeff:      0.269D+01-0.246D+00-0.224D+01-0.257D+01 0.375D+01 0.199D+01
 Coeff:     -0.175D+00 0.682D+00 0.503D-01-0.249D+00-0.169D+01 0.191D+01
 Coeff:     -0.170D+01 0.117D+01
 Gap=     0.051 Goal=   None    Shift=    0.000
 Gap=     0.074 Goal=   None    Shift=    0.000
 RMSDP=2.30D-06 MaxDP=3.39D-04 DE=-9.37D-05 OVMax= 3.85D-04

 Cycle  99  Pass 1  IDiag  1:
 E= -952.528793916180     Delta-E=       -0.000003701420 Rises=F Damp=F
 DIIS: error= 3.05D-04 at cycle  99 NSaved=  20.
 NSaved=20 IEnMin= 1 EnMin= -952.529201287828     IErMin= 2 ErrMin= 4.95D-05
 ErrMax= 3.05D-04  0.00D+00 EMaxC= 1.00D-01 BMatC= 1.87D-04 BMatP= 6.70D-06
 IDIUse=1 WtCom= 1.00D+00 WtEn= 0.00D+00
 Coeff-Com:  0.215D-01 0.705D+00-0.905D+00 0.704D+00 0.593D+00-0.458D+01
 Coeff-Com:  0.399D+01-0.716D+00-0.283D+01-0.112D+01 0.418D+01 0.114D+01
 Coeff-Com: -0.220D-01 0.178D+00-0.142D+01 0.153D+01-0.306D+01 0.368D+01
 Coeff-Com: -0.362D+00-0.708D+00
 Coeff:      0.215D-01 0.705D+00-0.905D+00 0.704D+00 0.593D+00-0.458D+01
 Coeff:      0.399D+01-0.716D+00-0.283D+01-0.112D+01 0.418D+01 0.114D+01
 Coeff:     -0.220D-01 0.178D+00-0.142D+01 0.153D+01-0.306D+01 0.368D+01
 Coeff:     -0.362D+00-0.708D+00
 Gap=     0.052 Goal=   None    Shift=    0.000
 Gap=     0.074 Goal=   None    Shift=    0.000
 RMSDP=1.30D-04 MaxDP=9.67D-03 DE=-3.70D-06 OVMax= 2.40D-02

 Cycle 100  Pass 1  IDiag  1:
 E= -952.528710977948     Delta-E=        0.000082938232 Rises=F Damp=F
 DIIS: error= 3.39D-04 at cycle 100 NSaved=  20.
 NSaved=20 IEnMin= 1 EnMin= -952.529201287828     IErMin= 2 ErrMin= 4.95D-05
 ErrMax= 3.39D-04  0.00D+00 EMaxC= 1.00D-01 BMatC= 2.21D-04 BMatP= 6.70D-06
 IDIUse=1 WtCom= 1.00D+00 WtEn= 0.00D+00
 Coeff-Com:  0.186D-01 0.752D+00-0.107D+01 0.737D+00 0.389D+00-0.355D+01
 Coeff-Com:  0.303D+01-0.371D+00-0.226D+01-0.230D+01 0.383D+01 0.188D+01
 Coeff-Com: -0.900D-01 0.316D+00-0.688D+00 0.640D+00-0.297D+01 0.326D+01
 Coeff-Com:  0.109D+01-0.164D+01
 Coeff:      0.186D-01 0.752D+00-0.107D+01 0.737D+00 0.389D+00-0.355D+01
 Coeff:      0.303D+01-0.371D+00-0.226D+01-0.230D+01 0.383D+01 0.188D+01
 Coeff:     -0.900D-01 0.316D+00-0.688D+00 0.640D+00-0.297D+01 0.326D+01
 Coeff:      0.109D+01-0.164D+01
 Gap=     0.051 Goal=   None    Shift=    0.000
 Gap=     0.074 Goal=   None    Shift=    0.000
 RMSDP=8.06D-05 MaxDP=6.02D-03 DE= 8.29D-05 OVMax= 1.48D-02

 Cycle 101  Pass 1  IDiag  1:
 E= -952.528762255866     Delta-E=       -0.000051277917 Rises=F Damp=F
 DIIS: error= 3.27D-04 at cycle 101 NSaved=  20.
 NSaved=20 IEnMin= 1 EnMin= -952.529201287828     IErMin= 2 ErrMin= 4.95D-05
 ErrMax= 3.27D-04  0.00D+00 EMaxC= 1.00D-01 BMatC= 2.02D-04 BMatP= 6.70D-06
 IDIUse=1 WtCom= 1.00D+00 WtEn= 0.00D+00
 Coeff-Com:  0.207D-01 0.917D+00-0.133D+01 0.884D+00 0.436D+00-0.361D+01
 Coeff-Com:  0.306D+01-0.415D+00-0.256D+01-0.243D+01 0.418D+01 0.190D+01
 Coeff-Com: -0.122D+00 0.559D+00-0.338D+00 0.188D+00-0.249D+01 0.287D+01
 Coeff-Com: -0.166D+01 0.931D+00
 Coeff:      0.207D-01 0.917D+00-0.133D+01 0.884D+00 0.436D+00-0.361D+01
 Coeff:      0.306D+01-0.415D+00-0.256D+01-0.243D+01 0.418D+01 0.190D+01
 Coeff:     -0.122D+00 0.559D+00-0.338D+00 0.188D+00-0.249D+01 0.287D+01
 Coeff:     -0.166D+01 0.931D+00
 Gap=     0.051 Goal=   None    Shift=    0.000
 Gap=     0.074 Goal=   None    Shift=    0.000
 RMSDP=1.47D-05 MaxDP=1.11D-03 DE=-5.13D-05 OVMax= 2.72D-03

 Cycle 102  Pass 1  IDiag  1:
 E= -952.528755325162     Delta-E=        0.000006930703 Rises=F Damp=F
 DIIS: error= 3.20D-04 at cycle 102 NSaved=  20.
 NSaved=20 IEnMin= 1 EnMin= -952.529201287828     IErMin= 2 ErrMin= 4.95D-05
 ErrMax= 3.20D-04  0.00D+00 EMaxC= 1.00D-01 BMatC= 2.01D-04 BMatP= 6.70D-06
 IDIUse=1 WtCom= 1.00D+00 WtEn= 0.00D+00
 Coeff-Com:  0.189D-01 0.654D+00-0.782D+00 0.605D+00 0.553D+00-0.433D+01
 Coeff-Com:  0.378D+01-0.614D+00-0.275D+01-0.161D+01 0.413D+01 0.151D+01
 Coeff-Com: -0.612D-01 0.273D+00-0.118D+01 0.124D+01-0.274D+01 0.331D+01
 Coeff-Com: -0.255D+00-0.733D+00
 Coeff:      0.189D-01 0.654D+00-0.782D+00 0.605D+00 0.553D+00-0.433D+01
 Coeff:      0.378D+01-0.614D+00-0.275D+01-0.161D+01 0.413D+01 0.151D+01
 Coeff:     -0.612D-01 0.273D+00-0.118D+01 0.124D+01-0.274D+01 0.331D+01
 Coeff:     -0.255D+00-0.733D+00
 Gap=     0.052 Goal=   None    Shift=    0.000
 Gap=     0.074 Goal=   None    Shift=    0.000
 RMSDP=3.15D-05 MaxDP=2.73D-03 DE= 6.93D-06 OVMax= 5.39D-03

 Cycle 103  Pass 1  IDiag  1:
 E= -952.528732377799     Delta-E=        0.000022947364 Rises=F Damp=F
 DIIS: error= 3.34D-04 at cycle 103 NSaved=  20.
 NSaved=20 IEnMin= 1 EnMin= -952.529201287828     IErMin= 2 ErrMin= 4.95D-05
 ErrMax= 3.34D-04  0.00D+00 EMaxC= 1.00D-01 BMatC= 2.12D-04 BMatP= 6.70D-06
 IDIUse=1 WtCom= 1.00D+00 WtEn= 0.00D+00
 Coeff-Com:  0.205D-01 0.815D+00-0.115D+01 0.816D+00 0.504D+00-0.411D+01
 Coeff-Com:  0.355D+01-0.587D+00-0.271D+01-0.192D+01 0.427D+01 0.163D+01
 Coeff-Com: -0.380D-01 0.260D+00-0.107D+01 0.107D+01-0.329D+01 0.380D+01
 Coeff-Com:  0.378D+00-0.123D+01
 Coeff:      0.205D-01 0.815D+00-0.115D+01 0.816D+00 0.504D+00-0.411D+01
 Coeff:      0.355D+01-0.587D+00-0.271D+01-0.192D+01 0.427D+01 0.163D+01
 Coeff:     -0.380D-01 0.260D+00-0.107D+01 0.107D+01-0.329D+01 0.380D+01
 Coeff:      0.378D+00-0.123D+01
 Gap=     0.052 Goal=   None    Shift=    0.000
 Gap=     0.074 Goal=   None    Shift=    0.000
 RMSDP=1.76D-05 MaxDP=1.29D-03 DE= 2.29D-05 OVMax= 3.53D-03

 Cycle 104  Pass 1  IDiag  1:
 E= -952.528722469501     Delta-E=        0.000009908298 Rises=F Damp=F
 DIIS: error= 3.39D-04 at cycle 104 NSaved=  20.
 NSaved=20 IEnMin= 1 EnMin= -952.529201287828     IErMin= 2 ErrMin= 4.95D-05
 ErrMax= 3.39D-04  0.00D+00 EMaxC= 1.00D-01 BMatC= 2.17D-04 BMatP= 6.70D-06
 IDIUse=1 WtCom= 1.00D+00 WtEn= 0.00D+00
 Coeff-Com:  0.175D-01 0.612D+00-0.718D+00 0.554D+00 0.508D+00-0.413D+01
 Coeff-Com:  0.360D+01-0.537D+00-0.261D+01-0.189D+01 0.403D+01 0.172D+01
 Coeff-Com: -0.575D-01 0.251D+00-0.114D+01 0.119D+01-0.277D+01 0.326D+01
 Coeff-Com:  0.111D+00-0.997D+00
 Coeff:      0.175D-01 0.612D+00-0.718D+00 0.554D+00 0.508D+00-0.413D+01
 Coeff:      0.360D+01-0.537D+00-0.261D+01-0.189D+01 0.403D+01 0.172D+01
 Coeff:     -0.575D-01 0.251D+00-0.114D+01 0.119D+01-0.277D+01 0.326D+01
 Coeff:      0.111D+00-0.997D+00
 Gap=     0.052 Goal=   None    Shift=    0.000
 Gap=     0.074 Goal=   None    Shift=    0.000
 RMSDP=3.67D-05 MaxDP=2.75D-03 DE= 9.91D-06 OVMax= 7.11D-03

 Cycle 105  Pass 1  IDiag  1:
 E= -952.528743888423     Delta-E=       -0.000021418922 Rises=F Damp=F
 DIIS: error= 3.33D-04 at cycle 105 NSaved=  20.
 NSaved=20 IEnMin= 1 EnMin= -952.529201287828     IErMin= 2 ErrMin= 4.95D-05
 ErrMax= 3.33D-04  0.00D+00 EMaxC= 1.00D-01 BMatC= 2.09D-04 BMatP= 6.70D-06
 IDIUse=1 WtCom= 1.00D+00 WtEn= 0.00D+00
 Coeff-Com:  0.741D-02 0.460D-01 0.442D+00-0.203D+00 0.386D+00-0.324D+01
 Coeff-Com:  0.286D+01-0.713D-01-0.165D+01-0.183D+01 0.242D+01 0.190D+01
 Coeff-Com: -0.292D+00 0.620D+00-0.181D+00 0.142D+00 0.321D+00-0.203D+00
 Coeff-Com: -0.736D+01 0.689D+01
 Coeff:      0.741D-02 0.460D-01 0.442D+00-0.203D+00 0.386D+00-0.324D+01
 Coeff:      0.286D+01-0.713D-01-0.165D+01-0.183D+01 0.242D+01 0.190D+01
 Coeff:     -0.292D+00 0.620D+00-0.181D+00 0.142D+00 0.321D+00-0.203D+00
 Coeff:     -0.736D+01 0.689D+01
 Gap=     0.050 Goal=   None    Shift=    0.000
 Gap=     0.074 Goal=   None    Shift=    0.000
 RMSDP=2.10D-04 MaxDP=1.55D-02 DE=-2.14D-05 OVMax= 3.97D-02

 Cycle 106  Pass 1  IDiag  1:
 E= -952.528860988738     Delta-E=       -0.000117100315 Rises=F Damp=F
 DIIS: error= 2.93D-04 at cycle 106 NSaved=  20.
 NSaved=20 IEnMin= 1 EnMin= -952.529201287828     IErMin= 2 ErrMin= 4.95D-05
 ErrMax= 2.93D-04  0.00D+00 EMaxC= 1.00D-01 BMatC= 1.77D-04 BMatP= 6.70D-06
 IDIUse=1 WtCom= 1.00D+00 WtEn= 0.00D+00
 Coeff-Com:  0.167D-01 0.607D+00-0.811D+00 0.622D+00 0.480D+00-0.402D+01
 Coeff-Com:  0.351D+01-0.568D+00-0.236D+01-0.124D+01 0.347D+01 0.132D+01
 Coeff-Com: -0.165D+00 0.190D+00-0.104D+01 0.109D+01-0.314D+01 0.351D+01
 Coeff-Com: -0.123D+01 0.774D+00
 Coeff:      0.167D-01 0.607D+00-0.811D+00 0.622D+00 0.480D+00-0.402D+01
 Coeff:      0.351D+01-0.568D+00-0.236D+01-0.124D+01 0.347D+01 0.132D+01
 Coeff:     -0.165D+00 0.190D+00-0.104D+01 0.109D+01-0.314D+01 0.351D+01
 Coeff:     -0.123D+01 0.774D+00
 Gap=     0.052 Goal=   None    Shift=    0.000
 Gap=     0.074 Goal=   None    Shift=    0.000
 RMSDP=2.25D-04 MaxDP=1.67D-02 DE=-1.17D-04 OVMax= 4.28D-02

 Cycle 107  Pass 1  IDiag  1:
 E= -952.528737309563     Delta-E=        0.000123679175 Rises=F Damp=F
 DIIS: error= 3.33D-04 at cycle 107 NSaved=  20.
 NSaved=20 IEnMin= 1 EnMin= -952.529201287828     IErMin= 2 ErrMin= 4.95D-05
 ErrMax= 3.33D-04  0.00D+00 EMaxC= 1.00D-01 BMatC= 2.09D-04 BMatP= 6.70D-06
 IDIUse=1 WtCom= 1.00D+00 WtEn= 0.00D+00
 Coeff-Com:  0.189D-01 0.605D+00-0.819D+00 0.636D+00 0.478D+00-0.408D+01
 Coeff-Com:  0.354D+01-0.516D+00-0.229D+01-0.130D+01 0.357D+01 0.129D+01
 Coeff-Com: -0.815D-01 0.105D+00-0.124D+01 0.135D+01-0.322D+01 0.359D+01
 Coeff-Com:  0.482D+00-0.111D+01
 Coeff:      0.189D-01 0.605D+00-0.819D+00 0.636D+00 0.478D+00-0.408D+01
 Coeff:      0.354D+01-0.516D+00-0.229D+01-0.130D+01 0.357D+01 0.129D+01
 Coeff:     -0.815D-01 0.105D+00-0.124D+01 0.135D+01-0.322D+01 0.359D+01
 Coeff:      0.482D+00-0.111D+01
 Gap=     0.052 Goal=   None    Shift=    0.000
 Gap=     0.074 Goal=   None    Shift=    0.000
 RMSDP=1.74D-05 MaxDP=1.28D-03 DE= 1.24D-04 OVMax= 3.21D-03

 Cycle 108  Pass 1  IDiag  1:
 E= -952.528747074392     Delta-E=       -0.000009764829 Rises=F Damp=F
 DIIS: error= 3.32D-04 at cycle 108 NSaved=  20.
 NSaved=20 IEnMin= 1 EnMin= -952.529201287828     IErMin= 2 ErrMin= 4.95D-05
 ErrMax= 3.32D-04  0.00D+00 EMaxC= 1.00D-01 BMatC= 2.07D-04 BMatP= 6.70D-06
 IDIUse=1 WtCom= 1.00D+00 WtEn= 0.00D+00
 Coeff-Com:  0.226D-01 0.972D+00-0.157D+01 0.108D+01 0.522D+00-0.401D+01
 Coeff-Com:  0.347D+01-0.557D+00-0.271D+01-0.208D+01 0.440D+01 0.156D+01
 Coeff-Com:  0.255D-01 0.200D+00-0.118D+01 0.119D+01-0.379D+01 0.425D+01
 Coeff-Com: -0.366D+01 0.286D+01
 Coeff:      0.226D-01 0.972D+00-0.157D+01 0.108D+01 0.522D+00-0.401D+01
 Coeff:      0.347D+01-0.557D+00-0.271D+01-0.208D+01 0.440D+01 0.156D+01
 Coeff:      0.255D-01 0.200D+00-0.118D+01 0.119D+01-0.379D+01 0.425D+01
 Coeff:     -0.366D+01 0.286D+01
 Gap=     0.052 Goal=   None    Shift=    0.000
 Gap=     0.074 Goal=   None    Shift=    0.000
 RMSDP=3.68D-05 MaxDP=2.74D-03 DE=-9.76D-06 OVMax= 6.86D-03

 Cycle 109  Pass 1  IDiag  1:
 E= -952.528723497165     Delta-E=        0.000023577227 Rises=F Damp=F
 DIIS: error= 3.38D-04 at cycle 109 NSaved=  20.
 NSaved=20 IEnMin= 1 EnMin= -952.529201287828     IErMin= 2 ErrMin= 4.95D-05
 ErrMax= 3.38D-04  0.00D+00 EMaxC= 1.00D-01 BMatC= 2.18D-04 BMatP= 6.70D-06
 IDIUse=1 WtCom= 1.00D+00 WtEn= 0.00D+00
 Coeff-Com:  0.173D-01 0.644D+00-0.783D+00 0.588D+00 0.513D+00-0.413D+01
 Coeff-Com:  0.359D+01-0.553D+00-0.262D+01-0.175D+01 0.397D+01 0.167D+01
 Coeff-Com: -0.774D-01 0.318D+00-0.993D+00 0.999D+00-0.248D+01 0.297D+01
 Coeff-Com:  0.210D-01-0.913D+00
 Coeff:      0.173D-01 0.644D+00-0.783D+00 0.588D+00 0.513D+00-0.413D+01
 Coeff:      0.359D+01-0.553D+00-0.262D+01-0.175D+01 0.397D+01 0.167D+01
 Coeff:     -0.774D-01 0.318D+00-0.993D+00 0.999D+00-0.248D+01 0.297D+01
 Coeff:      0.210D-01-0.913D+00
 Gap=     0.052 Goal=   None    Shift=    0.000
 Gap=     0.074 Goal=   None    Shift=    0.000
 RMSDP=3.59D-05 MaxDP=2.72D-03 DE= 2.36D-05 OVMax= 6.92D-03

 Cycle 110  Pass 1  IDiag  1:
 E= -952.528745766679     Delta-E=       -0.000022269513 Rises=F Damp=F
 DIIS: error= 3.31D-04 at cycle 110 NSaved=  20.
 NSaved=20 IEnMin= 1 EnMin= -952.529201287828     IErMin= 2 ErrMin= 4.95D-05
 ErrMax= 3.31D-04  0.00D+00 EMaxC= 1.00D-01 BMatC= 2.07D-04 BMatP= 6.70D-06
 IDIUse=1 WtCom= 1.00D+00 WtEn= 0.00D+00
 Coeff-Com:  0.149D-01 0.522D+00-0.539D+00 0.432D+00 0.494D+00-0.401D+01
 Coeff-Com:  0.349D+01-0.507D+00-0.240D+01-0.139D+01 0.348D+01 0.156D+01
 Coeff-Com: -0.113D+00 0.393D+00-0.776D+00 0.753D+00-0.164D+01 0.205D+01
 Coeff-Com: -0.185D+01 0.104D+01
 Coeff:      0.149D-01 0.522D+00-0.539D+00 0.432D+00 0.494D+00-0.401D+01
 Coeff:      0.349D+01-0.507D+00-0.240D+01-0.139D+01 0.348D+01 0.156D+01
 Coeff:     -0.113D+00 0.393D+00-0.776D+00 0.753D+00-0.164D+01 0.205D+01
 Coeff:     -0.185D+01 0.104D+01
 Gap=     0.051 Goal=   None    Shift=    0.000
 Gap=     0.074 Goal=   None    Shift=    0.000
 RMSDP=3.37D-05 MaxDP=2.49D-03 DE=-2.23D-05 OVMax= 6.24D-03

 Cycle 111  Pass 1  IDiag  1:
 E= -952.528767917744     Delta-E=       -0.000022151065 Rises=F Damp=F
 DIIS: error= 3.20D-04 at cycle 111 NSaved=  20.
 NSaved=20 IEnMin= 1 EnMin= -952.529201287828     IErMin= 2 ErrMin= 4.95D-05
 ErrMax= 3.20D-04  0.00D+00 EMaxC= 1.00D-01 BMatC= 1.95D-04 BMatP= 6.70D-06
 IDIUse=1 WtCom= 1.00D+00 WtEn= 0.00D+00
 Coeff-Com:  0.181D-01 0.701D+00-0.950D+00 0.700D+00 0.514D+00-0.413D+01
 Coeff-Com:  0.359D+01-0.623D+00-0.260D+01-0.144D+01 0.385D+01 0.143D+01
 Coeff-Com: -0.701D-01 0.229D+00-0.110D+01 0.113D+01-0.301D+01 0.349D+01
 Coeff-Com: -0.225D+01 0.152D+01
 Coeff:      0.181D-01 0.701D+00-0.950D+00 0.700D+00 0.514D+00-0.413D+01
 Coeff:      0.359D+01-0.623D+00-0.260D+01-0.144D+01 0.385D+01 0.143D+01
 Coeff:     -0.701D-01 0.229D+00-0.110D+01 0.113D+01-0.301D+01 0.349D+01
 Coeff:     -0.225D+01 0.152D+01
 Gap=     0.052 Goal=   None    Shift=    0.000
 Gap=     0.074 Goal=   None    Shift=    0.000
 RMSDP=7.09D-05 MaxDP=5.30D-03 DE=-2.22D-05 OVMax= 1.34D-02

 Cycle 112  Pass 1  IDiag  1:
 E= -952.528723875122     Delta-E=        0.000044042622 Rises=F Damp=F
 DIIS: error= 3.37D-04 at cycle 112 NSaved=  20.
 NSaved=20 IEnMin= 1 EnMin= -952.529201287828     IErMin= 2 ErrMin= 4.95D-05
 ErrMax= 3.37D-04  0.00D+00 EMaxC= 1.00D-01 BMatC= 2.14D-04 BMatP= 6.70D-06
 IDIUse=1 WtCom= 1.00D+00 WtEn= 0.00D+00
 Coeff-Com:  0.111D-01 0.287D+00-0.149D+00 0.184D+00 0.383D+00-0.345D+01
 Coeff-Com:  0.299D+01-0.296D+00-0.176D+01-0.142D+01 0.265D+01 0.161D+01
 Coeff-Com: -0.709D-01 0.274D+00-0.721D+00 0.753D+00-0.131D+01 0.142D+01
 Coeff-Com:  0.309D+01-0.349D+01
 Coeff:      0.111D-01 0.287D+00-0.149D+00 0.184D+00 0.383D+00-0.345D+01
 Coeff:      0.299D+01-0.296D+00-0.176D+01-0.142D+01 0.265D+01 0.161D+01
 Coeff:     -0.709D-01 0.274D+00-0.721D+00 0.753D+00-0.131D+01 0.142D+01
 Coeff:      0.309D+01-0.349D+01
 Gap=     0.051 Goal=   None    Shift=    0.000
 Gap=     0.074 Goal=   None    Shift=    0.000
 RMSDP=1.44D-04 MaxDP=1.07D-02 DE= 4.40D-05 OVMax= 2.69D-02

 Cycle 113  Pass 1  IDiag  1:
 E= -952.528810105716     Delta-E=       -0.000086230594 Rises=F Damp=F
 DIIS: error= 3.10D-04 at cycle 113 NSaved=  20.
 NSaved=20 IEnMin= 1 EnMin= -952.529201287828     IErMin= 2 ErrMin= 4.95D-05
 ErrMax= 3.10D-04  0.00D+00 EMaxC= 1.00D-01 BMatC= 1.84D-04 BMatP= 6.70D-06
 IDIUse=1 WtCom= 1.00D+00 WtEn= 0.00D+00
 Coeff-Com:  0.155D-01 0.797D+00-0.116D+01 0.770D+00 0.435D+00-0.344D+01
 Coeff-Com:  0.297D+01-0.394D+00-0.238D+01-0.213D+01 0.356D+01 0.187D+01
 Coeff-Com: -0.200D+00 0.575D+00-0.247D+00 0.731D-01-0.215D+01 0.245D+01
 Coeff-Com: -0.190D+01 0.148D+01
 Coeff:      0.155D-01 0.797D+00-0.116D+01 0.770D+00 0.435D+00-0.344D+01
 Coeff:      0.297D+01-0.394D+00-0.238D+01-0.213D+01 0.356D+01 0.187D+01
 Coeff:     -0.200D+00 0.575D+00-0.247D+00 0.731D-01-0.215D+01 0.245D+01
 Coeff:     -0.190D+01 0.148D+01
 Gap=     0.051 Goal=   None    Shift=    0.000
 Gap=     0.074 Goal=   None    Shift=    0.000
 RMSDP=7.16D-05 MaxDP=5.35D-03 DE=-8.62D-05 OVMax= 1.34D-02

 Cycle 114  Pass 1  IDiag  1:
 E= -952.528770386601     Delta-E=        0.000039719115 Rises=F Damp=F
 DIIS: error= 3.15D-04 at cycle 114 NSaved=  20.
 NSaved=20 IEnMin= 1 EnMin= -952.529201287828     IErMin= 2 ErrMin= 4.95D-05
 ErrMax= 3.15D-04  0.00D+00 EMaxC= 1.00D-01 BMatC= 1.93D-04 BMatP= 6.70D-06
 IDIUse=1 WtCom= 1.00D+00 WtEn= 0.00D+00
 Coeff-Com:  0.233D-01 0.913D+00-0.140D+01 0.100D+01 0.587D+00-0.445D+01
 Coeff-Com:  0.387D+01-0.723D+00-0.291D+01-0.131D+01 0.442D+01 0.114D+01
 Coeff-Com: -0.204D-01 0.184D+00-0.134D+01 0.140D+01-0.356D+01 0.414D+01
 Coeff-Com: -0.121D+00-0.847D+00
 Coeff:      0.233D-01 0.913D+00-0.140D+01 0.100D+01 0.587D+00-0.445D+01
 Coeff:      0.387D+01-0.723D+00-0.291D+01-0.131D+01 0.442D+01 0.114D+01
 Coeff:     -0.204D-01 0.184D+00-0.134D+01 0.140D+01-0.356D+01 0.414D+01
 Coeff:     -0.121D+00-0.847D+00
 Gap=     0.052 Goal=   None    Shift=    0.000
 Gap=     0.074 Goal=   None    Shift=    0.000
 RMSDP=1.07D-04 MaxDP=8.03D-03 DE= 3.97D-05 OVMax= 2.01D-02

 Cycle 115  Pass 1  IDiag  1:
 E= -952.528699829653     Delta-E=        0.000070556948 Rises=F Damp=F
 DIIS: error= 3.44D-04 at cycle 115 NSaved=  20.
 NSaved=20 IEnMin= 1 EnMin= -952.529201287828     IErMin= 2 ErrMin= 4.95D-05
 ErrMax= 3.44D-04  0.00D+00 EMaxC= 1.00D-01 BMatC= 2.27D-04 BMatP= 6.70D-06
 IDIUse=1 WtCom= 1.00D+00 WtEn= 0.00D+00
 Coeff-Com:  0.118D-01 0.292D+00-0.834D-01 0.893D-01 0.261D+00-0.296D+01
 Coeff-Com:  0.249D+01-0.679D-01-0.144D+01-0.203D+01 0.243D+01 0.200D+01
 Coeff-Com: -0.243D+00 0.517D+00-0.576D-01-0.274D-01-0.919D+00 0.100D+01
 Coeff-Com:  0.264D+01-0.290D+01
 Coeff:      0.118D-01 0.292D+00-0.834D-01 0.893D-01 0.261D+00-0.296D+01
 Coeff:      0.249D+01-0.679D-01-0.144D+01-0.203D+01 0.243D+01 0.200D+01
 Coeff:     -0.243D+00 0.517D+00-0.576D-01-0.274D-01-0.919D+00 0.100D+01
 Coeff:      0.264D+01-0.290D+01
 Gap=     0.050 Goal=   None    Shift=    0.000
 Gap=     0.074 Goal=   None    Shift=    0.000
 RMSDP=2.24D-04 MaxDP=1.68D-02 DE= 7.06D-05 OVMax= 4.18D-02

 Cycle 116  Pass 1  IDiag  1:
 E= -952.528836130704     Delta-E=       -0.000136301051 Rises=F Damp=F
 DIIS: error= 3.02D-04 at cycle 116 NSaved=  20.
 NSaved=20 IEnMin= 1 EnMin= -952.529201287828     IErMin= 2 ErrMin= 4.95D-05
 ErrMax= 3.02D-04  0.00D+00 EMaxC= 1.00D-01 BMatC= 1.77D-04 BMatP= 6.70D-06
 IDIUse=1 WtCom= 1.00D+00 WtEn= 0.00D+00
 Coeff-Com:  0.173D-01 0.834D+00-0.120D+01 0.795D+00 0.441D+00-0.356D+01
 Coeff-Com:  0.305D+01-0.416D+00-0.245D+01-0.210D+01 0.372D+01 0.186D+01
 Coeff-Com: -0.189D+00 0.594D+00-0.239D+00 0.572D-01-0.212D+01 0.247D+01
 Coeff-Com: -0.115D+01 0.582D+00
 Coeff:      0.173D-01 0.834D+00-0.120D+01 0.795D+00 0.441D+00-0.356D+01
 Coeff:      0.305D+01-0.416D+00-0.245D+01-0.210D+01 0.372D+01 0.186D+01
 Coeff:     -0.189D+00 0.594D+00-0.239D+00 0.572D-01-0.212D+01 0.247D+01
 Coeff:     -0.115D+01 0.582D+00
 Gap=     0.051 Goal=   None    Shift=    0.000
 Gap=     0.074 Goal=   None    Shift=    0.000
 RMSDP=1.26D-04 MaxDP=9.40D-03 DE=-1.36D-04 OVMax= 2.35D-02

 Cycle 117  Pass 1  IDiag  1:
 E= -952.528765224510     Delta-E=        0.000070906194 Rises=F Damp=F
 DIIS: error= 3.17D-04 at cycle 117 NSaved=  20.
 NSaved=20 IEnMin= 1 EnMin= -952.529201287828     IErMin= 2 ErrMin= 4.95D-05
 ErrMax= 3.17D-04  0.00D+00 EMaxC= 1.00D-01 BMatC= 1.95D-04 BMatP= 6.70D-06
 IDIUse=1 WtCom= 1.00D+00 WtEn= 0.00D+00
 Coeff-Com:  0.227D-01 0.892D+00-0.135D+01 0.966D+00 0.580D+00-0.440D+01
 Coeff-Com:  0.383D+01-0.701D+00-0.289D+01-0.137D+01 0.438D+01 0.118D+01
 Coeff-Com: -0.514D-01 0.223D+00-0.126D+01 0.130D+01-0.343D+01 0.401D+01
 Coeff-Com:  0.102D-02-0.933D+00
 Coeff:      0.227D-01 0.892D+00-0.135D+01 0.966D+00 0.580D+00-0.440D+01
 Coeff:      0.383D+01-0.701D+00-0.289D+01-0.137D+01 0.438D+01 0.118D+01
 Coeff:     -0.514D-01 0.223D+00-0.126D+01 0.130D+01-0.343D+01 0.401D+01
 Coeff:      0.102D-02-0.933D+00
 Gap=     0.052 Goal=   None    Shift=    0.000
 Gap=     0.074 Goal=   None    Shift=    0.000
 RMSDP=8.98D-05 MaxDP=6.75D-03 DE= 7.09D-05 OVMax= 1.67D-02

 Cycle 118  Pass 1  IDiag  1:
 E= -952.528705540276     Delta-E=        0.000059684234 Rises=F Damp=F
 DIIS: error= 3.41D-04 at cycle 118 NSaved=  20.
 NSaved=20 IEnMin= 1 EnMin= -952.529201287828     IErMin= 2 ErrMin= 4.95D-05
 ErrMax= 3.41D-04  0.00D+00 EMaxC= 1.00D-01 BMatC= 2.24D-04 BMatP= 6.70D-06
 IDIUse=1 WtCom= 1.00D+00 WtEn= 0.00D+00
 Coeff-Com:  0.138D-01 0.502D+00-0.547D+00 0.352D+00 0.249D+00-0.282D+01
 Coeff-Com:  0.232D+01-0.864D-01-0.138D+01-0.178D+01 0.224D+01 0.186D+01
 Coeff-Com: -0.222D+00 0.591D+00 0.186D+00-0.354D+00-0.970D+00 0.102D+01
 Coeff-Com:  0.342D+01-0.360D+01
 Coeff:      0.138D-01 0.502D+00-0.547D+00 0.352D+00 0.249D+00-0.282D+01
 Coeff:      0.232D+01-0.864D-01-0.138D+01-0.178D+01 0.224D+01 0.186D+01
 Coeff:     -0.222D+00 0.591D+00 0.186D+00-0.354D+00-0.970D+00 0.102D+01
 Coeff:      0.342D+01-0.360D+01
 Gap=     0.050 Goal=   None    Shift=    0.000
 Gap=     0.074 Goal=   None    Shift=    0.000
 RMSDP=1.94D-04 MaxDP=1.45D-02 DE= 5.97D-05 OVMax= 3.58D-02

 Cycle 119  Pass 1  IDiag  1:
 E= -952.528828701021     Delta-E=       -0.000123160745 Rises=F Damp=F
 DIIS: error= 2.98D-04 at cycle 119 NSaved=  20.
 NSaved=20 IEnMin= 1 EnMin= -952.529201287828     IErMin= 2 ErrMin= 4.95D-05
 ErrMax= 2.98D-04  0.00D+00 EMaxC= 1.00D-01 BMatC= 1.73D-04 BMatP= 6.70D-06
 IDIUse=1 WtCom= 1.00D+00 WtEn= 0.00D+00
 Coeff-Com:  0.182D-01 0.830D+00-0.118D+01 0.790D+00 0.469D+00-0.376D+01
 Coeff-Com:  0.324D+01-0.467D+00-0.256D+01-0.210D+01 0.392D+01 0.186D+01
 Coeff-Com: -0.133D+00 0.504D+00-0.512D+00 0.390D+00-0.243D+01 0.286D+01
 Coeff-Com: -0.104D+01 0.315D+00
 Coeff:      0.182D-01 0.830D+00-0.118D+01 0.790D+00 0.469D+00-0.376D+01
 Coeff:      0.324D+01-0.467D+00-0.256D+01-0.210D+01 0.392D+01 0.186D+01
 Coeff:     -0.133D+00 0.504D+00-0.512D+00 0.390D+00-0.243D+01 0.286D+01
 Coeff:     -0.104D+01 0.315D+00
 Gap=     0.051 Goal=   None    Shift=    0.000
 Gap=     0.074 Goal=   None    Shift=    0.000
 RMSDP=1.23D-04 MaxDP=9.19D-03 DE=-1.23D-04 OVMax= 2.24D-02

 Cycle 120  Pass 1  IDiag  1:
 E= -952.528753208149     Delta-E=        0.000075492872 Rises=F Damp=F
 DIIS: error= 3.24D-04 at cycle 120 NSaved=  20.
 NSaved=20 IEnMin= 1 EnMin= -952.529201287828     IErMin= 2 ErrMin= 4.95D-05
 ErrMax= 3.24D-04  0.00D+00 EMaxC= 1.00D-01 BMatC= 2.01D-04 BMatP= 6.70D-06
 IDIUse=1 WtCom= 1.00D+00 WtEn= 0.00D+00
 Coeff-Com:  0.211D-01 0.823D+00-0.119D+01 0.863D+00 0.563D+00-0.434D+01
 Coeff-Com:  0.378D+01-0.668D+00-0.285D+01-0.155D+01 0.434D+01 0.135D+01
 Coeff-Com: -0.559D-01 0.228D+00-0.124D+01 0.128D+01-0.330D+01 0.386D+01
 Coeff-Com: -0.180D-01-0.902D+00
 Coeff:      0.211D-01 0.823D+00-0.119D+01 0.863D+00 0.563D+00-0.434D+01
 Coeff:      0.378D+01-0.668D+00-0.285D+01-0.155D+01 0.434D+01 0.135D+01
 Coeff:     -0.559D-01 0.228D+00-0.124D+01 0.128D+01-0.330D+01 0.386D+01
 Coeff:     -0.180D-01-0.902D+00
 Gap=     0.052 Goal=   None    Shift=    0.000
 Gap=     0.074 Goal=   None    Shift=    0.000
 RMSDP=5.92D-05 MaxDP=4.46D-03 DE= 7.55D-05 OVMax= 1.10D-02

 Cycle 121  Pass 1  IDiag  1:
 E= -952.528713072730     Delta-E=        0.000040135419 Rises=F Damp=F
 DIIS: error= 3.40D-04 at cycle 121 NSaved=  20.
 NSaved=20 IEnMin= 1 EnMin= -952.529201287828     IErMin= 2 ErrMin= 4.95D-05
 ErrMax= 3.40D-04  0.00D+00 EMaxC= 1.00D-01 BMatC= 2.21D-04 BMatP= 6.70D-06
 IDIUse=1 WtCom= 1.00D+00 WtEn= 0.00D+00
 Coeff-Com:  0.167D-01 0.611D+00-0.784D+00 0.508D+00 0.296D+00-0.309D+01
 Coeff-Com:  0.255D+01-0.183D+00-0.154D+01-0.160D+01 0.244D+01 0.170D+01
 Coeff-Com: -0.147D+00 0.483D+00-0.122D+00-0.125D-02-0.164D+01 0.180D+01
 Coeff-Com:  0.402D+01-0.433D+01
 Coeff:      0.167D-01 0.611D+00-0.784D+00 0.508D+00 0.296D+00-0.309D+01
 Coeff:      0.255D+01-0.183D+00-0.154D+01-0.160D+01 0.244D+01 0.170D+01
 Coeff:     -0.147D+00 0.483D+00-0.122D+00-0.125D-02-0.164D+01 0.180D+01
 Coeff:      0.402D+01-0.433D+01
 Gap=     0.051 Goal=   None    Shift=    0.000
 Gap=     0.074 Goal=   None    Shift=    0.000
 RMSDP=1.41D-04 MaxDP=1.08D-02 DE= 4.01D-05 OVMax= 2.56D-02

 Cycle 122  Pass 1  IDiag  1:
 E= -952.528806704238     Delta-E=       -0.000093631508 Rises=F Damp=F
 DIIS: error= 3.04D-04 at cycle 122 NSaved=  20.
 NSaved=20 IEnMin= 1 EnMin= -952.529201287828     IErMin= 2 ErrMin= 4.95D-05
 ErrMax= 3.04D-04  0.00D+00 EMaxC= 1.00D-01 BMatC= 1.78D-04 BMatP= 6.70D-06
 IDIUse=1 WtCom= 1.00D+00 WtEn= 0.00D+00
 Coeff-Com:  0.187D-01 0.823D+00-0.116D+01 0.794D+00 0.488D+00-0.389D+01
 Coeff-Com:  0.336D+01-0.517D+00-0.263D+01-0.201D+01 0.400D+01 0.179D+01
 Coeff-Com: -0.100D+00 0.420D+00-0.720D+00 0.642D+00-0.274D+01 0.321D+01
 Coeff-Com: -0.103D+01 0.261D+00
 Coeff:      0.187D-01 0.823D+00-0.116D+01 0.794D+00 0.488D+00-0.389D+01
 Coeff:      0.336D+01-0.517D+00-0.263D+01-0.201D+01 0.400D+01 0.179D+01
 Coeff:     -0.100D+00 0.420D+00-0.720D+00 0.642D+00-0.274D+01 0.321D+01
 Coeff:     -0.103D+01 0.261D+00
 Gap=     0.052 Goal=   None    Shift=    0.000
 Gap=     0.074 Goal=   None    Shift=    0.000
 RMSDP=9.97D-05 MaxDP=7.75D-03 DE=-9.36D-05 OVMax= 1.79D-02

 Cycle 123  Pass 1  IDiag  1:
 E= -952.528741587083     Delta-E=        0.000065117155 Rises=F Damp=F
 DIIS: error= 3.29D-04 at cycle 123 NSaved=  20.
 NSaved=20 IEnMin= 1 EnMin= -952.529201287828     IErMin= 2 ErrMin= 4.95D-05
 ErrMax= 3.29D-04  0.00D+00 EMaxC= 1.00D-01 BMatC= 2.06D-04 BMatP= 6.70D-06
 IDIUse=1 WtCom= 1.00D+00 WtEn= 0.00D+00
 Coeff-Com:  0.200D-01 0.788D+00-0.111D+01 0.806D+00 0.544D+00-0.424D+01
 Coeff-Com:  0.369D+01-0.631D+00-0.279D+01-0.170D+01 0.428D+01 0.149D+01
 Coeff-Com: -0.590D-01 0.249D+00-0.117D+01 0.120D+01-0.317D+01 0.370D+01
 Coeff-Com:  0.304D-01-0.920D+00
 Coeff:      0.200D-01 0.788D+00-0.111D+01 0.806D+00 0.544D+00-0.424D+01
 Coeff:      0.369D+01-0.631D+00-0.279D+01-0.170D+01 0.428D+01 0.149D+01
 Coeff:     -0.590D-01 0.249D+00-0.117D+01 0.120D+01-0.317D+01 0.370D+01
 Coeff:      0.304D-01-0.920D+00
 Gap=     0.052 Goal=   None    Shift=    0.000
 Gap=     0.074 Goal=   None    Shift=    0.000
 RMSDP=2.86D-05 MaxDP=2.19D-03 DE= 6.51D-05 OVMax= 5.23D-03

 Cycle 124  Pass 1  IDiag  1:
 E= -952.528721140745     Delta-E=        0.000020446338 Rises=F Damp=F
 DIIS: error= 3.39D-04 at cycle 124 NSaved=  20.
 NSaved=20 IEnMin= 1 EnMin= -952.529201287828     IErMin= 2 ErrMin= 4.95D-05
 ErrMax= 3.39D-04  0.00D+00 EMaxC= 1.00D-01 BMatC= 2.18D-04 BMatP= 6.70D-06
 IDIUse=1 WtCom= 1.00D+00 WtEn= 0.00D+00
 Coeff-Com:  0.192D-01 0.736D+00-0.102D+01 0.668D+00 0.378D+00-0.351D+01
 Coeff-Com:  0.294D+01-0.356D+00-0.195D+01-0.150D+01 0.293D+01 0.160D+01
 Coeff-Com: -0.104D+00 0.402D+00-0.470D+00 0.383D+00-0.243D+01 0.277D+01
 Coeff-Com:  0.474D+01-0.525D+01
 Coeff:      0.192D-01 0.736D+00-0.102D+01 0.668D+00 0.378D+00-0.351D+01
 Coeff:      0.294D+01-0.356D+00-0.195D+01-0.150D+01 0.293D+01 0.160D+01
 Coeff:     -0.104D+00 0.402D+00-0.470D+00 0.383D+00-0.243D+01 0.277D+01
 Coeff:      0.474D+01-0.525D+01
 Gap=     0.051 Goal=   None    Shift=    0.000
 Gap=     0.074 Goal=   None    Shift=    0.000
 RMSDP=6.53D-05 MaxDP=5.41D-03 DE= 2.04D-05 OVMax= 1.14D-02

 Cycle 125  Pass 1  IDiag  1:
 E= -952.528769398926     Delta-E=       -0.000048258180 Rises=F Damp=F
 DIIS: error= 3.16D-04 at cycle 125 NSaved=  20.
 NSaved=20 IEnMin= 1 EnMin= -952.529201287828     IErMin= 2 ErrMin= 4.95D-05
 ErrMax= 3.16D-04  0.00D+00 EMaxC= 1.00D-01 BMatC= 1.90D-04 BMatP= 6.70D-06
 IDIUse=1 WtCom= 1.00D+00 WtEn= 0.00D+00
 Coeff-Com:  0.190D-01 0.776D+00-0.107D+01 0.750D+00 0.509D+00-0.406D+01
 Coeff-Com:  0.351D+01-0.554D+00-0.268D+01-0.193D+01 0.411D+01 0.172D+01
 Coeff-Com: -0.728D-01 0.329D+00-0.957D+00 0.939D+00-0.293D+01 0.343D+01
 Coeff-Com: -0.981D+00 0.128D+00
 Coeff:      0.190D-01 0.776D+00-0.107D+01 0.750D+00 0.509D+00-0.406D+01
 Coeff:      0.351D+01-0.554D+00-0.268D+01-0.193D+01 0.411D+01 0.172D+01
 Coeff:     -0.728D-01 0.329D+00-0.957D+00 0.939D+00-0.293D+01 0.343D+01
 Coeff:     -0.981D+00 0.128D+00
 Gap=     0.052 Goal=   None    Shift=    0.000
 Gap=     0.074 Goal=   None    Shift=    0.000
 RMSDP=4.52D-05 MaxDP=3.93D-03 DE=-4.83D-05 OVMax= 7.69D-03

 Cycle 126  Pass 1  IDiag  1:
 E= -952.528735054807     Delta-E=        0.000034344118 Rises=F Damp=F
 DIIS: error= 3.34D-04 at cycle 126 NSaved=  20.
 NSaved=20 IEnMin= 1 EnMin= -952.529201287828     IErMin= 2 ErrMin= 4.95D-05
 ErrMax= 3.34D-04  0.00D+00 EMaxC= 1.00D-01 BMatC= 2.11D-04 BMatP= 6.70D-06
 IDIUse=1 WtCom= 1.00D+00 WtEn= 0.00D+00
 Coeff-Com:  0.194D-01 0.726D+00-0.975D+00 0.722D+00 0.532D+00-0.423D+01
 Coeff-Com:  0.368D+01-0.604D+00-0.273D+01-0.177D+01 0.424D+01 0.156D+01
 Coeff-Com: -0.521D-01 0.226D+00-0.120D+01 0.125D+01-0.312D+01 0.364D+01
 Coeff-Com: -0.670D-01-0.837D+00
 Coeff:      0.194D-01 0.726D+00-0.975D+00 0.722D+00 0.532D+00-0.423D+01
 Coeff:      0.368D+01-0.604D+00-0.273D+01-0.177D+01 0.424D+01 0.156D+01
 Coeff:     -0.521D-01 0.226D+00-0.120D+01 0.125D+01-0.312D+01 0.364D+01
 Coeff:     -0.670D-01-0.837D+00
 Gap=     0.052 Goal=   None    Shift=    0.000
 Gap=     0.074 Goal=   None    Shift=    0.000
 RMSDP=1.03D-05 MaxDP=8.32D-04 DE= 3.43D-05 OVMax= 1.84D-03

 Cycle 127  Pass 1  IDiag  1:
 E= -952.528727033796     Delta-E=        0.000008021011 Rises=F Damp=F
 DIIS: error= 3.38D-04 at cycle 127 NSaved=  20.
 NSaved=20 IEnMin= 1 EnMin= -952.529201287828     IErMin= 2 ErrMin= 4.95D-05
 ErrMax= 3.38D-04  0.00D+00 EMaxC= 1.00D-01 BMatC= 2.16D-04 BMatP= 6.70D-06
 IDIUse=1 WtCom= 1.00D+00 WtEn= 0.00D+00
 Coeff-Com:  0.195D-01 0.697D+00-0.912D+00 0.656D+00 0.478D+00-0.405D+01
 Coeff-Com:  0.348D+01-0.529D+00-0.244D+01-0.160D+01 0.372D+01 0.156D+01
 Coeff-Com: -0.458D-01 0.236D+00-0.106D+01 0.109D+01-0.301D+01 0.350D+01
 Coeff-Com:  0.256D+01-0.335D+01
 Coeff:      0.195D-01 0.697D+00-0.912D+00 0.656D+00 0.478D+00-0.405D+01
 Coeff:      0.348D+01-0.529D+00-0.244D+01-0.160D+01 0.372D+01 0.156D+01
 Coeff:     -0.458D-01 0.236D+00-0.106D+01 0.109D+01-0.301D+01 0.350D+01
 Coeff:      0.256D+01-0.335D+01
 Gap=     0.052 Goal=   None    Shift=    0.000
 Gap=     0.074 Goal=   None    Shift=    0.000
 RMSDP=1.47D-05 MaxDP=1.31D-03 DE= 8.02D-06 OVMax= 2.45D-03

 Cycle 128  Pass 1  IDiag  1:
 E= -952.528739088016     Delta-E=       -0.000012054219 Rises=F Damp=F
 DIIS: error= 3.33D-04 at cycle 128 NSaved=  20.
 NSaved=20 IEnMin= 1 EnMin= -952.529201287828     IErMin= 2 ErrMin= 4.95D-05
 ErrMax= 3.33D-04  0.00D+00 EMaxC= 1.00D-01 BMatC= 2.08D-04 BMatP= 6.70D-06
 IDIUse=1 WtCom= 1.00D+00 WtEn= 0.00D+00
 Coeff-Com:  0.195D-01 0.776D+00-0.107D+01 0.763D+00 0.517D+00-0.413D+01
 Coeff-Com:  0.358D+01-0.587D+00-0.268D+01-0.177D+01 0.409D+01 0.161D+01
 Coeff-Com: -0.629D-01 0.280D+00-0.106D+01 0.106D+01-0.310D+01 0.362D+01
 Coeff-Com: -0.120D+01 0.349D+00
 Coeff:      0.195D-01 0.776D+00-0.107D+01 0.763D+00 0.517D+00-0.413D+01
 Coeff:      0.358D+01-0.587D+00-0.268D+01-0.177D+01 0.409D+01 0.161D+01
 Coeff:     -0.629D-01 0.280D+00-0.106D+01 0.106D+01-0.310D+01 0.362D+01
 Coeff:     -0.120D+01 0.349D+00
 Gap=     0.052 Goal=   None    Shift=    0.000
 Gap=     0.074 Goal=   None    Shift=    0.000
 RMSDP=1.60D-05 MaxDP=1.28D-03 DE=-1.21D-05 OVMax= 2.82D-03

 >>>>>>>>>> Convergence criterion not met.
 SCF Done:  E(UPBE1PBE) =  -952.528739088     A.U. after  129 cycles
            NFock=128  Conv=0.16D-04     -V/T= 2.3132
 <Sx>= 0.0000 <Sy>= 0.0000 <Sz>= 0.5000 <S**2>= 0.9635 S= 0.6016
 <L.S>= 0.000000000000E+00
 KE= 7.253260962757D+02 PE=-4.558502781722D+03 EE= 1.678382507509D+03
 Annihilation of the first spin contaminant:
 S**2 before annihilation     0.9635,   after     0.7540
 Leave Link  502 at Fri Sep 11 23:50:04 2026, MaxMem=  6442450944 cpu:            1664.0 elap:            1664.3
 (Enter C:\G16W\l508.exe)
 Keep R1 and R2 ints in memory in canonical form, NReq=791431246.
 FoFCou: FMM=F IPFlag=           0 FMFlag=           0 FMFlg1=           0
         NFxFlg=           0 DoJE=F BraDBF=F KetDBF=F FulRan=T
         wScrn=  0.000000 ICntrl=       600 IOpCl=  0 I1Cent=           0 NGrid=           0
         NMat0=    1 NMatS0=  27966 NMatT0=    0 NMatD0=    1 NMtDS0=    0 NMtDT0=    0
 Symmetry not used in FoFCou.
 Two-electron integral symmetry not used.
 Tight linear equation convergence will be used.
 UPBE1PBE wavefunction.
 Quadratic Convergence SCF Method.
 Line search only if initial step raises energy.
 Defaulting to unpruned grid for atomic number  42.
 Defaulting to unpruned grid for atomic number  42.
 Defaulting to unpruned grid for atomic number  42.
 Defaulting to unpruned grid for atomic number  42.
 Defaulting to unpruned grid for atomic number  42.
 Defaulting to unpruned grid for atomic number  42.
 Defaulting to unpruned grid for atomic number  42.
 Defaulting to unpruned grid for atomic number  42.
 Iteration   1 EE= -952.528727609320                                    Grad=1.034D-02 Max rot=    0.2078 deg.
 Gradient too large for Newton-Raphson -- use scaled steepest descent instead.
 Alpha Gap=     0.055 HL deriv= 1.39D-03
  Beta Gap=     0.074 HL deriv= 3.63D-02
     ILin= 1 X=0.000D+00 Y=-9.525287276093D+02 DE= 0.00D+00 F= -6.27D-04
     ILin= 2 X=3.000D-01 Y=-9.525288216395D+02 DE=-9.40D-05 F= -3.40D-07 OKLS=F
     ILin= 3 X=6.000D-01 Y=-9.525287279875D+02 DE=-3.78D-07 F=  6.24D-04
     An  expanding polynomial of degree  3 produced  0.3003
     Minimum is close to point  2 DX=  3.02D-04 DF= -9.55D-11 DXR=  1.01D-03 DFR=  1.02D-06 which will be used.
 Iteration   2 EE= -952.528821639528     Delta-E=       -0.000094030208 Grad=4.506D-03 Max rot=    0.0656 deg.
 QCNR:  CnvC1=1.47D-08 CnvC2=1.47D-07
 LinEq1:  Iter=  0 NonCon=     1 RMS=1.55D-04 Max=1.56D-02 NDo=     1
 AX will form     1 AO Fock derivatives at one time.
 LinEq1:  Iter=  1 NonCon=     1 RMS=1.95D-04 Max=7.97D-03 NDo=     1
 LinEq1:  Iter=  2 NonCon=     1 RMS=3.58D-04 Max=3.26D-02 NDo=     1
 LinEq1:  Iter=  3 NonCon=     1 RMS=1.50D-04 Max=8.29D-03 NDo=     1
 LinEq1:  Iter=  4 NonCon=     1 RMS=1.91D-04 Max=1.21D-02 NDo=     1
 LinEq1:  Iter=  5 NonCon=     1 RMS=2.47D-04 Max=1.43D-02 NDo=     1
 LinEq1:  Iter=  6 NonCon=     1 RMS=1.79D-04 Max=7.50D-03 NDo=     1
 LinEq1:  Iter=  7 NonCon=     1 RMS=2.22D-04 Max=9.76D-03 NDo=     1
 LinEq1:  Iter=  8 NonCon=     1 RMS=1.50D-04 Max=4.38D-03 NDo=     1
 LinEq1:  Iter=  9 NonCon=     1 RMS=1.57D-04 Max=7.06D-03 NDo=     1
 LinEq1:  Iter= 10 NonCon=     1 RMS=1.61D-04 Max=8.96D-03 NDo=     1
 LinEq1:  Iter= 11 NonCon=     1 RMS=9.67D-05 Max=5.09D-03 NDo=     1
 LinEq1:  Iter= 12 NonCon=     1 RMS=1.06D-04 Max=5.90D-03 NDo=     1
 LinEq1:  Iter= 13 NonCon=     1 RMS=6.68D-05 Max=2.44D-03 NDo=     1
 LinEq1:  Iter= 14 NonCon=     1 RMS=9.21D-05 Max=4.17D-03 NDo=     1
 LinEq1:  Iter= 15 NonCon=     1 RMS=6.64D-05 Max=1.77D-03 NDo=     1
 LinEq1:  Iter= 16 NonCon=     1 RMS=5.41D-05 Max=1.77D-03 NDo=     1
 LinEq1:  Iter= 17 NonCon=     1 RMS=4.57D-05 Max=1.52D-03 NDo=     1
 LinEq1:  Iter= 18 NonCon=     1 RMS=3.53D-05 Max=8.92D-04 NDo=     1
 LinEq1:  Iter= 19 NonCon=     1 RMS=3.38D-05 Max=9.68D-04 NDo=     1
 LinEq1:  Iter= 20 NonCon=     1 RMS=4.27D-05 Max=1.27D-03 NDo=     1
 LinEq1:  Iter= 21 NonCon=     1 RMS=3.97D-05 Max=1.43D-03 NDo=     1
 LinEq1:  Iter= 22 NonCon=     1 RMS=1.86D-05 Max=4.57D-04 NDo=     1
 LinEq1:  Iter= 23 NonCon=     1 RMS=7.04D-06 Max=2.42D-04 NDo=     1
 LinEq1:  Iter= 24 NonCon=     1 RMS=3.29D-06 Max=8.33D-05 NDo=     1
 LinEq1:  Iter= 25 NonCon=     1 RMS=1.57D-06 Max=4.04D-05 NDo=     1
 LinEq1:  Iter= 26 NonCon=     1 RMS=5.08D-07 Max=9.44D-06 NDo=     1
 LinEq1:  Iter= 27 NonCon=     1 RMS=6.07D-07 Max=1.21D-05 NDo=     1
 LinEq1:  Iter= 28 NonCon=     1 RMS=3.33D-07 Max=6.88D-06 NDo=     1
 LinEq1:  Iter= 29 NonCon=     1 RMS=1.38D-07 Max=2.97D-06 NDo=     1
 LinEq1:  Iter= 30 NonCon=     1 RMS=4.42D-08 Max=1.43D-06 NDo=     1
 LinEq1:  Iter= 31 NonCon=     1 RMS=1.36D-08 Max=4.66D-07 NDo=     1
 LinEq1:  Iter= 32 NonCon=     0 RMS=4.56D-09 Max=1.47D-07 NDo=     1
 Linear equations converged to 1.473D-08 1.473D-07 after    32 iterations.
 Angle between quadratic step and gradient=  75.40 degrees.
     ILin= 1 X=0.000D+00 Y=-9.525288216395D+02 DE= 0.00D+00 F= -1.03D-03
     ILin= 2 X=1.000D+00 Y=-9.525294735842D+02 DE=-6.52D-04 F=  9.85D-04 OKLS=F
     ILin= 3 X=1.400D+00 Y=-9.525283299810D+02 DE= 4.92D-04 F=  5.05D-03
     An  expanding polynomial of degree  3 produced  0.6300
 Iteration   3 EE= -952.529445763938     Delta-E=       -0.000624124410 Grad=1.820D-02 Max rot=    0.3342 deg.
 Gradient too large for Newton-Raphson -- use scaled steepest descent instead.
 Alpha Gap=     0.051 HL deriv= 7.41D-03
  Beta Gap=     0.079 HL deriv= 5.83D-02
     ILin= 1 X=0.000D+00 Y=-9.525294457639D+02 DE= 0.00D+00 F= -1.84D-03
     ILin= 2 X=3.000D-01 Y=-9.525297101123D+02 DE=-2.64D-04 F=  7.09D-05 OKLS=F
     ILin= 3 X=5.000D-01 Y=-9.525295695397D+02 DE=-1.24D-04 F=  1.33D-03
     An  expanding polynomial of degree  3 produced  0.2891
     Minimum is close to point  2 DX= -1.09D-02 DF= -3.78D-07 DXR=  3.78D-02 DFR=  1.43D-03 which will be used.
 Iteration   4 EE= -952.529710112252     Delta-E=       -0.000264348314 Grad=8.019D-03 Max rot=    0.1251 deg.
 QCNR:  CnvC1=1.47D-08 CnvC2=1.47D-07
 LinEq1:  Iter=  0 NonCon=     1 RMS=4.15D-04 Max=5.24D-02 NDo=     1
 LinEq1:  Iter=  1 NonCon=     1 RMS=5.79D-04 Max=5.60D-02 NDo=     1
 LinEq1:  Iter=  2 NonCon=     1 RMS=5.07D-04 Max=3.85D-02 NDo=     1
 LinEq1:  Iter=  3 NonCon=     1 RMS=4.20D-04 Max=3.85D-02 NDo=     1
 LinEq1:  Iter=  4 NonCon=     1 RMS=4.99D-04 Max=3.43D-02 NDo=     1
 LinEq1:  Iter=  5 NonCon=     1 RMS=4.81D-04 Max=2.81D-02 NDo=     1
 LinEq1:  Iter=  6 NonCon=     1 RMS=3.87D-04 Max=1.61D-02 NDo=     1
 LinEq1:  Iter=  7 NonCon=     1 RMS=5.20D-04 Max=1.42D-02 NDo=     1
 LinEq1:  Iter=  8 NonCon=     1 RMS=3.78D-04 Max=1.61D-02 NDo=     1
 LinEq1:  Iter=  9 NonCon=     1 RMS=4.55D-04 Max=2.19D-02 NDo=     1
 LinEq1:  Iter= 10 NonCon=     1 RMS=4.90D-04 Max=2.73D-02 NDo=     1
 LinEq1:  Iter= 11 NonCon=     1 RMS=3.68D-04 Max=1.07D-02 NDo=     1
 LinEq1:  Iter= 12 NonCon=     1 RMS=3.99D-04 Max=1.12D-02 NDo=     1
 LinEq1:  Iter= 13 NonCon=     1 RMS=5.09D-04 Max=1.92D-02 NDo=     1
 LinEq1:  Iter= 14 NonCon=     1 RMS=3.13D-04 Max=8.97D-03 NDo=     1
 LinEq1:  Iter= 15 NonCon=     1 RMS=3.02D-04 Max=8.58D-03 NDo=     1
 LinEq1:  Iter= 16 NonCon=     1 RMS=1.88D-04 Max=6.53D-03 NDo=     1
 LinEq1:  Iter= 17 NonCon=     1 RMS=1.35D-04 Max=4.14D-03 NDo=     1
 LinEq1:  Iter= 18 NonCon=     1 RMS=1.52D-04 Max=4.98D-03 NDo=     1
 LinEq1:  Iter= 19 NonCon=     1 RMS=1.27D-04 Max=4.05D-03 NDo=     1
 LinEq1:  Iter= 20 NonCon=     1 RMS=1.65D-04 Max=5.30D-03 NDo=     1
 LinEq1:  Iter= 21 NonCon=     1 RMS=1.08D-04 Max=4.29D-03 NDo=     1
 LinEq1:  Iter= 22 NonCon=     1 RMS=5.64D-05 Max=1.58D-03 NDo=     1
 LinEq1:  Iter= 23 NonCon=     1 RMS=3.84D-05 Max=1.25D-03 NDo=     1
 LinEq1:  Iter= 24 NonCon=     1 RMS=4.04D-05 Max=1.81D-03 NDo=     1
 LinEq1:  Iter= 25 NonCon=     1 RMS=1.59D-05 Max=6.81D-04 NDo=     1
 LinEq1:  Iter= 26 NonCon=     1 RMS=7.31D-06 Max=1.99D-04 NDo=     1
 LinEq1:  Iter= 27 NonCon=     1 RMS=2.60D-06 Max=6.66D-05 NDo=     1
 LinEq1:  Iter= 28 NonCon=     1 RMS=7.51D-07 Max=2.07D-05 NDo=     1
 LinEq1:  Iter= 29 NonCon=     1 RMS=3.04D-07 Max=9.46D-06 NDo=     1
 LinEq1:  Iter= 30 NonCon=     1 RMS=1.03D-07 Max=2.10D-06 NDo=     1
 LinEq1:  Iter= 31 NonCon=     1 RMS=3.24D-08 Max=7.04D-07 NDo=     1
 LinEq1:  Iter= 32 NonCon=     1 RMS=1.11D-08 Max=2.99D-07 NDo=     1
 LinEq1:  Iter= 33 NonCon=     0 RMS=4.56D-09 Max=1.44D-07 NDo=     1
 Linear equations converged to 1.473D-08 1.473D-07 after    33 iterations.
 Angle between quadratic step and gradient= 108.37 degrees.
 Incorrect curvature in search direction -- initial direction reversed.
     ILin= 1 X=0.000D+00 Y=-9.525297101123D+02 DE= 0.00D+00 F= -1.18D-03
     ILin= 2 X=1.000D+00 Y=-9.525314963278D+02 DE=-1.79D-03 F= -2.30D-03 OKLS=F
     ILin= 3 X=1.400D+00 Y=-9.525324584493D+02 DE=-2.75D-03 F= -2.47D-03
     ILin= 4 X=2.000D+00 Y=-9.525338906259D+02 DE=-4.18D-03 F= -2.20D-03
     ILin= 5 X=2.800D+00 Y=-9.525352116039D+02 DE=-5.50D-03 F= -9.39D-04
     Reject lnstep IMin12=  4  5 Big=T Turn=F Min= 3.864D+00 FVal=-9.525361939089D+02 Lims=  2.00D+00  2.80D+00
     ILin= 6 X=4.000D+00 Y=-9.525344916691D+02 DE=-4.78D-03 F=  2.36D-03
     An  expanding polynomial of degree  6 produced  3.1855
 Iteration   5 EE= -952.535403291919     Delta-E=       -0.005693179667 Grad=7.022D-02 Max rot=    0.5758 deg.
 Gradient too large for Newton-Raphson -- use scaled steepest descent instead.
 Alpha Gap=     0.051 HL deriv= 5.98D-02
  Beta Gap=     0.130 HL deriv= 7.73D-02
     ILin= 1 X=0.000D+00 Y=-9.525354032919D+02 DE= 0.00D+00 F= -1.80D-02
     ILin= 2 X=3.000D-01 Y=-9.525382230172D+02 DE=-2.82D-03 F= -7.70D-04 OKLS=F
     ILin= 3 X=5.000D-01 Y=-9.525372290685D+02 DE=-1.83D-03 F=  1.07D-02
     An  expanding polynomial of degree  3 produced  0.3135
     Minimum is close to point  2 DX=  1.35D-02 DF= -5.26D-06 DXR=  4.32D-02 DFR=  1.87D-03 which will be used.
 Iteration   6 EE= -952.538223017202     Delta-E=       -0.002819725283 Grad=2.866D-02 Max rot=    0.3242 deg.
 Gradient too large for Newton-Raphson -- use scaled steepest descent instead.
 Alpha Gap=     0.053 HL deriv= 4.88D-02
  Beta Gap=     0.117 HL deriv= 3.97D-02
     ILin= 1 X=0.000D+00 Y=-9.525382230172D+02 DE= 0.00D+00 F= -3.06D-03
     ILin= 2 X=3.000D-01 Y=-9.525389528957D+02 DE=-7.30D-04 F= -1.81D-03 OKLS=F
     ILin= 3 X=5.000D-01 Y=-9.525392314920D+02 DE=-1.01D-03 F= -9.77D-04
     ILin= 4 X=1.000D+00 Y=-9.525391989254D+02 DE=-9.76D-04 F=  1.11D-03
     An  expanding polynomial of degree  4 produced  0.7344
 Iteration   7 EE= -952.539345944173     Delta-E=       -0.001122926972 Grad=3.370D-02 Max rot=    0.2437 deg.
 Gradient too large for Newton-Raphson -- use scaled steepest descent instead.
 Alpha Gap=     0.053 HL deriv= 1.59D-02
  Beta Gap=     0.128 HL deriv= 3.01D-02
     ILin= 1 X=0.000D+00 Y=-9.525393459442D+02 DE= 0.00D+00 F= -4.28D-03
     ILin= 2 X=5.000D-01 Y=-9.525397555601D+02 DE=-4.10D-04 F=  2.65D-03 OKLS=T
     Accept linear search using points  1 and  2.
     An  expanding polynomial of degree  2 produced  0.2651
 Iteration   8 EE= -952.539994857541     Delta-E=       -0.000648913368 Grad=1.210D-02 Max rot=    0.2952 deg.
 Gradient too large for Newton-Raphson -- use scaled steepest descent instead.
 Alpha Gap=     0.055 HL deriv= 5.15D-02
  Beta Gap=     0.124 HL deriv= 2.21D-02
     ILin= 1 X=0.000D+00 Y=-9.525399948575D+02 DE= 0.00D+00 F= -1.11D-03
     ILin= 2 X=7.000D-01 Y=-9.525406101715D+02 DE=-6.15D-04 F= -6.48D-04 OKLS=F
     ILin= 3 X=1.300D+00 Y=-9.525408797929D+02 DE=-8.85D-04 F= -2.51D-04
     ILin= 4 X=2.300D+00 Y=-9.525408025731D+02 DE=-8.08D-04 F=  4.03D-04
     An  expanding polynomial of degree  4 produced  1.6823
 Iteration   9 EE= -952.540927646286     Delta-E=       -0.000932788745 Grad=3.381D-02 Max rot=    0.2068 deg.
 Gradient too large for Newton-Raphson -- use scaled steepest descent instead.
 Alpha Gap=     0.052 HL deriv= 5.12D-03
  Beta Gap=     0.141 HL deriv= 1.94D-02
     ILin= 1 X=0.000D+00 Y=-9.525409276463D+02 DE= 0.00D+00 F= -4.17D-03
     ILin= 2 X=7.000D-01 Y=-9.525397971990D+02 DE= 1.13D-03 F=  7.43D-03 OKLS=T
     Reject lnstep IMin12=  1  2 Big=F Turn=F Min= 2.955D-01 FVal=-9.525418432719D+02 Lims=  0.00D+00  7.00D-01
     ILin= 3 X=3.000D-01 Y=-9.525414377164D+02 DE=-5.10D-04 F=  7.79D-04
     A contracting polynomial of degree  3 produced  0.2526
 Iteration  10 EE= -952.541456043815     Delta-E=       -0.000528397529 Grad=7.962D-03 Max rot=    0.2270 deg.
 QCNR:  CnvC1=1.47D-08 CnvC2=1.47D-07
 LinEq1:  Iter=  0 NonCon=     1 RMS=5.06D-04 Max=7.22D-02 NDo=     1
 LinEq1:  Iter=  1 NonCon=     1 RMS=4.01D-04 Max=2.39D-02 NDo=     1
 LinEq1:  Iter=  2 NonCon=     1 RMS=2.39D-04 Max=2.43D-02 NDo=     1
 LinEq1:  Iter=  3 NonCon=     1 RMS=1.88D-04 Max=7.79D-03 NDo=     1
 LinEq1:  Iter=  4 NonCon=     1 RMS=2.17D-04 Max=1.82D-02 NDo=     1
 LinEq1:  Iter=  5 NonCon=     1 RMS=2.91D-04 Max=1.56D-02 NDo=     1
 LinEq1:  Iter=  6 NonCon=     1 RMS=1.90D-04 Max=7.23D-03 NDo=     1
 LinEq1:  Iter=  7 NonCon=     1 RMS=2.68D-04 Max=1.25D-02 NDo=     1
 LinEq1:  Iter=  8 NonCon=     1 RMS=1.97D-04 Max=7.91D-03 NDo=     1
 LinEq1:  Iter=  9 NonCon=     1 RMS=2.19D-04 Max=7.93D-03 NDo=     1
 LinEq1:  Iter= 10 NonCon=     1 RMS=2.22D-04 Max=7.67D-03 NDo=     1
 LinEq1:  Iter= 11 NonCon=     1 RMS=1.98D-04 Max=4.96D-03 NDo=     1
 LinEq1:  Iter= 12 NonCon=     1 RMS=1.73D-04 Max=6.20D-03 NDo=     1
 LinEq1:  Iter= 13 NonCon=     1 RMS=1.66D-04 Max=7.05D-03 NDo=     1
 LinEq1:  Iter= 14 NonCon=     1 RMS=1.64D-04 Max=3.74D-03 NDo=     1
 LinEq1:  Iter= 15 NonCon=     1 RMS=1.61D-04 Max=4.47D-03 NDo=     1
 LinEq1:  Iter= 16 NonCon=     1 RMS=1.48D-04 Max=5.71D-03 NDo=     1
 LinEq1:  Iter= 17 NonCon=     1 RMS=1.07D-04 Max=3.19D-03 NDo=     1
 LinEq1:  Iter= 18 NonCon=     1 RMS=8.46D-05 Max=2.14D-03 NDo=     1
 LinEq1:  Iter= 19 NonCon=     1 RMS=8.18D-05 Max=2.48D-03 NDo=     1
 LinEq1:  Iter= 20 NonCon=     1 RMS=8.15D-05 Max=3.18D-03 NDo=     1
 LinEq1:  Iter= 21 NonCon=     1 RMS=9.15D-05 Max=4.10D-03 NDo=     1
 LinEq1:  Iter= 22 NonCon=     1 RMS=7.41D-05 Max=3.23D-03 NDo=     1
 LinEq1:  Iter= 23 NonCon=     1 RMS=3.55D-05 Max=1.64D-03 NDo=     1
 LinEq1:  Iter= 24 NonCon=     1 RMS=1.36D-05 Max=4.70D-04 NDo=     1
 LinEq1:  Iter= 25 NonCon=     1 RMS=4.99D-06 Max=1.80D-04 NDo=     1
 LinEq1:  Iter= 26 NonCon=     1 RMS=2.09D-06 Max=6.90D-05 NDo=     1
 LinEq1:  Iter= 27 NonCon=     1 RMS=9.22D-07 Max=2.95D-05 NDo=     1
 LinEq1:  Iter= 28 NonCon=     1 RMS=3.55D-07 Max=1.06D-05 NDo=     1
 LinEq1:  Iter= 29 NonCon=     1 RMS=1.29D-07 Max=2.69D-06 NDo=     1
 LinEq1:  Iter= 30 NonCon=     1 RMS=4.69D-08 Max=8.94D-07 NDo=     1
 LinEq1:  Iter= 31 NonCon=     1 RMS=1.48D-08 Max=2.82D-07 NDo=     1
 LinEq1:  Iter= 32 NonCon=     0 RMS=5.45D-09 Max=1.07D-07 NDo=     1
 Linear equations converged to 1.473D-08 1.473D-07 after    32 iterations.
 Angle between quadratic step and gradient=  56.37 degrees.
     ILin= 1 X=0.000D+00 Y=-9.525414560438D+02 DE= 0.00D+00 F= -4.69D-03
     ILin= 2 X=1.000D+00 Y=-9.525411454103D+02 DE= 3.11D-04 F=  1.07D-02 OKLS=T
     Reject lnstep IMin12=  1  2 Big=F Turn=F Min= 5.698D-01 FVal=-9.525431684117D+02 Lims=  0.00D+00  1.00D+00
     ILin= 3 X=6.000D-01 Y=-9.525430890316D+02 DE=-1.63D-03 F=  3.79D-04
     A contracting polynomial of degree  3 produced  0.4795
 Iteration  11 EE= -952.543028354145     Delta-E=       -0.001572310329 Grad=1.232D-02 Max rot=    0.1605 deg.
 Gradient too large for Newton-Raphson -- use scaled steepest descent instead.
 Alpha Gap=     0.063 HL deriv= 2.80D-02
  Beta Gap=     0.131 HL deriv= 6.03D-04
     ILin= 1 X=0.000D+00 Y=-9.525430283541D+02 DE= 0.00D+00 F= -7.12D-04
     ILin= 2 X=1.700D+00 Y=-9.525409949628D+02 DE= 2.03D-03 F=  3.07D-03 OKLS=T
     Reject lnstep IMin12=  1  2 Big=F Turn=F Min= 1.252D-01 FVal=-9.525430539445D+02 Lims=  0.00D+00  1.70D+00
     ILin= 3 X=1.000D-01 Y=-9.525430880952D+02 DE=-5.97D-05 F= -4.83D-04
     A contracting polynomial of degree  3 produced  0.3165
 Iteration  12 EE= -952.543139501501     Delta-E=       -0.000111147356 Grad=5.695D-03 Max rot=    0.1055 deg.
 QCNR:  CnvC1=1.47D-08 CnvC2=1.47D-07
 LinEq1:  Iter=  0 NonCon=     1 RMS=2.30D-04 Max=3.14D-02 NDo=     1
 LinEq1:  Iter=  1 NonCon=     1 RMS=2.24D-04 Max=1.01D-02 NDo=     1
 LinEq1:  Iter=  2 NonCon=     1 RMS=2.84D-04 Max=3.42D-02 NDo=     1
 LinEq1:  Iter=  3 NonCon=     1 RMS=1.71D-04 Max=7.28D-03 NDo=     1
 LinEq1:  Iter=  4 NonCon=     1 RMS=2.34D-04 Max=1.02D-02 NDo=     1
 LinEq1:  Iter=  5 NonCon=     1 RMS=2.08D-04 Max=1.20D-02 NDo=     1
 LinEq1:  Iter=  6 NonCon=     1 RMS=2.25D-04 Max=8.85D-03 NDo=     1
 LinEq1:  Iter=  7 NonCon=     1 RMS=2.13D-04 Max=1.15D-02 NDo=     1
 LinEq1:  Iter=  8 NonCon=     1 RMS=2.25D-04 Max=7.38D-03 NDo=     1
 LinEq1:  Iter=  9 NonCon=     1 RMS=2.69D-04 Max=1.30D-02 NDo=     1
 LinEq1:  Iter= 10 NonCon=     1 RMS=2.43D-04 Max=1.32D-02 NDo=     1
 LinEq1:  Iter= 11 NonCon=     1 RMS=2.14D-04 Max=6.31D-03 NDo=     1
 LinEq1:  Iter= 12 NonCon=     1 RMS=1.71D-04 Max=5.47D-03 NDo=     1
 LinEq1:  Iter= 13 NonCon=     1 RMS=2.05D-04 Max=8.66D-03 NDo=     1
 LinEq1:  Iter= 14 NonCon=     1 RMS=1.47D-04 Max=5.85D-03 NDo=     1
 LinEq1:  Iter= 15 NonCon=     1 RMS=1.16D-04 Max=4.81D-03 NDo=     1
 LinEq1:  Iter= 16 NonCon=     1 RMS=1.07D-04 Max=5.89D-03 NDo=     1
 LinEq1:  Iter= 17 NonCon=     1 RMS=1.10D-04 Max=5.82D-03 NDo=     1
 LinEq1:  Iter= 18 NonCon=     1 RMS=7.27D-05 Max=1.63D-03 NDo=     1
 LinEq1:  Iter= 19 NonCon=     1 RMS=7.90D-05 Max=1.53D-03 NDo=     1
 LinEq1:  Iter= 20 NonCon=     1 RMS=7.28D-05 Max=2.43D-03 NDo=     1
 LinEq1:  Iter= 21 NonCon=     1 RMS=8.06D-05 Max=1.83D-03 NDo=     1
 LinEq1:  Iter= 22 NonCon=     1 RMS=6.84D-05 Max=1.64D-03 NDo=     1
 LinEq1:  Iter= 23 NonCon=     1 RMS=3.77D-05 Max=1.08D-03 NDo=     1
 LinEq1:  Iter= 24 NonCon=     1 RMS=1.55D-05 Max=5.36D-04 NDo=     1
 LinEq1:  Iter= 25 NonCon=     1 RMS=6.44D-06 Max=1.70D-04 NDo=     1
 LinEq1:  Iter= 26 NonCon=     1 RMS=2.65D-06 Max=8.87D-05 NDo=     1
 LinEq1:  Iter= 27 NonCon=     1 RMS=7.94D-07 Max=2.36D-05 NDo=     1
 LinEq1:  Iter= 28 NonCon=     1 RMS=3.06D-07 Max=8.60D-06 NDo=     1
 LinEq1:  Iter= 29 NonCon=     1 RMS=1.15D-07 Max=4.18D-06 NDo=     1
 LinEq1:  Iter= 30 NonCon=     1 RMS=3.20D-08 Max=1.01D-06 NDo=     1
 LinEq1:  Iter= 31 NonCon=     1 RMS=8.92D-09 Max=1.88D-07 NDo=     1
 LinEq1:  Iter= 32 NonCon=     0 RMS=3.11D-09 Max=5.66D-08 NDo=     1
 Linear equations converged to 1.473D-08 1.473D-07 after    32 iterations.
 Angle between quadratic step and gradient=  68.27 degrees.
     ILin= 1 X=0.000D+00 Y=-9.525431395015D+02 DE= 0.00D+00 F= -8.08D-04
     ILin= 2 X=1.000D+00 Y=-9.525434720785D+02 DE=-3.33D-04 F=  2.74D-04 OKLS=T
     Accept linear search using points  1 and  2.
     An  expanding polynomial of degree  2 produced  0.8059
 Iteration  13 EE= -952.543496886997     Delta-E=       -0.000357385496 Grad=5.117D-03 Max rot=    0.0523 deg.
 QCNR:  CnvC1=1.47D-08 CnvC2=1.47D-07
 LinEq1:  Iter=  0 NonCon=     1 RMS=1.28D-04 Max=1.31D-02 NDo=     1
 LinEq1:  Iter=  1 NonCon=     1 RMS=1.33D-04 Max=9.22D-03 NDo=     1
 LinEq1:  Iter=  2 NonCon=     1 RMS=1.57D-04 Max=1.42D-02 NDo=     1
 LinEq1:  Iter=  3 NonCon=     1 RMS=1.81D-04 Max=1.00D-02 NDo=     1
 LinEq1:  Iter=  4 NonCon=     1 RMS=1.62D-04 Max=5.94D-03 NDo=     1
 LinEq1:  Iter=  5 NonCon=     1 RMS=1.86D-04 Max=6.07D-03 NDo=     1
 LinEq1:  Iter=  6 NonCon=     1 RMS=1.93D-04 Max=8.55D-03 NDo=     1
 LinEq1:  Iter=  7 NonCon=     1 RMS=2.00D-04 Max=9.02D-03 NDo=     1
 LinEq1:  Iter=  8 NonCon=     1 RMS=1.83D-04 Max=8.04D-03 NDo=     1
 LinEq1:  Iter=  9 NonCon=     1 RMS=1.65D-04 Max=6.82D-03 NDo=     1
 LinEq1:  Iter= 10 NonCon=     1 RMS=2.13D-04 Max=9.25D-03 NDo=     1
 LinEq1:  Iter= 11 NonCon=     1 RMS=1.95D-04 Max=1.02D-02 NDo=     1
 LinEq1:  Iter= 12 NonCon=     1 RMS=2.29D-04 Max=1.03D-02 NDo=     1
 LinEq1:  Iter= 13 NonCon=     1 RMS=1.09D-04 Max=3.10D-03 NDo=     1
 LinEq1:  Iter= 14 NonCon=     1 RMS=1.48D-04 Max=3.10D-03 NDo=     1
 LinEq1:  Iter= 15 NonCon=     1 RMS=1.43D-04 Max=5.44D-03 NDo=     1
 LinEq1:  Iter= 16 NonCon=     1 RMS=1.05D-04 Max=3.45D-03 NDo=     1
 LinEq1:  Iter= 17 NonCon=     1 RMS=9.13D-05 Max=3.51D-03 NDo=     1
 LinEq1:  Iter= 18 NonCon=     1 RMS=8.01D-05 Max=2.47D-03 NDo=     1
 LinEq1:  Iter= 19 NonCon=     1 RMS=7.78D-05 Max=2.90D-03 NDo=     1
 LinEq1:  Iter= 20 NonCon=     1 RMS=3.48D-05 Max=1.13D-03 NDo=     1
 LinEq1:  Iter= 21 NonCon=     1 RMS=2.15D-05 Max=6.66D-04 NDo=     1
 LinEq1:  Iter= 22 NonCon=     1 RMS=2.95D-05 Max=6.94D-04 NDo=     1
 LinEq1:  Iter= 23 NonCon=     1 RMS=2.10D-05 Max=6.93D-04 NDo=     1
 LinEq1:  Iter= 24 NonCon=     1 RMS=8.54D-06 Max=2.81D-04 NDo=     1
 LinEq1:  Iter= 25 NonCon=     1 RMS=3.85D-06 Max=1.08D-04 NDo=     1
 LinEq1:  Iter= 26 NonCon=     1 RMS=1.40D-06 Max=3.38D-05 NDo=     1
 LinEq1:  Iter= 27 NonCon=     1 RMS=4.79D-07 Max=1.33D-05 NDo=     1
 LinEq1:  Iter= 28 NonCon=     1 RMS=1.93D-07 Max=6.15D-06 NDo=     1
 LinEq1:  Iter= 29 NonCon=     1 RMS=6.77D-08 Max=2.28D-06 NDo=     1
 LinEq1:  Iter= 30 NonCon=     1 RMS=1.74D-08 Max=4.51D-07 NDo=     1
 LinEq1:  Iter= 31 NonCon=     1 RMS=4.62D-09 Max=1.85D-07 NDo=     1
 LinEq1:  Iter= 32 NonCon=     0 RMS=1.47D-09 Max=5.09D-08 NDo=     1
 Linear equations converged to 1.473D-08 1.473D-07 after    32 iterations.
 Angle between quadratic step and gradient=  76.12 degrees.
     ILin= 1 X=0.000D+00 Y=-9.525434968870D+02 DE= 0.00D+00 F= -5.97D-05
     ILin= 2 X=1.000D+00 Y=-9.525435276863D+02 DE=-3.08D-05 F= -2.77D-06 OKLS=T
     Reject lnstep IMin12=  1  2 Big=T Turn=F Min= 1.051D+00 FVal=-9.525435277570D+02 Lims=  0.00D+00  1.00D+00
     ILin= 3 X=2.000D+00 Y=-9.525435042167D+02 DE=-7.33D-06 F=  4.88D-05
     An  expanding polynomial of degree  3 produced  1.0675
     Minimum is close to point  2 DX=  6.75D-02 DF= -1.24D-07 DXR=  6.33D-02 DFR=  4.02D-03 which will be used.
 Iteration  14 EE= -952.543527686310     Delta-E=       -0.000030799313 Grad=1.347D-04 Max rot=    0.0025 deg.
 QCNR:  CnvC1=1.35D-09 CnvC2=1.35D-08
 LinEq1:  Iter=  0 NonCon=     1 RMS=6.12D-06 Max=7.21D-04 NDo=     1
 LinEq1:  Iter=  1 NonCon=     1 RMS=7.15D-06 Max=5.07D-04 NDo=     1
 LinEq1:  Iter=  2 NonCon=     1 RMS=6.17D-06 Max=4.73D-04 NDo=     1
 LinEq1:  Iter=  3 NonCon=     1 RMS=6.45D-06 Max=3.14D-04 NDo=     1
 LinEq1:  Iter=  4 NonCon=     1 RMS=7.46D-06 Max=5.15D-04 NDo=     1
 LinEq1:  Iter=  5 NonCon=     1 RMS=6.56D-06 Max=2.94D-04 NDo=     1
 LinEq1:  Iter=  6 NonCon=     1 RMS=8.07D-06 Max=4.21D-04 NDo=     1
 LinEq1:  Iter=  7 NonCon=     1 RMS=7.80D-06 Max=3.72D-04 NDo=     1
 LinEq1:  Iter=  8 NonCon=     1 RMS=7.03D-06 Max=3.54D-04 NDo=     1
 LinEq1:  Iter=  9 NonCon=     1 RMS=6.53D-06 Max=3.20D-04 NDo=     1
 LinEq1:  Iter= 10 NonCon=     1 RMS=7.68D-06 Max=3.07D-04 NDo=     1
 LinEq1:  Iter= 11 NonCon=     1 RMS=8.12D-06 Max=3.22D-04 NDo=     1
 LinEq1:  Iter= 12 NonCon=     1 RMS=7.77D-06 Max=2.20D-04 NDo=     1
 LinEq1:  Iter= 13 NonCon=     1 RMS=4.76D-06 Max=1.36D-04 NDo=     1
 LinEq1:  Iter= 14 NonCon=     1 RMS=5.27D-06 Max=1.65D-04 NDo=     1
 LinEq1:  Iter= 15 NonCon=     1 RMS=5.68D-06 Max=2.23D-04 NDo=     1
 LinEq1:  Iter= 16 NonCon=     1 RMS=5.04D-06 Max=2.20D-04 NDo=     1
 LinEq1:  Iter= 17 NonCon=     1 RMS=4.21D-06 Max=1.97D-04 NDo=     1
 LinEq1:  Iter= 18 NonCon=     1 RMS=4.32D-06 Max=1.66D-04 NDo=     1
 LinEq1:  Iter= 19 NonCon=     1 RMS=3.61D-06 Max=1.42D-04 NDo=     1
 LinEq1:  Iter= 20 NonCon=     1 RMS=1.52D-06 Max=5.00D-05 NDo=     1
 LinEq1:  Iter= 21 NonCon=     1 RMS=8.69D-07 Max=2.25D-05 NDo=     1
 LinEq1:  Iter= 22 NonCon=     1 RMS=1.26D-06 Max=3.73D-05 NDo=     1
 LinEq1:  Iter= 23 NonCon=     1 RMS=8.28D-07 Max=3.54D-05 NDo=     1
 LinEq1:  Iter= 24 NonCon=     1 RMS=3.08D-07 Max=8.51D-06 NDo=     1
 LinEq1:  Iter= 25 NonCon=     1 RMS=1.22D-07 Max=5.03D-06 NDo=     1
 LinEq1:  Iter= 26 NonCon=     1 RMS=5.40D-08 Max=1.45D-06 NDo=     1
 LinEq1:  Iter= 27 NonCon=     1 RMS=1.73D-08 Max=4.26D-07 NDo=     1
 LinEq1:  Iter= 28 NonCon=     1 RMS=6.08D-09 Max=1.38D-07 NDo=     1
 LinEq1:  Iter= 29 NonCon=     1 RMS=2.11D-09 Max=6.32D-08 NDo=     1
 LinEq1:  Iter= 30 NonCon=     1 RMS=7.12D-10 Max=1.80D-08 NDo=     1
 LinEq1:  Iter= 31 NonCon=     0 RMS=2.04D-10 Max=6.08D-09 NDo=     1
 Linear equations converged to 1.347D-09 1.347D-08 after    31 iterations.
 Angle between quadratic step and gradient=  70.12 degrees.
     ILin= 1 X=0.000D+00 Y=-9.525435276863D+02 DE= 0.00D+00 F= -3.11D-07
     ILin= 2 X=1.000D+00 Y=-9.525435278425D+02 DE=-1.56D-07
 Iteration  15 EE= -952.543527842531     Delta-E=       -0.000000156221 Grad=3.127D-06 Max rot=    0.0000 deg.
 QCNR:  CnvC1=3.13D-11 CnvC2=3.13D-10
 LinEq1:  Iter=  0 NonCon=     1 RMS=7.37D-08 Max=6.95D-06 NDo=     1
 LinEq1:  Iter=  1 NonCon=     1 RMS=7.37D-08 Max=5.34D-06 NDo=     1
 LinEq1:  Iter=  2 NonCon=     1 RMS=8.79D-08 Max=7.70D-06 NDo=     1
 LinEq1:  Iter=  3 NonCon=     1 RMS=1.08D-07 Max=6.64D-06 NDo=     1
 LinEq1:  Iter=  4 NonCon=     1 RMS=8.56D-08 Max=2.96D-06 NDo=     1
 LinEq1:  Iter=  5 NonCon=     1 RMS=1.05D-07 Max=3.77D-06 NDo=     1
 LinEq1:  Iter=  6 NonCon=     1 RMS=1.04D-07 Max=4.43D-06 NDo=     1
 LinEq1:  Iter=  7 NonCon=     1 RMS=1.07D-07 Max=5.03D-06 NDo=     1
 LinEq1:  Iter=  8 NonCon=     1 RMS=9.43D-08 Max=3.95D-06 NDo=     1
 LinEq1:  Iter=  9 NonCon=     1 RMS=9.09D-08 Max=3.62D-06 NDo=     1
 LinEq1:  Iter= 10 NonCon=     1 RMS=1.21D-07 Max=4.61D-06 NDo=     1
 LinEq1:  Iter= 11 NonCon=     1 RMS=1.03D-07 Max=4.60D-06 NDo=     1
 LinEq1:  Iter= 12 NonCon=     1 RMS=1.19D-07 Max=5.29D-06 NDo=     1
 LinEq1:  Iter= 13 NonCon=     1 RMS=4.74D-08 Max=1.49D-06 NDo=     1
 LinEq1:  Iter= 14 NonCon=     1 RMS=3.79D-08 Max=1.23D-06 NDo=     1
 LinEq1:  Iter= 15 NonCon=     1 RMS=5.03D-08 Max=1.39D-06 NDo=     1
 LinEq1:  Iter= 16 NonCon=     1 RMS=4.08D-08 Max=1.50D-06 NDo=     1
 LinEq1:  Iter= 17 NonCon=     1 RMS=3.60D-08 Max=1.17D-06 NDo=     1
 LinEq1:  Iter= 18 NonCon=     1 RMS=3.45D-08 Max=1.52D-06 NDo=     1
 LinEq1:  Iter= 19 NonCon=     1 RMS=3.08D-08 Max=1.26D-06 NDo=     1
 LinEq1:  Iter= 20 NonCon=     1 RMS=1.73D-08 Max=5.79D-07 NDo=     1
 LinEq1:  Iter= 21 NonCon=     1 RMS=9.89D-09 Max=3.07D-07 NDo=     1
 LinEq1:  Iter= 22 NonCon=     1 RMS=1.35D-08 Max=3.24D-07 NDo=     1
 LinEq1:  Iter= 23 NonCon=     1 RMS=9.72D-09 Max=3.67D-07 NDo=     1
 LinEq1:  Iter= 24 NonCon=     1 RMS=3.78D-09 Max=1.22D-07 NDo=     1
 LinEq1:  Iter= 25 NonCon=     1 RMS=1.60D-09 Max=6.47D-08 NDo=     1
 LinEq1:  Iter= 26 NonCon=     1 RMS=5.83D-10 Max=2.08D-08 NDo=     1
 LinEq1:  Iter= 27 NonCon=     1 RMS=1.90D-10 Max=6.31D-09 NDo=     1
 LinEq1:  Iter= 28 NonCon=     1 RMS=7.68D-11 Max=2.36D-09 NDo=     1
 LinEq1:  Iter= 29 NonCon=     1 RMS=2.81D-11 Max=8.37D-10 NDo=     1
 LinEq1:  Iter= 30 NonCon=     0 RMS=7.95D-12 Max=2.11D-10 NDo=     1
 Linear equations converged to 3.127D-11 3.127D-10 after    30 iterations.
 Angle between quadratic step and gradient=  77.02 degrees.
     ILin= 1 X=0.000D+00 Y=-9.525435278425D+02 DE= 0.00D+00 F= -1.78D-11
     ILin= 2 X=1.000D+00 Y=-9.525435278426D+02 DE=-6.64D-11
 Iteration  16 EE= -952.543527842597     Delta-E=       -0.000000000066 Grad=5.675D-11 Max rot=    0.0000 deg.
 Rotation gradient small -- convergence achieved.
 SCF Done:  E(UPBE1PBE) =  -952.543527843     a.u. after   16 cycles
            Convg  =    0.5675D-10                   263 Fock formations.
              S**2 =  0.7632                  -V/T =  2.3139
 <Sx>= 0.0000 <Sy>= 0.0000 <Sz>= 0.5000 <S**2>= 0.7632 S= 0.5066
 <L.S>= 0.000000000000E+00
 Annihilation of the first spin contaminant:
 S**2 before annihilation     0.7632,   after     0.7500
 Leave Link  508 at Sat Sep 12 00:35:01 2026, MaxMem=  6442450944 cpu:            2695.0 elap:            2695.2
 (Enter C:\G16W\l601.exe)
 Copying SCF densities to generalized density rwf, IOpCl= 1 IROHF=0.

 **********************************************************************

            Population analysis using the SCF Density.

 **********************************************************************

 Alpha  occ. eigenvalues --  -19.31429 -19.30802 -19.27998 -19.27856 -19.25962
 Alpha  occ. eigenvalues --  -19.25788 -19.25602 -19.25462  -3.80924  -2.74424
 Alpha  occ. eigenvalues --   -2.74202  -2.74037  -2.39031  -2.38904  -2.38886
 Alpha  occ. eigenvalues --   -1.76838  -1.76107  -1.75927  -1.75573  -1.74778
 Alpha  occ. eigenvalues --   -1.73809  -1.73476  -1.72914  -1.70878  -1.06571
 Alpha  occ. eigenvalues --   -1.03651  -1.02266  -0.97257  -0.96901  -0.96538
 Alpha  occ. eigenvalues --   -0.94924  -0.94552  -0.57989  -0.57072  -0.54689
 Alpha  occ. eigenvalues --   -0.53230  -0.52916  -0.52490  -0.51882  -0.50168
 Alpha  occ. eigenvalues --   -0.50106  -0.47199  -0.46798  -0.46167  -0.46048
 Alpha  occ. eigenvalues --   -0.43842  -0.42350  -0.41445  -0.40451  -0.39682
 Alpha  occ. eigenvalues --   -0.39603  -0.38590  -0.38518  -0.38434  -0.38342
 Alpha  occ. eigenvalues --   -0.38242  -0.38136  -0.37898  -0.37307  -0.35740
 Alpha  occ. eigenvalues --   -0.35324  -0.29328  -0.22045
 Alpha virt. eigenvalues --   -0.16072  -0.14949  -0.09918  -0.09189  -0.07979
 Alpha virt. eigenvalues --   -0.05908  -0.05699  -0.04088  -0.03515  -0.02708
 Alpha virt. eigenvalues --   -0.02070  -0.01207   0.00231   0.01027   0.01817
 Alpha virt. eigenvalues --    0.02647   0.02837   0.04058   0.04517   0.05595
 Alpha virt. eigenvalues --    0.06650   0.07101   0.07385   0.08490   0.09874
 Alpha virt. eigenvalues --    0.10054   0.10765   0.11310   0.12914   0.14599
 Alpha virt. eigenvalues --    0.17198   0.21393   0.23787   0.24385   0.25372
 Alpha virt. eigenvalues --    0.27183   0.28094   0.29664   0.30894   0.31166
 Alpha virt. eigenvalues --    0.32438   0.34025   0.35319   0.35914   0.36486
 Alpha virt. eigenvalues --    0.37297   0.38046   0.38736   0.39064   0.39875
 Alpha virt. eigenvalues --    0.42165   0.43391   0.43693   0.45032   0.45528
 Alpha virt. eigenvalues --    0.46840   0.47907   0.49660   0.54626   0.57072
 Alpha virt. eigenvalues --    0.58855   0.61023   0.61312   0.68016   0.70605
 Alpha virt. eigenvalues --    0.94160   0.97906   0.98362   0.98647   0.99992
 Alpha virt. eigenvalues --    1.00827   1.02410   1.04261   1.06510   1.06867
 Alpha virt. eigenvalues --    1.09082   1.10071   1.12112   1.12585   1.14131
 Alpha virt. eigenvalues --    1.15826   1.19631   1.20112   1.21437   1.22246
 Alpha virt. eigenvalues --    1.23811   1.24784   1.25462   1.26553   1.27256
 Alpha virt. eigenvalues --    1.27750   1.28535   1.29754   1.30266   1.30678
 Alpha virt. eigenvalues --    1.32537   1.35490   1.36555   1.38402   1.39190
 Alpha virt. eigenvalues --    1.40626   1.42469   1.42754   1.45447   1.45745
 Alpha virt. eigenvalues --    1.49734   1.51101   1.51539   1.51834   1.54614
 Alpha virt. eigenvalues --    1.57441   1.58839   1.60740   1.62916   1.68840
 Alpha virt. eigenvalues --    1.69743   1.72599   1.72667   1.75156   1.79113
 Alpha virt. eigenvalues --    1.81589   2.01708   2.55588   2.56027   2.56372
 Alpha virt. eigenvalues --    2.56410   2.56438   2.56440   2.56443   2.56555
 Alpha virt. eigenvalues --    2.56751   2.58439   2.58516   2.60057   2.60691
 Alpha virt. eigenvalues --    2.61665   2.61937   2.62668   2.63029   2.63615
 Alpha virt. eigenvalues --    2.63981   2.64844   2.65231   2.67125   2.69284
 Alpha virt. eigenvalues --    2.69743   2.71033   2.73221   2.74872   2.75821
 Alpha virt. eigenvalues --    2.78417   2.78516   2.81633   2.82573   2.83736
 Alpha virt. eigenvalues --    2.86097   2.86854   2.87382   2.87895   2.89877
 Alpha virt. eigenvalues --    2.91510   2.92944   2.94800   2.95051   2.95763
 Alpha virt. eigenvalues --    2.97388   3.37601   3.45299   3.50293  39.53850
 Alpha virt. eigenvalues --   39.55960  39.57555  53.77148
  Beta  occ. eigenvalues --  -19.31267 -19.30701 -19.27921 -19.27746 -19.25954
  Beta  occ. eigenvalues --  -19.25757 -19.25592 -19.25432  -3.80822  -2.74321
  Beta  occ. eigenvalues --   -2.74167  -2.73889  -2.38975  -2.38880  -2.38871
  Beta  occ. eigenvalues --   -1.76688  -1.76138  -1.75877  -1.75521  -1.74579
  Beta  occ. eigenvalues --   -1.73597  -1.73287  -1.72713  -1.70901  -1.06320
  Beta  occ. eigenvalues --   -1.03419  -1.02029  -0.97043  -0.96837  -0.96463
  Beta  occ. eigenvalues --   -0.94868  -0.94495  -0.57854  -0.56949  -0.54231
  Beta  occ. eigenvalues --   -0.52965  -0.52491  -0.52240  -0.51784  -0.50045
  Beta  occ. eigenvalues --   -0.49808  -0.47084  -0.46582  -0.46063  -0.45946
  Beta  occ. eigenvalues --   -0.43443  -0.42198  -0.41243  -0.40328  -0.39587
  Beta  occ. eigenvalues --   -0.39411  -0.38342  -0.38117  -0.37984  -0.37883
  Beta  occ. eigenvalues --   -0.37782  -0.37714  -0.37516  -0.37104  -0.35718
  Beta  occ. eigenvalues --   -0.35301  -0.28958
  Beta virt. eigenvalues --   -0.15896  -0.15473  -0.13040  -0.09252  -0.08823
  Beta virt. eigenvalues --   -0.07803  -0.05699  -0.05464  -0.03080  -0.02612
  Beta virt. eigenvalues --   -0.02084  -0.00644  -0.00298   0.00768   0.01507
  Beta virt. eigenvalues --    0.02494   0.02892   0.03118   0.04279   0.04953
  Beta virt. eigenvalues --    0.05874   0.06814   0.07365   0.07593   0.08621
  Beta virt. eigenvalues --    0.10143   0.10261   0.11133   0.11801   0.13368
  Beta virt. eigenvalues --    0.15424   0.17790   0.21813   0.23946   0.24675
  Beta virt. eigenvalues --    0.26268   0.28286   0.29420   0.30180   0.31421
  Beta virt. eigenvalues --    0.32113   0.33033   0.34335   0.35575   0.35987
  Beta virt. eigenvalues --    0.36748   0.37393   0.38511   0.38875   0.39573
  Beta virt. eigenvalues --    0.40270   0.42553   0.43758   0.44023   0.45962
  Beta virt. eigenvalues --    0.46439   0.47296   0.48426   0.50711   0.55054
  Beta virt. eigenvalues --    0.58016   0.59760   0.61334   0.61926   0.68287
  Beta virt. eigenvalues --    0.71128   0.94359   0.98060   0.98508   0.98736
  Beta virt. eigenvalues --    1.00068   1.00901   1.02544   1.04365   1.06686
  Beta virt. eigenvalues --    1.06975   1.09146   1.10277   1.12190   1.12663
  Beta virt. eigenvalues --    1.14226   1.15921   1.19790   1.20265   1.21452
  Beta virt. eigenvalues --    1.22318   1.23923   1.24923   1.25548   1.26589
  Beta virt. eigenvalues --    1.27335   1.27812   1.28662   1.29830   1.30406
  Beta virt. eigenvalues --    1.30847   1.32661   1.35580   1.36642   1.38518
  Beta virt. eigenvalues --    1.39278   1.40776   1.42637   1.42959   1.45510
  Beta virt. eigenvalues --    1.45768   1.49858   1.51248   1.51617   1.51921
  Beta virt. eigenvalues --    1.54787   1.57478   1.58955   1.60865   1.63007
  Beta virt. eigenvalues --    1.68931   1.69842   1.72662   1.72763   1.75245
  Beta virt. eigenvalues --    1.79181   1.81651   2.02730   2.55714   2.56132
  Beta virt. eigenvalues --    2.56400   2.56436   2.56463   2.56504   2.56512
  Beta virt. eigenvalues --    2.56606   2.56779   2.58670   2.58758   2.60143
  Beta virt. eigenvalues --    2.60793   2.61784   2.62027   2.62796   2.63180
  Beta virt. eigenvalues --    2.63752   2.64206   2.64889   2.65367   2.67270
  Beta virt. eigenvalues --    2.69440   2.69950   2.71158   2.73388   2.74984
  Beta virt. eigenvalues --    2.75991   2.78514   2.78672   2.81778   2.82745
  Beta virt. eigenvalues --    2.83822   2.86153   2.86889   2.87465   2.87965
  Beta virt. eigenvalues --    2.89959   2.91636   2.93127   2.94888   2.95217
  Beta virt. eigenvalues --    2.95842   2.97458   3.37701   3.45412   3.50399
  Beta virt. eigenvalues --   39.53871  39.55962  39.57596  53.77281
          Condensed to atoms (all electrons):
               1          2          3          4          5          6
     1  Mo  12.171628   0.409334   0.199665   0.010213  -0.008490  -0.004383
     2  O    0.409334   7.903853   0.006008   0.003712   0.000000   0.000000
     3  O    0.199665   0.006008   8.247646   0.150321   0.000950   0.004173
     4  Mo   0.010213   0.003712   0.150321  11.766380   0.412545   0.409564
     5  O   -0.008490   0.000000   0.000950   0.412545   7.930074   0.008488
     6  O   -0.004383   0.000000   0.004173   0.409564   0.008488   7.939437
     7  O   -0.053470  -0.000021   0.000810   0.195666   0.002490   0.004459
     8  Mo  -0.020183   0.003842  -0.015124  -0.056908  -0.000678  -0.004611
     9  O   -0.009103   0.000000   0.000007   0.001574   0.000045   0.000000
    10  O   -0.005240   0.000000  -0.000002  -0.003582   0.000000   0.000000
    11  O    0.215819   0.006387  -0.000583  -0.021889   0.000005  -0.000002
    12  Ag   0.073073   0.000401  -0.021715   0.001415   0.002906  -0.000783
               7          8          9         10         11         12
     1  Mo  -0.053470  -0.020183  -0.009103  -0.005240   0.215819   0.073073
     2  O   -0.000021   0.003842   0.000000   0.000000   0.006387   0.000401
     3  O    0.000810  -0.015124   0.000007  -0.000002  -0.000583  -0.021715
     4  Mo   0.195666  -0.056908   0.001574  -0.003582  -0.021889   0.001415
     5  O    0.002490  -0.000678   0.000045   0.000000   0.000005   0.002906
     6  O    0.004459  -0.004611   0.000000   0.000000  -0.000002  -0.000783
     7  O    8.263831   0.192522   0.002674   0.004511   0.000812   0.000797
     8  Mo   0.192522  11.762084   0.411873   0.408462   0.152357   0.017032
     9  O    0.002674   0.411873   7.925062   0.008561   0.001801   0.000828
    10  O    0.004511   0.408462   0.008561   7.940903   0.004040  -0.000003
    11  O    0.000812   0.152357   0.001801   0.004040   8.202972  -0.003552
    12  Ag   0.000797   0.017032   0.000828  -0.000003  -0.003552  18.746486
          Atomic-Atomic Spin Densities.
               1          2          3          4          5          6
     1  Mo   0.010764  -0.010831  -0.015130   0.009391   0.000174   0.000098
     2  O   -0.010831   0.037391  -0.000325   0.000256   0.000000   0.000001
     3  O   -0.015130  -0.000325   0.071543  -0.002329   0.000064   0.000039
     4  Mo   0.009391   0.000256  -0.002329   0.047754  -0.000874  -0.002912
     5  O    0.000174   0.000000   0.000064  -0.000874   0.003267   0.000222
     6  O    0.000098   0.000001   0.000039  -0.002912   0.000222   0.013587
     7  O   -0.008252  -0.000006   0.000713  -0.008676   0.000022   0.000089
     8  Mo   0.013131   0.000427  -0.001842   0.008622   0.000328  -0.000135
     9  O    0.000040   0.000000  -0.000001   0.000188   0.000006   0.000000
    10  O    0.000423   0.000001   0.000000  -0.000012   0.000000   0.000000
    11  O   -0.015728  -0.000308   0.000259  -0.003015  -0.000002   0.000000
    12  Ag   0.054288   0.001212  -0.026415  -0.004518  -0.001210   0.000061
               7          8          9         10         11         12
     1  Mo  -0.008252   0.013131   0.000040   0.000423  -0.015728   0.054288
     2  O   -0.000006   0.000427   0.000000   0.000001  -0.000308   0.001212
     3  O    0.000713  -0.001842  -0.000001   0.000000   0.000259  -0.026415
     4  Mo  -0.008676   0.008622   0.000188  -0.000012  -0.003015  -0.004518
     5  O    0.000022   0.000328   0.000006   0.000000  -0.000002  -0.001210
     6  O    0.000089  -0.000135   0.000000   0.000000   0.000000   0.000061
     7  O    0.052146  -0.010152   0.000030  -0.000001   0.000881   0.000377
     8  Mo  -0.010152   0.063559  -0.001220  -0.003231  -0.004152  -0.004297
     9  O    0.000030  -0.001220   0.004272   0.000336   0.000054  -0.000353
    10  O   -0.000001  -0.003231   0.000336   0.012789   0.000034   0.000014
    11  O    0.000881  -0.004152   0.000054   0.000034   0.045965  -0.002150
    12  Ag   0.000377  -0.004297  -0.000353   0.000014  -0.002150   0.709559
 Mulliken charges and spin densities:
               1          2
     1  Mo   1.021138   0.038367
     2  O   -0.333516   0.027817
     3  O   -0.572158   0.026575
     4  Mo   1.130990   0.043877
     5  O   -0.348335   0.001998
     6  O   -0.356343   0.011049
     7  O   -0.615082   0.027173
     8  Mo   1.149332   0.061036
     9  O   -0.343322   0.003351
    10  O   -0.357651   0.010352
    11  O   -0.558167   0.021840
    12  Ag   0.183113   0.726566
 Sum of Mulliken charges =   0.00000   1.00000
 Mulliken charges and spin densities with hydrogens summed into heavy atoms:
               1          2
     1  Mo   1.021138   0.038367
     2  O   -0.333516   0.027817
     3  O   -0.572158   0.026575
     4  Mo   1.130990   0.043877
     5  O   -0.348335   0.001998
     6  O   -0.356343   0.011049
     7  O   -0.615082   0.027173
     8  Mo   1.149332   0.061036
     9  O   -0.343322   0.003351
    10  O   -0.357651   0.010352
    11  O   -0.558167   0.021840
    12  Ag   0.183113   0.726566
 Electronic spatial extent (au):  <R**2>=           3257.3666
 Charge=              0.0000 electrons
 Dipole moment (field-independent basis, Debye):
    X=              3.4124    Y=              1.4290    Z=              2.6019  Tot=              4.5229
 Quadrupole moment (field-independent basis, Debye-Ang):
   XX=           -130.6480   YY=           -138.2511   ZZ=           -128.4205
   XY=              3.0349   XZ=              9.6913   YZ=              4.7383
 Traceless Quadrupole moment (field-independent basis, Debye-Ang):
   XX=              1.7918   YY=             -5.8113   ZZ=              4.0194
   XY=              3.0349   XZ=              9.6913   YZ=              4.7383
 Octapole moment (field-independent basis, Debye-Ang**2):
  XXX=            -67.3520  YYY=            -66.4222  ZZZ=            -93.2891  XYY=              5.2817
  XXY=            -17.8209  XXZ=            -21.6241  XZZ=              2.8587  YZZ=             -8.9315
  YYZ=            -23.1738  XYZ=              9.6416
 Hexadecapole moment (field-independent basis, Debye-Ang**3):
 XXXX=          -1812.8441 YYYY=          -1894.0036 ZZZZ=          -1301.6855 XXXY=           -139.1531
 XXXZ=           -194.2480 YYYX=           -140.6763 YYYZ=           -183.6278 ZZZX=           -179.2834
 ZZZY=           -152.5236 XXYY=           -611.5351 XXZZ=           -538.0149 YYZZ=           -553.3762
 XXYZ=            -47.0388 YYXZ=            -79.3288 ZZXY=            -21.1533
 N-N= 1.202265438848D+03 E-N=-4.556777832190D+03  KE= 7.249597138043D+02
                          Isotropic Fermi Contact Couplings
        Atom                 a.u.       MegaHertz       Gauss      10(-4) cm-1
     1  Mo(95)            -0.00001       0.00275       0.00098       0.00092
     2  O(17)              0.00862      -5.22304      -1.86371      -1.74222
     3  O(17)              0.09642     -58.45173     -20.85703     -19.49740
     4  Mo(95)             0.00000      -0.00034      -0.00012      -0.00011
     5  O(17)              0.00182      -1.10399      -0.39393      -0.36825
     6  O(17)              0.00343      -2.07798      -0.74148      -0.69314
     7  O(17)              0.01533      -9.29128      -3.31536      -3.09924
     8  Mo(95)             0.00000      -0.00017      -0.00006      -0.00006
     9  O(17)              0.00143      -0.86511      -0.30869      -0.28857
    10  O(17)              0.00340      -2.05923      -0.73479      -0.68689
    11  O(17)              0.02442     -14.80458      -5.28264      -4.93828
    12  Ag(107             0.00027      -0.04930      -0.01759      -0.01645
 --------------------------------------------------------
       Center         ----  Spin Dipole Couplings  ----
                      3XX-RR        3YY-RR        3ZZ-RR
 --------------------------------------------------------
     1   Atom        0.025954     -0.020640     -0.005314
     2   Atom        0.000057     -0.050358      0.050301
     3   Atom       -0.007724     -0.044764      0.052488
     4   Atom        0.004859      0.007761     -0.012620
     5   Atom       -0.003877     -0.015101      0.018978
     6   Atom       -0.016837     -0.016222      0.033059
     7   Atom        0.172205     -0.094544     -0.077661
     8   Atom        0.004791      0.010429     -0.015220
     9   Atom       -0.012848     -0.016638      0.029486
    10   Atom       -0.021032     -0.022405      0.043436
    11   Atom        0.013470     -0.031589      0.018119
    12   Atom       -0.008600      0.006075      0.002525
 --------------------------------------------------------
                        XY            XZ            YZ
 --------------------------------------------------------
     1   Atom        0.005873     -0.003154     -0.003355
     2   Atom       -0.009433      0.091268     -0.011430
     3   Atom        0.083327      0.101981      0.084266
     4   Atom       -0.004661      0.002932      0.002537
     5   Atom       -0.011778      0.017068     -0.007708
     6   Atom        0.008879     -0.026889     -0.027997
     7   Atom        0.011476     -0.030864     -0.001932
     8   Atom        0.007622      0.002785     -0.005730
     9   Atom        0.013443      0.016361      0.012512
    10   Atom       -0.003280     -0.023115      0.020425
    11   Atom       -0.081155      0.086915     -0.061958
    12   Atom        0.003478     -0.006164      0.021601
 --------------------------------------------------------


 ---------------------------------------------------------------------------------
              Anisotropic Spin Dipole Couplings in Principal Axis System
 ---------------------------------------------------------------------------------

       Atom             a.u.   MegaHertz   Gauss  10(-4) cm-1        Axes

              Baa    -0.0219     0.765     0.273     0.255 -0.1084  0.9782  0.1773
     1 Mo(95) Bbb    -0.0052     0.181     0.064     0.060  0.1298 -0.1629  0.9781
              Bcc     0.0271    -0.946    -0.337    -0.315  0.9856  0.1290 -0.1093
 
              Baa    -0.0695     5.029     1.795     1.678  0.7965  0.0320 -0.6038
     2 O(17)  Bbb    -0.0516     3.735     1.333     1.246  0.0266  0.9958  0.0879
              Bcc     0.1211    -8.764    -3.127    -2.923  0.6040 -0.0860  0.7923
 
              Baa    -0.1117     8.080     2.883     2.695 -0.6064  0.7945 -0.0311
     3 O(17)  Bbb    -0.0765     5.533     1.974     1.846 -0.5688 -0.4061  0.7152
              Bcc     0.1881   -13.613    -4.857    -4.541  0.5556  0.4514  0.6982
 
              Baa    -0.0136     0.476     0.170     0.159 -0.1933 -0.1571  0.9685
     4 Mo(95) Bbb     0.0024    -0.085    -0.030    -0.028  0.7852  0.5672  0.2487
              Bcc     0.0112    -0.391    -0.140    -0.130 -0.5883  0.8085  0.0137
 
              Baa    -0.0228     1.648     0.588     0.550  0.5841  0.8067 -0.0899
     5 O(17)  Bbb    -0.0087     0.627     0.224     0.209  0.6476 -0.5299 -0.5475
              Bcc     0.0314    -2.275    -0.812    -0.759  0.4893 -0.2616  0.8319
 
              Baa    -0.0311     2.252     0.804     0.751  0.5871  0.6225  0.5175
     6 O(17)  Bbb    -0.0254     1.839     0.656     0.613  0.7257 -0.6880  0.0043
              Bcc     0.0565    -4.091    -1.460    -1.365 -0.3587 -0.3730  0.8557
 
              Baa    -0.0951     6.879     2.454     2.294 -0.0378  0.9983  0.0438
     7 O(17)  Bbb    -0.0814     5.890     2.102     1.965  0.1225 -0.0389  0.9917
              Bcc     0.1765   -12.768    -4.556    -4.259  0.9918  0.0429 -0.1208
 
              Baa    -0.0173     0.606     0.216     0.202 -0.2056  0.2515  0.9458
     8 Mo(95) Bbb     0.0013    -0.045    -0.016    -0.015  0.8168 -0.4882  0.3074
              Bcc     0.0161    -0.561    -0.200    -0.187  0.5390  0.8357 -0.1051
 
              Baa    -0.0284     2.052     0.732     0.684 -0.6728  0.7392  0.0304
     9 O(17)  Bbb    -0.0115     0.829     0.296     0.277  0.6522  0.6119 -0.4475
              Bcc     0.0398    -2.881    -1.028    -0.961  0.3494  0.2813  0.8938
 
              Baa    -0.0311     2.254     0.804     0.752  0.6640 -0.6429  0.3818
    10 O(17)  Bbb    -0.0250     1.812     0.647     0.605  0.6903  0.7233  0.0173
              Bcc     0.0562    -4.066    -1.451    -1.356 -0.2873  0.2521  0.9241
 
              Baa    -0.0935     6.768     2.415     2.257  0.6401  0.7648 -0.0739
    11 O(17)  Bbb    -0.0636     4.600     1.641     1.534 -0.4308  0.4368  0.7897
              Bcc     0.1571   -11.367    -4.056    -3.792  0.6362 -0.4736  0.6090
 
              Baa    -0.0212     0.459     0.164     0.153  0.4823 -0.5812  0.6554
    12 Ag(107 Bbb    -0.0049     0.106     0.038     0.035  0.8747  0.3607 -0.3238
              Bcc     0.0261    -0.565    -0.202    -0.189 -0.0482  0.7294  0.6823
 

 ---------------------------------------------------------------------------------

 No NMR shielding tensors so no spin-rotation constants.
 Leave Link  601 at Sat Sep 12 00:35:05 2026, MaxMem=  6442450944 cpu:               3.0 elap:               3.1
 (Enter C:\G16W\l9999.exe)
 Unable to Open any file for archive entry.
 1|1|UNPC-DESKTOP-2JKEGCA|SP|UPBE1PBE|def2SVP|Ag1Mo3O8(2)|JHKIM|12-Sep-
 2026|0||#P PBE1PBE/Def2SVP EmpiricalDispersion=GD3BJ SP SCF=(XQC,MaxCy
 cle=128) NoSymm Guess=Read||Mo3O8 t=0.250 dz=+0.40 class=site2site||0,
 2|Mo,0,1.52706,-0.00003,-0.314747|O,0,2.654512,0.000128,-1.481849|O,0,
 0.930476,1.493025,0.252244|Mo,0,-0.916807,1.550282,-0.05109|O,0,-1.459
 058,1.914083,1.445767|O,0,-1.210342,2.70691,-1.167908|O,0,-1.71702,-0.
 000002,-0.509898|Mo,0,-0.916849,-1.550292,-0.051126|O,0,-1.458945,-1.9
 13975,1.445819|O,0,-1.210558,-2.706971,-1.167843|O,0,0.930452,-1.49315
 9,0.252023|Ag,0,2.12871706,1.25608974,2.80651984||Version=EM64W-G16Rev
 C.01|HF=-952.5435278|S2=0.763181|S2-1=0.|S2A=0.75004|RMSD=3.854e-013|D
 ipole=1.3425534,0.5622155,1.0236804|Quadrupole=1.3321955,-4.3205282,2.
 9883327,2.2563919,7.2052115,3.5227985|PG=C01 [X(Ag1Mo3O8)]||@
 The archive entry for this job was punched.


 BE NOT THE FIRST BY WHOM THE NEW ARE TRIED,
 NOR YET THE THE LAST TO LAY THE OLD ASIDE.

                          -- ALEXANDER POPE
 Job cpu time:       0 days  1 hours 13 minutes  2.0 seconds.
 Elapsed time:       0 days  1 hours 12 minutes 59.0 seconds.
 File lengths (MBytes):  RWF=     47 Int=      0 D2E=      0 Chk=      5 Scr=      1
 Normal termination of Gaussian 16 at Sat Sep 12 00:35:05 2026.
