 Entering Gaussian System, Link 0=C:\G16W\g16.exe
 Input=Mo3O9_t2_z0.gjf
 Output=Mo3O9_t2_z0.out
 Initial command:
 C:\G16W\l1.exe ".\Gau-95584.inp" "Mo3O9_t2_z0.out" /scrdir=".\"
 Entering Link 1 = C:\G16W\l1.exe PID=    122508.
  
 Copyright (c) 1988-2019, Gaussian, Inc.  All Rights Reserved.
  
 This is part of the Gaussian(R) 16 program.  It is based on
 the Gaussian(R) 09 system (copyright 2009, Gaussian, Inc.),
 the Gaussian(R) 03 system (copyright 2003, Gaussian, Inc.),
 the Gaussian(R) 98 system (copyright 1998, Gaussian, Inc.),
 the Gaussian(R) 94 system (copyright 1995, Gaussian, Inc.),
 the Gaussian 92(TM) system (copyright 1992, Gaussian, Inc.),
 the Gaussian 90(TM) system (copyright 1990, Gaussian, Inc.),
 the Gaussian 88(TM) system (copyright 1988, Gaussian, Inc.),
 the Gaussian 86(TM) system (copyright 1986, Carnegie Mellon
 University), and the Gaussian 82(TM) system (copyright 1983,
 Carnegie Mellon University). Gaussian is a federally registered
 trademark of Gaussian, Inc.
  
 This software contains proprietary and confidential information,
 including trade secrets, belonging to Gaussian, Inc.
  
 This software is provided under written license and may be
 used, copied, transmitted, or stored only in accord with that
 written license.
  
 The following legend is applicable only to US Government
 contracts under FAR:
  
                    RESTRICTED RIGHTS LEGEND
  
 Use, reproduction and disclosure by the US Government is
 subject to restrictions as set forth in subparagraphs (a)
 and (c) of the Commercial Computer Software - Restricted
 Rights clause in FAR 52.227-19.
  
 Gaussian, Inc.
 340 Quinnipiac St., Bldg. 40, Wallingford CT 06492
  
  
 ---------------------------------------------------------------
 Warning -- This program may not be used in any manner that
 competes with the business of Gaussian, Inc. or will provide
 assistance to any competitor of Gaussian, Inc.  The licensee
 of this program is prohibited from giving any competitor of
 Gaussian, Inc. access to this program.  By using this program,
 the user acknowledges that Gaussian, Inc. is engaged in the
 business of creating and licensing software in the field of
 computational chemistry and represents and warrants to the
 licensee that it is not a competitor of Gaussian, Inc. and that
 it will not use this program in any manner prohibited above.
 ---------------------------------------------------------------
  

 Cite this work as:
 Gaussian 16, Revision C.01,
 M. J. Frisch, G. W. Trucks, H. B. Schlegel, G. E. Scuseria, 
 M. A. Robb, J. R. Cheeseman, G. Scalmani, V. Barone, 
 G. A. Petersson, H. Nakatsuji, X. Li, M. Caricato, A. V. Marenich, 
 J. Bloino, B. G. Janesko, R. Gomperts, B. Mennucci, H. P. Hratchian, 
 J. V. Ortiz, A. F. Izmaylov, J. L. Sonnenberg, D. Williams-Young, 
 F. Ding, F. Lipparini, F. Egidi, J. Goings, B. Peng, A. Petrone, 
 T. Henderson, D. Ranasinghe, V. G. Zakrzewski, J. Gao, N. Rega, 
 G. Zheng, W. Liang, M. Hada, M. Ehara, K. Toyota, R. Fukuda, 
 J. Hasegawa, M. Ishida, T. Nakajima, Y. Honda, O. Kitao, H. Nakai, 
 T. Vreven, K. Throssell, J. A. Montgomery, Jr., J. E. Peralta, 
 F. Ogliaro, M. J. Bearpark, J. J. Heyd, E. N. Brothers, K. N. Kudin, 
 V. N. Staroverov, T. A. Keith, R. Kobayashi, J. Normand, 
 K. Raghavachari, A. P. Rendell, J. C. Burant, S. S. Iyengar, 
 J. Tomasi, M. Cossi, J. M. Millam, M. Klene, C. Adamo, R. Cammi, 
 J. W. Ochterski, R. L. Martin, K. Morokuma, O. Farkas, 
 J. B. Foresman, and D. J. Fox, Gaussian, Inc., Wallingford CT, 2019.
 
 ******************************************
 Gaussian 16:  EM64W-G16RevC.01 30-May-2019
                11-Sep-2026 
 ******************************************
 %Chk=Mo3O9.chk
 %NProcShared=8
 Will use up to    8 processors via shared memory.
 %Mem=48GB
 ----------------------------------------------------------------------
 #P PBE1PBE/Def2SVP EmpiricalDispersion=GD3BJ SP SCF=(XQC,MaxCycle=128)
  NoSymm Guess=Read
 ----------------------------------------------------------------------
 1/38=1,172=1/1;
 2/12=2,15=1,17=6,18=5,40=1/2;
 3/5=43,7=101,11=2,25=1,30=1,74=-13,116=-2,124=41/1,2,3;
 4/5=1/1;
 5/5=2,7=128,8=3,13=1,38=6/2,8;
 6/7=2,8=2,9=2,10=2,28=1/1;
 99/5=1,9=1/99;
 Leave Link    1 at Fri Sep 11 23:08:58 2026, MaxMem=  6442450944 cpu:               0.0 elap:               0.3
 (Enter C:\G16W\l101.exe)
 --------------------------------------
 Mo3O9 t=0.500 dz=+0.00 class=site2site
 --------------------------------------
 Symbolic Z-matrix:
 Charge =  0 Multiplicity = 2
 Mo                    2.        0.        0. 
 O                     3.02      0.        1.36 
 O                     3.02      0.       -1.36 
 O                     1.15      1.99186   0. 
 Mo                   -1.        1.73205   0. 
 O                    -1.51      2.6154    1.36 
 O                    -1.51      2.6154   -1.36 
 O                    -2.3       0.        0. 
 Mo                   -1.       -1.73205   0. 
 O                    -1.51     -2.6154    1.36 
 O                    -1.51     -2.6154   -1.36 
 O                     1.15     -1.99186   0. 
 Ag                   -3.29616   1.48705   2.02687 
 
 ITRead=  0  0  0  0  0  0  0  0  0  0  0  0  0
 MicOpt= -1 -1 -1 -1 -1 -1 -1 -1 -1 -1 -1 -1 -1
 NAtoms=     13 NQM=       13 NQMF=       0 NMMI=      0 NMMIF=      0
                NMic=       0 NMicF=      0.
                    Isotopes and Nuclear Properties:
 (Nuclear quadrupole moments (NQMom) in fm**2, nuclear magnetic moments (NMagM)
  in nuclear magnetons)

  Atom         1           2           3           4           5           6           7           8           9          10
 IAtWgt=          98          16          16          16          98          16          16          16          98          16
 AtmWgt=  97.9055000  15.9949146  15.9949146  15.9949146  97.9055000  15.9949146  15.9949146  15.9949146  97.9055000  15.9949146
 NucSpn=           0           0           0           0           0           0           0           0           0           0
 AtZEff=   0.0000000   0.0000000   0.0000000   0.0000000   0.0000000   0.0000000   0.0000000   0.0000000   0.0000000   0.0000000
 NQMom=    0.0000000   0.0000000   0.0000000   0.0000000   0.0000000   0.0000000   0.0000000   0.0000000   0.0000000   0.0000000
 NMagM=    0.0000000   0.0000000   0.0000000   0.0000000   0.0000000   0.0000000   0.0000000   0.0000000   0.0000000   0.0000000
 AtZNuc=  42.0000000   8.0000000   8.0000000   8.0000000  42.0000000   8.0000000   8.0000000   8.0000000  42.0000000   8.0000000

  Atom        11          12          13
 IAtWgt=          16          16         107
 AtmWgt=  15.9949146  15.9949146 106.9050900
 NucSpn=           0           0           1
 AtZEff=   0.0000000   0.0000000   0.0000000
 NQMom=    0.0000000   0.0000000   0.0000000
 NMagM=    0.0000000   0.0000000  -0.1135700
 AtZNuc=   8.0000000   8.0000000  47.0000000
 Leave Link  101 at Fri Sep 11 23:08:59 2026, MaxMem=  6442450944 cpu:               1.0 elap:               0.3
 (Enter C:\G16W\l202.exe)
                          Input orientation:                          
 ---------------------------------------------------------------------
 Center     Atomic      Atomic             Coordinates (Angstroms)
 Number     Number       Type             X           Y           Z
 ---------------------------------------------------------------------
      1         42           0        2.000000    0.000000    0.000000
      2          8           0        3.020000    0.000000    1.360000
      3          8           0        3.020000    0.000000   -1.360000
      4          8           0        1.150000    1.991858    0.000000
      5         42           0       -1.000000    1.732051    0.000000
      6          8           0       -1.510000    2.615397    1.360000
      7          8           0       -1.510000    2.615397   -1.360000
      8          8           0       -2.300000    0.000000    0.000000
      9         42           0       -1.000000   -1.732051    0.000000
     10          8           0       -1.510000   -2.615397    1.360000
     11          8           0       -1.510000   -2.615397   -1.360000
     12          8           0        1.150000   -1.991858    0.000000
     13         47           0       -3.296156    1.487049    2.026869
 ---------------------------------------------------------------------
                    Distance matrix (angstroms):
                    1          2          3          4          5
     1  Mo   0.000000
     2  O    1.700000   0.000000
     3  O    1.700000   2.720000   0.000000
     4  O    2.165640   3.051884   3.051884   0.000000
     5  Mo   3.464102   4.583667   4.583667   2.165641   0.000000
     6  O    4.583667   5.230794   5.895727   3.051885   1.700000
     7  O    4.583667   5.895727   5.230794   3.051885   1.700000
     8  O    4.300000   5.491084   5.491084   3.983717   2.165641
     9  Mo   3.464102   4.583667   4.583667   4.300000   3.464102
    10  O    4.583667   5.230794   5.895727   5.491084   4.583667
    11  O    4.583667   5.895727   5.230794   5.491084   4.583667
    12  O    2.165640   3.051884   3.051884   3.983716   4.300000
    13  Ag   5.862490   6.523025   7.319565   4.912366   3.072549
                    6          7          8          9         10
     6  O    0.000000
     7  O    2.720000   0.000000
     8  O    3.051885   3.051885   0.000000
     9  Mo   4.583667   4.583667   2.165641   0.000000
    10  O    5.230794   5.895728   3.051885   1.700000   0.000000
    11  O    5.895728   5.230794   3.051885   1.700000   2.720000
    12  O    5.491084   5.491084   3.983717   2.165641   3.051885
    13  Ag   2.215454   3.991792   2.704041   4.443325   4.523840
                   11         12         13
    11  O    0.000000
    12  O    3.051885   0.000000
    13  Ag   5.611711   5.998274   0.000000
 Symmetry turned off by external request.
 Stoichiometry    AgMo3O9(2)
 Framework group  C1[X(AgMo3O9)]
 Deg. of freedom    33
 Full point group                 C1      NOp   1
 Rotational constants (GHZ):           0.3417141           0.1801105           0.1391856
 Leave Link  202 at Fri Sep 11 23:08:59 2026, MaxMem=  6442450944 cpu:               0.0 elap:               0.1
 (Enter C:\G16W\l301.exe)
 Standard basis: def2SVP (5D, 7F)
 Ernie: Thresh=  0.10000D-02 Tol=  0.10000D-05 Strict=F.
   250 basis functions,   485 primitive gaussians,   279 cartesian basis functions
    67 alpha electrons       66 beta electrons
       nuclear repulsion energy      1238.9866317976 Hartrees.
 IExCor= 1009 DFT=T Ex+Corr=PBE1PBE ExCW=0 ScaHFX=  0.250000
 ScaDFX=  0.750000  0.750000  1.000000  1.000000 ScalE2=  1.000000  1.000000
 IRadAn=      5 IRanWt=     -1 IRanGd=            0 ICorTp=0 IEmpDi=141
 NAtoms=   13 NActive=   13 NUniq=   13 SFac= 1.00D+00 NAtFMM=   60 NAOKFM=F Big=F
 Integral buffers will be    131072 words long.
 Raffenetti 2 integral format.
 Two-electron integral symmetry is turned off.
 R6Disp:  Grimme-D3(BJ) Dispersion energy=       -0.0234395024 Hartrees.
 Nuclear repulsion after empirical dispersion term =     1238.9631922952 Hartrees.
 Leave Link  301 at Fri Sep 11 23:08:59 2026, MaxMem=  6442450944 cpu:               0.0 elap:               0.2
 (Enter C:\G16W\l302.exe)
 NPDir=0 NMtPBC=     1 NCelOv=     1 NCel=       1 NClECP=     1 NCelD=      1
         NCelK=      1 NCelE2=     1 NClLst=     1 CellRange=     0.0.
 One-electron integrals computed using PRISM.
   1 Symmetry operations used in ECPInt.
 ECPInt:  NShTT=    4851 NPrTT=   17197 LenC2=    4521 LenP2D=   12258.
 LDataN:  DoStor=T MaxTD1= 7 Len=  274
 NBasis=   250 RedAO= T EigKep=  3.23D-03  NBF=   250
 NBsUse=   250 1.00D-06 EigRej= -1.00D+00 NBFU=   250
 Precomputing XC quadrature grid using
 IXCGrd= 4 IRadAn=           5 IRanWt=          -1 IRanGd=           0 AccXCQ= 0.00D+00.
 Defaulting to unpruned grid for atomic number  42.
 Defaulting to unpruned grid for atomic number  42.
 Defaulting to unpruned grid for atomic number  47.
 Defaulting to unpruned grid for atomic number  42.
 Generated NRdTot=       0 NPtTot=           0 NUsed=           0 NTot=          32
 NSgBfM=   276   276   276   276   276 MxSgAt=    13 MxSgA2=    13.
 Leave Link  302 at Fri Sep 11 23:09:03 2026, MaxMem=  6442450944 cpu:               4.0 elap:               3.5
 (Enter C:\G16W\l303.exe)
 DipDrv:  MaxL=1.
 Leave Link  303 at Fri Sep 11 23:09:03 2026, MaxMem=  6442450944 cpu:               0.0 elap:               0.2
 (Enter C:\G16W\l401.exe)
 Initial guess from the checkpoint file:  "Mo3O9.chk"
 B after Tr=    -0.200360    0.154855   -0.151610
         Rot=    0.995978    0.046096    0.076115    0.010458 Ang=  10.28 deg.
 Guess basis will be translated and rotated to current coordinates.
 JPrj=2 DoOrth=T DoCkMO=T.
 Initial guess <Sx>= 0.0000 <Sy>= 0.0000 <Sz>= 0.5000 <S**2>= 0.7554 S= 0.5027
 Leave Link  401 at Fri Sep 11 23:09:14 2026, MaxMem=  6442450944 cpu:              10.0 elap:              10.0
 (Enter C:\G16W\l502.exe)
 Two-electron integral symmetry not used.
 UHF open shell SCF:
 Using DIIS extrapolation, IDIIS=  1040.
 NGot=  6442450944 LenX=  6442290741 LenY=  6442212459
 Requested convergence on RMS density matrix=1.00D-08 within 128 cycles.
 Requested convergence on MAX density matrix=1.00D-06.
 Requested convergence on             energy=1.00D-06.
 No special actions if energy rises.
 Fock matrices will be formed incrementally for  20 cycles.

 Cycle   1  Pass 1  IDiag  1:
 FoFJK:  IHMeth= 1 ICntrl=       0 DoSepK=F KAlg= 0 I1Cent=           0 FoldK=F
 IRaf= 880000000 NMat=       1 IRICut=       1 DoRegI=T DoRafI=F ISym2E= 0 IDoP0=0 IntGTp=1.
 FoFCou: FMM=F IPFlag=           0 FMFlag=      100000 FMFlg1=           0
         NFxFlg=           0 DoJE=F BraDBF=F KetDBF=F FulRan=T
         wScrn=  0.000000 ICntrl=         0 IOpCl=  1 I1Cent=           0 NGrid=           0
         NMat0=    1 NMatS0=      1 NMatT0=    0 NMatD0=    1 NMtDS0=    0 NMtDT0=    0
 Symmetry not used in FoFCou.
 Defaulting to unpruned grid for atomic number  42.
 Defaulting to unpruned grid for atomic number  42.
 Defaulting to unpruned grid for atomic number  42.
 Defaulting to unpruned grid for atomic number  42.
 Defaulting to unpruned grid for atomic number  42.
 Defaulting to unpruned grid for atomic number  42.
 Defaulting to unpruned grid for atomic number  42.
 Defaulting to unpruned grid for atomic number  42.
 E= -1027.36612841521    
 DIIS: error= 1.65D-02 at cycle   1 NSaved=   1.
 NSaved= 1 IEnMin= 1 EnMin= -1027.36612841521     IErMin= 1 ErrMin= 1.65D-02
 ErrMax= 1.65D-02  0.00D+00 EMaxC= 1.00D-01 BMatC= 6.82D-01 BMatP= 6.82D-01
 IDIUse=3 WtCom= 8.35D-01 WtEn= 1.65D-01
 Coeff-Com:  0.100D+01
 Coeff-En:   0.100D+01
 Coeff:      0.100D+01
 Gap=     0.109 Goal=   None    Shift=    0.000
 Gap=     0.155 Goal=   None    Shift=    0.000
 GapD=    0.109 DampG=1.000 DampE=0.250 DampFc=0.2500 IDamp=-1.
 Damping current iteration by 2.50D-01
 RMSDP=2.84D-03 MaxDP=6.66D-02              OVMax= 1.36D-01

 Cycle   2  Pass 1  IDiag  1:
 RMSU=  7.08D-04    CP:  9.98D-01
 E= -1027.41978834771     Delta-E=       -0.053659932496 Rises=F Damp=T
 DIIS: error= 1.23D-02 at cycle   2 NSaved=   2.
 NSaved= 2 IEnMin= 2 EnMin= -1027.41978834771     IErMin= 2 ErrMin= 1.23D-02
 ErrMax= 1.23D-02  0.00D+00 EMaxC= 1.00D-01 BMatC= 3.98D-01 BMatP= 6.82D-01
 IDIUse=3 WtCom= 8.77D-01 WtEn= 1.23D-01
 Coeff-Com: -0.295D+01 0.395D+01
 Coeff-En:   0.000D+00 0.100D+01
 Coeff:     -0.259D+01 0.359D+01
 Gap=     0.079 Goal=   None    Shift=    0.000
 Gap=     0.148 Goal=   None    Shift=    0.000
 RMSDP=2.53D-03 MaxDP=5.71D-02 DE=-5.37D-02 OVMax= 6.80D-02

 Cycle   3  Pass 1  IDiag  1:
 RMSU=  1.33D-03    CP:  9.90D-01  3.00D+00
 E= -1027.56115346783     Delta-E=       -0.141365120119 Rises=F Damp=F
 DIIS: error= 7.53D-03 at cycle   3 NSaved=   3.
 NSaved= 3 IEnMin= 3 EnMin= -1027.56115346783     IErMin= 3 ErrMin= 7.53D-03
 ErrMax= 7.53D-03  0.00D+00 EMaxC= 1.00D-01 BMatC= 2.38D-01 BMatP= 3.98D-01
 IDIUse=3 WtCom= 9.25D-01 WtEn= 7.53D-02
 Coeff-Com: -0.231D+01 0.303D+01 0.282D+00
 Coeff-En:   0.000D+00 0.000D+00 0.100D+01
 Coeff:     -0.214D+01 0.280D+01 0.336D+00
 Gap=     0.086 Goal=   None    Shift=    0.000
 Gap=     0.134 Goal=   None    Shift=    0.000
 RMSDP=9.03D-04 MaxDP=3.95D-02 DE=-1.41D-01 OVMax= 5.29D-02

 Cycle   4  Pass 1  IDiag  1:
 RMSU=  7.85D-04    CP:  9.92D-01  3.00D+00  6.66D-01
 E= -1027.60230608019     Delta-E=       -0.041152612359 Rises=F Damp=F
 DIIS: error= 3.86D-03 at cycle   4 NSaved=   4.
 NSaved= 4 IEnMin= 4 EnMin= -1027.60230608019     IErMin= 4 ErrMin= 3.86D-03
 ErrMax= 3.86D-03  0.00D+00 EMaxC= 1.00D-01 BMatC= 4.32D-02 BMatP= 2.38D-01
 IDIUse=3 WtCom= 9.61D-01 WtEn= 3.86D-02
 Coeff-Com: -0.894D+00 0.116D+01 0.281D+00 0.451D+00
 Coeff-En:   0.000D+00 0.000D+00 0.224D+00 0.776D+00
 Coeff:     -0.860D+00 0.112D+01 0.278D+00 0.463D+00
 Gap=     0.082 Goal=   None    Shift=    0.000
 Gap=     0.132 Goal=   None    Shift=    0.000
 RMSDP=3.29D-04 MaxDP=1.22D-02 DE=-4.12D-02 OVMax= 1.94D-02

 Cycle   5  Pass 1  IDiag  1:
 RMSU=  2.30D-04    CP:  9.90D-01  3.00D+00  7.68D-01  7.58D-01
 E= -1027.60955606650     Delta-E=       -0.007249986314 Rises=F Damp=F
 DIIS: error= 1.61D-03 at cycle   5 NSaved=   5.
 NSaved= 5 IEnMin= 5 EnMin= -1027.60955606650     IErMin= 5 ErrMin= 1.61D-03
 ErrMax= 1.61D-03  0.00D+00 EMaxC= 1.00D-01 BMatC= 6.68D-03 BMatP= 4.32D-02
 IDIUse=3 WtCom= 9.84D-01 WtEn= 1.61D-02
 Coeff-Com: -0.295D+00 0.379D+00 0.181D+00 0.392D+00 0.344D+00
 Coeff-En:   0.000D+00 0.000D+00 0.000D+00 0.134D+00 0.866D+00
 Coeff:     -0.290D+00 0.372D+00 0.178D+00 0.388D+00 0.353D+00
 Gap=     0.083 Goal=   None    Shift=    0.000
 Gap=     0.133 Goal=   None    Shift=    0.000
 RMSDP=1.50D-04 MaxDP=5.72D-03 DE=-7.25D-03 OVMax= 1.25D-02

 Cycle   6  Pass 1  IDiag  1:
 RMSU=  9.25D-05    CP:  9.90D-01  3.00D+00  7.94D-01  7.82D-01  5.17D-01
 E= -1027.61071280258     Delta-E=       -0.001156736076 Rises=F Damp=F
 DIIS: error= 7.48D-04 at cycle   6 NSaved=   6.
 NSaved= 6 IEnMin= 6 EnMin= -1027.61071280258     IErMin= 6 ErrMin= 7.48D-04
 ErrMax= 7.48D-04  0.00D+00 EMaxC= 1.00D-01 BMatC= 1.35D-03 BMatP= 6.68D-03
 IDIUse=3 WtCom= 9.93D-01 WtEn= 7.48D-03
 Coeff-Com:  0.218D-01-0.327D-01 0.703D-01 0.202D+00 0.310D+00 0.429D+00
 Coeff-En:   0.000D+00 0.000D+00 0.000D+00 0.000D+00 0.202D+00 0.798D+00
 Coeff:      0.217D-01-0.324D-01 0.698D-01 0.200D+00 0.309D+00 0.432D+00
 Gap=     0.083 Goal=   None    Shift=    0.000
 Gap=     0.134 Goal=   None    Shift=    0.000
 RMSDP=6.74D-05 MaxDP=2.49D-03 DE=-1.16D-03 OVMax= 5.89D-03

 Cycle   7  Pass 1  IDiag  1:
 RMSU=  5.14D-05    CP:  9.90D-01  3.00D+00  8.02D-01  7.97D-01  5.40D-01
                    CP:  5.66D-01
 E= -1027.61095609861     Delta-E=       -0.000243296035 Rises=F Damp=F
 DIIS: error= 1.84D-04 at cycle   7 NSaved=   7.
 NSaved= 7 IEnMin= 7 EnMin= -1027.61095609861     IErMin= 7 ErrMin= 1.84D-04
 ErrMax= 1.84D-04  0.00D+00 EMaxC= 1.00D-01 BMatC= 1.83D-04 BMatP= 1.35D-03
 IDIUse=3 WtCom= 9.98D-01 WtEn= 1.84D-03
 Coeff-Com:  0.746D-01-0.994D-01 0.198D-01 0.778D-01 0.168D+00 0.322D+00
 Coeff-Com:  0.437D+00
 Coeff-En:   0.000D+00 0.000D+00 0.000D+00 0.000D+00 0.000D+00 0.120D+00
 Coeff-En:   0.880D+00
 Coeff:      0.745D-01-0.992D-01 0.197D-01 0.777D-01 0.168D+00 0.322D+00
 Coeff:      0.438D+00
 Gap=     0.083 Goal=   None    Shift=    0.000
 Gap=     0.133 Goal=   None    Shift=    0.000
 RMSDP=3.11D-05 MaxDP=1.82D-03 DE=-2.43D-04 OVMax= 4.13D-03

 Cycle   8  Pass 1  IDiag  1:
 RMSU=  2.31D-05    CP:  9.90D-01  3.00D+00  8.04D-01  8.04D-01  5.89D-01
                    CP:  6.94D-01  7.82D-01
 E= -1027.61099316586     Delta-E=       -0.000037067244 Rises=F Damp=F
 DIIS: error= 9.69D-05 at cycle   8 NSaved=   8.
 NSaved= 8 IEnMin= 8 EnMin= -1027.61099316586     IErMin= 8 ErrMin= 9.69D-05
 ErrMax= 9.69D-05  0.00D+00 EMaxC= 1.00D-01 BMatC= 4.46D-05 BMatP= 1.83D-04
 IDIUse=1 WtCom= 1.00D+00 WtEn= 0.00D+00
 Coeff-Com:  0.556D-01-0.737D-01 0.623D-02 0.318D-01 0.841D-01 0.184D+00
 Coeff-Com:  0.344D+00 0.368D+00
 Coeff:      0.556D-01-0.737D-01 0.623D-02 0.318D-01 0.841D-01 0.184D+00
 Coeff:      0.344D+00 0.368D+00
 Gap=     0.083 Goal=   None    Shift=    0.000
 Gap=     0.133 Goal=   None    Shift=    0.000
 RMSDP=1.45D-05 MaxDP=9.74D-04 DE=-3.71D-05 OVMax= 1.92D-03

 Cycle   9  Pass 1  IDiag  1:
 RMSU=  1.19D-05    CP:  9.90D-01  3.00D+00  8.05D-01  8.06D-01  6.03D-01
                    CP:  7.48D-01  8.59D-01  8.49D-01
 E= -1027.61100238775     Delta-E=       -0.000009221892 Rises=F Damp=F
 DIIS: error= 4.37D-05 at cycle   9 NSaved=   9.
 NSaved= 9 IEnMin= 9 EnMin= -1027.61100238775     IErMin= 9 ErrMin= 4.37D-05
 ErrMax= 4.37D-05  0.00D+00 EMaxC= 1.00D-01 BMatC= 8.22D-06 BMatP= 4.46D-05
 IDIUse=1 WtCom= 1.00D+00 WtEn= 0.00D+00
 Coeff-Com:  0.913D-02-0.119D-01-0.370D-02-0.125D-01-0.161D-01-0.113D-01
 Coeff-Com:  0.791D-01 0.309D+00 0.658D+00
 Coeff:      0.913D-02-0.119D-01-0.370D-02-0.125D-01-0.161D-01-0.113D-01
 Coeff:      0.791D-01 0.309D+00 0.658D+00
 Gap=     0.083 Goal=   None    Shift=    0.000
 Gap=     0.134 Goal=   None    Shift=    0.000
 RMSDP=1.18D-05 MaxDP=6.07D-04 DE=-9.22D-06 OVMax= 2.12D-03

 Cycle  10  Pass 1  IDiag  1:
 RMSU=  5.34D-06    CP:  9.90D-01  3.00D+00  8.08D-01  8.08D-01  6.06D-01
                    CP:  7.89D-01  1.00D+00  1.07D+00  9.29D-01
 E= -1027.61100582522     Delta-E=       -0.000003437475 Rises=F Damp=F
 DIIS: error= 2.30D-05 at cycle  10 NSaved=  10.
 NSaved=10 IEnMin=10 EnMin= -1027.61100582522     IErMin=10 ErrMin= 2.30D-05
 ErrMax= 2.30D-05  0.00D+00 EMaxC= 1.00D-01 BMatC= 1.11D-06 BMatP= 8.22D-06
 IDIUse=1 WtCom= 1.00D+00 WtEn= 0.00D+00
 Coeff-Com: -0.826D-02 0.111D-01-0.316D-02-0.132D-01-0.280D-01-0.498D-01
 Coeff-Com: -0.356D-01 0.816D-01 0.349D+00 0.696D+00
 Coeff:     -0.826D-02 0.111D-01-0.316D-02-0.132D-01-0.280D-01-0.498D-01
 Coeff:     -0.356D-01 0.816D-01 0.349D+00 0.696D+00
 Gap=     0.083 Goal=   None    Shift=    0.000
 Gap=     0.134 Goal=   None    Shift=    0.000
 RMSDP=6.54D-06 MaxDP=4.25D-04 DE=-3.44D-06 OVMax= 1.12D-03

 Cycle  11  Pass 1  IDiag  1:
 RMSU=  3.54D-06    CP:  9.90D-01  3.00D+00  8.08D-01  8.09D-01  6.10D-01
                    CP:  8.11D-01  1.07D+00  1.18D+00  1.09D+00  1.21D+00
 E= -1027.61100635371     Delta-E=       -0.000000528489 Rises=F Damp=F
 DIIS: error= 1.93D-05 at cycle  11 NSaved=  11.
 NSaved=11 IEnMin=11 EnMin= -1027.61100635371     IErMin=11 ErrMin= 1.93D-05
 ErrMax= 1.93D-05  0.00D+00 EMaxC= 1.00D-01 BMatC= 1.46D-06 BMatP= 1.11D-06
 IDIUse=1 WtCom= 1.00D+00 WtEn= 0.00D+00
 Coeff-Com: -0.109D-01 0.145D-01-0.165D-02-0.757D-02-0.203D-01-0.420D-01
 Coeff-Com: -0.575D-01-0.257D-01 0.998D-01 0.639D+00 0.412D+00
 Coeff:     -0.109D-01 0.145D-01-0.165D-02-0.757D-02-0.203D-01-0.420D-01
 Coeff:     -0.575D-01-0.257D-01 0.998D-01 0.639D+00 0.412D+00
 Gap=     0.083 Goal=   None    Shift=    0.000
 Gap=     0.134 Goal=   None    Shift=    0.000
 RMSDP=3.84D-06 MaxDP=4.32D-04 DE=-5.28D-07 OVMax= 6.53D-04

 Cycle  12  Pass 1  IDiag  1:
 RMSU=  1.99D-06    CP:  9.90D-01  3.00D+00  8.09D-01  8.09D-01  6.14D-01
                    CP:  8.24D-01  1.09D+00  1.25D+00  1.21D+00  1.51D+00
                    CP:  8.32D-01
 E= -1027.61100680073     Delta-E=       -0.000000447011 Rises=F Damp=F
 DIIS: error= 8.49D-06 at cycle  12 NSaved=  12.
 NSaved=12 IEnMin=12 EnMin= -1027.61100680073     IErMin=12 ErrMin= 8.49D-06
 ErrMax= 8.49D-06  0.00D+00 EMaxC= 1.00D-01 BMatC= 2.38D-07 BMatP= 1.11D-06
 IDIUse=1 WtCom= 1.00D+00 WtEn= 0.00D+00
 Coeff-Com: -0.491D-02 0.649D-02 0.182D-03 0.779D-03-0.257D-02-0.901D-02
 Coeff-Com: -0.287D-01-0.573D-01-0.869D-01 0.158D+00 0.311D+00 0.713D+00
 Coeff:     -0.491D-02 0.649D-02 0.182D-03 0.779D-03-0.257D-02-0.901D-02
 Coeff:     -0.287D-01-0.573D-01-0.869D-01 0.158D+00 0.311D+00 0.713D+00
 Gap=     0.083 Goal=   None    Shift=    0.000
 Gap=     0.134 Goal=   None    Shift=    0.000
 RMSDP=2.79D-06 MaxDP=2.52D-04 DE=-4.47D-07 OVMax= 4.77D-04

 Cycle  13  Pass 1  IDiag  1:
 RMSU=  9.67D-07    CP:  9.90D-01  3.00D+00  8.09D-01  8.10D-01  6.15D-01
                    CP:  8.33D-01  1.11D+00  1.29D+00  1.28D+00  1.78D+00
                    CP:  1.10D+00  1.02D+00
 E= -1027.61100692227     Delta-E=       -0.000000121544 Rises=F Damp=F
 DIIS: error= 4.98D-06 at cycle  13 NSaved=  13.
 NSaved=13 IEnMin=13 EnMin= -1027.61100692227     IErMin=13 ErrMin= 4.98D-06
 ErrMax= 4.98D-06  0.00D+00 EMaxC= 1.00D-01 BMatC= 8.51D-08 BMatP= 2.38D-07
 IDIUse=1 WtCom= 1.00D+00 WtEn= 0.00D+00
 Coeff-Com: -0.129D-02 0.169D-02 0.417D-03 0.197D-02 0.200D-02 0.152D-02
 Coeff-Com: -0.926D-02-0.348D-01-0.814D-01-0.670D-02 0.147D+00 0.510D+00
 Coeff-Com:  0.468D+00
 Coeff:     -0.129D-02 0.169D-02 0.417D-03 0.197D-02 0.200D-02 0.152D-02
 Coeff:     -0.926D-02-0.348D-01-0.814D-01-0.670D-02 0.147D+00 0.510D+00
 Coeff:      0.468D+00
 Gap=     0.083 Goal=   None    Shift=    0.000
 Gap=     0.134 Goal=   None    Shift=    0.000
 RMSDP=9.98D-07 MaxDP=7.59D-05 DE=-1.22D-07 OVMax= 1.19D-04

 Cycle  14  Pass 1  IDiag  1:
 RMSU=  6.47D-07    CP:  9.90D-01  3.00D+00  8.09D-01  8.10D-01  6.15D-01
                    CP:  8.34D-01  1.11D+00  1.30D+00  1.30D+00  1.86D+00
                    CP:  1.19D+00  1.18D+00  8.23D-01
 E= -1027.61100694329     Delta-E=       -0.000000021023 Rises=F Damp=F
 DIIS: error= 3.89D-06 at cycle  14 NSaved=  14.
 NSaved=14 IEnMin=14 EnMin= -1027.61100694329     IErMin=14 ErrMin= 3.89D-06
 ErrMax= 3.89D-06  0.00D+00 EMaxC= 1.00D-01 BMatC= 5.60D-08 BMatP= 8.51D-08
 IDIUse=1 WtCom= 1.00D+00 WtEn= 0.00D+00
 Coeff-Com:  0.203D-02-0.271D-02 0.324D-03 0.157D-02 0.394D-02 0.777D-02
 Coeff-Com:  0.950D-02 0.113D-02-0.322D-01-0.116D+00-0.473D-01 0.765D-01
 Coeff-Com:  0.517D+00 0.579D+00
 Coeff:      0.203D-02-0.271D-02 0.324D-03 0.157D-02 0.394D-02 0.777D-02
 Coeff:      0.950D-02 0.113D-02-0.322D-01-0.116D+00-0.473D-01 0.765D-01
 Coeff:      0.517D+00 0.579D+00
 Gap=     0.083 Goal=   None    Shift=    0.000
 Gap=     0.134 Goal=   None    Shift=    0.000
 RMSDP=8.56D-07 MaxDP=7.85D-05 DE=-2.10D-08 OVMax= 1.21D-04

 Cycle  15  Pass 1  IDiag  1:
 RMSU=  3.27D-07    CP:  9.90D-01  3.00D+00  8.09D-01  8.10D-01  6.15D-01
                    CP:  8.35D-01  1.12D+00  1.30D+00  1.32D+00  1.93D+00
                    CP:  1.29D+00  1.34D+00  1.20D+00  8.72D-01
 E= -1027.61100696209     Delta-E=       -0.000000018794 Rises=F Damp=F
 DIIS: error= 1.60D-06 at cycle  15 NSaved=  15.
 NSaved=15 IEnMin=15 EnMin= -1027.61100696209     IErMin=15 ErrMin= 1.60D-06
 ErrMax= 1.60D-06  0.00D+00 EMaxC= 1.00D-01 BMatC= 5.28D-09 BMatP= 5.60D-08
 IDIUse=1 WtCom= 1.00D+00 WtEn= 0.00D+00
 Coeff-Com:  0.132D-02-0.175D-02 0.153D-03 0.633D-03 0.199D-02 0.428D-02
 Coeff-Com:  0.682D-02 0.526D-02-0.836D-02-0.638D-01-0.436D-01-0.206D-01
 Coeff-Com:  0.231D+00 0.325D+00 0.562D+00
 Coeff:      0.132D-02-0.175D-02 0.153D-03 0.633D-03 0.199D-02 0.428D-02
 Coeff:      0.682D-02 0.526D-02-0.836D-02-0.638D-01-0.436D-01-0.206D-01
 Coeff:      0.231D+00 0.325D+00 0.562D+00
 Gap=     0.083 Goal=   None    Shift=    0.000
 Gap=     0.134 Goal=   None    Shift=    0.000
 RMSDP=2.72D-07 MaxDP=2.38D-05 DE=-1.88D-08 OVMax= 2.94D-05

 Cycle  16  Pass 1  IDiag  1:
 RMSU=  2.01D-07    CP:  9.90D-01  3.00D+00  8.09D-01  8.10D-01  6.15D-01
                    CP:  8.35D-01  1.12D+00  1.30D+00  1.32D+00  1.94D+00
                    CP:  1.31D+00  1.37D+00  1.30D+00  9.96D-01  9.45D-01
 E= -1027.61100696306     Delta-E=       -0.000000000970 Rises=F Damp=F
 DIIS: error= 1.51D-06 at cycle  16 NSaved=  16.
 NSaved=16 IEnMin=16 EnMin= -1027.61100696306     IErMin=16 ErrMin= 1.51D-06
 ErrMax= 1.51D-06  0.00D+00 EMaxC= 1.00D-01 BMatC= 6.05D-09 BMatP= 5.28D-09
 IDIUse=1 WtCom= 1.00D+00 WtEn= 0.00D+00
 Coeff-Com:  0.294D-03-0.388D-03 0.297D-05-0.162D-03 0.458D-04 0.412D-03
 Coeff-Com:  0.194D-02 0.468D-02 0.853D-02-0.442D-02-0.210D-01-0.645D-01
 Coeff-Com: -0.402D-01 0.237D-01 0.610D+00 0.481D+00
 Coeff:      0.294D-03-0.388D-03 0.297D-05-0.162D-03 0.458D-04 0.412D-03
 Coeff:      0.194D-02 0.468D-02 0.853D-02-0.442D-02-0.210D-01-0.645D-01
 Coeff:     -0.402D-01 0.237D-01 0.610D+00 0.481D+00
 Gap=     0.083 Goal=   None    Shift=    0.000
 Gap=     0.134 Goal=   None    Shift=    0.000
 RMSDP=2.21D-07 MaxDP=1.35D-05 DE=-9.70D-10 OVMax= 2.67D-05

 Cycle  17  Pass 1  IDiag  1:
 RMSU=  1.20D-07    CP:  9.90D-01  3.00D+00  8.09D-01  8.10D-01  6.15D-01
                    CP:  8.35D-01  1.12D+00  1.30D+00  1.32D+00  1.95D+00
                    CP:  1.32D+00  1.39D+00  1.39D+00  1.11D+00  1.22D+00
                    CP:  7.36D-01
 E= -1027.61100696479     Delta-E=       -0.000000001733 Rises=F Damp=F
 DIIS: error= 6.36D-07 at cycle  17 NSaved=  17.
 NSaved=17 IEnMin=17 EnMin= -1027.61100696479     IErMin=17 ErrMin= 6.36D-07
 ErrMax= 6.36D-07  0.00D+00 EMaxC= 1.00D-01 BMatC= 1.07D-09 BMatP= 5.28D-09
 IDIUse=1 WtCom= 1.00D+00 WtEn= 0.00D+00
 Coeff-Com: -0.212D-03 0.284D-03-0.538D-04-0.351D-03-0.639D-03-0.112D-02
 Coeff-Com: -0.738D-03 0.195D-02 0.966D-02 0.176D-01-0.238D-02-0.419D-01
 Coeff-Com: -0.105D+00-0.882D-01 0.284D+00 0.376D+00 0.552D+00
 Coeff:     -0.212D-03 0.284D-03-0.538D-04-0.351D-03-0.639D-03-0.112D-02
 Coeff:     -0.738D-03 0.195D-02 0.966D-02 0.176D-01-0.238D-02-0.419D-01
 Coeff:     -0.105D+00-0.882D-01 0.284D+00 0.376D+00 0.552D+00
 Gap=     0.083 Goal=   None    Shift=    0.000
 Gap=     0.134 Goal=   None    Shift=    0.000
 RMSDP=1.15D-07 MaxDP=6.91D-06 DE=-1.73D-09 OVMax= 1.11D-05

 Cycle  18  Pass 1  IDiag  1:
 RMSU=  6.99D-08    CP:  9.90D-01  3.00D+00  8.09D-01  8.10D-01  6.15D-01
                    CP:  8.35D-01  1.12D+00  1.30D+00  1.32D+00  1.96D+00
                    CP:  1.32D+00  1.41D+00  1.42D+00  1.16D+00  1.40D+00
                    CP:  8.61D-01  7.44D-01
 E= -1027.61100696514     Delta-E=       -0.000000000354 Rises=F Damp=F
 DIIS: error= 3.56D-07 at cycle  18 NSaved=  18.
 NSaved=18 IEnMin=18 EnMin= -1027.61100696514     IErMin=18 ErrMin= 3.56D-07
 ErrMax= 3.56D-07  0.00D+00 EMaxC= 1.00D-01 BMatC= 2.52D-10 BMatP= 1.07D-09
 IDIUse=1 WtCom= 1.00D+00 WtEn= 0.00D+00
 Coeff-Com: -0.239D-03 0.318D-03-0.428D-04-0.196D-03-0.459D-03-0.921D-03
 Coeff-Com: -0.114D-02-0.952D-04 0.441D-02 0.134D-01 0.393D-02-0.997D-02
 Coeff-Com: -0.605D-01-0.670D-01 0.265D-01 0.124D+00 0.369D+00 0.599D+00
 Coeff:     -0.239D-03 0.318D-03-0.428D-04-0.196D-03-0.459D-03-0.921D-03
 Coeff:     -0.114D-02-0.952D-04 0.441D-02 0.134D-01 0.393D-02-0.997D-02
 Coeff:     -0.605D-01-0.670D-01 0.265D-01 0.124D+00 0.369D+00 0.599D+00
 Gap=     0.083 Goal=   None    Shift=    0.000
 Gap=     0.134 Goal=   None    Shift=    0.000
 RMSDP=5.55D-08 MaxDP=2.43D-06 DE=-3.54D-10 OVMax= 3.32D-06

 Cycle  19  Pass 1  IDiag  1:
 RMSU=  3.45D-08    CP:  9.90D-01  3.00D+00  8.09D-01  8.10D-01  6.15D-01
                    CP:  8.35D-01  1.12D+00  1.30D+00  1.32D+00  1.96D+00
                    CP:  1.33D+00  1.41D+00  1.43D+00  1.18D+00  1.45D+00
                    CP:  9.64D-01  9.76D-01  1.03D+00
 E= -1027.61100696524     Delta-E=       -0.000000000093 Rises=F Damp=F
 DIIS: error= 3.75D-07 at cycle  19 NSaved=  19.
 NSaved=19 IEnMin=19 EnMin= -1027.61100696524     IErMin=18 ErrMin= 3.56D-07
 ErrMax= 3.75D-07  0.00D+00 EMaxC= 1.00D-01 BMatC= 1.74D-10 BMatP= 2.52D-10
 IDIUse=1 WtCom= 1.00D+00 WtEn= 0.00D+00
 Coeff-Com: -0.135D-03 0.180D-03-0.215D-04-0.549D-04-0.194D-03-0.438D-03
 Coeff-Com: -0.746D-03-0.682D-03 0.804D-03 0.586D-02 0.378D-02 0.417D-02
 Coeff-Com: -0.178D-01-0.288D-01-0.666D-01-0.137D-01 0.143D+00 0.525D+00
 Coeff-Com:  0.446D+00
 Coeff:     -0.135D-03 0.180D-03-0.215D-04-0.549D-04-0.194D-03-0.438D-03
 Coeff:     -0.746D-03-0.682D-03 0.804D-03 0.586D-02 0.378D-02 0.417D-02
 Coeff:     -0.178D-01-0.288D-01-0.666D-01-0.137D-01 0.143D+00 0.525D+00
 Coeff:      0.446D+00
 Gap=     0.083 Goal=   None    Shift=    0.000
 Gap=     0.134 Goal=   None    Shift=    0.000
 RMSDP=3.48D-08 MaxDP=1.48D-06 DE=-9.32D-11 OVMax= 2.41D-06

 Cycle  20  Pass 1  IDiag  1:
 RMSU=  2.05D-08    CP:  9.90D-01  3.00D+00  8.09D-01  8.10D-01  6.15D-01
                    CP:  8.35D-01  1.12D+00  1.30D+00  1.32D+00  1.96D+00
                    CP:  1.33D+00  1.41D+00  1.44D+00  1.18D+00  1.47D+00
                    CP:  1.02D+00  1.11D+00  1.21D+00  6.16D-01
 E= -1027.61100696530     Delta-E=       -0.000000000061 Rises=F Damp=F
 DIIS: error= 1.31D-07 at cycle  20 NSaved=  20.
 NSaved=20 IEnMin=20 EnMin= -1027.61100696530     IErMin=20 ErrMin= 1.31D-07
 ErrMax= 1.31D-07  0.00D+00 EMaxC= 1.00D-01 BMatC= 3.39D-11 BMatP= 1.74D-10
 IDIUse=1 WtCom= 1.00D+00 WtEn= 0.00D+00
 Coeff-Com:  0.112D-04-0.151D-04 0.365D-05 0.566D-04 0.688D-04 0.108D-03
 Coeff-Com: -0.280D-04-0.496D-03-0.159D-02-0.196D-02 0.109D-02 0.813D-02
 Coeff-Com:  0.164D-01 0.105D-01-0.668D-01-0.750D-01-0.719D-01 0.106D+00
 Coeff-Com:  0.357D+00 0.718D+00
 Coeff:      0.112D-04-0.151D-04 0.365D-05 0.566D-04 0.688D-04 0.108D-03
 Coeff:     -0.280D-04-0.496D-03-0.159D-02-0.196D-02 0.109D-02 0.813D-02
 Coeff:      0.164D-01 0.105D-01-0.668D-01-0.750D-01-0.719D-01 0.106D+00
 Coeff:      0.357D+00 0.718D+00
 Gap=     0.083 Goal=   None    Shift=    0.000
 Gap=     0.134 Goal=   None    Shift=    0.000
 RMSDP=2.59D-08 MaxDP=1.16D-06 DE=-6.09D-11 OVMax= 1.96D-06

 Cycle  21  Pass 1  IDiag  1:
 Restarting incremental Fock formation.
 E= -1027.61100696532     Delta-E=       -0.000000000019 Rises=F Damp=F
 DIIS: error= 5.10D-08 at cycle  21 NSaved=  20.
 NSaved=20 IEnMin=20 EnMin= -1027.61100696532     IErMin=20 ErrMin= 5.10D-08
 ErrMax= 5.10D-08  0.00D+00 EMaxC= 1.00D-01 BMatC= 7.96D-12 BMatP= 3.39D-11
 IDIUse=1 WtCom= 1.00D+00 WtEn= 0.00D+00
 Coeff-Com: -0.344D-06 0.403D-05 0.322D-04 0.360D-04 0.579D-04-0.188D-04
 Coeff-Com: -0.286D-03-0.975D-03-0.111D-02 0.761D-03 0.458D-02 0.981D-02
 Coeff-Com:  0.695D-02-0.347D-01-0.428D-01-0.530D-01 0.166D-01 0.171D+00
 Coeff-Com:  0.433D+00 0.491D+00
 Coeff:     -0.344D-06 0.403D-05 0.322D-04 0.360D-04 0.579D-04-0.188D-04
 Coeff:     -0.286D-03-0.975D-03-0.111D-02 0.761D-03 0.458D-02 0.981D-02
 Coeff:      0.695D-02-0.347D-01-0.428D-01-0.530D-01 0.166D-01 0.171D+00
 Coeff:      0.433D+00 0.491D+00
 Gap=     0.083 Goal=   None    Shift=    0.000
 Gap=     0.134 Goal=   None    Shift=    0.000
 RMSDP=9.12D-09 MaxDP=5.44D-07 DE=-1.91D-11 OVMax= 6.28D-07

 SCF Done:  E(UPBE1PBE) =  -1027.61100697     A.U. after   21 cycles
            NFock= 21  Conv=0.91D-08     -V/T= 2.2909
 <Sx>= 0.0000 <Sy>= 0.0000 <Sz>= 0.5000 <S**2>= 0.7553 S= 0.5027
 <L.S>= 0.000000000000E+00
 KE= 7.960194055324D+02 PE=-4.806255567621D+03 EE= 1.743661962828D+03
 Annihilation of the first spin contaminant:
 S**2 before annihilation     0.7553,   after     0.7500
 Leave Link  502 at Fri Sep 11 23:13:12 2026, MaxMem=  6442450944 cpu:             238.0 elap:             238.5
 (Enter C:\G16W\l508.exe)
 QCSCF skips out because SCF is already converged.
 Leave Link  508 at Fri Sep 11 23:13:13 2026, MaxMem=  6442450944 cpu:               1.0 elap:               0.1
 (Enter C:\G16W\l601.exe)
 Copying SCF densities to generalized density rwf, IOpCl= 1 IROHF=0.

 **********************************************************************

            Population analysis using the SCF Density.

 **********************************************************************

 Alpha  occ. eigenvalues --  -19.30327 -19.28648 -19.27753 -19.27364 -19.27245
 Alpha  occ. eigenvalues --  -19.26399 -19.26359 -19.25891 -19.25007  -3.87381
 Alpha  occ. eigenvalues --   -2.76905  -2.75267  -2.74325  -2.45704  -2.45648
 Alpha  occ. eigenvalues --   -2.45434  -1.77338  -1.76150  -1.75423  -1.74586
 Alpha  occ. eigenvalues --   -1.74467  -1.74403  -1.73626  -1.72709  -1.71738
 Alpha  occ. eigenvalues --   -1.00820  -0.97332  -0.96539  -0.95720  -0.95588
 Alpha  occ. eigenvalues --   -0.95471  -0.94746  -0.93197  -0.92337  -0.52168
 Alpha  occ. eigenvalues --   -0.50434  -0.49487  -0.47445  -0.46799  -0.46501
 Alpha  occ. eigenvalues --   -0.46285  -0.45865  -0.45581  -0.45429  -0.44965
 Alpha  occ. eigenvalues --   -0.44584  -0.44550  -0.44324  -0.43829  -0.43503
 Alpha  occ. eigenvalues --   -0.43075  -0.42980  -0.42595  -0.41173  -0.40144
 Alpha  occ. eigenvalues --   -0.38798  -0.38502  -0.38159  -0.37395  -0.36289
 Alpha  occ. eigenvalues --   -0.36041  -0.35016  -0.34919  -0.34796  -0.33132
 Alpha  occ. eigenvalues --   -0.32214  -0.26171
 Alpha virt. eigenvalues --   -0.17845  -0.13487  -0.13025  -0.12594  -0.11014
 Alpha virt. eigenvalues --   -0.10587  -0.10515  -0.09335  -0.09219  -0.08628
 Alpha virt. eigenvalues --   -0.08011  -0.04917  -0.04204  -0.03579  -0.02832
 Alpha virt. eigenvalues --   -0.02271  -0.01196  -0.00908   0.00845   0.04634
 Alpha virt. eigenvalues --    0.05016   0.05728   0.06411   0.08798   0.09210
 Alpha virt. eigenvalues --    0.09862   0.10373   0.11122   0.11463   0.12344
 Alpha virt. eigenvalues --    0.13080   0.15021   0.18448   0.19730   0.22201
 Alpha virt. eigenvalues --    0.24515   0.24750   0.27233   0.29589   0.32203
 Alpha virt. eigenvalues --    0.32613   0.33197   0.34246   0.34421   0.34908
 Alpha virt. eigenvalues --    0.36615   0.36965   0.38220   0.38363   0.38941
 Alpha virt. eigenvalues --    0.39672   0.40628   0.41673   0.42805   0.44027
 Alpha virt. eigenvalues --    0.44480   0.46386   0.46963   0.48229   0.49841
 Alpha virt. eigenvalues --    0.51381   0.53538   0.54203   0.54894   0.58213
 Alpha virt. eigenvalues --    0.68081   0.94310   0.97294   0.97688   0.97956
 Alpha virt. eigenvalues --    0.99016   0.99341   1.00003   1.00499   1.01284
 Alpha virt. eigenvalues --    1.02257   1.03696   1.04169   1.06152   1.08869
 Alpha virt. eigenvalues --    1.09139   1.10627   1.11927   1.13016   1.13941
 Alpha virt. eigenvalues --    1.16004   1.16411   1.17519   1.21978   1.22798
 Alpha virt. eigenvalues --    1.23700   1.24650   1.25428   1.26461   1.27061
 Alpha virt. eigenvalues --    1.27790   1.28442   1.29031   1.29351   1.30702
 Alpha virt. eigenvalues --    1.31051   1.31963   1.32128   1.32700   1.36970
 Alpha virt. eigenvalues --    1.37358   1.40505   1.41520   1.47503   1.48886
 Alpha virt. eigenvalues --    1.49942   1.50259   1.51505   1.52681   1.55806
 Alpha virt. eigenvalues --    1.56149   1.57280   1.57621   1.57934   1.61357
 Alpha virt. eigenvalues --    1.65199   1.68893   1.69539   1.71925   1.73675
 Alpha virt. eigenvalues --    1.74544   1.99459   2.49503   2.49557   2.49583
 Alpha virt. eigenvalues --    2.49626   2.49801   2.50317   2.50859   2.56715
 Alpha virt. eigenvalues --    2.58279   2.58908   2.59792   2.60102   2.60941
 Alpha virt. eigenvalues --    2.61598   2.61888   2.62426   2.63018   2.63596
 Alpha virt. eigenvalues --    2.63835   2.64196   2.65311   2.65425   2.65825
 Alpha virt. eigenvalues --    2.66320   2.66369   2.68836   2.69441   2.69844
 Alpha virt. eigenvalues --    2.71116   2.72307   2.73138   2.74547   2.77034
 Alpha virt. eigenvalues --    2.77319   2.78156   2.79034   2.79351   2.79609
 Alpha virt. eigenvalues --    2.80474   2.80516   2.80697   2.81239   2.81968
 Alpha virt. eigenvalues --    2.82613   2.83522   2.84819   2.87861   2.88017
 Alpha virt. eigenvalues --    2.88906   3.15602   3.21912   3.23417  39.34245
 Alpha virt. eigenvalues --   39.42409  39.43899  53.73917
  Beta  occ. eigenvalues --  -19.30268 -19.28567 -19.27665 -19.27294 -19.27173
  Beta  occ. eigenvalues --  -19.26325 -19.26288 -19.25830 -19.24894  -3.87372
  Beta  occ. eigenvalues --   -2.75967  -2.74872  -2.74024  -2.45696  -2.45641
  Beta  occ. eigenvalues --   -2.45424  -1.76896  -1.75290  -1.74562  -1.74381
  Beta  occ. eigenvalues --   -1.73876  -1.73250  -1.73086  -1.72182  -1.71315
  Beta  occ. eigenvalues --   -1.00598  -0.97077  -0.96308  -0.95526  -0.95359
  Beta  occ. eigenvalues --   -0.95241  -0.94555  -0.93046  -0.92068  -0.51879
  Beta  occ. eigenvalues --   -0.50079  -0.49152  -0.47160  -0.46432  -0.46121
  Beta  occ. eigenvalues --   -0.46061  -0.45538  -0.45228  -0.45126  -0.44784
  Beta  occ. eigenvalues --   -0.44436  -0.44379  -0.44109  -0.43567  -0.43130
  Beta  occ. eigenvalues --   -0.42822  -0.42424  -0.42216  -0.41099  -0.39719
  Beta  occ. eigenvalues --   -0.38314  -0.37978  -0.37623  -0.37445  -0.35954
  Beta  occ. eigenvalues --   -0.35661  -0.34844  -0.34710  -0.34264  -0.33076
  Beta  occ. eigenvalues --   -0.32140
  Beta virt. eigenvalues --   -0.18786  -0.17521  -0.12949  -0.12287  -0.10477
  Beta virt. eigenvalues --   -0.10355  -0.10232  -0.09359  -0.09073  -0.08969
  Beta virt. eigenvalues --   -0.07836  -0.07133  -0.04431  -0.03799  -0.03244
  Beta virt. eigenvalues --   -0.02447  -0.01852  -0.00940  -0.00501   0.01102
  Beta virt. eigenvalues --    0.04750   0.05149   0.05939   0.06862   0.08880
  Beta virt. eigenvalues --    0.09301   0.09942   0.10466   0.11283   0.11724
  Beta virt. eigenvalues --    0.12433   0.13464   0.15371   0.18930   0.20161
  Beta virt. eigenvalues --    0.22630   0.24931   0.25299   0.27500   0.30017
  Beta virt. eigenvalues --    0.32364   0.32856   0.33413   0.34525   0.34726
  Beta virt. eigenvalues --    0.35215   0.36794   0.37173   0.38390   0.38551
  Beta virt. eigenvalues --    0.39086   0.39874   0.40766   0.41817   0.42995
  Beta virt. eigenvalues --    0.44290   0.44691   0.46587   0.47316   0.48760
  Beta virt. eigenvalues --    0.50126   0.51616   0.53864   0.54416   0.55637
  Beta virt. eigenvalues --    0.58547   0.68379   0.94508   0.97527   0.97959
  Beta virt. eigenvalues --    0.98178   0.99250   0.99412   1.00163   1.00699
  Beta virt. eigenvalues --    1.01495   1.02476   1.04059   1.04334   1.06403
  Beta virt. eigenvalues --    1.09210   1.09453   1.10802   1.12191   1.13285
  Beta virt. eigenvalues --    1.14250   1.16376   1.17138   1.18036   1.22353
  Beta virt. eigenvalues --    1.23031   1.24007   1.25075   1.25904   1.26898
  Beta virt. eigenvalues --    1.27310   1.28055   1.28829   1.29350   1.29715
  Beta virt. eigenvalues --    1.30785   1.31164   1.32070   1.32355   1.32850
  Beta virt. eigenvalues --    1.37272   1.37683   1.40714   1.41837   1.48463
  Beta virt. eigenvalues --    1.49516   1.50410   1.50738   1.51940   1.53334
  Beta virt. eigenvalues --    1.56025   1.56422   1.57498   1.57760   1.58230
  Beta virt. eigenvalues --    1.61638   1.65355   1.69162   1.69816   1.72232
  Beta virt. eigenvalues --    1.73885   1.74809   1.99502   2.49515   2.49565
  Beta virt. eigenvalues --    2.49586   2.49630   2.49813   2.50332   2.50894
  Beta virt. eigenvalues --    2.56819   2.58379   2.59017   2.59937   2.60245
  Beta virt. eigenvalues --    2.61089   2.61748   2.62002   2.62599   2.63183
  Beta virt. eigenvalues --    2.63717   2.63954   2.64529   2.65496   2.65724
  Beta virt. eigenvalues --    2.66156   2.66631   2.66814   2.68797   2.69456
  Beta virt. eigenvalues --    2.69856   2.71109   2.72253   2.73120   2.74678
  Beta virt. eigenvalues --    2.77284   2.77553   2.78324   2.79187   2.79596
  Beta virt. eigenvalues --    2.79867   2.80642   2.80789   2.80973   2.81520
  Beta virt. eigenvalues --    2.82042   2.82794   2.83705   2.85122   2.88131
  Beta virt. eigenvalues --    2.88275   2.89171   3.15846   3.22169   3.23644
  Beta virt. eigenvalues --   39.34386  39.42520  39.44131  53.73922
          Condensed to atoms (all electrons):
               1          2          3          4          5          6
     1  Mo  11.585701   0.407420   0.405573   0.243302   0.025785   0.000061
     2  O    0.407420   7.924736   0.004505   0.000170  -0.001592   0.000000
     3  O    0.405573   0.004505   7.921300   0.000269  -0.001844   0.000000
     4  O    0.243302   0.000170   0.000269   8.042486   0.261723   0.000379
     5  Mo   0.025785  -0.001592  -0.001844   0.261723  11.732798   0.316048
     6  O    0.000061   0.000000   0.000000   0.000379   0.316048   8.063965
     7  O   -0.002730   0.000000   0.000000   0.000550   0.417514   0.005769
     8  O   -0.001148   0.000000   0.000000   0.000065   0.233997  -0.003265
     9  Mo   0.014226  -0.001847  -0.001282  -0.003406   0.033624  -0.001182
    10  O   -0.002016   0.000000   0.000000   0.000000  -0.003088   0.000000
    11  O   -0.001783   0.000000   0.000000   0.000000  -0.000449   0.000000
    12  O    0.251245   0.000154   0.000222   0.000060  -0.004596   0.000000
    13  Ag   0.002230  -0.000199   0.000060   0.000133  -0.016523   0.081830
               7          8          9         10         11         12
     1  Mo  -0.002730  -0.001148   0.014226  -0.002016  -0.001783   0.251245
     2  O    0.000000   0.000000  -0.001847   0.000000   0.000000   0.000154
     3  O    0.000000   0.000000  -0.001282   0.000000   0.000000   0.000222
     4  O    0.000550   0.000065  -0.003406   0.000000   0.000000   0.000060
     5  Mo   0.417514   0.233997   0.033624  -0.003088  -0.000449  -0.004596
     6  O    0.005769  -0.003265  -0.001182   0.000000   0.000000   0.000000
     7  O    7.914029   0.000008  -0.000716   0.000000   0.000000   0.000000
     8  O    0.000008   8.123950   0.226364  -0.000293   0.000310   0.000070
     9  Mo  -0.000716   0.226364  11.600291   0.410312   0.406218   0.255583
    10  O    0.000000  -0.000293   0.410312   7.935250   0.004700   0.000146
    11  O    0.000000   0.000310   0.406218   0.004700   7.919802   0.000226
    12  O    0.000000   0.000070   0.255583   0.000146   0.000226   8.050658
    13  Ag  -0.008162   0.040013   0.005343   0.000090  -0.000829   0.000015
              13
     1  Mo   0.002230
     2  O   -0.000199
     3  O    0.000060
     4  O    0.000133
     5  Mo  -0.016523
     6  O    0.081830
     7  O   -0.008162
     8  O    0.040013
     9  Mo   0.005343
    10  O    0.000090
    11  O   -0.000829
    12  O    0.000015
    13  Ag  18.186304
          Atomic-Atomic Spin Densities.
               1          2          3          4          5          6
     1  Mo   0.112704  -0.005529  -0.005342  -0.001282   0.030020  -0.000038
     2  O   -0.005529   0.030843   0.001445   0.000160  -0.000073   0.000000
     3  O   -0.005342   0.001445   0.029548   0.000173   0.000045   0.000000
     4  O   -0.001282   0.000160   0.000173   0.026216  -0.011590   0.000088
     5  Mo   0.030020  -0.000073   0.000045  -0.011590   0.397266  -0.010985
     6  O   -0.000038   0.000000   0.000000   0.000088  -0.010985   0.026790
     7  O    0.000046   0.000000   0.000000   0.000035  -0.010873   0.002429
     8  O   -0.002801   0.000000   0.000000   0.000053  -0.014022   0.000071
     9  Mo   0.020245  -0.000025  -0.000043  -0.003441   0.047672  -0.000037
    10  O    0.000004   0.000000   0.000000   0.000000   0.000005   0.000000
    11  O   -0.000027   0.000000   0.000000   0.000000   0.000151   0.000000
    12  O   -0.004205   0.000129   0.000127   0.000073  -0.004739   0.000000
    13  Ag   0.001771   0.000022  -0.000004  -0.000252  -0.008162   0.001338
               7          8          9         10         11         12
     1  Mo   0.000046  -0.002801   0.020245   0.000004  -0.000027  -0.004205
     2  O    0.000000   0.000000  -0.000025   0.000000   0.000000   0.000129
     3  O    0.000000   0.000000  -0.000043   0.000000   0.000000   0.000127
     4  O    0.000035   0.000053  -0.003441   0.000000   0.000000   0.000073
     5  Mo  -0.010873  -0.014022   0.047672   0.000005   0.000151  -0.004739
     6  O    0.002429   0.000071  -0.000037   0.000000   0.000000   0.000000
     7  O    0.037864   0.000111   0.000088   0.000000   0.000000   0.000000
     8  O    0.000111   0.041430  -0.007229   0.000115   0.000141   0.000076
     9  Mo   0.000088  -0.007229   0.162983  -0.006485  -0.006429  -0.006806
    10  O    0.000000   0.000115  -0.006485   0.029384   0.001586   0.000107
    11  O    0.000000   0.000141  -0.006429   0.001586   0.030509   0.000108
    12  O    0.000000   0.000076  -0.006806   0.000107   0.000108   0.047598
    13  Ag  -0.001004  -0.000083   0.004381   0.000270  -0.000055  -0.000157
              13
     1  Mo   0.001771
     2  O    0.000022
     3  O   -0.000004
     4  O   -0.000252
     5  Mo  -0.008162
     6  O    0.001338
     7  O   -0.001004
     8  O   -0.000083
     9  Mo   0.004381
    10  O    0.000270
    11  O   -0.000055
    12  O   -0.000157
    13  Ag   0.024127
 Mulliken charges and spin densities:
               1          2
     1  Mo   1.072133   0.145566
     2  O   -0.333347   0.026971
     3  O   -0.328803   0.025950
     4  O   -0.545731   0.010234
     5  Mo   1.006603   0.414714
     6  O   -0.463606   0.019657
     7  O   -0.326262   0.028696
     8  O   -0.620072   0.017860
     9  Mo   1.056472   0.204875
    10  O   -0.345102   0.024987
    11  O   -0.328196   0.025985
    12  O   -0.553784   0.032312
    13  Ag   0.709694   0.022193
 Sum of Mulliken charges =   0.00000   1.00000
 Mulliken charges and spin densities with hydrogens summed into heavy atoms:
               1          2
     1  Mo   1.072133   0.145566
     2  O   -0.333347   0.026971
     3  O   -0.328803   0.025950
     4  O   -0.545731   0.010234
     5  Mo   1.006603   0.414714
     6  O   -0.463606   0.019657
     7  O   -0.326262   0.028696
     8  O   -0.620072   0.017860
     9  Mo   1.056472   0.204875
    10  O   -0.345102   0.024987
    11  O   -0.328196   0.025985
    12  O   -0.553784   0.032312
    13  Ag   0.709694   0.022193
 Electronic spatial extent (au):  <R**2>=           4396.6945
 Charge=              0.0000 electrons
 Dipole moment (field-independent basis, Debye):
    X=             -9.5325    Y=              3.9007    Z=              5.8829  Tot=             11.8614
 Quadrupole moment (field-independent basis, Debye-Ang):
   XX=           -120.0434   YY=           -151.4683   ZZ=           -128.0228
   XY=            -14.8698   XZ=            -22.7731   YZ=              9.1555
 Traceless Quadrupole moment (field-independent basis, Debye-Ang):
   XX=             13.1348   YY=            -18.2901   ZZ=              5.1553
   XY=            -14.8698   XZ=            -22.7731   YZ=              9.1555
 Octapole moment (field-independent basis, Debye-Ang**2):
  XXX=             18.4821  YYY=            -68.2248  ZZZ=            -69.4114  XYY=             50.6687
  XXY=             30.0256  XXZ=             47.2618  XZZ=              4.1241  YZZ=             -4.5913
  YYZ=            -23.1746  XYZ=            -33.4062
 Hexadecapole moment (field-independent basis, Debye-Ang**3):
 XXXX=          -2842.2216 YYYY=          -2469.3324 ZZZZ=           -860.7461 XXXY=             45.0543
 XXXZ=             36.9923 YYYX=            211.8796 YYYZ=           -131.9254 ZZZX=            214.9679
 ZZZY=           -103.1214 XXYY=           -886.6140 XXZZ=           -564.0283 YYZZ=           -574.6294
 XXYZ=             69.3948 YYXZ=             63.7602 ZZXY=              8.3640
 N-N= 1.238963192295D+03 E-N=-4.806255567139D+03  KE= 7.960194055324D+02
                          Isotropic Fermi Contact Couplings
        Atom                 a.u.       MegaHertz       Gauss      10(-4) cm-1
     1  Mo(95)             0.00000      -0.00016      -0.00006      -0.00005
     2  O(17)              0.00696      -4.21815      -1.50514      -1.40702
     3  O(17)              0.00653      -3.95880      -1.41260      -1.32051
     4  O(17)              0.01832     -11.10389      -3.96215      -3.70386
     5  Mo(95)             0.00000       0.00017       0.00006       0.00006
     6  O(17)              0.01680     -10.18246      -3.63336      -3.39650
     7  O(17)              0.00993      -6.01734      -2.14714      -2.00717
     8  O(17)              0.00965      -5.84966      -2.08731      -1.95124
     9  Mo(95)             0.00000       0.00003       0.00001       0.00001
    10  O(17)              0.00759      -4.59895      -1.64102      -1.53404
    11  O(17)              0.00737      -4.46499      -1.59322      -1.48936
    12  O(17)              0.01869     -11.33132      -4.04330      -3.77972
    13  Ag(107             0.00000      -0.00090      -0.00032      -0.00030
 --------------------------------------------------------
       Center         ----  Spin Dipole Couplings  ----
                      3XX-RR        3YY-RR        3ZZ-RR
 --------------------------------------------------------
     1   Atom        0.037677     -0.002991     -0.034686
     2   Atom       -0.066381     -0.086592      0.152973
     3   Atom       -0.065463     -0.087147      0.152609
     4   Atom       -0.160944      0.238711     -0.077767
     5   Atom        0.017479      0.064129     -0.081608
     6   Atom       -0.077073     -0.068060      0.145133
     7   Atom       -0.122164     -0.088043      0.210207
     8   Atom        0.239150     -0.147595     -0.091555
     9   Atom        0.007469      0.034410     -0.041879
    10   Atom       -0.084481     -0.068501      0.152982
    11   Atom       -0.088780     -0.070781      0.159561
    12   Atom       -0.072931      0.168309     -0.095378
    13   Atom        0.002367     -0.001861     -0.000505
 --------------------------------------------------------
                        XY            XZ            YZ
 --------------------------------------------------------
     1   Atom       -0.000360      0.000379      0.000090
     2   Atom       -0.001996     -0.013072      0.011968
     3   Atom       -0.001049      0.012321     -0.005323
     4   Atom        0.099529     -0.013977     -0.016658
     5   Atom       -0.033694     -0.012161      0.001124
     6   Atom       -0.009632      0.010384     -0.042061
     7   Atom       -0.026073     -0.042160      0.075993
     8   Atom       -0.049484      0.023260     -0.002336
     9   Atom        0.019539     -0.001006     -0.000368
    10   Atom        0.006903     -0.008630      0.025845
    11   Atom        0.009788     -0.001227     -0.028575
    12   Atom       -0.167686     -0.001942      0.002818
    13   Atom        0.000847     -0.000787      0.002573
 --------------------------------------------------------


 ---------------------------------------------------------------------------------
              Anisotropic Spin Dipole Couplings in Principal Axis System
 ---------------------------------------------------------------------------------

       Atom             a.u.   MegaHertz   Gauss  10(-4) cm-1        Axes

              Baa    -0.0347     1.212     0.432     0.404 -0.0053 -0.0029  1.0000
     1 Mo(95) Bbb    -0.0030     0.105     0.037     0.035  0.0088  1.0000  0.0029
              Bcc     0.0377    -1.316    -0.470    -0.439  0.9999 -0.0088  0.0052
 
              Baa    -0.0873     6.315     2.253     2.107  0.0664  0.9967 -0.0460
     2 O(17)  Bbb    -0.0671     4.854     1.732     1.619  0.9960 -0.0635  0.0626
              Bcc     0.1544   -11.169    -3.985    -3.726 -0.0595  0.0500  0.9970
 
              Baa    -0.0873     6.316     2.254     2.107  0.0366  0.9991  0.0203
     3 O(17)  Bbb    -0.0661     4.785     1.707     1.596  0.9977 -0.0353 -0.0571
              Bcc     0.1534   -11.102    -3.961    -3.703  0.0563 -0.0223  0.9982
 
              Baa    -0.1853    13.405     4.783     4.471  0.9703 -0.2242  0.0914
     4 O(17)  Bbb    -0.0780     5.642     2.013     1.882 -0.0761  0.0762  0.9942
              Bcc     0.2632   -19.047    -6.797    -6.353  0.2298  0.9716 -0.0569
 
              Baa    -0.0831     2.904     1.036     0.969  0.1270  0.0215  0.9917
     5 Mo(95) Bbb     0.0011    -0.038    -0.014    -0.013  0.8744  0.4695 -0.1222
              Bcc     0.0821    -2.866    -1.023    -0.956 -0.4682  0.8827  0.0409
 
              Baa    -0.0844     6.110     2.180     2.038  0.7435  0.6630  0.0878
     6 O(17)  Bbb    -0.0693     5.016     1.790     1.673 -0.6667  0.7246  0.1744
              Bcc     0.1538   -11.126    -3.970    -3.711  0.0520 -0.1882  0.9807
 
              Baa    -0.1363     9.860     3.518     3.289  0.8824  0.4705  0.0042
     7 O(17)  Bbb    -0.0984     7.121     2.541     2.375 -0.4519  0.8499 -0.2710
              Bcc     0.2347   -16.981    -6.059    -5.664 -0.1311  0.2372  0.9626
 
              Baa    -0.1538    11.131     3.972     3.713  0.1255  0.9920 -0.0097
     8 O(17)  Bbb    -0.0932     6.741     2.405     2.249 -0.0671  0.0182  0.9976
              Bcc     0.2470   -17.872    -6.377    -5.962  0.9898 -0.1245  0.0689
 
              Baa    -0.0419     1.464     0.522     0.488  0.0205 -0.0004  0.9998
     9 Mo(95) Bbb    -0.0028     0.097     0.035     0.032  0.8850 -0.4652 -0.0184
              Bcc     0.0447    -1.561    -0.557    -0.521  0.4651  0.8852 -0.0092
 
              Baa    -0.0884     6.395     2.282     2.133  0.9066 -0.4149  0.0768
    10 O(17)  Bbb    -0.0678     4.909     1.752     1.637  0.4207  0.9028 -0.0892
              Bcc     0.1562   -11.303    -4.033    -3.770 -0.0324  0.1132  0.9930
 
              Baa    -0.0936     6.769     2.415     2.258  0.8957 -0.4423 -0.0456
    11 O(17)  Bbb    -0.0695     5.031     1.795     1.678  0.4445  0.8886  0.1132
              Bcc     0.1631   -11.800    -4.211    -3.936 -0.0096 -0.1217  0.9925
 
              Baa    -0.1589    11.496     4.102     3.835  0.8899  0.4560  0.0070
    12 O(17)  Bbb    -0.0954     6.904     2.463     2.303 -0.0018 -0.0118  0.9999
              Bcc     0.2543   -18.400    -6.565    -6.138 -0.4561  0.8899  0.0097
 
              Baa    -0.0041     0.088     0.031     0.029 -0.1766  0.7776 -0.6035
    13 Ag(107 Bbb     0.0015    -0.032    -0.011    -0.011  0.0924  0.6235  0.7763
              Bcc     0.0026    -0.056    -0.020    -0.019  0.9799  0.0813 -0.1820
 

 ---------------------------------------------------------------------------------

 No NMR shielding tensors so no spin-rotation constants.
 Leave Link  601 at Fri Sep 11 23:13:18 2026, MaxMem=  6442450944 cpu:               5.0 elap:               5.5
 (Enter C:\G16W\l9999.exe)
 Unable to Open any file for archive entry.
 1|1|UNPC-DESKTOP-2JKEGCA|SP|UPBE1PBE|def2SVP|Ag1Mo3O9(2)|JHKIM|11-Sep-
 2026|0||#P PBE1PBE/Def2SVP EmpiricalDispersion=GD3BJ SP SCF=(XQC,MaxCy
 cle=128) NoSymm Guess=Read||Mo3O9 t=0.500 dz=+0.00 class=site2site||0,
 2|Mo,0,2.,0.,0.|O,0,3.02,0.,1.36|O,0,3.02,0.,-1.36|O,0,1.15,1.991858,0
 .|Mo,0,-1.,1.732051,0.|O,0,-1.51,2.615397,1.36|O,0,-1.51,2.615397,-1.3
 6|O,0,-2.3,0.,0.|Mo,0,-1.,-1.732051,0.|O,0,-1.51,-2.615397,1.36|O,0,-1
 .51,-2.615397,-1.36|O,0,1.15,-1.991858,0.|Ag,0,-3.29615649,1.48704879,
 2.0268686||Version=EM64W-G16RevC.01|HF=-1027.611007|S2=0.755314|S2-1=0
 .|S2A=0.750025|RMSD=9.117e-009|Dipole=-3.7503764,1.5346513,2.3145305|Q
 uadrupole=9.7653892,-13.5982557,3.8328664,-11.0553485,-16.9312649,6.80
 69151|PG=C01 [X(Ag1Mo3O9)]||@
 The archive entry for this job was punched.


 IN THE LONG RUN, DIGGING FOR TRUTH HAS ALWAYS PROVED NOT ONLY 
 MORE INTERESTING BUT MORE PROFITABLE THAN DIGGING FOR GOLD.

                             -- GEORGE R. HARRISON
 Job cpu time:       0 days  0 hours  4 minutes 21.0 seconds.
 Elapsed time:       0 days  0 hours  4 minutes 18.8 seconds.
 File lengths (MBytes):  RWF=     64 Int=      0 D2E=      0 Chk=      5 Scr=      1
 Normal termination of Gaussian 16 at Fri Sep 11 23:13:19 2026.
