 Entering Gaussian System, Link 0=C:\G16W\g16.exe
 Input=oDCNB_t3_z1.gjf
 Output=oDCNB_t3_z1.out
 Initial command:
 C:\G16W\l1.exe ".\Gau-85108.inp" "oDCNB_t3_z1.out" /scrdir=".\"
 Entering Link 1 = C:\G16W\l1.exe PID=    146192.
  
 Copyright (c) 1988-2019, Gaussian, Inc.  All Rights Reserved.
  
 This is part of the Gaussian(R) 16 program.  It is based on
 the Gaussian(R) 09 system (copyright 2009, Gaussian, Inc.),
 the Gaussian(R) 03 system (copyright 2003, Gaussian, Inc.),
 the Gaussian(R) 98 system (copyright 1998, Gaussian, Inc.),
 the Gaussian(R) 94 system (copyright 1995, Gaussian, Inc.),
 the Gaussian 92(TM) system (copyright 1992, Gaussian, Inc.),
 the Gaussian 90(TM) system (copyright 1990, Gaussian, Inc.),
 the Gaussian 88(TM) system (copyright 1988, Gaussian, Inc.),
 the Gaussian 86(TM) system (copyright 1986, Carnegie Mellon
 University), and the Gaussian 82(TM) system (copyright 1983,
 Carnegie Mellon University). Gaussian is a federally registered
 trademark of Gaussian, Inc.
  
 This software contains proprietary and confidential information,
 including trade secrets, belonging to Gaussian, Inc.
  
 This software is provided under written license and may be
 used, copied, transmitted, or stored only in accord with that
 written license.
  
 The following legend is applicable only to US Government
 contracts under FAR:
  
                    RESTRICTED RIGHTS LEGEND
  
 Use, reproduction and disclosure by the US Government is
 subject to restrictions as set forth in subparagraphs (a)
 and (c) of the Commercial Computer Software - Restricted
 Rights clause in FAR 52.227-19.
  
 Gaussian, Inc.
 340 Quinnipiac St., Bldg. 40, Wallingford CT 06492
  
  
 ---------------------------------------------------------------
 Warning -- This program may not be used in any manner that
 competes with the business of Gaussian, Inc. or will provide
 assistance to any competitor of Gaussian, Inc.  The licensee
 of this program is prohibited from giving any competitor of
 Gaussian, Inc. access to this program.  By using this program,
 the user acknowledges that Gaussian, Inc. is engaged in the
 business of creating and licensing software in the field of
 computational chemistry and represents and warrants to the
 licensee that it is not a competitor of Gaussian, Inc. and that
 it will not use this program in any manner prohibited above.
 ---------------------------------------------------------------
  

 Cite this work as:
 Gaussian 16, Revision C.01,
 M. J. Frisch, G. W. Trucks, H. B. Schlegel, G. E. Scuseria, 
 M. A. Robb, J. R. Cheeseman, G. Scalmani, V. Barone, 
 G. A. Petersson, H. Nakatsuji, X. Li, M. Caricato, A. V. Marenich, 
 J. Bloino, B. G. Janesko, R. Gomperts, B. Mennucci, H. P. Hratchian, 
 J. V. Ortiz, A. F. Izmaylov, J. L. Sonnenberg, D. Williams-Young, 
 F. Ding, F. Lipparini, F. Egidi, J. Goings, B. Peng, A. Petrone, 
 T. Henderson, D. Ranasinghe, V. G. Zakrzewski, J. Gao, N. Rega, 
 G. Zheng, W. Liang, M. Hada, M. Ehara, K. Toyota, R. Fukuda, 
 J. Hasegawa, M. Ishida, T. Nakajima, Y. Honda, O. Kitao, H. Nakai, 
 T. Vreven, K. Throssell, J. A. Montgomery, Jr., J. E. Peralta, 
 F. Ogliaro, M. J. Bearpark, J. J. Heyd, E. N. Brothers, K. N. Kudin, 
 V. N. Staroverov, T. A. Keith, R. Kobayashi, J. Normand, 
 K. Raghavachari, A. P. Rendell, J. C. Burant, S. S. Iyengar, 
 J. Tomasi, M. Cossi, J. M. Millam, M. Klene, C. Adamo, R. Cammi, 
 J. W. Ochterski, R. L. Martin, K. Morokuma, O. Farkas, 
 J. B. Foresman, and D. J. Fox, Gaussian, Inc., Wallingford CT, 2019.
 
 ******************************************
 Gaussian 16:  EM64W-G16RevC.01 30-May-2019
                12-Sep-2026 
 ******************************************
 %Chk=oDCNB.chk
 %NProcShared=8
 Will use up to    8 processors via shared memory.
 %Mem=48GB
 ----------------------------------------------------------------------
 #P PBE1PBE/Def2SVP EmpiricalDispersion=GD3BJ SP SCF=(XQC,MaxCycle=128)
  NoSymm Guess=Read
 ----------------------------------------------------------------------
 1/38=1,172=1/1;
 2/12=2,15=1,17=6,18=5,40=1/2;
 3/5=43,7=101,11=2,25=1,30=1,74=-13,116=-2,124=41/1,2,3;
 4/5=1/1;
 5/5=2,7=128,8=3,13=1,38=6/2,8;
 6/7=2,8=2,9=2,10=2,28=1/1;
 99/5=1,9=1/99;
 Leave Link    1 at Sat Sep 12 02:09:29 2026, MaxMem=  6442450944 cpu:               0.0 elap:               0.3
 (Enter C:\G16W\l101.exe)
 --------------------------------------
 oDCNB t=0.750 dz=+0.40 class=site2site
 --------------------------------------
 Symbolic Z-matrix:
 Charge =  0 Multiplicity = 2
 N                     3.3596   -1.01612  -0.03552 
 C                     2.24488  -0.75327  -0.01602 
 C                     0.86124  -0.45616   0.01113 
 C                    -0.06932  -1.48236   0.15621 
 C                    -1.42076  -1.18906   0.18244 
 C                    -1.8564    0.1235    0.06492 
 C                    -0.94397   1.15289  -0.07974 
 C                     0.42015   0.8728   -0.10787 
 C                     1.35623   1.92416  -0.25574 
 N                     2.09631   2.79008  -0.37633 
 H                     0.27779  -2.50083   0.24703 
 H                    -2.1385   -1.98724   0.29504 
 H                    -2.91255   0.34491   0.08623 
 H                    -1.2747    2.17669  -0.17178 
 Ag                    5.83291  -0.31     -0.09871 
 
 ITRead=  0  0  0  0  0  0  0  0  0  0  0  0  0  0  0
 MicOpt= -1 -1 -1 -1 -1 -1 -1 -1 -1 -1 -1 -1 -1 -1 -1
 NAtoms=     15 NQM=       15 NQMF=       0 NMMI=      0 NMMIF=      0
                NMic=       0 NMicF=      0.
                    Isotopes and Nuclear Properties:
 (Nuclear quadrupole moments (NQMom) in fm**2, nuclear magnetic moments (NMagM)
  in nuclear magnetons)

  Atom         1           2           3           4           5           6           7           8           9          10
 IAtWgt=          14          12          12          12          12          12          12          12          12          14
 AtmWgt=  14.0030740  12.0000000  12.0000000  12.0000000  12.0000000  12.0000000  12.0000000  12.0000000  12.0000000  14.0030740
 NucSpn=           2           0           0           0           0           0           0           0           0           2
 AtZEff=   0.0000000   0.0000000   0.0000000   0.0000000   0.0000000   0.0000000   0.0000000   0.0000000   0.0000000   0.0000000
 NQMom=    2.0440000   0.0000000   0.0000000   0.0000000   0.0000000   0.0000000   0.0000000   0.0000000   0.0000000   2.0440000
 NMagM=    0.4037610   0.0000000   0.0000000   0.0000000   0.0000000   0.0000000   0.0000000   0.0000000   0.0000000   0.4037610
 AtZNuc=   7.0000000   6.0000000   6.0000000   6.0000000   6.0000000   6.0000000   6.0000000   6.0000000   6.0000000   7.0000000

  Atom        11          12          13          14          15
 IAtWgt=           1           1           1           1         107
 AtmWgt=   1.0078250   1.0078250   1.0078250   1.0078250 106.9050900
 NucSpn=           1           1           1           1           1
 AtZEff=   0.0000000   0.0000000   0.0000000   0.0000000   0.0000000
 NQMom=    0.0000000   0.0000000   0.0000000   0.0000000   0.0000000
 NMagM=    2.7928460   2.7928460   2.7928460   2.7928460  -0.1135700
 AtZNuc=   1.0000000   1.0000000   1.0000000   1.0000000  47.0000000
 Leave Link  101 at Sat Sep 12 02:09:29 2026, MaxMem=  6442450944 cpu:               0.0 elap:               0.2
 (Enter C:\G16W\l202.exe)
                          Input orientation:                          
 ---------------------------------------------------------------------
 Center     Atomic      Atomic             Coordinates (Angstroms)
 Number     Number       Type             X           Y           Z
 ---------------------------------------------------------------------
      1          7           0        3.359597   -1.016115   -0.035519
      2          6           0        2.244882   -0.753268   -0.016024
      3          6           0        0.861235   -0.456159    0.011127
      4          6           0       -0.069315   -1.482359    0.156214
      5          6           0       -1.420759   -1.189055    0.182444
      6          6           0       -1.856402    0.123497    0.064924
      7          6           0       -0.943969    1.152892   -0.079741
      8          6           0        0.420147    0.872796   -0.107870
      9          6           0        1.356232    1.924162   -0.255744
     10          7           0        2.096312    2.790084   -0.376328
     11          1           0        0.277793   -2.500831    0.247029
     12          1           0       -2.138501   -1.987239    0.295041
     13          1           0       -2.912552    0.344906    0.086234
     14          1           0       -1.274701    2.176690   -0.171784
     15         47           0        5.832911   -0.310003   -0.098706
 ---------------------------------------------------------------------
                    Distance matrix (angstroms):
                    1          2          3          4          5
     1  N    0.000000
     2  C    1.145451   0.000000
     3  C    2.560769   1.415447   0.000000
     4  C    3.465773   2.432437   1.392860   0.000000
     5  C    4.788446   3.696786   2.402911   1.383154   0.000000
     6  C    5.339986   4.194735   2.779289   2.404327   1.387944
     7  C    4.819463   3.715680   2.419930   2.786618   2.404326
     8  C    3.494794   2.445849   1.405290   2.419932   2.779289
     9  C    3.564716   2.831218   2.445848   3.715680   4.194736
    10  N    4.024822   3.564721   3.494800   4.819472   5.339996
    11  H    3.432453   2.644355   2.139331   1.079822   2.147093
    12  H    5.592981   4.564372   3.379827   2.134410   1.079319
    13  H    6.419272   5.274047   3.858603   3.380502   2.141901
    14  H    5.629324   4.582181   3.395228   3.866417   3.387484
    15  Ag   2.572910   3.616251   4.975036   6.022929   7.312148
                    6          7          8          9         10
     6  C    0.000000
     7  C    1.383154   0.000000
     8  C    2.402911   1.392859   0.000000
     9  C    3.696788   2.432439   1.415448   0.000000
    10  N    4.788459   3.465786   2.560780   1.145461   0.000000
    11  H    3.387484   3.866416   3.395229   4.582180   5.629331
    12  H    2.141901   3.380502   3.858603   5.274048   6.419283
    13  H    1.079319   2.134410   3.379826   4.564375   5.592994
    14  H    2.147093   1.079823   2.139330   2.644358   3.432465
    15  Ag   7.703261   6.933002   5.540497   5.005678   4.863105
                   11         12         13         14         15
    11  H    0.000000
    12  H    2.470740   0.000000
    13  H    4.278128   2.466101   0.000000
    14  H    4.946195   4.278128   2.470741   0.000000
    15  Ag   5.981521   8.155462   8.771900   7.530414   0.000000
 Symmetry turned off by external request.
 Stoichiometry    C8H4AgN2(2)
 Framework group  C1[X(C8H4AgN2)]
 Deg. of freedom    39
 Full point group                 C1      NOp   1
 Rotational constants (GHZ):           1.9010128           0.2579468           0.2271545
 Leave Link  202 at Sat Sep 12 02:09:30 2026, MaxMem=  6442450944 cpu:               0.0 elap:               0.5
 (Enter C:\G16W\l301.exe)
 Standard basis: def2SVP (5D, 7F)
 Ernie: Thresh=  0.10000D-02 Tol=  0.10000D-05 Strict=F.
   191 basis functions,   343 primitive gaussians,   206 cartesian basis functions
    43 alpha electrons       42 beta electrons
       nuclear repulsion energy       553.6794868204 Hartrees.
 IExCor= 1009 DFT=T Ex+Corr=PBE1PBE ExCW=0 ScaHFX=  0.250000
 ScaDFX=  0.750000  0.750000  1.000000  1.000000 ScalE2=  1.000000  1.000000
 IRadAn=      5 IRanWt=     -1 IRanGd=            0 ICorTp=0 IEmpDi=141
 NAtoms=   15 NActive=   15 NUniq=   15 SFac= 1.00D+00 NAtFMM=   60 NAOKFM=F Big=F
 Integral buffers will be    131072 words long.
 Raffenetti 2 integral format.
 Two-electron integral symmetry is turned off.
 R6Disp:  Grimme-D3(BJ) Dispersion energy=       -0.0169006366 Hartrees.
 Nuclear repulsion after empirical dispersion term =      553.6625861838 Hartrees.
 Leave Link  301 at Sat Sep 12 02:09:30 2026, MaxMem=  6442450944 cpu:               0.0 elap:               0.1
 (Enter C:\G16W\l302.exe)
 NPDir=0 NMtPBC=     1 NCelOv=     1 NCel=       1 NClECP=     1 NCelD=      1
         NCelK=      1 NCelE2=     1 NClLst=     1 CellRange=     0.0.
 One-electron integrals computed using PRISM.
   1 Symmetry operations used in ECPInt.
 ECPInt:  NShTT=    3486 NPrTT=   12877 LenC2=    3334 LenP2D=    9428.
 LDataN:  DoStor=T MaxTD1= 7 Len=  274
 NBasis=   191 RedAO= T EigKep=  2.08D-04  NBF=   191
 NBsUse=   191 1.00D-06 EigRej= -1.00D+00 NBFU=   191
 Precomputing XC quadrature grid using
 IXCGrd= 4 IRadAn=           5 IRanWt=          -1 IRanGd=           0 AccXCQ= 0.00D+00.
 Defaulting to unpruned grid for atomic number  47.
 Generated NRdTot=       0 NPtTot=           0 NUsed=           0 NTot=          32
 NSgBfM=   205   205   205   205   205 MxSgAt=    15 MxSgA2=    15.
 Leave Link  302 at Sat Sep 12 02:09:33 2026, MaxMem=  6442450944 cpu:               3.0 elap:               3.0
 (Enter C:\G16W\l303.exe)
 DipDrv:  MaxL=1.
 Leave Link  303 at Sat Sep 12 02:09:34 2026, MaxMem=  6442450944 cpu:               0.0 elap:               0.2
 (Enter C:\G16W\l401.exe)
 Initial guess from the checkpoint file:  "oDCNB.chk"
 B after Tr=     0.313026   -0.028655   -0.003348
         Rot=    1.000000    0.000161    0.000597   -0.000117 Ang=   0.07 deg.
 Guess basis will be translated and rotated to current coordinates.
 JPrj=2 DoOrth=T DoCkMO=T.
 Initial guess <Sx>= 0.0000 <Sy>= 0.0000 <Sz>= 0.5000 <S**2>= 0.7518 S= 0.5009
 Leave Link  401 at Sat Sep 12 02:09:40 2026, MaxMem=  6442450944 cpu:               6.0 elap:               5.6
 (Enter C:\G16W\l502.exe)
 Two-electron integral symmetry not used.
 UHF open shell SCF:
 Using DIIS extrapolation, IDIIS=  1040.
 NGot=  6442450944 LenX=  6442362448 LenY=  6442319571
 Requested convergence on RMS density matrix=1.00D-08 within 128 cycles.
 Requested convergence on MAX density matrix=1.00D-06.
 Requested convergence on             energy=1.00D-06.
 No special actions if energy rises.
 Fock matrices will be formed incrementally for  20 cycles.

 Cycle   1  Pass 1  IDiag  1:
 FoFJK:  IHMeth= 1 ICntrl=       0 DoSepK=F KAlg= 0 I1Cent=           0 FoldK=F
 IRaf= 920000000 NMat=       1 IRICut=       1 DoRegI=T DoRafI=F ISym2E= 0 IDoP0=0 IntGTp=1.
 FoFCou: FMM=F IPFlag=           0 FMFlag=      100000 FMFlg1=           0
         NFxFlg=           0 DoJE=F BraDBF=F KetDBF=F FulRan=T
         wScrn=  0.000000 ICntrl=         0 IOpCl=  1 I1Cent=           0 NGrid=           0
         NMat0=    1 NMatS0=      1 NMatT0=    0 NMatD0=    1 NMtDS0=    0 NMtDT0=    0
 Symmetry not used in FoFCou.
 Defaulting to unpruned grid for atomic number  47.
 Defaulting to unpruned grid for atomic number  47.
 Defaulting to unpruned grid for atomic number  47.
 Defaulting to unpruned grid for atomic number  47.
 Defaulting to unpruned grid for atomic number  47.
 Defaulting to unpruned grid for atomic number  47.
 Defaulting to unpruned grid for atomic number  47.
 Defaulting to unpruned grid for atomic number  47.
 E= -562.871171318328    
 DIIS: error= 2.08D-02 at cycle   1 NSaved=   1.
 NSaved= 1 IEnMin= 1 EnMin= -562.871171318328     IErMin= 1 ErrMin= 2.08D-02
 ErrMax= 2.08D-02  0.00D+00 EMaxC= 1.00D-01 BMatC= 9.39D-02 BMatP= 9.39D-02
 IDIUse=3 WtCom= 7.92D-01 WtEn= 2.08D-01
 Coeff-Com:  0.100D+01
 Coeff-En:   0.100D+01
 Coeff:      0.100D+01
 Gap=     0.050 Goal=   None    Shift=    0.000
 Gap=     0.198 Goal=   None    Shift=    0.000
 GapD=    0.050 DampG=0.250 DampE=0.250 DampFc=0.1250 IDamp=-1.
 Damping current iteration by 1.25D-01
 RMSDP=1.00D-03 MaxDP=4.63D-02              OVMax= 8.51D-02

 Cycle   2  Pass 1  IDiag  1:
 RMSU=  1.25D-04    CP:  1.00D+00
 E= -562.872095625137     Delta-E=       -0.000924306809 Rises=F Damp=T
 DIIS: error= 1.81D-02 at cycle   2 NSaved=   2.
 NSaved= 2 IEnMin= 2 EnMin= -562.872095625137     IErMin= 2 ErrMin= 1.81D-02
 ErrMax= 1.81D-02  0.00D+00 EMaxC= 1.00D-01 BMatC= 7.16D-02 BMatP= 9.39D-02
 IDIUse=3 WtCom= 8.19D-01 WtEn= 1.81D-01
 Coeff-Com: -0.637D+01 0.737D+01
 Coeff-En:   0.000D+00 0.100D+01
 Coeff:     -0.522D+01 0.622D+01
 Gap=     0.047 Goal=   None    Shift=    0.000
 Gap=     0.185 Goal=   None    Shift=    0.000
 RMSDP=9.92D-04 MaxDP=3.23D-02 DE=-9.24D-04 OVMax= 3.03D-02

 Cycle   3  Pass 1  IDiag  1:
 RMSU=  7.69D-04    CP:  9.98D-01  3.00D+00
 E= -562.876197338318     Delta-E=       -0.004101713181 Rises=F Damp=F
 DIIS: error= 4.61D-03 at cycle   3 NSaved=   3.
 NSaved= 3 IEnMin= 3 EnMin= -562.876197338318     IErMin= 3 ErrMin= 4.61D-03
 ErrMax= 4.61D-03  0.00D+00 EMaxC= 1.00D-01 BMatC= 1.36D-02 BMatP= 7.16D-02
 IDIUse=3 WtCom= 9.54D-01 WtEn= 4.61D-02
 Coeff-Com: -0.419D+01 0.478D+01 0.404D+00
 Coeff-En:   0.000D+00 0.000D+00 0.100D+01
 Coeff:     -0.399D+01 0.456D+01 0.431D+00
 Gap=     0.045 Goal=   None    Shift=    0.000
 Gap=     0.182 Goal=   None    Shift=    0.000
 RMSDP=2.74D-04 MaxDP=1.40D-02 DE=-4.10D-03 OVMax= 1.83D-02

 Cycle   4  Pass 1  IDiag  1:
 RMSU=  2.73D-04    CP:  9.98D-01  3.00D+00  9.66D-01
 E= -562.879028480646     Delta-E=       -0.002831142328 Rises=F Damp=F
 DIIS: error= 1.09D-03 at cycle   4 NSaved=   4.
 NSaved= 4 IEnMin= 4 EnMin= -562.879028480646     IErMin= 4 ErrMin= 1.09D-03
 ErrMax= 1.09D-03  0.00D+00 EMaxC= 1.00D-01 BMatC= 8.87D-04 BMatP= 1.36D-02
 IDIUse=3 WtCom= 9.89D-01 WtEn= 1.09D-02
 Coeff-Com: -0.202D+01 0.230D+01 0.273D+00 0.443D+00
 Coeff-En:   0.000D+00 0.000D+00 0.373D-01 0.963D+00
 Coeff:     -0.199D+01 0.228D+01 0.270D+00 0.448D+00
 Gap=     0.047 Goal=   None    Shift=    0.000
 Gap=     0.187 Goal=   None    Shift=    0.000
 RMSDP=9.88D-05 MaxDP=5.83D-03 DE=-2.83D-03 OVMax= 1.01D-02

 Cycle   5  Pass 1  IDiag  1:
 RMSU=  7.76D-05    CP:  9.98D-01  3.00D+00  1.03D+00  8.75D-01
 E= -562.879242074164     Delta-E=       -0.000213593518 Rises=F Damp=F
 DIIS: error= 3.12D-04 at cycle   5 NSaved=   5.
 NSaved= 5 IEnMin= 5 EnMin= -562.879242074164     IErMin= 5 ErrMin= 3.12D-04
 ErrMax= 3.12D-04  0.00D+00 EMaxC= 1.00D-01 BMatC= 4.57D-05 BMatP= 8.87D-04
 IDIUse=3 WtCom= 9.97D-01 WtEn= 3.12D-03
 Coeff-Com: -0.274D+00 0.312D+00 0.649D-01 0.232D+00 0.666D+00
 Coeff-En:   0.000D+00 0.000D+00 0.000D+00 0.000D+00 0.100D+01
 Coeff:     -0.273D+00 0.311D+00 0.647D-01 0.231D+00 0.667D+00
 Gap=     0.047 Goal=   None    Shift=    0.000
 Gap=     0.187 Goal=   None    Shift=    0.000
 RMSDP=5.83D-05 MaxDP=2.29D-03 DE=-2.14D-04 OVMax= 9.22D-03

 Cycle   6  Pass 1  IDiag  1:
 RMSU=  4.35D-05    CP:  9.98D-01  3.00D+00  1.07D+00  9.50D-01  1.17D+00
 E= -562.879262788901     Delta-E=       -0.000020714737 Rises=F Damp=F
 DIIS: error= 2.10D-04 at cycle   6 NSaved=   6.
 NSaved= 6 IEnMin= 6 EnMin= -562.879262788901     IErMin= 6 ErrMin= 2.10D-04
 ErrMax= 2.10D-04  0.00D+00 EMaxC= 1.00D-01 BMatC= 2.54D-05 BMatP= 4.57D-05
 IDIUse=3 WtCom= 9.98D-01 WtEn= 2.10D-03
 Coeff-Com:  0.590D+00-0.674D+00-0.530D-01 0.312D-01 0.540D+00 0.566D+00
 Coeff-En:   0.000D+00 0.000D+00 0.000D+00 0.000D+00 0.000D+00 0.100D+01
 Coeff:      0.589D+00-0.673D+00-0.529D-01 0.311D-01 0.539D+00 0.567D+00
 Gap=     0.047 Goal=   None    Shift=    0.000
 Gap=     0.186 Goal=   None    Shift=    0.000
 RMSDP=4.84D-05 MaxDP=2.04D-03 DE=-2.07D-05 OVMax= 8.13D-03

 Cycle   7  Pass 1  IDiag  1:
 RMSU=  2.29D-05    CP:  9.98D-01  3.00D+00  1.10D+00  1.00D+00  1.45D+00
                    CP:  1.52D+00
 E= -562.879275472039     Delta-E=       -0.000012683138 Rises=F Damp=F
 DIIS: error= 5.11D-05 at cycle   7 NSaved=   7.
 NSaved= 7 IEnMin= 7 EnMin= -562.879275472039     IErMin= 7 ErrMin= 5.11D-05
 ErrMax= 5.11D-05  0.00D+00 EMaxC= 1.00D-01 BMatC= 2.17D-06 BMatP= 2.54D-05
 IDIUse=1 WtCom= 1.00D+00 WtEn= 0.00D+00
 Coeff-Com:  0.312D+00-0.356D+00-0.336D-01-0.190D-01 0.139D+00 0.272D+00
 Coeff-Com:  0.686D+00
 Coeff:      0.312D+00-0.356D+00-0.336D-01-0.190D-01 0.139D+00 0.272D+00
 Coeff:      0.686D+00
 Gap=     0.047 Goal=   None    Shift=    0.000
 Gap=     0.186 Goal=   None    Shift=    0.000
 RMSDP=2.42D-05 MaxDP=1.09D-03 DE=-1.27D-05 OVMax= 4.30D-03

 Cycle   8  Pass 1  IDiag  1:
 RMSU=  7.31D-06    CP:  9.98D-01  3.00D+00  1.12D+00  1.02D+00  1.60D+00
                    CP:  1.84D+00  1.23D+00
 E= -562.879277713165     Delta-E=       -0.000002241126 Rises=F Damp=F
 DIIS: error= 3.17D-05 at cycle   8 NSaved=   8.
 NSaved= 8 IEnMin= 8 EnMin= -562.879277713165     IErMin= 8 ErrMin= 3.17D-05
 ErrMax= 3.17D-05  0.00D+00 EMaxC= 1.00D-01 BMatC= 7.31D-07 BMatP= 2.17D-06
 IDIUse=1 WtCom= 1.00D+00 WtEn= 0.00D+00
 Coeff-Com:  0.240D-01-0.273D-01-0.518D-02-0.185D-01-0.603D-01 0.729D-02
 Coeff-Com:  0.392D+00 0.688D+00
 Coeff:      0.240D-01-0.273D-01-0.518D-02-0.185D-01-0.603D-01 0.729D-02
 Coeff:      0.392D+00 0.688D+00
 Gap=     0.047 Goal=   None    Shift=    0.000
 Gap=     0.186 Goal=   None    Shift=    0.000
 RMSDP=1.63D-05 MaxDP=7.57D-04 DE=-2.24D-06 OVMax= 2.96D-03

 Cycle   9  Pass 1  IDiag  1:
 RMSU=  5.28D-06    CP:  9.98D-01  3.00D+00  1.13D+00  1.04D+00  1.69D+00
                    CP:  2.08D+00  1.42D+00  1.18D+00
 E= -562.879278595514     Delta-E=       -0.000000882349 Rises=F Damp=F
 DIIS: error= 1.44D-05 at cycle   9 NSaved=   9.
 NSaved= 9 IEnMin= 9 EnMin= -562.879278595514     IErMin= 9 ErrMin= 1.44D-05
 ErrMax= 1.44D-05  0.00D+00 EMaxC= 1.00D-01 BMatC= 1.76D-07 BMatP= 7.31D-07
 IDIUse=1 WtCom= 1.00D+00 WtEn= 0.00D+00
 Coeff-Com: -0.705D-01 0.806D-01 0.624D-02-0.491D-02-0.660D-01-0.723D-01
 Coeff-Com: -0.796D-02 0.355D+00 0.780D+00
 Coeff:     -0.705D-01 0.806D-01 0.624D-02-0.491D-02-0.660D-01-0.723D-01
 Coeff:     -0.796D-02 0.355D+00 0.780D+00
 Gap=     0.047 Goal=   None    Shift=    0.000
 Gap=     0.186 Goal=   None    Shift=    0.000
 RMSDP=1.09D-05 MaxDP=5.12D-04 DE=-8.82D-07 OVMax= 2.01D-03

 Cycle  10  Pass 1  IDiag  1:
 RMSU=  1.73D-06    CP:  9.98D-01  3.00D+00  1.13D+00  1.05D+00  1.76D+00
                    CP:  2.22D+00  1.57D+00  1.66D+00  1.34D+00
 E= -562.879278892065     Delta-E=       -0.000000296551 Rises=F Damp=F
 DIIS: error= 6.91D-06 at cycle  10 NSaved=  10.
 NSaved=10 IEnMin=10 EnMin= -562.879278892065     IErMin=10 ErrMin= 6.91D-06
 ErrMax= 6.91D-06  0.00D+00 EMaxC= 1.00D-01 BMatC= 2.51D-08 BMatP= 1.76D-07
 IDIUse=1 WtCom= 1.00D+00 WtEn= 0.00D+00
 Coeff-Com: -0.178D-01 0.204D-01 0.223D-02 0.342D-02 0.362D-02-0.156D-01
 Coeff-Com: -0.101D+00-0.104D+00 0.164D+00 0.105D+01
 Coeff:     -0.178D-01 0.204D-01 0.223D-02 0.342D-02 0.362D-02-0.156D-01
 Coeff:     -0.101D+00-0.104D+00 0.164D+00 0.105D+01
 Gap=     0.047 Goal=   None    Shift=    0.000
 Gap=     0.186 Goal=   None    Shift=    0.000
 RMSDP=6.26D-06 MaxDP=2.94D-04 DE=-2.97D-07 OVMax= 1.16D-03

 Cycle  11  Pass 1  IDiag  1:
 RMSU=  6.88D-07    CP:  9.98D-01  3.00D+00  1.14D+00  1.05D+00  1.79D+00
                    CP:  2.30D+00  1.65D+00  1.92D+00  1.73D+00  1.39D+00
 E= -562.879278960787     Delta-E=       -0.000000068722 Rises=F Damp=F
 DIIS: error= 3.85D-06 at cycle  11 NSaved=  11.
 NSaved=11 IEnMin=11 EnMin= -562.879278960787     IErMin=11 ErrMin= 3.85D-06
 ErrMax= 3.85D-06  0.00D+00 EMaxC= 1.00D-01 BMatC= 5.53D-09 BMatP= 2.51D-08
 IDIUse=1 WtCom= 1.00D+00 WtEn= 0.00D+00
 Coeff-Com:  0.776D-02-0.888D-02-0.419D-03 0.212D-02 0.133D-01 0.889D-02
 Coeff-Com: -0.275D-01-0.941D-01-0.888D-01 0.286D+00 0.902D+00
 Coeff:      0.776D-02-0.888D-02-0.419D-03 0.212D-02 0.133D-01 0.889D-02
 Coeff:     -0.275D-01-0.941D-01-0.888D-01 0.286D+00 0.902D+00
 Gap=     0.047 Goal=   None    Shift=    0.000
 Gap=     0.186 Goal=   None    Shift=    0.000
 RMSDP=1.87D-06 MaxDP=8.38D-05 DE=-6.87D-08 OVMax= 3.30D-04

 Cycle  12  Pass 1  IDiag  1:
 RMSU=  4.17D-07    CP:  9.98D-01  3.00D+00  1.14D+00  1.05D+00  1.80D+00
                    CP:  2.32D+00  1.67D+00  2.01D+00  1.86D+00  1.60D+00
                    CP:  1.33D+00
 E= -562.879278969496     Delta-E=       -0.000000008709 Rises=F Damp=F
 DIIS: error= 3.00D-06 at cycle  12 NSaved=  12.
 NSaved=12 IEnMin=12 EnMin= -562.879278969496     IErMin=12 ErrMin= 3.00D-06
 ErrMax= 3.00D-06  0.00D+00 EMaxC= 1.00D-01 BMatC= 2.58D-09 BMatP= 5.53D-09
 IDIUse=1 WtCom= 1.00D+00 WtEn= 0.00D+00
 Coeff-Com:  0.876D-02-0.100D-01-0.783D-03 0.270D-03 0.589D-02 0.886D-02
 Coeff-Com:  0.123D-01-0.224D-01-0.898D-01-0.119D+00 0.487D+00 0.718D+00
 Coeff:      0.876D-02-0.100D-01-0.783D-03 0.270D-03 0.589D-02 0.886D-02
 Coeff:      0.123D-01-0.224D-01-0.898D-01-0.119D+00 0.487D+00 0.718D+00
 Gap=     0.047 Goal=   None    Shift=    0.000
 Gap=     0.186 Goal=   None    Shift=    0.000
 RMSDP=6.04D-07 MaxDP=2.29D-05 DE=-8.71D-09 OVMax= 9.11D-05

 Cycle  13  Pass 1  IDiag  1:
 RMSU=  1.91D-07    CP:  9.98D-01  3.00D+00  1.14D+00  1.05D+00  1.80D+00
                    CP:  2.33D+00  1.68D+00  2.04D+00  1.90D+00  1.67D+00
                    CP:  1.69D+00  1.13D+00
 E= -562.879278971797     Delta-E=       -0.000000002301 Rises=F Damp=F
 DIIS: error= 1.70D-06 at cycle  13 NSaved=  13.
 NSaved=13 IEnMin=13 EnMin= -562.879278971797     IErMin=13 ErrMin= 1.70D-06
 ErrMax= 1.70D-06  0.00D+00 EMaxC= 1.00D-01 BMatC= 5.56D-10 BMatP= 2.58D-09
 IDIUse=1 WtCom= 1.00D+00 WtEn= 0.00D+00
 Coeff-Com: -0.498D-03 0.571D-03-0.237D-04-0.510D-03-0.252D-02-0.510D-03
 Coeff-Com:  0.101D-01 0.191D-01 0.130D-02-0.926D-01-0.109D+00 0.156D+00
 Coeff-Com:  0.102D+01
 Coeff:     -0.498D-03 0.571D-03-0.237D-04-0.510D-03-0.252D-02-0.510D-03
 Coeff:      0.101D-01 0.191D-01 0.130D-02-0.926D-01-0.109D+00 0.156D+00
 Coeff:      0.102D+01
 Gap=     0.047 Goal=   None    Shift=    0.000
 Gap=     0.186 Goal=   None    Shift=    0.000
 RMSDP=2.55D-07 MaxDP=1.04D-05 DE=-2.30D-09 OVMax= 3.00D-05

 Cycle  14  Pass 1  IDiag  1:
 RMSU=  1.42D-07    CP:  9.98D-01  3.00D+00  1.14D+00  1.05D+00  1.80D+00
                    CP:  2.33D+00  1.68D+00  2.04D+00  1.90D+00  1.70D+00
                    CP:  1.87D+00  1.47D+00  1.42D+00
 E= -562.879278972798     Delta-E=       -0.000000001001 Rises=F Damp=F
 DIIS: error= 1.32D-06 at cycle  14 NSaved=  14.
 NSaved=14 IEnMin=14 EnMin= -562.879278972798     IErMin=14 ErrMin= 1.32D-06
 ErrMax= 1.32D-06  0.00D+00 EMaxC= 1.00D-01 BMatC= 3.59D-10 BMatP= 5.56D-10
 IDIUse=1 WtCom= 1.00D+00 WtEn= 0.00D+00
 Coeff-Com: -0.392D-02 0.448D-02 0.302D-03-0.443D-03-0.393D-02-0.391D-02
 Coeff-Com:  0.166D-02 0.209D-01 0.358D-01-0.117D-01-0.259D+00-0.188D+00
 Coeff-Com:  0.629D+00 0.778D+00
 Coeff:     -0.392D-02 0.448D-02 0.302D-03-0.443D-03-0.393D-02-0.391D-02
 Coeff:      0.166D-02 0.209D-01 0.358D-01-0.117D-01-0.259D+00-0.188D+00
 Coeff:      0.629D+00 0.778D+00
 Gap=     0.047 Goal=   None    Shift=    0.000
 Gap=     0.186 Goal=   None    Shift=    0.000
 RMSDP=2.03D-07 MaxDP=8.30D-06 DE=-1.00D-09 OVMax= 2.29D-05

 Cycle  15  Pass 1  IDiag  1:
 RMSU=  7.58D-08    CP:  9.98D-01  3.00D+00  1.14D+00  1.05D+00  1.80D+00
                    CP:  2.33D+00  1.68D+00  2.04D+00  1.90D+00  1.71D+00
                    CP:  1.98D+00  1.65D+00  2.09D+00  1.39D+00
 E= -562.879278973333     Delta-E=       -0.000000000535 Rises=F Damp=F
 DIIS: error= 7.36D-07 at cycle  15 NSaved=  15.
 NSaved=15 IEnMin=15 EnMin= -562.879278973333     IErMin=15 ErrMin= 7.36D-07
 ErrMax= 7.36D-07  0.00D+00 EMaxC= 1.00D-01 BMatC= 1.06D-10 BMatP= 3.59D-10
 IDIUse=1 WtCom= 1.00D+00 WtEn= 0.00D+00
 Coeff-Com: -0.104D-02 0.119D-02 0.113D-03 0.181D-03 0.418D-03-0.108D-02
 Coeff-Com: -0.672D-02-0.558D-02 0.133D-01 0.600D-01-0.334D-01-0.188D+00
 Coeff-Com: -0.417D+00 0.342D+00 0.124D+01
 Coeff:     -0.104D-02 0.119D-02 0.113D-03 0.181D-03 0.418D-03-0.108D-02
 Coeff:     -0.672D-02-0.558D-02 0.133D-01 0.600D-01-0.334D-01-0.188D+00
 Coeff:     -0.417D+00 0.342D+00 0.124D+01
 Gap=     0.047 Goal=   None    Shift=    0.000
 Gap=     0.186 Goal=   None    Shift=    0.000
 RMSDP=2.35D-07 MaxDP=7.71D-06 DE=-5.35D-10 OVMax= 2.28D-05

 Cycle  16  Pass 1  IDiag  1:
 RMSU=  4.25D-08    CP:  9.98D-01  3.00D+00  1.14D+00  1.05D+00  1.80D+00
                    CP:  2.33D+00  1.68D+00  2.03D+00  1.89D+00  1.71D+00
                    CP:  2.07D+00  1.87D+00  2.73D+00  2.24D+00  1.39D+00
 E= -562.879278973594     Delta-E=       -0.000000000261 Rises=F Damp=F
 DIIS: error= 1.72D-07 at cycle  16 NSaved=  16.
 NSaved=16 IEnMin=16 EnMin= -562.879278973594     IErMin=16 ErrMin= 1.72D-07
 ErrMax= 1.72D-07  0.00D+00 EMaxC= 1.00D-01 BMatC= 1.00D-11 BMatP= 1.06D-10
 IDIUse=1 WtCom= 1.00D+00 WtEn= 0.00D+00
 Coeff-Com:  0.328D-03-0.375D-03-0.131D-04 0.126D-03 0.671D-03 0.259D-03
 Coeff-Com: -0.231D-02-0.465D-02-0.121D-02 0.179D-01 0.309D-01-0.204D-01
 Coeff-Com: -0.213D+00-0.394D-01 0.340D+00 0.891D+00
 Coeff:      0.328D-03-0.375D-03-0.131D-04 0.126D-03 0.671D-03 0.259D-03
 Coeff:     -0.231D-02-0.465D-02-0.121D-02 0.179D-01 0.309D-01-0.204D-01
 Coeff:     -0.213D+00-0.394D-01 0.340D+00 0.891D+00
 Gap=     0.047 Goal=   None    Shift=    0.000
 Gap=     0.186 Goal=   None    Shift=    0.000
 RMSDP=5.82D-08 MaxDP=1.84D-06 DE=-2.61D-10 OVMax= 5.68D-06

 Cycle  17  Pass 1  IDiag  1:
 RMSU=  1.35D-08    CP:  9.98D-01  3.00D+00  1.14D+00  1.05D+00  1.80D+00
                    CP:  2.33D+00  1.68D+00  2.03D+00  1.89D+00  1.71D+00
                    CP:  2.08D+00  1.91D+00  2.88D+00  2.46D+00  1.65D+00
                    CP:  1.07D+00
 E= -562.879278973616     Delta-E=       -0.000000000022 Rises=F Damp=F
 DIIS: error= 4.16D-08 at cycle  17 NSaved=  17.
 NSaved=17 IEnMin=17 EnMin= -562.879278973616     IErMin=17 ErrMin= 4.16D-08
 ErrMax= 4.16D-08  0.00D+00 EMaxC= 1.00D-01 BMatC= 1.77D-12 BMatP= 1.00D-11
 IDIUse=1 WtCom= 1.00D+00 WtEn= 0.00D+00
 Coeff-Com:  0.257D-03-0.294D-03-0.183D-04 0.255D-04 0.192D-03 0.231D-03
 Coeff-Com:  0.666D-04-0.795D-03-0.217D-02-0.186D-02 0.149D-01 0.178D-01
 Coeff-Com: -0.162D-01-0.588D-01-0.490D-01 0.317D+00 0.779D+00
 Coeff:      0.257D-03-0.294D-03-0.183D-04 0.255D-04 0.192D-03 0.231D-03
 Coeff:      0.666D-04-0.795D-03-0.217D-02-0.186D-02 0.149D-01 0.178D-01
 Coeff:     -0.162D-01-0.588D-01-0.490D-01 0.317D+00 0.779D+00
 Gap=     0.047 Goal=   None    Shift=    0.000
 Gap=     0.186 Goal=   None    Shift=    0.000
 RMSDP=1.34D-08 MaxDP=4.23D-07 DE=-2.23D-11 OVMax= 1.62D-06

 Cycle  18  Pass 1  IDiag  1:
 RMSU=  4.92D-09    CP:  9.98D-01  3.00D+00  1.14D+00  1.05D+00  1.80D+00
                    CP:  2.33D+00  1.68D+00  2.03D+00  1.89D+00  1.71D+00
                    CP:  2.08D+00  1.92D+00  2.91D+00  2.49D+00  1.68D+00
                    CP:  1.19D+00  1.07D+00
 E= -562.879278973603     Delta-E=        0.000000000013 Rises=F Damp=F
 DIIS: error= 2.06D-08 at cycle  18 NSaved=  18.
 NSaved=18 IEnMin=17 EnMin= -562.879278973616     IErMin=18 ErrMin= 2.06D-08
 ErrMax= 2.06D-08  0.00D+00 EMaxC= 1.00D-01 BMatC= 3.57D-13 BMatP= 1.77D-12
 IDIUse=1 WtCom= 1.00D+00 WtEn= 0.00D+00
 Coeff-Com:  0.474D-04-0.541D-04-0.543D-05-0.138D-04-0.499D-04 0.505D-04
 Coeff-Com:  0.504D-03 0.599D-03-0.768D-03-0.454D-02 0.184D-03 0.119D-01
 Coeff-Com:  0.370D-01-0.175D-01-0.907D-01-0.389D-01 0.304D+00 0.799D+00
 Coeff:      0.474D-04-0.541D-04-0.543D-05-0.138D-04-0.499D-04 0.505D-04
 Coeff:      0.504D-03 0.599D-03-0.768D-03-0.454D-02 0.184D-03 0.119D-01
 Coeff:      0.370D-01-0.175D-01-0.907D-01-0.389D-01 0.304D+00 0.799D+00
 Gap=     0.047 Goal=   None    Shift=    0.000
 Gap=     0.186 Goal=   None    Shift=    0.000
 RMSDP=4.30D-09 MaxDP=1.65D-07 DE= 1.34D-11 OVMax= 3.49D-07

 SCF Done:  E(UPBE1PBE) =  -562.879278974     A.U. after   18 cycles
            NFock= 18  Conv=0.43D-08     -V/T= 2.2014
 <Sx>= 0.0000 <Sy>= 0.0000 <Sz>= 0.5000 <S**2>= 0.7516 S= 0.5008
 <L.S>= 0.000000000000E+00
 KE= 4.685045967412D+02 PE=-2.389161066521D+03 EE= 8.041146046221D+02
 Annihilation of the first spin contaminant:
 S**2 before annihilation     0.7516,   after     0.7500
 Leave Link  502 at Sat Sep 12 02:11:37 2026, MaxMem=  6442450944 cpu:             117.0 elap:             117.1
 (Enter C:\G16W\l508.exe)
 QCSCF skips out because SCF is already converged.
 Leave Link  508 at Sat Sep 12 02:11:37 2026, MaxMem=  6442450944 cpu:               0.0 elap:               0.1
 (Enter C:\G16W\l601.exe)
 Copying SCF densities to generalized density rwf, IOpCl= 1 IROHF=0.

 **********************************************************************

            Population analysis using the SCF Density.

 **********************************************************************

 Alpha  occ. eigenvalues --  -14.43205 -14.41425 -10.32743 -10.32667 -10.31137
 Alpha  occ. eigenvalues --  -10.30122 -10.29949 -10.29500 -10.29462 -10.29428
 Alpha  occ. eigenvalues --   -3.72627  -2.30632  -2.30621  -2.30513  -0.97656
 Alpha  occ. eigenvalues --   -0.95723  -0.93833  -0.84956  -0.83979  -0.72483
 Alpha  occ. eigenvalues --   -0.70130  -0.63963  -0.58164  -0.54979  -0.52675
 Alpha  occ. eigenvalues --   -0.50304  -0.47691  -0.44593  -0.43718  -0.42845
 Alpha  occ. eigenvalues --   -0.41287  -0.39745  -0.39722  -0.39066  -0.37696
 Alpha  occ. eigenvalues --   -0.32452  -0.31582  -0.30143  -0.30142  -0.30028
 Alpha  occ. eigenvalues --   -0.29942  -0.29271  -0.14712
 Alpha virt. eigenvalues --   -0.10027  -0.07242  -0.00670   0.01186   0.02289
 Alpha virt. eigenvalues --    0.02446   0.03366   0.04798   0.05283   0.06580
 Alpha virt. eigenvalues --    0.07949   0.09768   0.12264   0.13123   0.17203
 Alpha virt. eigenvalues --    0.17370   0.19402   0.19973   0.24433   0.26312
 Alpha virt. eigenvalues --    0.26933   0.30079   0.32381   0.33218   0.35214
 Alpha virt. eigenvalues --    0.35280   0.36829   0.39071   0.40832   0.42208
 Alpha virt. eigenvalues --    0.44206   0.44320   0.44542   0.45828   0.47838
 Alpha virt. eigenvalues --    0.48127   0.48292   0.49936   0.50634   0.51262
 Alpha virt. eigenvalues --    0.55568   0.56497   0.56639   0.56913   0.59685
 Alpha virt. eigenvalues --    0.60454   0.61337   0.62774   0.63847   0.64159
 Alpha virt. eigenvalues --    0.65519   0.66621   0.68694   0.69842   0.72213
 Alpha virt. eigenvalues --    0.73621   0.74137   0.78887   0.79852   0.81240
 Alpha virt. eigenvalues --    0.87540   0.88732   0.89272   0.90732   0.94965
 Alpha virt. eigenvalues --    0.95438   0.98323   1.00255   1.06194   1.10811
 Alpha virt. eigenvalues --    1.11790   1.15524   1.17155   1.17653   1.19335
 Alpha virt. eigenvalues --    1.21615   1.24166   1.24415   1.27387   1.29664
 Alpha virt. eigenvalues --    1.31949   1.46149   1.51216   1.55531   1.57098
 Alpha virt. eigenvalues --    1.59587   1.62041   1.62974   1.63936   1.68634
 Alpha virt. eigenvalues --    1.71780   1.73087   1.73226   1.73790   1.75287
 Alpha virt. eigenvalues --    1.76235   1.83143   1.85875   1.88172   1.90440
 Alpha virt. eigenvalues --    1.94501   1.95048   1.95625   1.97337   2.00656
 Alpha virt. eigenvalues --    2.04530   2.07403   2.12767   2.13862   2.20006
 Alpha virt. eigenvalues --    2.22601   2.24564   2.24931   2.26565   2.27533
 Alpha virt. eigenvalues --    2.27898   2.28025   2.29655   2.29953   2.38621
 Alpha virt. eigenvalues --    2.48075   2.57878   2.58152   2.61428   2.64314
 Alpha virt. eigenvalues --    2.64810   2.64814   2.64836   2.64837   2.64942
 Alpha virt. eigenvalues --    2.65326   2.66742   2.72196   2.75465   2.79675
 Alpha virt. eigenvalues --    2.91003   2.93749   2.97386   3.01317   3.04727
 Alpha virt. eigenvalues --    3.05317   3.11390   3.15626   3.37769   3.46579
 Alpha virt. eigenvalues --    3.51541   3.73095  53.83599
  Beta  occ. eigenvalues --  -14.43081 -14.41426 -10.32741 -10.32666 -10.31105
  Beta  occ. eigenvalues --  -10.30122 -10.29948 -10.29500 -10.29462 -10.29428
  Beta  occ. eigenvalues --   -3.72507  -2.30573  -2.30567  -2.30504  -0.97600
  Beta  occ. eigenvalues --   -0.95687  -0.93823  -0.84945  -0.83974  -0.72469
  Beta  occ. eigenvalues --   -0.70122  -0.63947  -0.58149  -0.54966  -0.52663
  Beta  occ. eigenvalues --   -0.50300  -0.47681  -0.44378  -0.43557  -0.42639
  Beta  occ. eigenvalues --   -0.41230  -0.39739  -0.39664  -0.38966  -0.37686
  Beta  occ. eigenvalues --   -0.32417  -0.31550  -0.29565  -0.29564  -0.29388
  Beta  occ. eigenvalues --   -0.29334  -0.28577
  Beta virt. eigenvalues --   -0.09992  -0.07234  -0.05817   0.00010   0.02529
  Beta virt. eigenvalues --    0.03510   0.03577   0.04887   0.05215   0.06692
  Beta virt. eigenvalues --    0.06817   0.08048   0.10630   0.12844   0.14497
  Beta virt. eigenvalues --    0.17399   0.17677   0.19462   0.20120   0.24441
  Beta virt. eigenvalues --    0.26356   0.26974   0.30102   0.32902   0.33304
  Beta virt. eigenvalues --    0.37687   0.37949   0.38602   0.39611   0.41026
  Beta virt. eigenvalues --    0.42372   0.44274   0.44370   0.45461   0.46379
  Beta virt. eigenvalues --    0.47938   0.50186   0.50527   0.51070   0.51276
  Beta virt. eigenvalues --    0.51861   0.55637   0.56686   0.56740   0.57785
  Beta virt. eigenvalues --    0.60297   0.60516   0.61817   0.62826   0.63897
  Beta virt. eigenvalues --    0.64176   0.65620   0.66745   0.68823   0.69856
  Beta virt. eigenvalues --    0.72286   0.73632   0.74154   0.78902   0.79891
  Beta virt. eigenvalues --    0.81292   0.87597   0.88754   0.89309   0.91127
  Beta virt. eigenvalues --    0.95006   0.95657   0.98453   1.00293   1.06220
  Beta virt. eigenvalues --    1.10843   1.11826   1.15529   1.17235   1.17656
  Beta virt. eigenvalues --    1.19566   1.21618   1.24169   1.24420   1.27589
  Beta virt. eigenvalues --    1.29687   1.31967   1.46164   1.51222   1.55571
  Beta virt. eigenvalues --    1.57166   1.59617   1.62086   1.62981   1.63943
  Beta virt. eigenvalues --    1.68637   1.71786   1.73100   1.73230   1.73797
  Beta virt. eigenvalues --    1.75303   1.76264   1.83165   1.85922   1.88188
  Beta virt. eigenvalues --    1.90451   1.94527   1.95063   1.95660   1.97362
  Beta virt. eigenvalues --    2.00667   2.04537   2.08646   2.12772   2.13868
  Beta virt. eigenvalues --    2.20073   2.22632   2.24585   2.24952   2.26711
  Beta virt. eigenvalues --    2.27542   2.27944   2.28050   2.29682   2.29957
  Beta virt. eigenvalues --    2.38634   2.48082   2.57905   2.58155   2.61431
  Beta virt. eigenvalues --    2.64377   2.64806   2.64810   2.64869   2.64870
  Beta virt. eigenvalues --    2.65024   2.65389   2.66841   2.72197   2.75491
  Beta virt. eigenvalues --    2.79678   2.91014   2.93809   2.97473   3.01356
  Beta virt. eigenvalues --    3.04749   3.05368   3.11439   3.15671   3.37804
  Beta virt. eigenvalues --    3.46615   3.51622   3.73120  53.83754
          Condensed to atoms (all electrons):
               1          2          3          4          5          6
     1  N    6.166386   0.777754  -0.017316  -0.003058   0.000158  -0.000005
     2  C    0.777754   5.164166   0.335329  -0.116928   0.022881  -0.002703
     3  C   -0.017316   0.335329   5.216998   0.345925   0.095504  -0.158542
     4  C   -0.003058  -0.116928   0.345925   4.993953   0.288625   0.089821
     5  C    0.000158   0.022881   0.095504   0.288625   5.054871   0.261696
     6  C   -0.000005  -0.002703  -0.158542   0.089821   0.261696   5.056252
     7  C    0.000125   0.020563   0.081915  -0.130384   0.089311   0.286408
     8  C   -0.003526  -0.097702   0.322846   0.078817  -0.157423   0.096609
     9  C   -0.001619  -0.053369  -0.097804   0.019839  -0.002727   0.022123
    10  N   -0.000216  -0.001664  -0.003345   0.000088  -0.000004   0.000126
    11  H   -0.000840  -0.027418  -0.053575   0.461098  -0.064330   0.013457
    12  H   -0.000005  -0.000724   0.013606  -0.064530   0.451764  -0.065328
    13  H    0.000000   0.000093  -0.000564   0.012645  -0.065473   0.451663
    14  H    0.000002   0.000121   0.017062  -0.002035   0.013518  -0.065744
    15  Ag   0.036033  -0.010372  -0.000860  -0.000037   0.000051   0.000006
               7          8          9         10         11         12
     1  N    0.000125  -0.003526  -0.001619  -0.000216  -0.000840  -0.000005
     2  C    0.020563  -0.097702  -0.053369  -0.001664  -0.027418  -0.000724
     3  C    0.081915   0.322846  -0.097804  -0.003345  -0.053575   0.013606
     4  C   -0.130384   0.078817   0.019839   0.000088   0.461098  -0.064530
     5  C    0.089311  -0.157423  -0.002727  -0.000004  -0.064330   0.451764
     6  C    0.286408   0.096609   0.022123   0.000126   0.013457  -0.065328
     7  C    4.987457   0.349179  -0.113399  -0.003014  -0.002026   0.012578
     8  C    0.349179   5.229018   0.305278  -0.018853   0.017021  -0.000535
     9  C   -0.113399   0.305278   5.142642   0.897740   0.000132   0.000094
    10  N   -0.003014  -0.018853   0.897740   6.044780   0.000002   0.000000
    11  H   -0.002026   0.017021   0.000132   0.000002   0.629228  -0.010468
    12  H    0.012578  -0.000535   0.000094   0.000000  -0.010468   0.631823
    13  H   -0.064507   0.013600  -0.000692  -0.000005  -0.000236  -0.011555
    14  H    0.462052  -0.052629  -0.027838  -0.000693   0.000011  -0.000237
    15  Ag   0.000078   0.000382   0.000910   0.003701  -0.000058  -0.000003
              13         14         15
     1  N    0.000000   0.000002   0.036033
     2  C    0.000093   0.000121  -0.010372
     3  C   -0.000564   0.017062  -0.000860
     4  C    0.012645  -0.002035  -0.000037
     5  C   -0.065473   0.013518   0.000051
     6  C    0.451663  -0.065744   0.000006
     7  C   -0.064507   0.462052   0.000078
     8  C    0.013600  -0.052629   0.000382
     9  C   -0.000692  -0.027838   0.000910
    10  N   -0.000005  -0.000693   0.003701
    11  H   -0.000236   0.000011  -0.000058
    12  H   -0.011555  -0.000237  -0.000003
    13  H    0.631672  -0.010445   0.000000
    14  H   -0.010445   0.628245  -0.000008
    15  Ag   0.000000  -0.000008  19.056575
          Atomic-Atomic Spin Densities.
               1          2          3          4          5          6
     1  N    0.080809  -0.014370   0.000902   0.000121  -0.000002   0.000000
     2  C   -0.014370   0.024870  -0.001100  -0.001755   0.000174   0.000007
     3  C    0.000902  -0.001100   0.002779   0.000767  -0.000026   0.000019
     4  C    0.000121  -0.001755   0.000767   0.002505  -0.000741  -0.000022
     5  C   -0.000002   0.000174  -0.000026  -0.000741   0.000856  -0.000015
     6  C    0.000000   0.000007   0.000019  -0.000022  -0.000015  -0.000683
     7  C    0.000005  -0.000045   0.000270   0.000569  -0.000251  -0.000040
     8  C   -0.000149   0.000024  -0.001953  -0.001514   0.000403   0.000065
     9  C    0.000005   0.000068   0.000190   0.000090  -0.000018  -0.000003
    10  N    0.000018   0.000099   0.000086   0.000004   0.000000   0.000000
    11  H   -0.000072   0.000490  -0.000100  -0.000553   0.000136   0.000003
    12  H    0.000000  -0.000005  -0.000005   0.000057  -0.000036   0.000003
    13  H    0.000000   0.000000   0.000001  -0.000006   0.000009  -0.000012
    14  H    0.000000   0.000001  -0.000015  -0.000021   0.000015  -0.000007
    15  Ag  -0.053822   0.002807  -0.001262  -0.000098   0.000006   0.000001
               7          8          9         10         11         12
     1  N    0.000005  -0.000149   0.000005   0.000018  -0.000072   0.000000
     2  C   -0.000045   0.000024   0.000068   0.000099   0.000490  -0.000005
     3  C    0.000270  -0.001953   0.000190   0.000086  -0.000100  -0.000005
     4  C    0.000569  -0.001514   0.000090   0.000004  -0.000553   0.000057
     5  C   -0.000251   0.000403  -0.000018   0.000000   0.000136  -0.000036
     6  C   -0.000040   0.000065  -0.000003   0.000000   0.000003   0.000003
     7  C    0.002687  -0.002640   0.000224   0.000095  -0.000027   0.000009
     8  C   -0.002640   0.005849  -0.000504  -0.000324   0.000096  -0.000009
     9  C    0.000224  -0.000504   0.001246  -0.001225  -0.000005   0.000000
    10  N    0.000095  -0.000324  -0.001225   0.001485   0.000000   0.000000
    11  H   -0.000027   0.000096  -0.000005   0.000000   0.000247  -0.000014
    12  H    0.000009  -0.000009   0.000000   0.000000  -0.000014  -0.000020
    13  H   -0.000009   0.000008   0.000000   0.000000   0.000000  -0.000002
    14  H   -0.000347   0.000277  -0.000009  -0.000020   0.000001  -0.000001
    15  Ag  -0.000042   0.000364   0.000253  -0.000354   0.000035   0.000000
              13         14         15
     1  N    0.000000   0.000000  -0.053822
     2  C    0.000000   0.000001   0.002807
     3  C    0.000001  -0.000015  -0.001262
     4  C   -0.000006  -0.000021  -0.000098
     5  C    0.000009   0.000015   0.000006
     6  C   -0.000012  -0.000007   0.000001
     7  C   -0.000009  -0.000347  -0.000042
     8  C    0.000008   0.000277   0.000364
     9  C    0.000000  -0.000009   0.000253
    10  N    0.000000  -0.000020  -0.000354
    11  H    0.000000   0.000001   0.000035
    12  H   -0.000002  -0.000001   0.000000
    13  H    0.000037   0.000005   0.000000
    14  H    0.000005   0.000230   0.000004
    15  Ag   0.000000   0.000004   1.026654
 Mulliken charges and spin densities:
               1          2
     1  N    0.046127   0.013442
     2  C   -0.010027   0.011265
     3  C   -0.097178   0.000552
     4  C    0.026162  -0.000599
     5  C    0.011578   0.000509
     6  C    0.014161  -0.000686
     7  C    0.023665   0.000454
     8  C   -0.082081  -0.000009
     9  C   -0.091309   0.000312
    10  N    0.081357  -0.000138
    11  H    0.038004   0.000235
    12  H    0.043521  -0.000024
    13  H    0.043802   0.000031
    14  H    0.038617   0.000111
    15  Ag  -0.086399   0.974545
 Sum of Mulliken charges =   0.00000   1.00000
 Mulliken charges and spin densities with hydrogens summed into heavy atoms:
               1          2
     1  N    0.046127   0.013442
     2  C   -0.010027   0.011265
     3  C   -0.097178   0.000552
     4  C    0.064165  -0.000365
     5  C    0.055099   0.000485
     6  C    0.057963  -0.000655
     7  C    0.062283   0.000565
     8  C   -0.082081  -0.000009
     9  C   -0.091309   0.000312
    10  N    0.081357  -0.000138
    15  Ag  -0.086399   0.974545
 Electronic spatial extent (au):  <R**2>=           3764.5491
 Charge=              0.0000 electrons
 Dipole moment (field-independent basis, Debye):
    X=             -9.2239    Y=             -2.5193    Z=              0.5242  Tot=              9.5761
 Quadrupole moment (field-independent basis, Debye-Ang):
   XX=           -112.9465   YY=            -78.9423   ZZ=            -78.2931
   XY=             -5.4012   XZ=              1.1344   YZ=              0.2861
 Traceless Quadrupole moment (field-independent basis, Debye-Ang):
   XX=            -22.8859   YY=             11.1183   ZZ=             11.7676
   XY=             -5.4012   XZ=              1.1344   YZ=              0.2861
 Octapole moment (field-independent basis, Debye-Ang**2):
  XXX=           -725.1629  YYY=            -45.4636  ZZZ=             12.4236  XYY=           -184.1852
  XXY=            -13.8696  XXZ=             10.6993  XZZ=           -150.7847  YZZ=             -3.5774
  YYZ=              9.3710  XYZ=              3.9481
 Hexadecapole moment (field-independent basis, Debye-Ang**3):
 XXXX=          -7026.2109 YYYY=           -824.2369 ZZZZ=           -102.1185 XXXY=             34.1404
 XXXZ=             89.0261 YYYX=            -30.0264 YYYZ=             43.1899 ZZZX=             64.8958
 ZZZY=             36.5127 XXYY=          -1094.5166 XXZZ=           -933.7067 YYZZ=           -149.3826
 XXYZ=             17.5044 YYXZ=             31.2393 ZZXY=             13.1222
 N-N= 5.536625861838D+02 E-N=-2.389161065987D+03  KE= 4.685045967412D+02
                          Isotropic Fermi Contact Couplings
        Atom                 a.u.       MegaHertz       Gauss      10(-4) cm-1
     1  N(14)              0.14119      45.61844      16.27779      15.21667
     2  C(13)              0.01206      13.55280       4.83598       4.52073
     3  C(13)              0.00086       0.96563       0.34456       0.32210
     4  C(13)              0.00120       1.34766       0.48088       0.44953
     5  C(13)              0.00014       0.15793       0.05635       0.05268
     6  C(13)             -0.00011      -0.12919      -0.04610      -0.04309
     7  C(13)              0.00061       0.68491       0.24439       0.22846
     8  C(13)              0.00104       1.17370       0.41880       0.39150
     9  C(13)              0.00012       0.13266       0.04733       0.04425
    10  N(14)              0.00031       0.09992       0.03566       0.03333
    11  H(1)               0.00000       0.01225       0.00437       0.00409
    12  H(1)              -0.00001      -0.03806      -0.01358      -0.01270
    13  H(1)               0.00001       0.03877       0.01383       0.01293
    14  H(1)               0.00002       0.09437       0.03367       0.03148
    15  Ag(107             0.00031      -0.05664      -0.02021      -0.01889
 --------------------------------------------------------
       Center         ----  Spin Dipole Couplings  ----
                      3XX-RR        3YY-RR        3ZZ-RR
 --------------------------------------------------------
     1   Atom        0.029414     -0.014955     -0.014458
     2   Atom       -0.003576      0.020732     -0.017156
     3   Atom        0.002829     -0.001800     -0.001030
     4   Atom        0.002084     -0.000490     -0.001594
     5   Atom        0.000563     -0.000550     -0.000014
     6   Atom        0.000944      0.000015     -0.000959
     7   Atom        0.000915     -0.000625     -0.000291
     8   Atom        0.001241      0.000582     -0.001823
     9   Atom        0.001513     -0.000390     -0.001123
    10   Atom        0.001115      0.000257     -0.001372
    11   Atom        0.001141     -0.000362     -0.000780
    12   Atom        0.000494     -0.000234     -0.000260
    13   Atom        0.000380     -0.000166     -0.000214
    14   Atom        0.000531     -0.000187     -0.000344
    15   Atom       -0.025285      0.008599      0.016687
 --------------------------------------------------------
                        XY            XZ            YZ
 --------------------------------------------------------
     1   Atom       -0.036622     -0.005589      0.002042
     2   Atom       -0.007518     -0.000526      0.000925
     3   Atom       -0.000570      0.000758     -0.000345
     4   Atom        0.000540     -0.000490     -0.000235
     5   Atom        0.000165      0.000065      0.000047
     6   Atom       -0.000050     -0.000037     -0.000074
     7   Atom       -0.000330     -0.000011      0.000033
     8   Atom       -0.001072      0.000351     -0.000972
     9   Atom       -0.001358      0.000013      0.000011
    10   Atom       -0.001349      0.000435     -0.000081
    11   Atom        0.000836     -0.000140     -0.000103
    12   Atom        0.000184     -0.000039     -0.000009
    13   Atom       -0.000029     -0.000010     -0.000008
    14   Atom       -0.000326      0.000014     -0.000005
    15   Atom       -0.016441      0.000720      0.000500
 --------------------------------------------------------


 ---------------------------------------------------------------------------------
              Anisotropic Spin Dipole Couplings in Principal Axis System
 ---------------------------------------------------------------------------------

       Atom             a.u.   MegaHertz   Gauss  10(-4) cm-1        Axes

              Baa    -0.0356    -1.374    -0.490    -0.458  0.4931  0.8687  0.0464
     1 N(14)  Bbb    -0.0149    -0.576    -0.206    -0.192  0.0555 -0.0846  0.9949
              Bcc     0.0506     1.951     0.696     0.651  0.8682 -0.4880 -0.0899
 
              Baa    -0.0172    -2.306    -0.823    -0.769  0.0283 -0.0188  0.9994
     2 C(13)  Bbb    -0.0057    -0.766    -0.273    -0.255  0.9614  0.2741 -0.0220
              Bcc     0.0229     3.072     1.096     1.025 -0.2736  0.9615  0.0258
 
              Baa    -0.0019    -0.262    -0.093    -0.087  0.0654  0.9507  0.3030
     3 C(13)  Bbb    -0.0011    -0.148    -0.053    -0.049 -0.2208 -0.2824  0.9335
              Bcc     0.0031     0.410     0.146     0.137  0.9731 -0.1280  0.1915
 
              Baa    -0.0017    -0.226    -0.081    -0.075  0.1070  0.1456  0.9835
     4 C(13)  Bbb    -0.0006    -0.078    -0.028    -0.026 -0.2182  0.9685 -0.1196
              Bcc     0.0023     0.304     0.108     0.101  0.9700  0.2018 -0.1354
 
              Baa    -0.0006    -0.077    -0.028    -0.026 -0.1395  0.9880 -0.0666
     5 C(13)  Bbb     0.0000    -0.003    -0.001    -0.001 -0.1244  0.0492  0.9910
              Bcc     0.0006     0.080     0.029     0.027  0.9824  0.1465  0.1160
 
              Baa    -0.0010    -0.129    -0.046    -0.043  0.0214  0.0761  0.9969
     6 C(13)  Bbb     0.0000     0.002     0.001     0.001  0.0509  0.9957 -0.0771
              Bcc     0.0009     0.127     0.045     0.042  0.9985 -0.0524 -0.0174
 
              Baa    -0.0007    -0.093    -0.033    -0.031  0.1999  0.9770 -0.0738
     7 C(13)  Bbb    -0.0003    -0.039    -0.014    -0.013  0.0284  0.0695  0.9972
              Bcc     0.0010     0.132     0.047     0.044  0.9794 -0.2014 -0.0138
 
              Baa    -0.0022    -0.291    -0.104    -0.097  0.0087  0.3364  0.9417
     8 C(13)  Bbb    -0.0001    -0.007    -0.003    -0.002  0.6563  0.7086 -0.2592
              Bcc     0.0022     0.298     0.106     0.099  0.7545 -0.6203  0.2146
 
              Baa    -0.0011    -0.152    -0.054    -0.051 -0.1976 -0.3759  0.9054
     9 C(13)  Bbb    -0.0011    -0.146    -0.052    -0.049  0.4172  0.8035  0.4246
              Bcc     0.0022     0.298     0.106     0.099  0.8871 -0.4616  0.0019
 
              Baa    -0.0015    -0.057    -0.020    -0.019 -0.2345 -0.1382  0.9622
    10 N(14)  Bbb    -0.0007    -0.026    -0.009    -0.009  0.5429  0.8025  0.2475
              Bcc     0.0021     0.083     0.030     0.028  0.8064 -0.5804  0.1132
 
              Baa    -0.0008    -0.432    -0.154    -0.144 -0.1196  0.4286  0.8955
    11 H(1)   Bbb    -0.0007    -0.382    -0.136    -0.127 -0.3961  0.8065 -0.4389
              Bcc     0.0015     0.814     0.291     0.272  0.9104  0.4072 -0.0733
 
              Baa    -0.0003    -0.148    -0.053    -0.050 -0.2327  0.9725 -0.0056
    12 H(1)   Bbb    -0.0003    -0.140    -0.050    -0.047  0.0479  0.0172  0.9987
              Bcc     0.0005     0.288     0.103     0.096  0.9714  0.2321 -0.0506
 
              Baa    -0.0002    -0.115    -0.041    -0.038  0.0252  0.1731  0.9846
    13 H(1)   Bbb    -0.0002    -0.089    -0.032    -0.030  0.0490  0.9835 -0.1741
              Bcc     0.0004     0.204     0.073     0.068  0.9985 -0.0527 -0.0163
 
              Baa    -0.0003    -0.184    -0.066    -0.061 -0.0246 -0.0220  0.9995
    14 H(1)   Bbb    -0.0003    -0.167    -0.060    -0.056  0.3594  0.9327  0.0294
              Bcc     0.0007     0.351     0.125     0.117  0.9328 -0.3600  0.0150
 
              Baa    -0.0320     0.694     0.247     0.231  0.9266  0.3758 -0.0176
    15 Ag(107 Bbb     0.0152    -0.331    -0.118    -0.110 -0.3747  0.9179 -0.1309
              Bcc     0.0167    -0.363    -0.130    -0.121 -0.0331  0.1279  0.9912
 

 ---------------------------------------------------------------------------------

 No NMR shielding tensors so no spin-rotation constants.
 Leave Link  601 at Sat Sep 12 02:11:40 2026, MaxMem=  6442450944 cpu:               3.0 elap:               2.3
 (Enter C:\G16W\l9999.exe)
 Unable to Open any file for archive entry.
 1|1|UNPC-DESKTOP-2JKEGCA|SP|UPBE1PBE|def2SVP|C8H4Ag1N2(2)|JHKIM|12-Sep
 -2026|0||#P PBE1PBE/Def2SVP EmpiricalDispersion=GD3BJ SP SCF=(XQC,MaxC
 ycle=128) NoSymm Guess=Read||oDCNB t=0.750 dz=+0.40 class=site2site||0
 ,2|N,0,3.359597,-1.016115,-0.035519|C,0,2.244882,-0.753268,-0.016024|C
 ,0,0.861235,-0.456159,0.011127|C,0,-0.069315,-1.482359,0.156214|C,0,-1
 .420759,-1.189055,0.182444|C,0,-1.856402,0.123497,0.064924|C,0,-0.9439
 69,1.152892,-0.079741|C,0,0.420147,0.872796,-0.10787|C,0,1.356232,1.92
 4162,-0.255744|N,0,2.096312,2.790084,-0.376328|H,0,0.277793,-2.500831,
 0.247029|H,0,-2.138501,-1.987239,0.295041|H,0,-2.912552,0.344906,0.086
 234|H,0,-1.274701,2.17669,-0.171784|Ag,0,5.83291086,-0.31000338,-0.098
 70607||Version=EM64W-G16RevC.01|HF=-562.879279|S2=0.75155|S2-1=0.|S2A=
 0.750002|RMSD=4.304e-009|Dipole=-3.6289618,-0.991157,0.2062216|Quadrup
 ole=-17.0150698,8.2661716,8.7488982,-4.0156305,0.8434174,0.2126892|PG=
 C01 [X(C8H4Ag1N2)]||@
 The archive entry for this job was punched.


 THE MOLECULE ALSO HAS A BODY.  WHEN THIS BODY IS HIT, THE MOLECULE
 FEELS HURT ALL OVER -- A. KITAIGORODSKI
 Job cpu time:       0 days  0 hours  2 minutes 11.0 seconds.
 Elapsed time:       0 days  0 hours  2 minutes 10.1 seconds.
 File lengths (MBytes):  RWF=     40 Int=      0 D2E=      0 Chk=      4 Scr=      1
 Normal termination of Gaussian 16 at Sat Sep 12 02:11:40 2026.
