 Entering Gaussian System, Link 0=C:\G16W\g16.exe
 Input=oDCNB_t0_z0.gjf
 Output=oDCNB_t0_z0.out
 Initial command:
 C:\G16W\l1.exe ".\Gau-66008.inp" "oDCNB_t0_z0.out" /scrdir=".\"
 Entering Link 1 = C:\G16W\l1.exe PID=     41352.
  
 Copyright (c) 1988-2019, Gaussian, Inc.  All Rights Reserved.
  
 This is part of the Gaussian(R) 16 program.  It is based on
 the Gaussian(R) 09 system (copyright 2009, Gaussian, Inc.),
 the Gaussian(R) 03 system (copyright 2003, Gaussian, Inc.),
 the Gaussian(R) 98 system (copyright 1998, Gaussian, Inc.),
 the Gaussian(R) 94 system (copyright 1995, Gaussian, Inc.),
 the Gaussian 92(TM) system (copyright 1992, Gaussian, Inc.),
 the Gaussian 90(TM) system (copyright 1990, Gaussian, Inc.),
 the Gaussian 88(TM) system (copyright 1988, Gaussian, Inc.),
 the Gaussian 86(TM) system (copyright 1986, Carnegie Mellon
 University), and the Gaussian 82(TM) system (copyright 1983,
 Carnegie Mellon University). Gaussian is a federally registered
 trademark of Gaussian, Inc.
  
 This software contains proprietary and confidential information,
 including trade secrets, belonging to Gaussian, Inc.
  
 This software is provided under written license and may be
 used, copied, transmitted, or stored only in accord with that
 written license.
  
 The following legend is applicable only to US Government
 contracts under FAR:
  
                    RESTRICTED RIGHTS LEGEND
  
 Use, reproduction and disclosure by the US Government is
 subject to restrictions as set forth in subparagraphs (a)
 and (c) of the Commercial Computer Software - Restricted
 Rights clause in FAR 52.227-19.
  
 Gaussian, Inc.
 340 Quinnipiac St., Bldg. 40, Wallingford CT 06492
  
  
 ---------------------------------------------------------------
 Warning -- This program may not be used in any manner that
 competes with the business of Gaussian, Inc. or will provide
 assistance to any competitor of Gaussian, Inc.  The licensee
 of this program is prohibited from giving any competitor of
 Gaussian, Inc. access to this program.  By using this program,
 the user acknowledges that Gaussian, Inc. is engaged in the
 business of creating and licensing software in the field of
 computational chemistry and represents and warrants to the
 licensee that it is not a competitor of Gaussian, Inc. and that
 it will not use this program in any manner prohibited above.
 ---------------------------------------------------------------
  

 Cite this work as:
 Gaussian 16, Revision C.01,
 M. J. Frisch, G. W. Trucks, H. B. Schlegel, G. E. Scuseria, 
 M. A. Robb, J. R. Cheeseman, G. Scalmani, V. Barone, 
 G. A. Petersson, H. Nakatsuji, X. Li, M. Caricato, A. V. Marenich, 
 J. Bloino, B. G. Janesko, R. Gomperts, B. Mennucci, H. P. Hratchian, 
 J. V. Ortiz, A. F. Izmaylov, J. L. Sonnenberg, D. Williams-Young, 
 F. Ding, F. Lipparini, F. Egidi, J. Goings, B. Peng, A. Petrone, 
 T. Henderson, D. Ranasinghe, V. G. Zakrzewski, J. Gao, N. Rega, 
 G. Zheng, W. Liang, M. Hada, M. Ehara, K. Toyota, R. Fukuda, 
 J. Hasegawa, M. Ishida, T. Nakajima, Y. Honda, O. Kitao, H. Nakai, 
 T. Vreven, K. Throssell, J. A. Montgomery, Jr., J. E. Peralta, 
 F. Ogliaro, M. J. Bearpark, J. J. Heyd, E. N. Brothers, K. N. Kudin, 
 V. N. Staroverov, T. A. Keith, R. Kobayashi, J. Normand, 
 K. Raghavachari, A. P. Rendell, J. C. Burant, S. S. Iyengar, 
 J. Tomasi, M. Cossi, J. M. Millam, M. Klene, C. Adamo, R. Cammi, 
 J. W. Ochterski, R. L. Martin, K. Morokuma, O. Farkas, 
 J. B. Foresman, and D. J. Fox, Gaussian, Inc., Wallingford CT, 2019.
 
 ******************************************
 Gaussian 16:  EM64W-G16RevC.01 30-May-2019
                12-Sep-2026 
 ******************************************
 %Chk=oDCNB.chk
 %NProcShared=8
 Will use up to    8 processors via shared memory.
 %Mem=48GB
 ----------------------------------------------------------------------
 #P PBE1PBE/Def2SVP EmpiricalDispersion=GD3BJ SP SCF=(XQC,MaxCycle=128,
 VShift=300) NoSymm
 ----------------------------------------------------------------------
 1/38=1,172=1/1;
 2/12=2,15=1,17=6,18=5,40=1/2;
 3/5=43,7=101,11=2,25=1,30=1,74=-13,124=41/1,2,3;
 4//1;
 5/5=2,7=128,8=3,10=300,13=1,38=5/2,8;
 6/7=2,8=2,9=2,10=2,28=1/1;
 99/5=1,9=1/99;
 Leave Link    1 at Sat Sep 12 01:35:00 2026, MaxMem=  6442450944 cpu:               1.0 elap:               0.3
 (Enter C:\G16W\l101.exe)
 --------------------------------------
 oDCNB t=0.000 dz=+0.00 class=site2site
 --------------------------------------
 Symbolic Z-matrix:
 Charge =  0 Multiplicity = 2
 N                     3.3596   -1.01612  -0.03552 
 C                     2.24488  -0.75327  -0.01602 
 C                     0.86124  -0.45616   0.01113 
 C                    -0.06932  -1.48236   0.15621 
 C                    -1.42076  -1.18906   0.18244 
 C                    -1.8564    0.1235    0.06492 
 C                    -0.94397   1.15289  -0.07974 
 C                     0.42015   0.8728   -0.10787 
 C                     1.35623   1.92416  -0.25574 
 N                     2.09631   2.79008  -0.37633 
 H                     0.27779  -2.50083   0.24703 
 H                    -2.1385   -1.98724   0.29504 
 H                    -2.91255   0.34491   0.08623 
 H                    -1.2747    2.17669  -0.17178 
 Ag                    3.58234   4.52879  -0.61845 
 
 ITRead=  0  0  0  0  0  0  0  0  0  0  0  0  0  0  0
 MicOpt= -1 -1 -1 -1 -1 -1 -1 -1 -1 -1 -1 -1 -1 -1 -1
 NAtoms=     15 NQM=       15 NQMF=       0 NMMI=      0 NMMIF=      0
                NMic=       0 NMicF=      0.
                    Isotopes and Nuclear Properties:
 (Nuclear quadrupole moments (NQMom) in fm**2, nuclear magnetic moments (NMagM)
  in nuclear magnetons)

  Atom         1           2           3           4           5           6           7           8           9          10
 IAtWgt=          14          12          12          12          12          12          12          12          12          14
 AtmWgt=  14.0030740  12.0000000  12.0000000  12.0000000  12.0000000  12.0000000  12.0000000  12.0000000  12.0000000  14.0030740
 NucSpn=           2           0           0           0           0           0           0           0           0           2
 AtZEff=   0.0000000   0.0000000   0.0000000   0.0000000   0.0000000   0.0000000   0.0000000   0.0000000   0.0000000   0.0000000
 NQMom=    2.0440000   0.0000000   0.0000000   0.0000000   0.0000000   0.0000000   0.0000000   0.0000000   0.0000000   2.0440000
 NMagM=    0.4037610   0.0000000   0.0000000   0.0000000   0.0000000   0.0000000   0.0000000   0.0000000   0.0000000   0.4037610
 AtZNuc=   7.0000000   6.0000000   6.0000000   6.0000000   6.0000000   6.0000000   6.0000000   6.0000000   6.0000000   7.0000000

  Atom        11          12          13          14          15
 IAtWgt=           1           1           1           1         107
 AtmWgt=   1.0078250   1.0078250   1.0078250   1.0078250 106.9050900
 NucSpn=           1           1           1           1           1
 AtZEff=   0.0000000   0.0000000   0.0000000   0.0000000   0.0000000
 NQMom=    0.0000000   0.0000000   0.0000000   0.0000000   0.0000000
 NMagM=    2.7928460   2.7928460   2.7928460   2.7928460  -0.1135700
 AtZNuc=   1.0000000   1.0000000   1.0000000   1.0000000  47.0000000
 Leave Link  101 at Sat Sep 12 01:35:00 2026, MaxMem=  6442450944 cpu:               0.0 elap:               0.3
 (Enter C:\G16W\l202.exe)
                          Input orientation:                          
 ---------------------------------------------------------------------
 Center     Atomic      Atomic             Coordinates (Angstroms)
 Number     Number       Type             X           Y           Z
 ---------------------------------------------------------------------
      1          7           0        3.359597   -1.016115   -0.035519
      2          6           0        2.244882   -0.753268   -0.016024
      3          6           0        0.861235   -0.456159    0.011127
      4          6           0       -0.069315   -1.482359    0.156214
      5          6           0       -1.420759   -1.189055    0.182444
      6          6           0       -1.856402    0.123497    0.064924
      7          6           0       -0.943969    1.152892   -0.079741
      8          6           0        0.420147    0.872796   -0.107870
      9          6           0        1.356232    1.924162   -0.255744
     10          7           0        2.096312    2.790084   -0.376328
     11          1           0        0.277793   -2.500831    0.247029
     12          1           0       -2.138501   -1.987239    0.295041
     13          1           0       -2.912552    0.344906    0.086234
     14          1           0       -1.274701    2.176690   -0.171784
     15         47           0        3.582338    4.528791   -0.618452
 ---------------------------------------------------------------------
                    Distance matrix (angstroms):
                    1          2          3          4          5
     1  N    0.000000
     2  C    1.145451   0.000000
     3  C    2.560769   1.415447   0.000000
     4  C    3.465773   2.432437   1.392860   0.000000
     5  C    4.788446   3.696786   2.402911   1.383154   0.000000
     6  C    5.339986   4.194735   2.779289   2.404327   1.387944
     7  C    4.819463   3.715680   2.419930   2.786618   2.404326
     8  C    3.494794   2.445849   1.405290   2.419932   2.779289
     9  C    3.564716   2.831218   2.445848   3.715680   4.194736
    10  N    4.024822   3.564721   3.494800   4.819472   5.339996
    11  H    3.432453   2.644355   2.139331   1.079822   2.147093
    12  H    5.592981   4.564372   3.379827   2.134410   1.079319
    13  H    6.419272   5.274047   3.858603   3.380502   2.141901
    14  H    5.629324   4.582181   3.395228   3.866417   3.387484
    15  Ag   5.579911   5.481957   5.714061   7.075917   7.639776
                    6          7          8          9         10
     6  C    0.000000
     7  C    1.383154   0.000000
     8  C    2.402911   1.392859   0.000000
     9  C    3.696788   2.432439   1.415448   0.000000
    10  N    4.788459   3.465786   2.560780   1.145461   0.000000
    11  H    3.387484   3.866416   3.395229   4.582180   5.629331
    12  H    2.141901   3.380502   3.858603   5.274048   6.419283
    13  H    1.079319   2.134410   3.379826   4.564375   5.592994
    14  H    2.147093   1.079823   2.139330   2.644358   3.432465
    15  Ag   7.032319   5.672245   4.860704   3.445460   2.300000
                   11         12         13         14         15
    11  H    0.000000
    12  H    2.470740   0.000000
    13  H    4.278128   2.466101   0.000000
    14  H    4.946195   4.278128   2.470741   0.000000
    15  Ag   7.815668   8.719009   7.757904   5.415046   0.000000
 Symmetry turned off by external request.
 Stoichiometry    C8H4AgN2(2)
 Framework group  C1[X(C8H4AgN2)]
 Deg. of freedom    39
 Full point group                 C1      NOp   1
 Rotational constants (GHZ):           1.7409746           0.2583566           0.2249714
 Leave Link  202 at Sat Sep 12 01:35:00 2026, MaxMem=  6442450944 cpu:               0.0 elap:               0.1
 (Enter C:\G16W\l301.exe)
 Standard basis: def2SVP (5D, 7F)
 Ernie: Thresh=  0.10000D-02 Tol=  0.10000D-05 Strict=F.
   191 basis functions,   343 primitive gaussians,   206 cartesian basis functions
    43 alpha electrons       42 beta electrons
       nuclear repulsion energy       555.8345906440 Hartrees.
 IExCor= 1009 DFT=T Ex+Corr=PBE1PBE ExCW=0 ScaHFX=  0.250000
 ScaDFX=  0.750000  0.750000  1.000000  1.000000 ScalE2=  1.000000  1.000000
 IRadAn=      5 IRanWt=     -1 IRanGd=            0 ICorTp=0 IEmpDi=141
 NAtoms=   15 NActive=   15 NUniq=   15 SFac= 1.00D+00 NAtFMM=   60 NAOKFM=F Big=F
 Integral buffers will be    131072 words long.
 Raffenetti 2 integral format.
 Two-electron integral symmetry is turned off.
 R6Disp:  Grimme-D3(BJ) Dispersion energy=       -0.0165270494 Hartrees.
 Nuclear repulsion after empirical dispersion term =      555.8180635945 Hartrees.
 Leave Link  301 at Sat Sep 12 01:35:01 2026, MaxMem=  6442450944 cpu:               0.0 elap:               0.2
 (Enter C:\G16W\l302.exe)
 NPDir=0 NMtPBC=     1 NCelOv=     1 NCel=       1 NClECP=     1 NCelD=      1
         NCelK=      1 NCelE2=     1 NClLst=     1 CellRange=     0.0.
 One-electron integrals computed using PRISM.
   1 Symmetry operations used in ECPInt.
 ECPInt:  NShTT=    3486 NPrTT=   12877 LenC2=    3339 LenP2D=    9430.
 LDataN:  DoStor=T MaxTD1= 7 Len=  274
 NBasis=   191 RedAO= T EigKep=  2.05D-04  NBF=   191
 NBsUse=   191 1.00D-06 EigRej= -1.00D+00 NBFU=   191
 Precomputing XC quadrature grid using
 IXCGrd= 4 IRadAn=           5 IRanWt=          -1 IRanGd=           0 AccXCQ= 0.00D+00.
 Defaulting to unpruned grid for atomic number  47.
 Generated NRdTot=       0 NPtTot=           0 NUsed=           0 NTot=          32
 NSgBfM=   205   205   205   205   205 MxSgAt=    15 MxSgA2=    15.
 Leave Link  302 at Sat Sep 12 01:35:07 2026, MaxMem=  6442450944 cpu:               6.0 elap:               5.9
 (Enter C:\G16W\l303.exe)
 DipDrv:  MaxL=1.
 Leave Link  303 at Sat Sep 12 01:35:07 2026, MaxMem=  6442450944 cpu:               0.0 elap:               0.2
 (Enter C:\G16W\l401.exe)
 ExpMin= 3.75D-02 ExpMax= 1.71D+03 ExpMxC= 2.58D+02 IAcc=3 IRadAn=         5 AccDes= 0.00D+00
 Harris functional with IExCor= 1009 and IRadAn=       5 diagonalized for initial guess.
 HarFok:  IExCor= 1009 AccDes= 0.00D+00 IRadAn=         5 IDoV= 1 UseB2=F ITyADJ=14
 ICtDFT=  3500011 ScaDFX=  1.000000  1.000000  1.000000  1.000000
 Defaulting to unpruned grid for atomic number  47.
 FoFCou: FMM=F IPFlag=           0 FMFlag=      100000 FMFlg1=           0
         NFxFlg=           0 DoJE=T BraDBF=F KetDBF=T FulRan=T
         wScrn=  0.000000 ICntrl=       500 IOpCl=  0 I1Cent=   200000004 NGrid=           0
         NMat0=    1 NMatS0=      1 NMatT0=    0 NMatD0=    1 NMtDS0=    0 NMtDT0=    0
 Symmetry not used in FoFCou.
 Harris En= -563.331400783458    
 JPrj=0 DoOrth=F DoCkMO=F.
 Initial guess <Sx>= 0.0000 <Sy>= 0.0000 <Sz>= 0.5000 <S**2>= 0.7500 S= 0.5000
 Leave Link  401 at Sat Sep 12 01:35:13 2026, MaxMem=  6442450944 cpu:               6.0 elap:               5.6
 (Enter C:\G16W\l502.exe)
 Two-electron integral symmetry not used.
 UHF open shell SCF:
 Using DIIS extrapolation, IDIIS=  1040.
 NGot=  6442450944 LenX=  6442362448 LenY=  6442319571
 Requested convergence on RMS density matrix=1.00D-08 within 128 cycles.
 Requested convergence on MAX density matrix=1.00D-06.
 Requested convergence on             energy=1.00D-06.
 Virtual orbitals will be shifted by   0.300 hartree.
 No special actions if energy rises.
 Fock matrices will be formed incrementally for  20 cycles.

 Cycle   1  Pass 1  IDiag  1:
 FoFJK:  IHMeth= 1 ICntrl=       0 DoSepK=F KAlg= 0 I1Cent=           0 FoldK=F
 IRaf= 920000000 NMat=       1 IRICut=       1 DoRegI=T DoRafI=F ISym2E= 0 IDoP0=0 IntGTp=1.
 FoFCou: FMM=F IPFlag=           0 FMFlag=      100000 FMFlg1=           0
         NFxFlg=           0 DoJE=F BraDBF=F KetDBF=F FulRan=T
         wScrn=  0.000000 ICntrl=         0 IOpCl=  1 I1Cent=           0 NGrid=           0
         NMat0=    1 NMatS0=      1 NMatT0=    0 NMatD0=    1 NMtDS0=    0 NMtDT0=    0
 Symmetry not used in FoFCou.
 Defaulting to unpruned grid for atomic number  47.
 Defaulting to unpruned grid for atomic number  47.
 Defaulting to unpruned grid for atomic number  47.
 Defaulting to unpruned grid for atomic number  47.
 Defaulting to unpruned grid for atomic number  47.
 Defaulting to unpruned grid for atomic number  47.
 Defaulting to unpruned grid for atomic number  47.
 Defaulting to unpruned grid for atomic number  47.
 E= -562.491409135096    
 DIIS: error= 5.93D-02 at cycle   1 NSaved=   1.
 NSaved= 1 IEnMin= 1 EnMin= -562.491409135096     IErMin= 1 ErrMin= 5.93D-02
 ErrMax= 5.93D-02  0.00D+00 EMaxC= 1.00D-01 BMatC= 1.17D+00 BMatP= 1.17D+00
 IDIUse=3 WtCom= 4.07D-01 WtEn= 5.93D-01
 Coeff-Com:  0.100D+01
 Coeff-En:   0.100D+01
 Coeff:      0.100D+01
 Gap=     0.116 Goal=   None    Shift=    0.300
 Gap=     0.722 Goal=   None    Shift=    0.300
 GapD=    0.116 DampG=1.000 DampE=0.250 DampFc=0.2500 IDamp=-1.
 Damping current iteration by 2.50D-01
 RMSDP=6.55D-03 MaxDP=1.17D-01              OVMax= 1.70D-01

 Cycle   2  Pass 1  IDiag  1:
 RMSU=  1.56D-03    CP:  9.83D-01
 E= -562.617713143814     Delta-E=       -0.126304008718 Rises=F Damp=T
 DIIS: error= 3.52D-02 at cycle   2 NSaved=   2.
 NSaved= 2 IEnMin= 2 EnMin= -562.617713143814     IErMin= 2 ErrMin= 3.52D-02
 ErrMax= 3.52D-02  0.00D+00 EMaxC= 1.00D-01 BMatC= 4.61D-01 BMatP= 1.17D+00
 IDIUse=3 WtCom= 6.48D-01 WtEn= 3.52D-01
 Coeff-Com: -0.152D+01 0.252D+01
 Coeff-En:   0.000D+00 0.100D+01
 Coeff:     -0.986D+00 0.199D+01
 Gap=    -0.143 Goal=   None    Shift=    0.300
 Gap=    -0.016 Goal=   None    Shift=    0.300
 RMSDP=4.67D-03 MaxDP=7.53D-02 DE=-1.26D-01 OVMax= 6.25D-02

 Cycle   3  Pass 1  IDiag  1:
 RMSU=  1.55D-03    CP:  9.31D-01  3.00D+00
 E= -562.793011576482     Delta-E=       -0.175298432668 Rises=F Damp=F
 DIIS: error= 1.96D-02 at cycle   3 NSaved=   3.
 NSaved= 3 IEnMin= 3 EnMin= -562.793011576482     IErMin= 3 ErrMin= 1.96D-02
 ErrMax= 1.96D-02  0.00D+00 EMaxC= 1.00D-01 BMatC= 1.15D-01 BMatP= 4.61D-01
 IDIUse=3 WtCom= 8.04D-01 WtEn= 1.96D-01
 Coeff-Com:  0.468D+00-0.338D+00 0.871D+00
 Coeff-En:   0.000D+00 0.000D+00 0.100D+01
 Coeff:      0.376D+00-0.272D+00 0.896D+00
 Gap=    -0.066 Goal=   None    Shift=    0.300
 Gap=     0.069 Goal=   None    Shift=    0.300
 RMSDP=1.09D-03 MaxDP=2.83D-02 DE=-1.75D-01 OVMax= 3.03D-02

 Cycle   4  Pass 1  IDiag  1:
 RMSU=  1.00D-03    CP:  9.37D-01  3.00D+00  7.36D-01
 E= -562.822956036358     Delta-E=       -0.029944459876 Rises=F Damp=F
 DIIS: error= 1.97D-03 at cycle   4 NSaved=   4.
 NSaved= 4 IEnMin= 4 EnMin= -562.822956036358     IErMin= 4 ErrMin= 1.97D-03
 ErrMax= 1.97D-03  0.00D+00 EMaxC= 1.00D-01 BMatC= 3.01D-03 BMatP= 1.15D-01
 IDIUse=3 WtCom= 9.80D-01 WtEn= 1.97D-02
 Coeff-Com:  0.137D+00-0.110D+00 0.162D+00 0.812D+00
 Coeff-En:   0.000D+00 0.000D+00 0.000D+00 0.100D+01
 Coeff:      0.134D+00-0.108D+00 0.159D+00 0.816D+00
 Gap=    -0.073 Goal=   None    Shift=    0.300
 Gap=     0.060 Goal=   None    Shift=    0.300
 RMSDP=2.63D-04 MaxDP=6.46D-03 DE=-2.99D-02 OVMax= 2.32D-02

 Cycle   5  Pass 1  IDiag  1:
 RMSU=  2.39D-04    CP:  9.37D-01  3.00D+00  7.04D-01  1.10D+00
 E= -562.824184985694     Delta-E=       -0.001228949336 Rises=F Damp=F
 DIIS: error= 1.52D-03 at cycle   5 NSaved=   5.
 NSaved= 5 IEnMin= 5 EnMin= -562.824184985694     IErMin= 5 ErrMin= 1.52D-03
 ErrMax= 1.52D-03  0.00D+00 EMaxC= 1.00D-01 BMatC= 6.55D-04 BMatP= 3.01D-03
 IDIUse=3 WtCom= 9.85D-01 WtEn= 1.52D-02
 Coeff-Com: -0.128D+00 0.167D+00-0.107D+00 0.194D+00 0.874D+00
 Coeff-En:   0.000D+00 0.000D+00 0.000D+00 0.000D+00 0.100D+01
 Coeff:     -0.126D+00 0.164D+00-0.105D+00 0.191D+00 0.876D+00
 Gap=    -0.070 Goal=   None    Shift=    0.300
 Gap=     0.063 Goal=   None    Shift=    0.300
 RMSDP=1.50D-04 MaxDP=4.81D-03 DE=-1.23D-03 OVMax= 2.06D-02

 Cycle   6  Pass 1  IDiag  1:
 RMSU=  9.78D-05    CP:  9.37D-01  3.00D+00  7.08D-01  1.15D+00  1.42D+00
 E= -562.824719704080     Delta-E=       -0.000534718386 Rises=F Damp=F
 DIIS: error= 1.33D-03 at cycle   6 NSaved=   6.
 NSaved= 6 IEnMin= 6 EnMin= -562.824719704080     IErMin= 6 ErrMin= 1.33D-03
 ErrMax= 1.33D-03  0.00D+00 EMaxC= 1.00D-01 BMatC= 1.98D-04 BMatP= 6.55D-04
 IDIUse=3 WtCom= 9.87D-01 WtEn= 1.33D-02
 Coeff-Com: -0.235D-02-0.444D-03-0.105D-01-0.826D-01-0.493D+00 0.159D+01
 Coeff-En:   0.000D+00 0.000D+00 0.000D+00 0.000D+00 0.000D+00 0.100D+01
 Coeff:     -0.232D-02-0.438D-03-0.103D-01-0.815D-01-0.487D+00 0.158D+01
 Gap=    -0.068 Goal=   None    Shift=    0.300
 Gap=     0.066 Goal=   None    Shift=    0.300
 RMSDP=1.28D-04 MaxDP=4.73D-03 DE=-5.35D-04 OVMax= 2.00D-02

 Cycle   7  Pass 1  IDiag  1:
 RMSU=  4.75D-05    CP:  9.37D-01  3.00D+00  7.16D-01  1.19D+00  1.77D+00
                    CP:  1.75D+00
 E= -562.825081125226     Delta-E=       -0.000361421146 Rises=F Damp=F
 DIIS: error= 1.26D-03 at cycle   7 NSaved=   7.
 NSaved= 7 IEnMin= 7 EnMin= -562.825081125226     IErMin= 7 ErrMin= 1.26D-03
 ErrMax= 1.26D-03  0.00D+00 EMaxC= 1.00D-01 BMatC= 1.34D-04 BMatP= 1.98D-04
 IDIUse=3 WtCom= 9.87D-01 WtEn= 1.26D-02
 Coeff-Com:  0.719D-01-0.983D-01 0.432D-01-0.149D+00-0.685D+00 0.793D+00
 Coeff-Com:  0.102D+01
 Coeff-En:   0.000D+00 0.000D+00 0.000D+00 0.000D+00 0.000D+00 0.000D+00
 Coeff-En:   0.100D+01
 Coeff:      0.710D-01-0.971D-01 0.427D-01-0.147D+00-0.677D+00 0.783D+00
 Coeff:      0.102D+01
 Gap=    -0.066 Goal=   None    Shift=    0.300
 Gap=     0.068 Goal=   None    Shift=    0.300
 RMSDP=1.09D-04 MaxDP=4.50D-03 DE=-3.61D-04 OVMax= 1.83D-02

 Cycle   8  Pass 1  IDiag  1:
 RMSU=  3.05D-05    CP:  9.37D-01  3.00D+00  7.24D-01  1.22D+00  2.05D+00
                    CP:  2.39D+00  1.78D+00
 E= -562.825355395887     Delta-E=       -0.000274270661 Rises=F Damp=F
 DIIS: error= 1.06D-03 at cycle   8 NSaved=   8.
 NSaved= 8 IEnMin= 8 EnMin= -562.825355395887     IErMin= 8 ErrMin= 1.06D-03
 ErrMax= 1.06D-03  0.00D+00 EMaxC= 1.00D-01 BMatC= 7.98D-05 BMatP= 1.34D-04
 IDIUse=3 WtCom= 9.89D-01 WtEn= 1.06D-02
 Coeff-Com:  0.596D-01-0.786D-01 0.437D-01-0.671D-01-0.125D+00-0.471D+00
 Coeff-Com:  0.212D+00 0.143D+01
 Coeff-En:   0.000D+00 0.000D+00 0.000D+00 0.000D+00 0.000D+00 0.000D+00
 Coeff-En:   0.000D+00 0.100D+01
 Coeff:      0.590D-01-0.778D-01 0.432D-01-0.664D-01-0.124D+00-0.466D+00
 Coeff:      0.209D+00 0.142D+01
 Gap=    -0.065 Goal=   None    Shift=    0.300
 Gap=     0.070 Goal=   None    Shift=    0.300
 RMSDP=9.87D-05 MaxDP=4.19D-03 DE=-2.74D-04 OVMax= 1.70D-02

 Cycle   9  Pass 1  IDiag  1:
 RMSU=  1.86D-05    CP:  9.36D-01  3.00D+00  7.32D-01  1.25D+00  2.29D+00
                    CP:  2.93D+00  2.61D+00  1.91D+00
 E= -562.825564392270     Delta-E=       -0.000208996383 Rises=F Damp=F
 DIIS: error= 9.45D-04 at cycle   9 NSaved=   9.
 NSaved= 9 IEnMin= 9 EnMin= -562.825564392270     IErMin= 9 ErrMin= 9.45D-04
 ErrMax= 9.45D-04  0.00D+00 EMaxC= 1.00D-01 BMatC= 5.71D-05 BMatP= 7.98D-05
 IDIUse=3 WtCom= 9.91D-01 WtEn= 9.45D-03
 Coeff-Com:  0.131D-01-0.155D-01 0.186D-01 0.937D-02 0.186D+00-0.727D+00
 Coeff-Com: -0.302D+00 0.553D+00 0.126D+01
 Coeff-En:   0.000D+00 0.000D+00 0.000D+00 0.000D+00 0.000D+00 0.000D+00
 Coeff-En:   0.000D+00 0.000D+00 0.100D+01
 Coeff:      0.130D-01-0.154D-01 0.185D-01 0.929D-02 0.185D+00-0.720D+00
 Coeff:     -0.299D+00 0.548D+00 0.126D+01
 Gap=    -0.064 Goal=   None    Shift=    0.300
 Gap=     0.071 Goal=   None    Shift=    0.300
 RMSDP=8.69D-05 MaxDP=3.84D-03 DE=-2.09D-04 OVMax= 1.54D-02

 Cycle  10  Pass 1  IDiag  1:
 RMSU=  4.62D-05    CP:  9.36D-01  3.00D+00  7.38D-01  1.27D+00  2.49D+00
                    CP:  3.00D+00  3.00D+00  2.81D+00  1.71D+00
 E= -562.825723488925     Delta-E=       -0.000159096655 Rises=F Damp=F
 DIIS: error= 8.29D-04 at cycle  10 NSaved=  10.
 NSaved=10 IEnMin=10 EnMin= -562.825723488925     IErMin=10 ErrMin= 8.29D-04
 ErrMax= 8.29D-04  0.00D+00 EMaxC= 1.00D-01 BMatC= 4.15D-05 BMatP= 5.71D-05
 IDIUse=3 WtCom= 9.92D-01 WtEn= 8.29D-03
 Coeff-Com: -0.112D-01 0.153D-01-0.319D-02 0.330D-01-0.106D+00 0.351D+00
 Coeff-Com: -0.167D+00-0.845D+00-0.138D+01 0.311D+01
 Coeff-En:   0.000D+00 0.000D+00 0.000D+00 0.000D+00 0.000D+00 0.000D+00
 Coeff-En:   0.000D+00 0.000D+00 0.000D+00 0.100D+01
 Coeff:     -0.111D-01 0.152D-01-0.316D-02 0.327D-01-0.105D+00 0.348D+00
 Coeff:     -0.165D+00-0.838D+00-0.137D+01 0.309D+01
 Gap=    -0.063 Goal=   None    Shift=    0.300
 Gap=     0.074 Goal=   None    Shift=    0.300
 RMSDP=9.13D-05 MaxDP=3.66D-03 DE=-1.59D-04 OVMax= 1.50D-02

 Cycle  11  Pass 1  IDiag  1:
 RMSU=  3.22D-05    CP:  9.36D-01  3.00D+00  7.42D-01  1.29D+00  2.67D+00
                    CP:  3.00D+00  3.00D+00  3.00D+00  2.83D+00  2.37D+00
 E= -562.825851814882     Delta-E=       -0.000128325957 Rises=F Damp=F
 DIIS: error= 7.76D-04 at cycle  11 NSaved=  11.
 NSaved=11 IEnMin=11 EnMin= -562.825851814882     IErMin=11 ErrMin= 7.76D-04
 ErrMax= 7.76D-04  0.00D+00 EMaxC= 1.00D-01 BMatC= 4.39D-05 BMatP= 4.15D-05
 IDIUse=3 WtCom= 9.92D-01 WtEn= 7.76D-03
 Coeff-Com:  0.157D-02-0.309D-02 0.986D-03 0.146D-01-0.218D+00 0.618D+00
 Coeff-Com:  0.115D-01-0.855D+00-0.200D+01 0.287D+01 0.559D+00
 Coeff-En:   0.000D+00 0.000D+00 0.000D+00 0.000D+00 0.000D+00 0.000D+00
 Coeff-En:   0.000D+00 0.000D+00 0.000D+00 0.000D+00 0.100D+01
 Coeff:      0.156D-02-0.306D-02 0.978D-03 0.145D-01-0.216D+00 0.613D+00
 Coeff:      0.114D-01-0.848D+00-0.199D+01 0.285D+01 0.562D+00
 Gap=    -0.062 Goal=   None    Shift=    0.300
 Gap=     0.075 Goal=   None    Shift=    0.300
 RMSDP=6.83D-05 MaxDP=3.13D-03 DE=-1.28D-04 OVMax= 1.24D-02

 Cycle  12  Pass 1  IDiag  1:
 RMSU=  2.84D-05    CP:  9.36D-01  3.00D+00  7.47D-01  1.31D+00  2.81D+00
                    CP:  3.00D+00  3.00D+00  3.00D+00  3.00D+00  3.00D+00
                    CP:  1.68D+00
 E= -562.825941440871     Delta-E=       -0.000089625989 Rises=F Damp=F
 DIIS: error= 6.57D-04 at cycle  12 NSaved=  12.
 NSaved=12 IEnMin=12 EnMin= -562.825941440871     IErMin=12 ErrMin= 6.57D-04
 ErrMax= 6.57D-04  0.00D+00 EMaxC= 1.00D-01 BMatC= 3.15D-05 BMatP= 4.15D-05
 IDIUse=3 WtCom= 9.93D-01 WtEn= 6.57D-03
 Coeff-Com:  0.295D-01-0.407D-01 0.174D-01-0.468D-01-0.181D+00 0.351D+00
 Coeff-Com:  0.226D+00-0.154D+00-0.103D+01 0.671D+00-0.198D+01 0.313D+01
 Coeff-En:   0.000D+00 0.000D+00 0.000D+00 0.000D+00 0.000D+00 0.000D+00
 Coeff-En:   0.000D+00 0.000D+00 0.000D+00 0.000D+00 0.000D+00 0.100D+01
 Coeff:      0.293D-01-0.404D-01 0.173D-01-0.465D-01-0.180D+00 0.348D+00
 Coeff:      0.225D+00-0.153D+00-0.102D+01 0.667D+00-0.196D+01 0.312D+01
 Gap=    -0.062 Goal=   None    Shift=    0.300
 Gap=     0.077 Goal=   None    Shift=    0.300
 RMSDP=6.97D-05 MaxDP=2.99D-03 DE=-8.96D-05 OVMax= 1.19D-02

 Cycle  13  Pass 1  IDiag  1:
 RMSU=  2.79D-05    CP:  9.36D-01  3.00D+00  7.50D-01  1.32D+00  2.95D+00
                    CP:  3.00D+00  3.00D+00  3.00D+00  3.00D+00  3.00D+00
                    CP:  2.46D+00  2.58D+00
 E= -562.826008442713     Delta-E=       -0.000067001842 Rises=F Damp=F
 DIIS: error= 6.03D-04 at cycle  13 NSaved=  13.
 NSaved=13 IEnMin=13 EnMin= -562.826008442713     IErMin=13 ErrMin= 6.03D-04
 ErrMax= 6.03D-04  0.00D+00 EMaxC= 1.00D-01 BMatC= 3.71D-05 BMatP= 3.15D-05
 IDIUse=3 WtCom= 9.93D-01 WtEn= 6.57D-03
 Coeff-Com:  0.229D-01-0.308D-01 0.184D-01-0.531D-01 0.343D-01-0.199D+00
 Coeff-Com:  0.139D+00 0.380D+00 0.674D+00-0.856D+00-0.387D+01 0.364D+01
 Coeff-Com:  0.110D+01
 Coeff-En:   0.000D+00 0.000D+00 0.000D+00 0.000D+00 0.000D+00 0.000D+00
 Coeff-En:   0.000D+00 0.000D+00 0.000D+00 0.000D+00 0.000D+00 0.000D+00
 Coeff-En:   0.100D+01
 Coeff:      0.228D-01-0.306D-01 0.183D-01-0.528D-01 0.341D-01-0.198D+00
 Coeff:      0.138D+00 0.378D+00 0.670D+00-0.850D+00-0.384D+01 0.361D+01
 Coeff:      0.110D+01
 Gap=    -0.061 Goal=   None    Shift=    0.300
 Gap=     0.077 Goal=   None    Shift=    0.300
 RMSDP=5.82D-05 MaxDP=2.63D-03 DE=-6.70D-05 OVMax= 1.05D-02

 Cycle  14  Pass 1  IDiag  1:
 RMSU=  3.46D-05    CP:  9.36D-01  3.00D+00  7.53D-01  1.34D+00  3.00D+00
                    CP:  3.00D+00  3.00D+00  3.00D+00  3.00D+00  3.00D+00
                    CP:  3.00D+00  3.00D+00  1.57D+00
 E= -562.826060061211     Delta-E=       -0.000051618498 Rises=F Damp=F
 DIIS: error= 5.14D-04 at cycle  14 NSaved=  14.
 NSaved=14 IEnMin=14 EnMin= -562.826060061211     IErMin=14 ErrMin= 5.14D-04
 ErrMax= 5.14D-04  0.00D+00 EMaxC= 1.00D-01 BMatC= 2.91D-05 BMatP= 3.15D-05
 IDIUse=3 WtCom= 9.95D-01 WtEn= 5.14D-03
 Coeff-Com:  0.968D-02-0.125D-01 0.120D-01-0.132D-01 0.291D-02-0.230D+00
 Coeff-Com:  0.182D-01 0.295D+00 0.749D+00-0.279D+00-0.249D+01 0.187D+01
 Coeff-Com: -0.151D+01 0.257D+01
 Coeff-En:   0.000D+00 0.000D+00 0.000D+00 0.000D+00 0.000D+00 0.000D+00
 Coeff-En:   0.000D+00 0.000D+00 0.000D+00 0.000D+00 0.000D+00 0.000D+00
 Coeff-En:   0.000D+00 0.100D+01
 Coeff:      0.963D-02-0.124D-01 0.120D-01-0.131D-01 0.290D-02-0.229D+00
 Coeff:      0.181D-01 0.293D+00 0.746D+00-0.277D+00-0.247D+01 0.186D+01
 Coeff:     -0.150D+01 0.257D+01
 Gap=    -0.061 Goal=   None    Shift=    0.300
 Gap=     0.078 Goal=   None    Shift=    0.300
 RMSDP=4.84D-05 MaxDP=2.28D-03 DE=-5.16D-05 OVMax= 8.98D-03

 Cycle  15  Pass 1  IDiag  1:
 RMSU=  1.26D-05    CP:  9.36D-01  3.00D+00  7.56D-01  1.35D+00  3.00D+00
                    CP:  3.00D+00  3.00D+00  3.00D+00  3.00D+00  3.00D+00
                    CP:  3.00D+00  3.00D+00  1.99D+00  2.27D+00
 E= -562.826098043561     Delta-E=       -0.000037982350 Rises=F Damp=F
 DIIS: error= 4.31D-04 at cycle  15 NSaved=  15.
 NSaved=15 IEnMin=15 EnMin= -562.826098043561     IErMin=15 ErrMin= 4.31D-04
 ErrMax= 4.31D-04  0.00D+00 EMaxC= 1.00D-01 BMatC= 2.15D-05 BMatP= 2.91D-05
 IDIUse=3 WtCom= 9.96D-01 WtEn= 4.31D-03
 Coeff-Com:  0.125D-01-0.167D-01 0.953D-02-0.655D-03-0.784D-01 0.136D-01
 Coeff-Com: -0.346D-01 0.714D-01-0.230D+00 0.727D+00-0.403D+00 0.268D+00
 Coeff-Com: -0.155D+01-0.454D+00 0.267D+01
 Coeff-En:   0.000D+00 0.000D+00 0.000D+00 0.000D+00 0.000D+00 0.000D+00
 Coeff-En:   0.000D+00 0.000D+00 0.000D+00 0.000D+00 0.000D+00 0.000D+00
 Coeff-En:   0.000D+00 0.000D+00 0.100D+01
 Coeff:      0.125D-01-0.166D-01 0.949D-02-0.652D-03-0.781D-01 0.135D-01
 Coeff:     -0.344D-01 0.711D-01-0.229D+00 0.723D+00-0.401D+00 0.267D+00
 Coeff:     -0.155D+01-0.452D+00 0.266D+01
 Gap=    -0.061 Goal=   None    Shift=    0.300
 Gap=     0.079 Goal=   None    Shift=    0.300
 RMSDP=4.13D-05 MaxDP=2.00D-03 DE=-3.80D-05 OVMax= 7.70D-03

 Cycle  16  Pass 1  IDiag  1:
 RMSU=  1.35D-05    CP:  9.36D-01  3.00D+00  7.58D-01  1.35D+00  3.00D+00
                    CP:  3.00D+00  3.00D+00  3.00D+00  3.00D+00  3.00D+00
                    CP:  3.00D+00  3.00D+00  2.31D+00  3.00D+00  1.87D+00
 E= -562.826126159779     Delta-E=       -0.000028116218 Rises=F Damp=F
 DIIS: error= 3.74D-04 at cycle  16 NSaved=  16.
 NSaved=16 IEnMin=16 EnMin= -562.826126159779     IErMin=16 ErrMin= 3.74D-04
 ErrMax= 3.74D-04  0.00D+00 EMaxC= 1.00D-01 BMatC= 1.75D-05 BMatP= 2.15D-05
 IDIUse=3 WtCom= 9.96D-01 WtEn= 3.74D-03
 Coeff-Com:  0.123D-01-0.170D-01 0.669D-02-0.882D-02-0.718D-01 0.159D+00
 Coeff-Com: -0.198D-01-0.114D+00-0.748D+00 0.105D+01 0.398D-01 0.206D+00
 Coeff-Com: -0.347D+00-0.242D+01 0.193D+01 0.134D+01
 Coeff-En:   0.000D+00 0.000D+00 0.000D+00 0.000D+00 0.000D+00 0.000D+00
 Coeff-En:   0.000D+00 0.000D+00 0.000D+00 0.000D+00 0.000D+00 0.000D+00
 Coeff-En:   0.000D+00 0.000D+00 0.000D+00 0.100D+01
 Coeff:      0.122D-01-0.169D-01 0.667D-02-0.879D-02-0.715D-01 0.158D+00
 Coeff:     -0.197D-01-0.114D+00-0.745D+00 0.105D+01 0.397D-01 0.205D+00
 Coeff:     -0.345D+00-0.241D+01 0.193D+01 0.134D+01
 Gap=    -0.060 Goal=   None    Shift=    0.300
 Gap=     0.079 Goal=   None    Shift=    0.300
 RMSDP=3.55D-05 MaxDP=1.72D-03 DE=-2.81D-05 OVMax= 6.66D-03

 Cycle  17  Pass 1  IDiag  1:
 RMSU=  1.11D-05    CP:  9.36D-01  3.00D+00  7.60D-01  1.36D+00  3.00D+00
                    CP:  3.00D+00  3.00D+00  3.00D+00  3.00D+00  3.00D+00
                    CP:  3.00D+00  3.00D+00  2.55D+00  3.00D+00  2.66D+00
                    CP:  3.00D+00
 E= -562.826148186993     Delta-E=       -0.000022027214 Rises=F Damp=F
 DIIS: error= 3.21D-04 at cycle  17 NSaved=  17.
 NSaved=17 IEnMin=17 EnMin= -562.826148186993     IErMin=17 ErrMin= 3.21D-04
 ErrMax= 3.21D-04  0.00D+00 EMaxC= 1.00D-01 BMatC= 1.38D-05 BMatP= 1.75D-05
 IDIUse=3 WtCom= 9.97D-01 WtEn= 3.21D-03
 Coeff-Com:  0.105D-01-0.146D-01 0.644D-02-0.142D-01-0.535D-01 0.134D+00
 Coeff-Com:  0.200D-01-0.115D+00-0.587D+00 0.794D+00-0.386D+00 0.627D+00
 Coeff-Com: -0.411D-01-0.177D+01 0.937D+00 0.481D+00 0.967D+00
 Coeff-En:   0.000D+00 0.000D+00 0.000D+00 0.000D+00 0.000D+00 0.000D+00
 Coeff-En:   0.000D+00 0.000D+00 0.000D+00 0.000D+00 0.000D+00 0.000D+00
 Coeff-En:   0.000D+00 0.000D+00 0.000D+00 0.000D+00 0.100D+01
 Coeff:      0.105D-01-0.146D-01 0.642D-02-0.141D-01-0.533D-01 0.133D+00
 Coeff:      0.199D-01-0.114D+00-0.585D+00 0.792D+00-0.385D+00 0.625D+00
 Coeff:     -0.410D-01-0.176D+01 0.934D+00 0.480D+00 0.967D+00
 Gap=    -0.060 Goal=   None    Shift=    0.300
 Gap=     0.079 Goal=   None    Shift=    0.300
 RMSDP=3.16D-05 MaxDP=1.46D-03 DE=-2.20D-05 OVMax= 5.98D-03

 Cycle  18  Pass 1  IDiag  1:
 RMSU=  2.49D-05    CP:  9.36D-01  3.00D+00  7.62D-01  1.37D+00  3.00D+00
                    CP:  3.00D+00  3.00D+00  3.00D+00  3.00D+00  3.00D+00
                    CP:  3.00D+00  3.00D+00  2.69D+00  3.00D+00  3.00D+00
                    CP:  3.00D+00  2.48D+00
 E= -562.826167505599     Delta-E=       -0.000019318607 Rises=F Damp=F
 DIIS: error= 2.69D-04 at cycle  18 NSaved=  18.
 NSaved=18 IEnMin=18 EnMin= -562.826167505599     IErMin=18 ErrMin= 2.69D-04
 ErrMax= 2.69D-04  0.00D+00 EMaxC= 1.00D-01 BMatC= 1.03D-05 BMatP= 1.38D-05
 IDIUse=3 WtCom= 9.97D-01 WtEn= 2.69D-03
 Coeff-Com:  0.101D-01-0.142D-01 0.635D-02-0.200D-01-0.496D-01 0.179D+00
 Coeff-Com:  0.426D-01-0.199D+00-0.732D+00 0.939D+00-0.603D+00 0.939D+00
 Coeff-Com:  0.309D+00-0.207D+01 0.391D+00-0.485D-01 0.319D+01-0.127D+01
 Coeff-En:   0.000D+00 0.000D+00 0.000D+00 0.000D+00 0.000D+00 0.000D+00
 Coeff-En:   0.000D+00 0.000D+00 0.000D+00 0.000D+00 0.000D+00 0.000D+00
 Coeff-En:   0.000D+00 0.000D+00 0.000D+00 0.000D+00 0.000D+00 0.100D+01
 Coeff:      0.100D-01-0.141D-01 0.633D-02-0.200D-01-0.494D-01 0.179D+00
 Coeff:      0.425D-01-0.198D+00-0.730D+00 0.937D+00-0.601D+00 0.937D+00
 Coeff:      0.309D+00-0.207D+01 0.390D+00-0.484D-01 0.318D+01-0.126D+01
 Gap=    -0.060 Goal=   None    Shift=    0.300
 Gap=     0.079 Goal=   None    Shift=    0.300
 RMSDP=3.00D-05 MaxDP=1.23D-03 DE=-1.93D-05 OVMax= 5.68D-03

 Cycle  19  Pass 1  IDiag  1:
 RMSU=  1.08D-05    CP:  9.36D-01  3.00D+00  7.64D-01  1.37D+00  3.00D+00
                    CP:  3.00D+00  3.00D+00  3.00D+00  3.00D+00  3.00D+00
                    CP:  3.00D+00  3.00D+00  2.80D+00  3.00D+00  3.00D+00
                    CP:  3.00D+00  3.00D+00  2.00D+00
 E= -562.826186343393     Delta-E=       -0.000018837794 Rises=F Damp=F
 DIIS: error= 2.50D-04 at cycle  19 NSaved=  19.
 NSaved=19 IEnMin=19 EnMin= -562.826186343393     IErMin=19 ErrMin= 2.50D-04
 ErrMax= 2.50D-04  0.00D+00 EMaxC= 1.00D-01 BMatC= 9.45D-06 BMatP= 1.03D-05
 IDIUse=3 WtCom= 9.97D-01 WtEn= 2.50D-03
 Coeff-Com:  0.101D-01-0.142D-01 0.639D-02-0.170D-01-0.533D-01 0.169D+00
 Coeff-Com:  0.401D-01-0.184D+00-0.694D+00 0.894D+00-0.474D+00 0.780D+00
 Coeff-Com:  0.162D+00-0.181D+01 0.450D+00 0.154D+00 0.138D+01 0.112D+01
 Coeff-Com: -0.919D+00
 Coeff-En:   0.000D+00 0.000D+00 0.000D+00 0.000D+00 0.000D+00 0.000D+00
 Coeff-En:   0.000D+00 0.000D+00 0.000D+00 0.000D+00 0.000D+00 0.000D+00
 Coeff-En:   0.000D+00 0.000D+00 0.000D+00 0.000D+00 0.000D+00 0.000D+00
 Coeff-En:   0.100D+01
 Coeff:      0.101D-01-0.141D-01 0.637D-02-0.170D-01-0.532D-01 0.169D+00
 Coeff:      0.400D-01-0.184D+00-0.692D+00 0.892D+00-0.473D+00 0.778D+00
 Coeff:      0.161D+00-0.181D+01 0.449D+00 0.153D+00 0.138D+01 0.112D+01
 Coeff:     -0.914D+00
 Gap=    -0.060 Goal=   None    Shift=    0.300
 Gap=     0.079 Goal=   None    Shift=    0.300
 RMSDP=3.21D-05 MaxDP=1.15D-03 DE=-1.88D-05 OVMax= 6.04D-03

 Cycle  20  Pass 1  IDiag  1:
 RMSU=  4.67D-06    CP:  9.36D-01  3.00D+00  7.66D-01  1.37D+00  3.00D+00
                    CP:  3.00D+00  3.00D+00  3.00D+00  3.00D+00  3.00D+00
                    CP:  3.00D+00  3.00D+00  2.89D+00  3.00D+00  3.00D+00
                    CP:  3.00D+00  3.00D+00  3.00D+00  2.59D+00
 E= -562.826209044020     Delta-E=       -0.000022700627 Rises=F Damp=F
 DIIS: error= 3.28D-04 at cycle  20 NSaved=  20.
 NSaved=20 IEnMin=20 EnMin= -562.826209044020     IErMin=19 ErrMin= 2.50D-04
 ErrMax= 3.28D-04  0.00D+00 EMaxC= 1.00D-01 BMatC= 1.17D-05 BMatP= 9.45D-06
 IDIUse=3 WtCom= 9.97D-01 WtEn= 2.50D-03
 Large coefficients: NSaved= 20 BigCof=   10.45 CofMax=   10.00 Det=-6.32D-09
 Inversion failed.  Reducing to 19 matrices.
 Large coefficients: NSaved= 19 BigCof=   10.29 CofMax=   10.00 Det=-6.32D-09
 Inversion failed.  Reducing to 18 matrices.
 Large coefficients: NSaved= 18 BigCof=   10.20 CofMax=   10.00 Det=-6.33D-09
 Inversion failed.  Reducing to 17 matrices.
 Coeff-Com: -0.221D-03-0.145D-01 0.129D+00 0.146D-01-0.227D+00-0.535D+00
 Coeff-Com:  0.781D+00-0.491D+00 0.749D+00 0.418D-01-0.853D+00-0.321D+00
 Coeff-Com: -0.436D+00 0.257D+01-0.528D+01 0.950D+01-0.464D+01
 Coeff-En:   0.000D+00 0.000D+00 0.000D+00 0.000D+00 0.000D+00 0.000D+00
 Coeff-En:   0.000D+00 0.000D+00 0.000D+00 0.000D+00 0.000D+00 0.000D+00
 Coeff-En:   0.000D+00 0.000D+00 0.000D+00 0.000D+00 0.100D+01
 Coeff:     -0.221D-03-0.145D-01 0.129D+00 0.146D-01-0.227D+00-0.534D+00
 Coeff:      0.780D+00-0.490D+00 0.747D+00 0.417D-01-0.851D+00-0.320D+00
 Coeff:     -0.435D+00 0.257D+01-0.526D+01 0.948D+01-0.463D+01
 Gap=    -0.060 Goal=   None    Shift=    0.300
 Gap=     0.079 Goal=   None    Shift=    0.300
 RMSDP=3.64D-05 MaxDP=1.38D-03 DE=-2.27D-05 OVMax= 6.80D-03

 Cycle  21  Pass 1  IDiag  1:
 Restarting incremental Fock formation.
 E= -562.826239383948     Delta-E=       -0.000030339928 Rises=F Damp=F
 DIIS: error= 4.19D-04 at cycle  21 NSaved=  18.
 NSaved=18 IEnMin=18 EnMin= -562.826239383948     IErMin=16 ErrMin= 2.50D-04
 ErrMax= 4.19D-04  0.00D+00 EMaxC= 1.00D-01 BMatC= 1.85D-05 BMatP= 9.45D-06
 IDIUse=3 WtCom= 9.97D-01 WtEn= 2.50D-03
 Large coefficients: NSaved= 18 BigCof=   13.69 CofMax=   10.00 Det=-2.89D-09
 Inversion failed.  Reducing to 17 matrices.
 Large coefficients: NSaved= 17 BigCof=   13.69 CofMax=   10.00 Det=-2.94D-09
 Inversion failed.  Reducing to 16 matrices.
 Large coefficients: NSaved= 16 BigCof=   13.76 CofMax=   10.00 Det=-2.95D-09
 Inversion failed.  Reducing to 15 matrices.
 Large coefficients: NSaved= 15 BigCof=   15.28 CofMax=   10.00 Det=-3.89D-09
 Inversion failed.  Reducing to 14 matrices.
 Large coefficients: NSaved= 14 BigCof=   14.96 CofMax=   10.00 Det=-4.07D-09
 Inversion failed.  Reducing to 13 matrices.
 Large coefficients: NSaved= 13 BigCof=   15.13 CofMax=   10.00 Det=-4.09D-09
 Inversion failed.  Reducing to 12 matrices.
 Large coefficients: NSaved= 12 BigCof=   15.68 CofMax=   10.00 Det=-4.28D-09
 Inversion failed.  Reducing to 11 matrices.
 Large coefficients: NSaved= 11 BigCof=   16.17 CofMax=   10.00 Det=-4.29D-09
 Inversion failed.  Reducing to 10 matrices.
 Large coefficients: NSaved= 10 BigCof=   11.59 CofMax=   10.00 Det=-5.20D-09
 Inversion failed.  Reducing to  9 matrices.
 Large coefficients: NSaved=  9 BigCof=   10.47 CofMax=   10.00 Det=-5.28D-09
 Inversion failed.  Reducing to  8 matrices.
 Large coefficients: NSaved=  8 BigCof=   11.15 CofMax=   10.00 Det=-5.53D-09
 Inversion failed.  Reducing to  7 matrices.
 Large coefficients: NSaved=  7 BigCof=   12.39 CofMax=   10.00 Det=-6.11D-09
 Inversion failed.  Reducing to  6 matrices.
 Large coefficients: NSaved=  6 BigCof=   11.69 CofMax=   10.00 Det=-6.29D-09
 Inversion failed.  Reducing to  5 matrices.
 Large coefficients: NSaved=  5 BigCof=   11.74 CofMax=   10.00 Det=-6.31D-09
 Inversion failed.  Reducing to  4 matrices.
 Large coefficients: NSaved=  4 BigCof=   17.39 CofMax=   10.00 Det=-8.46D-09
 Inversion failed.  Reducing to  3 matrices.
 Coeff-Com:  0.342D+00 0.169D+01-0.103D+01
 Coeff-En:   0.000D+00 0.000D+00 0.100D+01
 Coeff:      0.341D+00 0.168D+01-0.102D+01
 Gap=    -0.061 Goal=   None    Shift=    0.300
 Gap=     0.078 Goal=   None    Shift=    0.300
 RMSDP=4.77D-05 MaxDP=1.91D-03 DE=-3.03D-05 OVMax= 8.61D-03

 Cycle  22  Pass 1  IDiag  1:
 RMSU=  4.77D-05    CP:  1.00D+00
 E= -562.826287529679     Delta-E=       -0.000048145731 Rises=F Damp=F
 DIIS: error= 5.46D-04 at cycle  22 NSaved=   4.
 NSaved= 4 IEnMin= 4 EnMin= -562.826287529679     IErMin= 1 ErrMin= 2.50D-04
 ErrMax= 5.46D-04  0.00D+00 EMaxC= 1.00D-01 BMatC= 3.22D-05 BMatP= 9.45D-06
 IDIUse=3 WtCom= 9.97D-01 WtEn= 2.50D-03
 Coeff-Com:  0.163D+01 0.298D+00-0.155D+01 0.622D+00
 Coeff-En:   0.000D+00 0.000D+00 0.000D+00 0.100D+01
 Coeff:      0.162D+01 0.297D+00-0.154D+01 0.623D+00
 Gap=    -0.061 Goal=   None    Shift=    0.300
 Gap=     0.078 Goal=   None    Shift=    0.300
 RMSDP=5.74D-05 MaxDP=2.38D-03 DE=-4.81D-05 OVMax= 1.06D-02

 Cycle  23  Pass 1  IDiag  1:
 RMSU=  1.26D-05    CP:  1.00D+00  2.17D+00
 E= -562.826363704478     Delta-E=       -0.000076174799 Rises=F Damp=F
 DIIS: error= 7.02D-04 at cycle  23 NSaved=   5.
 NSaved= 5 IEnMin= 5 EnMin= -562.826363704478     IErMin= 1 ErrMin= 2.50D-04
 ErrMax= 7.02D-04  0.00D+00 EMaxC= 1.00D-01 BMatC= 5.42D-05 BMatP= 9.45D-06
 IDIUse=3 WtCom= 9.97D-01 WtEn= 2.50D-03
 Coeff-Com: -0.435D+01 0.635D+01-0.826D+00 0.247D+01-0.264D+01
 Coeff-En:   0.000D+00 0.000D+00 0.000D+00 0.000D+00 0.100D+01
 Coeff:     -0.434D+01 0.633D+01-0.824D+00 0.247D+01-0.263D+01
 Gap=    -0.060 Goal=   None    Shift=    0.300
 Gap=     0.079 Goal=   None    Shift=    0.300
 RMSDP=6.93D-05 MaxDP=2.78D-03 DE=-7.62D-05 OVMax= 1.28D-02

 Cycle  24  Pass 1  IDiag  1:
 RMSU=  2.99D-05    CP:  1.00D+00  3.00D+00  2.66D+00
 E= -562.826481251228     Delta-E=       -0.000117546750 Rises=F Damp=F
 DIIS: error= 8.85D-04 at cycle  24 NSaved=   6.
 NSaved= 6 IEnMin= 6 EnMin= -562.826481251228     IErMin= 1 ErrMin= 2.50D-04
 ErrMax= 8.85D-04  0.00D+00 EMaxC= 1.00D-01 BMatC= 8.40D-05 BMatP= 9.45D-06
 IDIUse=3 WtCom= 9.97D-01 WtEn= 2.50D-03
 Coeff-Com: -0.272D+01 0.362D+01 0.574D+00 0.108D+01-0.782D+00-0.769D+00
 Coeff-En:   0.000D+00 0.000D+00 0.000D+00 0.000D+00 0.000D+00 0.100D+01
 Coeff:     -0.271D+01 0.361D+01 0.573D+00 0.108D+01-0.780D+00-0.765D+00
 Gap=    -0.060 Goal=   None    Shift=    0.300
 Gap=     0.079 Goal=   None    Shift=    0.300
 RMSDP=8.33D-05 MaxDP=3.42D-03 DE=-1.18D-04 OVMax= 1.55D-02

 Cycle  25  Pass 1  IDiag  1:
 RMSU=  4.49D-05    CP:  1.00D+00  3.00D+00  3.00D+00  3.00D+00
 E= -562.826659023745     Delta-E=       -0.000177772517 Rises=F Damp=F
 DIIS: error= 1.11D-03 at cycle  25 NSaved=   7.
 NSaved= 7 IEnMin= 7 EnMin= -562.826659023745     IErMin= 1 ErrMin= 2.50D-04
 ErrMax= 1.11D-03  0.00D+00 EMaxC= 1.00D-01 BMatC= 1.38D-04 BMatP= 9.45D-06
 IDIUse=3 WtCom= 9.97D-01 WtEn= 2.50D-03
 Coeff-Com: -0.269D+01 0.354D+01 0.722D+00 0.117D+01-0.811D+00-0.126D+01
 Coeff-Com:  0.321D+00
 Coeff-En:   0.000D+00 0.000D+00 0.000D+00 0.000D+00 0.000D+00 0.000D+00
 Coeff-En:   0.100D+01
 Coeff:     -0.268D+01 0.353D+01 0.720D+00 0.117D+01-0.809D+00-0.126D+01
 Coeff:      0.323D+00
 Gap=    -0.060 Goal=   None    Shift=    0.300
 Gap=     0.079 Goal=   None    Shift=    0.300
 RMSDP=1.04D-04 MaxDP=4.25D-03 DE=-1.78D-04 OVMax= 1.93D-02

 Cycle  26  Pass 1  IDiag  1:
 RMSU=  7.11D-05    CP:  1.00D+00  3.00D+00  3.00D+00  3.00D+00  2.68D+00
 E= -562.826936335883     Delta-E=       -0.000277312138 Rises=F Damp=F
 DIIS: error= 1.37D-03 at cycle  26 NSaved=   8.
 NSaved= 8 IEnMin= 8 EnMin= -562.826936335883     IErMin= 1 ErrMin= 2.50D-04
 ErrMax= 1.37D-03  0.00D+00 EMaxC= 1.00D-01 BMatC= 2.20D-04 BMatP= 9.45D-06
 IDIUse=3 WtCom= 9.97D-01 WtEn= 2.50D-03
 Coeff-Com: -0.332D+01 0.297D+01 0.145D+01 0.383D+00-0.295D+00-0.102D+01
 Coeff-Com:  0.344D+01-0.261D+01
 Coeff-En:   0.000D+00 0.000D+00 0.000D+00 0.000D+00 0.000D+00 0.000D+00
 Coeff-En:   0.000D+00 0.100D+01
 Coeff:     -0.331D+01 0.296D+01 0.144D+01 0.382D+00-0.294D+00-0.102D+01
 Coeff:      0.343D+01-0.260D+01
 Gap=    -0.059 Goal=   None    Shift=    0.300
 Gap=     0.078 Goal=   None    Shift=    0.300
 RMSDP=1.26D-04 MaxDP=5.09D-03 DE=-2.77D-04 OVMax= 2.35D-02

 Cycle  27  Pass 1  IDiag  1:
 RMSU=  7.62D-05    CP:  1.00D+00  3.00D+00  3.00D+00  3.00D+00  3.00D+00
                    CP:  2.23D+00
 E= -562.827349966019     Delta-E=       -0.000413630136 Rises=F Damp=F
 DIIS: error= 1.68D-03 at cycle  27 NSaved=   9.
 NSaved= 9 IEnMin= 9 EnMin= -562.827349966019     IErMin= 1 ErrMin= 2.50D-04
 ErrMax= 1.68D-03  0.00D+00 EMaxC= 1.00D-01 BMatC= 3.58D-04 BMatP= 9.45D-06
 IDIUse=3 WtCom= 9.97D-01 WtEn= 2.50D-03
 Coeff-Com: -0.367D+01 0.355D+01 0.392D+00 0.244D+00-0.248D+00-0.110D+01
 Coeff-Com:  0.797D+01-0.700D+01 0.863D+00
 Coeff-En:   0.000D+00 0.000D+00 0.000D+00 0.000D+00 0.000D+00 0.000D+00
 Coeff-En:   0.000D+00 0.000D+00 0.100D+01
 Coeff:     -0.367D+01 0.355D+01 0.391D+00 0.243D+00-0.248D+00-0.110D+01
 Coeff:      0.795D+01-0.698D+01 0.864D+00
 Gap=    -0.058 Goal=   None    Shift=    0.300
 Gap=     0.079 Goal=   None    Shift=    0.300
 RMSDP=1.54D-04 MaxDP=6.12D-03 DE=-4.14D-04 OVMax= 2.86D-02

 Cycle  28  Pass 1  IDiag  1:
 RMSU=  5.19D-05    CP:  1.00D+00  3.00D+00  3.00D+00  3.00D+00  3.00D+00
                    CP:  3.00D+00  2.46D+00
 E= -562.827969671374     Delta-E=       -0.000619705355 Rises=F Damp=F
 DIIS: error= 2.02D-03 at cycle  28 NSaved=  10.
 NSaved=10 IEnMin=10 EnMin= -562.827969671374     IErMin= 1 ErrMin= 2.50D-04
 ErrMax= 2.02D-03  0.00D+00 EMaxC= 1.00D-01 BMatC= 5.68D-04 BMatP= 9.45D-06
 IDIUse=3 WtCom= 9.97D-01 WtEn= 2.50D-03
 Coeff-Com: -0.446D+01 0.503D+01-0.208D+00 0.634D+00-0.746D+00-0.859D+00
 Coeff-Com:  0.778D+01-0.664D+01-0.256D+00 0.718D+00
 Coeff-En:   0.000D+00 0.000D+00 0.000D+00 0.000D+00 0.000D+00 0.000D+00
 Coeff-En:   0.000D+00 0.000D+00 0.000D+00 0.100D+01
 Coeff:     -0.445D+01 0.502D+01-0.207D+00 0.632D+00-0.744D+00-0.857D+00
 Coeff:      0.776D+01-0.662D+01-0.255D+00 0.719D+00
 Gap=    -0.057 Goal=   None    Shift=    0.300
 Gap=     0.079 Goal=   None    Shift=    0.300
 RMSDP=1.89D-04 MaxDP=7.41D-03 DE=-6.20D-04 OVMax= 3.52D-02

 Cycle  29  Pass 1  IDiag  1:
 RMSU=  1.00D-04    CP:  1.00D+00  3.00D+00  3.00D+00  3.00D+00  3.00D+00
                    CP:  3.00D+00  3.00D+00  3.00D+00
 E= -562.828903824714     Delta-E=       -0.000934153340 Rises=F Damp=F
 DIIS: error= 2.41D-03 at cycle  29 NSaved=  11.
 NSaved=11 IEnMin=11 EnMin= -562.828903824714     IErMin= 1 ErrMin= 2.50D-04
 ErrMax= 2.41D-03  0.00D+00 EMaxC= 1.00D-01 BMatC= 8.73D-04 BMatP= 9.45D-06
 IDIUse=3 WtCom= 9.97D-01 WtEn= 2.50D-03
 Coeff-Com: -0.451D+01 0.505D+01-0.102D-01 0.577D+00-0.727D+00-0.852D+00
 Coeff-Com:  0.735D+01-0.620D+01-0.144D+00 0.135D+00 0.329D+00
 Coeff-En:   0.000D+00 0.000D+00 0.000D+00 0.000D+00 0.000D+00 0.000D+00
 Coeff-En:   0.000D+00 0.000D+00 0.000D+00 0.000D+00 0.100D+01
 Coeff:     -0.450D+01 0.504D+01-0.102D-01 0.575D+00-0.725D+00-0.850D+00
 Coeff:      0.733D+01-0.618D+01-0.143D+00 0.135D+00 0.330D+00
 Gap=    -0.056 Goal=   None    Shift=    0.300
 Gap=     0.079 Goal=   None    Shift=    0.300
 RMSDP=2.32D-04 MaxDP=9.36D-03 DE=-9.34D-04 OVMax= 4.32D-02

 Cycle  30  Pass 1  IDiag  1:
 RMSU=  1.10D-04    CP:  1.00D+00  3.00D+00  3.00D+00  3.00D+00  3.00D+00
                    CP:  3.00D+00  3.00D+00  3.00D+00  3.00D+00
 E= -562.830276155762     Delta-E=       -0.001372331048 Rises=F Damp=F
 DIIS: error= 2.80D-03 at cycle  30 NSaved=  12.
 NSaved=12 IEnMin=12 EnMin= -562.830276155762     IErMin= 1 ErrMin= 2.50D-04
 ErrMax= 2.80D-03  0.00D+00 EMaxC= 1.00D-01 BMatC= 1.35D-03 BMatP= 9.45D-06
 IDIUse=3 WtCom= 9.97D-01 WtEn= 2.50D-03
 Coeff-Com: -0.444D+01 0.496D+01-0.295D-01 0.536D+00-0.650D+00-0.940D+00
 Coeff-Com:  0.778D+01-0.655D+01-0.189D+00-0.427D-01 0.695D+00-0.135D+00
 Coeff-En:   0.000D+00 0.000D+00 0.000D+00 0.000D+00 0.000D+00 0.000D+00
 Coeff-En:   0.000D+00 0.000D+00 0.000D+00 0.000D+00 0.000D+00 0.100D+01
 Coeff:     -0.442D+01 0.494D+01-0.294D-01 0.535D+00-0.648D+00-0.938D+00
 Coeff:      0.776D+01-0.653D+01-0.189D+00-0.426D-01 0.693D+00-0.132D+00
 Gap=    -0.054 Goal=   None    Shift=    0.300
 Gap=     0.079 Goal=   None    Shift=    0.300
 RMSDP=2.82D-04 MaxDP=1.39D-02 DE=-1.37D-03 OVMax= 5.24D-02

 Cycle  31  Pass 1  IDiag  1:
 RMSU=  2.42D-04    CP:  1.00D+00  3.00D+00  3.00D+00  3.00D+00  3.00D+00
                    CP:  3.00D+00  3.00D+00  3.00D+00  3.00D+00  2.32D+00
 E= -562.832217362744     Delta-E=       -0.001941206982 Rises=F Damp=F
 DIIS: error= 3.14D-03 at cycle  31 NSaved=  13.
 NSaved=13 IEnMin=13 EnMin= -562.832217362744     IErMin= 1 ErrMin= 2.50D-04
 ErrMax= 3.14D-03  0.00D+00 EMaxC= 1.00D-01 BMatC= 2.11D-03 BMatP= 9.45D-06
 IDIUse=3 WtCom= 9.97D-01 WtEn= 2.50D-03
 Coeff-Com: -0.444D+01 0.496D+01-0.339D-01 0.541D+00-0.654D+00-0.934D+00
 Coeff-Com:  0.774D+01-0.651D+01-0.196D+00-0.411D-01 0.754D+00-0.213D+00
 Coeff-Com:  0.249D-01
 Coeff-En:   0.000D+00 0.000D+00 0.000D+00 0.000D+00 0.000D+00 0.000D+00
 Coeff-En:   0.000D+00 0.000D+00 0.000D+00 0.000D+00 0.000D+00 0.000D+00
 Coeff-En:   0.100D+01
 Coeff:     -0.442D+01 0.495D+01-0.338D-01 0.540D+00-0.652D+00-0.932D+00
 Coeff:      0.772D+01-0.650D+01-0.196D+00-0.410D-01 0.752D+00-0.212D+00
 Coeff:      0.273D-01
 Gap=    -0.051 Goal=   None    Shift=    0.300
 Gap=     0.079 Goal=   None    Shift=    0.300
 RMSDP=3.37D-04 MaxDP=2.00D-02 DE=-1.94D-03 OVMax= 6.27D-02

 Cycle  32  Pass 1  IDiag  1:
 RMSU=  1.07D-04    CP:  9.99D-01  3.00D+00  3.00D+00  3.00D+00  3.00D+00
                    CP:  3.00D+00  3.00D+00  3.00D+00  3.00D+00  3.00D+00
                    CP:  2.18D+00
 E= -562.834834999007     Delta-E=       -0.002617636263 Rises=F Damp=F
 DIIS: error= 3.42D-03 at cycle  32 NSaved=  14.
 NSaved=14 IEnMin=14 EnMin= -562.834834999007     IErMin= 1 ErrMin= 2.50D-04
 ErrMax= 3.42D-03  0.00D+00 EMaxC= 1.00D-01 BMatC= 3.32D-03 BMatP= 9.45D-06
 IDIUse=3 WtCom= 9.97D-01 WtEn= 2.50D-03
 Coeff-Com: -0.440D+01 0.494D+01-0.111D+00 0.546D+00-0.662D+00-0.928D+00
 Coeff-Com:  0.791D+01-0.668D+01-0.151D+00 0.101D+00 0.113D+00 0.975D+00
 Coeff-Com: -0.919D+00 0.265D+00
 Coeff-En:   0.000D+00 0.000D+00 0.000D+00 0.000D+00 0.000D+00 0.000D+00
 Coeff-En:   0.000D+00 0.000D+00 0.000D+00 0.000D+00 0.000D+00 0.000D+00
 Coeff-En:   0.000D+00 0.100D+01
 Coeff:     -0.439D+01 0.492D+01-0.110D+00 0.544D+00-0.661D+00-0.926D+00
 Coeff:      0.789D+01-0.666D+01-0.150D+00 0.101D+00 0.112D+00 0.972D+00
 Coeff:     -0.916D+00 0.267D+00
 Gap=    -0.047 Goal=   None    Shift=    0.300
 Gap=     0.079 Goal=   None    Shift=    0.300
 RMSDP=3.96D-04 MaxDP=2.78D-02 DE=-2.62D-03 OVMax= 7.35D-02

 Cycle  33  Pass 1  IDiag  1:
 RMSU=  1.28D-04    CP:  9.99D-01  3.00D+00  3.00D+00  3.00D+00  3.00D+00
                    CP:  3.00D+00  3.00D+00  3.00D+00  3.00D+00  3.00D+00
                    CP:  3.00D+00  3.00D+00
 E= -562.838123250186     Delta-E=       -0.003288251179 Rises=F Damp=F
 DIIS: error= 3.47D-03 at cycle  33 NSaved=  15.
 NSaved=15 IEnMin=15 EnMin= -562.838123250186     IErMin= 1 ErrMin= 2.50D-04
 ErrMax= 3.47D-03  0.00D+00 EMaxC= 1.00D-01 BMatC= 5.26D-03 BMatP= 9.45D-06
 IDIUse=3 WtCom= 9.97D-01 WtEn= 2.50D-03
 Large coefficients: NSaved= 15 BigCof=   16.68 CofMax=   10.00 Det=-3.39D-10
 Inversion failed.  Reducing to 14 matrices.
 Large coefficients: NSaved= 14 BigCof=   25.39 CofMax=   10.00 Det=-3.57D-10
 Inversion failed.  Reducing to 13 matrices.
 Large coefficients: NSaved= 13 BigCof=   25.45 CofMax=   10.00 Det=-4.45D-10
 Inversion failed.  Reducing to 12 matrices.
 Large coefficients: NSaved= 12 BigCof=   22.38 CofMax=   10.00 Det=-5.02D-10
 Inversion failed.  Reducing to 11 matrices.
 Large coefficients: NSaved= 11 BigCof=   23.85 CofMax=   10.00 Det=-5.07D-10
 Inversion failed.  Reducing to 10 matrices.
 Large coefficients: NSaved= 10 BigCof=   32.70 CofMax=   10.00 Det=-5.43D-10
 Inversion failed.  Reducing to  9 matrices.
 Large coefficients: NSaved=  9 BigCof=   31.90 CofMax=   10.00 Det=-6.14D-10
 Inversion failed.  Reducing to  8 matrices.
 Large coefficients: NSaved=  8 BigCof=   38.64 CofMax=   10.00 Det=-1.71D-09
 Inversion failed.  Reducing to  7 matrices.
 Large coefficients: NSaved=  7 BigCof=   38.98 CofMax=   10.00 Det=-1.71D-09
 Inversion failed.  Reducing to  6 matrices.
 Large coefficients: NSaved=  6 BigCof=   39.47 CofMax=   10.00 Det=-1.72D-09
 Inversion failed.  Reducing to  5 matrices.
 Large coefficients: NSaved=  5 BigCof=   25.07 CofMax=   10.00 Det=-2.70D-09
 Inversion failed.  Reducing to  4 matrices.
 Large coefficients: NSaved=  4 BigCof=   42.26 CofMax=   10.00 Det=-2.98D-09
 Inversion failed.  Reducing to  3 matrices.
 Large coefficients: NSaved=  3 BigCof=   20.15 CofMax=   10.00 Det=-1.85D-06
 Inversion failed.  Reducing to  2 matrices.
 Coeff-Com:  0.374D+01-0.274D+01
 Coeff-En:   0.000D+00 0.100D+01
 Coeff:      0.373D+01-0.273D+01
 Gap=    -0.035 Goal=   None    Shift=    0.300
 Gap=     0.073 Goal=   None    Shift=    0.300
 RMSDP=5.31D-04 MaxDP=4.46D-02 DE=-3.29D-03 OVMax= 9.66D-02

 Cycle  34  Pass 1  IDiag  1:
 RMSU=  3.51D-04    CP:  9.98D-01  3.00D+00  3.00D+00  3.00D+00  3.00D+00
                    CP:  3.00D+00  3.00D+00  3.00D+00  3.00D+00  3.00D+00
                    CP:  3.00D+00  3.00D+00  3.00D+00
 E= -562.842035347523     Delta-E=       -0.003912097337 Rises=F Damp=F
 DIIS: error= 3.81D-03 at cycle  34 NSaved=   3.
 NSaved= 3 IEnMin= 3 EnMin= -562.842035347523     IErMin= 1 ErrMin= 3.42D-03
 ErrMax= 3.81D-03  0.00D+00 EMaxC= 1.00D-01 BMatC= 9.37D-03 BMatP= 3.32D-03
 IDIUse=3 WtCom= 9.97D-01 WtEn= 2.50D-03
 Coeff-Com:  0.515D+01-0.499D+01 0.846D+00
 Coeff-En:   0.000D+00 0.000D+00 0.100D+01
 Coeff:      0.514D+01-0.498D+01 0.846D+00
 Gap=    -0.024 Goal=   None    Shift=    0.300
 Gap=     0.074 Goal=   None    Shift=    0.300
 RMSDP=5.44D-04 MaxDP=5.12D-02 DE=-3.91D-03 OVMax= 1.00D-01

 Cycle  35  Pass 1  IDiag  1:
 RMSU=  2.25D-04    CP:  9.97D-01  3.00D+00  3.00D+00  3.00D+00  3.00D+00
                    CP:  3.00D+00  3.00D+00  3.00D+00  3.00D+00  3.00D+00
                    CP:  3.00D+00  3.00D+00  3.00D+00  2.41D+00
 E= -562.845590549870     Delta-E=       -0.003555202348 Rises=F Damp=F
 DIIS: error= 4.97D-03 at cycle  35 NSaved=   4.
 NSaved= 4 IEnMin= 4 EnMin= -562.845590549870     IErMin= 1 ErrMin= 3.42D-03
 ErrMax= 4.97D-03  0.00D+00 EMaxC= 1.00D-01 BMatC= 1.56D-02 BMatP= 3.32D-03
 IDIUse=3 WtCom= 9.97D-01 WtEn= 2.50D-03
 Coeff-Com:  0.885D+01-0.902D+01-0.656D+00 0.182D+01
 Coeff-En:   0.000D+00 0.000D+00 0.000D+00 0.100D+01
 Coeff:      0.883D+01-0.899D+01-0.654D+00 0.181D+01
 Gap=    -0.018 Goal=   None    Shift=    0.300
 Gap=     0.076 Goal=   None    Shift=    0.300
 RMSDP=5.31D-04 MaxDP=5.27D-02 DE=-3.56D-03 OVMax= 9.83D-02

 Cycle  36  Pass 1  IDiag  1:
 RMSU=  2.87D-04    CP:  9.96D-01  3.00D+00  3.00D+00  3.00D+00  3.00D+00
                    CP:  3.00D+00  3.00D+00  3.00D+00  3.00D+00  3.00D+00
                    CP:  3.00D+00  3.00D+00  3.00D+00  3.00D+00  1.96D+00
 E= -562.847874572903     Delta-E=       -0.002284023033 Rises=F Damp=F
 DIIS: error= 6.21D-03 at cycle  36 NSaved=   5.
 NSaved= 5 IEnMin= 5 EnMin= -562.847874572903     IErMin= 1 ErrMin= 3.42D-03
 ErrMax= 6.21D-03  0.00D+00 EMaxC= 1.00D-01 BMatC= 2.42D-02 BMatP= 3.32D-03
 IDIUse=3 WtCom= 9.97D-01 WtEn= 2.50D-03
 Coeff-Com:  0.896D+01-0.897D+01-0.433D+00 0.902D+00 0.546D+00
 Coeff-En:   0.000D+00 0.000D+00 0.000D+00 0.000D+00 0.100D+01
 Coeff:      0.893D+01-0.895D+01-0.432D+00 0.900D+00 0.547D+00
 Gap=    -0.007 Goal=   None    Shift=    0.300
 Gap=     0.076 Goal=   None    Shift=    0.300
 RMSDP=5.33D-04 MaxDP=5.44D-02 DE=-2.28D-03 OVMax= 9.86D-02

 Cycle  37  Pass 1  IDiag  1:
 RMSU=  5.59D-05    CP:  9.95D-01  3.00D+00  3.00D+00  3.00D+00  3.00D+00
                    CP:  3.00D+00  3.00D+00  3.00D+00  3.00D+00  3.00D+00
                    CP:  3.00D+00  3.00D+00  3.00D+00  3.00D+00  2.86D+00
                    CP:  2.70D+00
 E= -562.848992957591     Delta-E=       -0.001118384688 Rises=F Damp=F
 DIIS: error= 7.55D-03 at cycle  37 NSaved=   6.
 NSaved= 6 IEnMin= 6 EnMin= -562.848992957591     IErMin= 1 ErrMin= 3.42D-03
 ErrMax= 7.55D-03  0.00D+00 EMaxC= 1.00D-01 BMatC= 3.42D-02 BMatP= 3.32D-03
 IDIUse=3 WtCom= 9.97D-01 WtEn= 2.50D-03
 Coeff-Com:  0.921D+01-0.933D+01-0.556D+00 0.113D+01 0.762D+00-0.212D+00
 Coeff-En:   0.000D+00 0.000D+00 0.000D+00 0.000D+00 0.000D+00 0.100D+01
 Coeff:      0.919D+01-0.931D+01-0.554D+00 0.113D+01 0.761D+00-0.209D+00
 Gap=     0.004 Goal=   None    Shift=    0.300
 Gap=     0.076 Goal=   None    Shift=    0.300
 RMSDP=5.16D-04 MaxDP=5.24D-02 DE=-1.12D-03 OVMax= 9.53D-02

 Cycle  38  Pass 1  IDiag  1:
 RMSU=  4.16D-04    CP:  9.95D-01  3.00D+00  3.00D+00  3.00D+00  3.00D+00
                    CP:  3.00D+00  3.00D+00  3.00D+00  3.00D+00  3.00D+00
                    CP:  3.00D+00  3.00D+00  3.00D+00  3.00D+00  3.00D+00
                    CP:  3.00D+00  2.70D+00
 E= -562.848503793689     Delta-E=        0.000489163902 Rises=F Damp=F
 DIIS: error= 8.88D-03 at cycle  38 NSaved=   7.
 NSaved= 7 IEnMin= 6 EnMin= -562.848992957591     IErMin= 1 ErrMin= 3.42D-03
 ErrMax= 8.88D-03  0.00D+00 EMaxC= 1.00D-01 BMatC= 4.60D-02 BMatP= 3.32D-03
 IDIUse=3 WtCom= 9.97D-01 WtEn= 2.50D-03
 Rare condition: small coef for last iteration:  0.000D+00
 Coeff-Com:  0.958D+01-0.989D+01 0.297D-01 0.323D+00-0.907D+00 0.402D+01
 Coeff-Com: -0.216D+01
 Coeff-En:   0.000D+00 0.000D+00 0.000D+00 0.000D+00 0.333D+00 0.000D+00
 Coeff-En:   0.667D+00
 Coeff:      0.958D+01-0.989D+01 0.297D-01 0.323D+00-0.907D+00 0.402D+01
 Coeff:     -0.216D+01
 Gap=     0.017 Goal=   None    Shift=    0.000
 Gap=     0.075 Goal=   None    Shift=    0.000
 RMSDP=3.23D-03 MaxDP=2.13D-01 DE= 4.89D-04 OVMax= 6.00D-01

 Cycle  39  Pass 1  IDiag  1:
 RMSU=  2.70D-03    CP:  9.90D-01  3.00D+00  3.00D+00  3.00D+00  3.00D+00
                    CP:  3.00D+00  3.00D+00  3.00D+00  3.00D+00  3.00D+00
                    CP:  3.00D+00  3.00D+00  3.00D+00  3.00D+00  3.00D+00
                    CP:  3.00D+00  3.00D+00  3.00D+00
 E= -562.831611366692     Delta-E=        0.016892426997 Rises=F Damp=F
 DIIS: error= 1.42D-02 at cycle  39 NSaved=   8.
 NSaved= 8 IEnMin= 6 EnMin= -562.848992957591     IErMin= 1 ErrMin= 3.42D-03
 ErrMax= 1.42D-02  0.00D+00 EMaxC= 1.00D-01 BMatC= 1.11D-01 BMatP= 3.32D-03
 IDIUse=2 WtCom= 0.00D+00 WtEn= 1.00D+00
 Rare condition: small coef for last iteration:  0.000D+00
 Coeff-En:   0.000D+00 0.000D+00 0.000D+00 0.882D+00 0.000D+00 0.000D+00
 Coeff-En:   0.000D+00 0.118D+00
 Coeff:      0.000D+00 0.000D+00 0.000D+00 0.882D+00 0.000D+00 0.000D+00
 Coeff:      0.000D+00 0.118D+00
 Gap=     0.017 Goal=   None    Shift=    0.000
 Gap=     0.203 Goal=   None    Shift=    0.000
 RMSDP=3.10D-03 MaxDP=2.42D-01 DE= 1.69D-02 OVMax= 5.18D-01

 Cycle  40  Pass 1  IDiag  1:
 RMSU=  1.37D-03    CP:  9.93D-01  3.00D+00  3.00D+00  3.00D+00  3.00D+00
                    CP:  3.00D+00  3.00D+00  3.00D+00  3.00D+00  3.00D+00
                    CP:  3.00D+00  3.00D+00  3.00D+00  3.00D+00  3.00D+00
                    CP:  3.00D+00  3.00D+00  1.86D+00  8.01D-02
 E= -562.865890681614     Delta-E=       -0.034279314922 Rises=F Damp=F
 DIIS: error= 5.16D-03 at cycle  40 NSaved=   9.
 NSaved= 9 IEnMin= 9 EnMin= -562.865890681614     IErMin= 1 ErrMin= 3.42D-03
 ErrMax= 5.16D-03  0.00D+00 EMaxC= 1.00D-01 BMatC= 2.23D-02 BMatP= 3.32D-03
 IDIUse=3 WtCom= 9.97D-01 WtEn= 2.50D-03
 Large coefficients: NSaved=  9 BigCof=   11.18 CofMax=   10.00 Det=-3.45D-07
 Inversion failed.  Reducing to  8 matrices.
 Large coefficients: NSaved=  8 BigCof=   19.35 CofMax=   10.00 Det=-8.23D-07
 Inversion failed.  Reducing to  7 matrices.
 Large coefficients: NSaved=  7 BigCof=   23.99 CofMax=   10.00 Det=-8.43D-07
 Inversion failed.  Reducing to  6 matrices.
 Large coefficients: NSaved=  6 BigCof=   27.94 CofMax=   10.00 Det=-2.83D-06
 Inversion failed.  Reducing to  5 matrices.
 Large coefficients: NSaved=  5 BigCof=   24.17 CofMax=   10.00 Det=-3.14D-06
 Inversion failed.  Reducing to  4 matrices.
 Coeff-Com:  0.361D+01-0.300D+01 0.583D-01 0.328D+00
 Coeff-En:   0.000D+00 0.000D+00 0.506D-01 0.949D+00
 Coeff:      0.360D+01-0.299D+01 0.583D-01 0.330D+00
 Gap=     0.044 Goal=   None    Shift=    0.300
 Gap=     0.154 Goal=   None    Shift=    0.300
 RMSDP=5.28D-04 MaxDP=3.78D-02 DE=-3.43D-02 OVMax= 4.56D-02

 Cycle  41  Pass 1  IDiag  1:
 Restarting incremental Fock formation.
 E= -562.869228224891     Delta-E=       -0.003337543277 Rises=F Damp=F
 DIIS: error= 3.47D-03 at cycle  41 NSaved=   5.
 NSaved= 5 IEnMin= 5 EnMin= -562.869228224891     IErMin= 5 ErrMin= 3.47D-03
 ErrMax= 3.47D-03  0.00D+00 EMaxC= 1.00D-01 BMatC= 7.07D-03 BMatP= 2.23D-02
 IDIUse=3 WtCom= 9.97D-01 WtEn= 2.50D-03
 Coeff-Com:  0.157D+01-0.129D+01-0.279D+00-0.103D+00 0.110D+01
 Coeff-En:   0.000D+00 0.000D+00 0.000D+00 0.182D+00 0.818D+00
 Coeff:      0.157D+01-0.129D+01-0.279D+00-0.102D+00 0.110D+01
 Gap=     0.051 Goal=   None    Shift=    0.300
 Gap=     0.178 Goal=   None    Shift=    0.300
 RMSDP=2.41D-04 MaxDP=2.22D-02 DE=-3.34D-03 OVMax= 3.54D-02

 Cycle  42  Pass 1  IDiag  1:
 RMSU=  2.41D-04    CP:  1.00D+00
 E= -562.869556224285     Delta-E=       -0.000327999394 Rises=F Damp=F
 DIIS: error= 3.96D-03 at cycle  42 NSaved=   6.
 NSaved= 6 IEnMin= 6 EnMin= -562.869556224285     IErMin= 5 ErrMin= 3.47D-03
 ErrMax= 3.96D-03  0.00D+00 EMaxC= 1.00D-01 BMatC= 8.04D-03 BMatP= 7.07D-03
 IDIUse=3 WtCom= 9.97D-01 WtEn= 2.50D-03
 Coeff-Com:  0.674D+00-0.708D+00-0.225D+00 0.668D-01-0.348D+00 0.154D+01
 Coeff-En:   0.000D+00 0.000D+00 0.000D+00 0.244D+00 0.000D+00 0.756D+00
 Coeff:      0.672D+00-0.706D+00-0.224D+00 0.673D-01-0.347D+00 0.154D+01
 Gap=     0.046 Goal=   None    Shift=    0.300
 Gap=     0.213 Goal=   None    Shift=    0.300
 RMSDP=2.62D-04 MaxDP=9.13D-03 DE=-3.28D-04 OVMax= 2.81D-02

 Cycle  43  Pass 1  IDiag  1:
 RMSU=  2.13D-04    CP:  1.00D+00  1.64D+00
 E= -562.872016018916     Delta-E=       -0.002459794631 Rises=F Damp=F
 DIIS: error= 2.47D-03 at cycle  43 NSaved=   7.
 NSaved= 7 IEnMin= 7 EnMin= -562.872016018916     IErMin= 7 ErrMin= 2.47D-03
 ErrMax= 2.47D-03  0.00D+00 EMaxC= 1.00D-01 BMatC= 3.51D-03 BMatP= 7.07D-03
 IDIUse=3 WtCom= 9.97D-01 WtEn= 2.50D-03
 Coeff-Com: -0.206D+00 0.152D+00-0.134D+00 0.119D+00-0.376D+00 0.120D+00
 Coeff-Com:  0.133D+01
 Coeff-En:   0.000D+00 0.000D+00 0.000D+00 0.000D+00 0.000D+00 0.000D+00
 Coeff-En:   0.100D+01
 Coeff:     -0.206D+00 0.152D+00-0.134D+00 0.118D+00-0.375D+00 0.120D+00
 Coeff:      0.132D+01
 Gap=     0.040 Goal=   None    Shift=    0.300
 Gap=     0.230 Goal=   None    Shift=    0.300
 RMSDP=2.61D-04 MaxDP=8.97D-03 DE=-2.46D-03 OVMax= 2.47D-02

 Cycle  44  Pass 1  IDiag  1:
 RMSU=  6.43D-05    CP:  1.00D+00  2.12D+00  2.06D+00
 E= -562.873739779350     Delta-E=       -0.001723760434 Rises=F Damp=F
 DIIS: error= 9.37D-04 at cycle  44 NSaved=   8.
 NSaved= 8 IEnMin= 8 EnMin= -562.873739779350     IErMin= 8 ErrMin= 9.37D-04
 ErrMax= 9.37D-04  0.00D+00 EMaxC= 1.00D-01 BMatC= 6.22D-04 BMatP= 3.51D-03
 IDIUse=3 WtCom= 9.97D-01 WtEn= 2.50D-03
 Coeff-Com: -0.691D+00 0.724D+00-0.686D-01 0.305D-02 0.141D+00-0.626D+00
 Coeff-Com:  0.244D+00 0.127D+01
 Coeff-En:   0.000D+00 0.000D+00 0.000D+00 0.000D+00 0.000D+00 0.000D+00
 Coeff-En:   0.000D+00 0.100D+01
 Coeff:     -0.689D+00 0.722D+00-0.685D-01 0.304D-02 0.141D+00-0.625D+00
 Coeff:      0.243D+00 0.127D+01
 Gap=     0.037 Goal=   None    Shift=    0.300
 Gap=     0.197 Goal=   None    Shift=    0.300
 RMSDP=2.00D-04 MaxDP=8.18D-03 DE=-1.72D-03 OVMax= 2.21D-02

 Cycle  45  Pass 1  IDiag  1:
 RMSU=  4.50D-05    CP:  1.00D+00  2.48D+00  2.85D+00  1.69D+00
 E= -562.874416123200     Delta-E=       -0.000676343850 Rises=F Damp=F
 DIIS: error= 1.13D-03 at cycle  45 NSaved=   9.
 NSaved= 9 IEnMin= 9 EnMin= -562.874416123200     IErMin= 8 ErrMin= 9.37D-04
 ErrMax= 1.13D-03  0.00D+00 EMaxC= 1.00D-01 BMatC= 1.86D-04 BMatP= 6.22D-04
 IDIUse=3 WtCom= 9.97D-01 WtEn= 2.50D-03
 Coeff-Com: -0.862D+00 0.930D+00-0.361D-01-0.733D-01 0.314D+00-0.371D+00
 Coeff-Com: -0.489D+00 0.328D+00 0.126D+01
 Coeff-En:   0.000D+00 0.000D+00 0.000D+00 0.000D+00 0.000D+00 0.000D+00
 Coeff-En:   0.000D+00 0.000D+00 0.100D+01
 Coeff:     -0.860D+00 0.928D+00-0.360D-01-0.732D-01 0.313D+00-0.370D+00
 Coeff:     -0.487D+00 0.327D+00 0.126D+01
 Gap=     0.036 Goal=   None    Shift=    0.300
 Gap=     0.191 Goal=   None    Shift=    0.300
 RMSDP=1.48D-04 MaxDP=6.70D-03 DE=-6.76D-04 OVMax= 2.02D-02

 Cycle  46  Pass 1  IDiag  1:
 RMSU=  8.20D-05    CP:  1.00D+00  2.80D+00  3.00D+00  2.29D+00  2.02D+00
 E= -562.874724531777     Delta-E=       -0.000308408577 Rises=F Damp=F
 DIIS: error= 1.34D-03 at cycle  46 NSaved=  10.
 NSaved=10 IEnMin=10 EnMin= -562.874724531777     IErMin= 8 ErrMin= 9.37D-04
 ErrMax= 1.34D-03  0.00D+00 EMaxC= 1.00D-01 BMatC= 3.16D-04 BMatP= 1.86D-04
 IDIUse=3 WtCom= 9.97D-01 WtEn= 2.50D-03
 Coeff-Com: -0.901D+00 0.928D+00-0.317D-01-0.369D-01 0.493D-01 0.278D+00
 Coeff-Com: -0.358D+00-0.737D+00 0.460D+00 0.135D+01
 Coeff-En:   0.000D+00 0.000D+00 0.000D+00 0.000D+00 0.000D+00 0.000D+00
 Coeff-En:   0.000D+00 0.000D+00 0.000D+00 0.100D+01
 Coeff:     -0.899D+00 0.926D+00-0.317D-01-0.368D-01 0.492D-01 0.278D+00
 Coeff:     -0.357D+00-0.736D+00 0.459D+00 0.135D+01
 Gap=     0.036 Goal=   None    Shift=    0.300
 Gap=     0.188 Goal=   None    Shift=    0.300
 RMSDP=1.23D-04 MaxDP=5.53D-03 DE=-3.08D-04 OVMax= 1.87D-02

 Cycle  47  Pass 1  IDiag  1:
 RMSU=  3.48D-05    CP:  1.00D+00  3.00D+00  3.00D+00  2.84D+00  3.00D+00
                    CP:  1.91D+00
 E= -562.874936389726     Delta-E=       -0.000211857949 Rises=F Damp=F
 DIIS: error= 1.49D-03 at cycle  47 NSaved=  11.
 NSaved=11 IEnMin=11 EnMin= -562.874936389726     IErMin= 8 ErrMin= 9.37D-04
 ErrMax= 1.49D-03  0.00D+00 EMaxC= 1.00D-01 BMatC= 4.48D-04 BMatP= 1.86D-04
 IDIUse=3 WtCom= 9.97D-01 WtEn= 2.50D-03
 Coeff-Com: -0.765D+00 0.741D+00-0.366D-01 0.280D-01-0.163D+00 0.353D+00
 Coeff-Com:  0.264D+00-0.457D+00-0.670D+00-0.858D-01 0.179D+01
 Coeff-En:   0.000D+00 0.000D+00 0.000D+00 0.000D+00 0.000D+00 0.000D+00
 Coeff-En:   0.000D+00 0.000D+00 0.000D+00 0.000D+00 0.100D+01
 Coeff:     -0.763D+00 0.739D+00-0.365D-01 0.279D-01-0.162D+00 0.352D+00
 Coeff:      0.263D+00-0.456D+00-0.668D+00-0.856D-01 0.179D+01
 Gap=     0.036 Goal=   None    Shift=    0.300
 Gap=     0.187 Goal=   None    Shift=    0.300
 RMSDP=1.01D-04 MaxDP=4.50D-03 DE=-2.12D-04 OVMax= 1.69D-02

 Cycle  48  Pass 1  IDiag  1:
 RMSU=  5.60D-05    CP:  1.00D+00  3.00D+00  3.00D+00  3.00D+00  3.00D+00
                    CP:  2.54D+00  2.84D+00
 E= -562.875132938159     Delta-E=       -0.000196548433 Rises=F Damp=F
 DIIS: error= 1.46D-03 at cycle  48 NSaved=  12.
 NSaved=12 IEnMin=12 EnMin= -562.875132938159     IErMin= 8 ErrMin= 9.37D-04
 ErrMax= 1.46D-03  0.00D+00 EMaxC= 1.00D-01 BMatC= 4.46D-04 BMatP= 1.86D-04
 IDIUse=3 WtCom= 9.97D-01 WtEn= 2.50D-03
 Coeff-Com: -0.630D+00 0.598D+00-0.376D-01 0.181D-01-0.829D-01 0.347D-01
 Coeff-Com:  0.420D+00 0.256D+00-0.777D+00-0.821D+00 0.350D-01 0.199D+01
 Coeff-En:   0.000D+00 0.000D+00 0.000D+00 0.000D+00 0.000D+00 0.000D+00
 Coeff-En:   0.000D+00 0.000D+00 0.000D+00 0.000D+00 0.000D+00 0.100D+01
 Coeff:     -0.628D+00 0.597D+00-0.375D-01 0.180D-01-0.827D-01 0.346D-01
 Coeff:      0.418D+00 0.255D+00-0.775D+00-0.819D+00 0.349D-01 0.199D+01
 Gap=     0.036 Goal=   None    Shift=    0.300
 Gap=     0.186 Goal=   None    Shift=    0.300
 RMSDP=9.01D-05 MaxDP=3.77D-03 DE=-1.97D-04 OVMax= 1.56D-02

 Cycle  49  Pass 1  IDiag  1:
 RMSU=  5.83D-05    CP:  1.00D+00  3.00D+00  3.00D+00  3.00D+00  3.00D+00
                    CP:  3.00D+00  3.00D+00  1.89D+00
 E= -562.875313576775     Delta-E=       -0.000180638616 Rises=F Damp=F
 DIIS: error= 1.37D-03 at cycle  49 NSaved=  13.
 NSaved=13 IEnMin=13 EnMin= -562.875313576775     IErMin= 8 ErrMin= 9.37D-04
 ErrMax= 1.37D-03  0.00D+00 EMaxC= 1.00D-01 BMatC= 3.92D-04 BMatP= 1.86D-04
 IDIUse=3 WtCom= 9.97D-01 WtEn= 2.50D-03
 Coeff-Com: -0.577D+00 0.556D+00-0.352D-01-0.134D-02-0.238D-02-0.690D-01
 Coeff-Com:  0.280D+00 0.332D+00-0.405D+00-0.531D+00-0.631D+00 0.755D+00
 Coeff-Com:  0.133D+01
 Coeff-En:   0.000D+00 0.000D+00 0.000D+00 0.000D+00 0.000D+00 0.000D+00
 Coeff-En:   0.000D+00 0.000D+00 0.000D+00 0.000D+00 0.000D+00 0.000D+00
 Coeff-En:   0.100D+01
 Coeff:     -0.576D+00 0.555D+00-0.351D-01-0.134D-02-0.238D-02-0.689D-01
 Coeff:      0.279D+00 0.331D+00-0.404D+00-0.530D+00-0.629D+00 0.753D+00
 Coeff:      0.133D+01
 Gap=     0.036 Goal=   None    Shift=    0.300
 Gap=     0.186 Goal=   None    Shift=    0.300
 RMSDP=7.86D-05 MaxDP=3.21D-03 DE=-1.81D-04 OVMax= 1.41D-02

 Cycle  50  Pass 1  IDiag  1:
 RMSU=  2.95D-05    CP:  1.00D+00  3.00D+00  3.00D+00  3.00D+00  3.00D+00
                    CP:  3.00D+00  3.00D+00  2.69D+00  1.99D+00
 E= -562.875469384597     Delta-E=       -0.000155807822 Rises=F Damp=F
 DIIS: error= 1.26D-03 at cycle  50 NSaved=  14.
 NSaved=14 IEnMin=14 EnMin= -562.875469384597     IErMin= 8 ErrMin= 9.37D-04
 ErrMax= 1.26D-03  0.00D+00 EMaxC= 1.00D-01 BMatC= 3.22D-04 BMatP= 1.86D-04
 IDIUse=3 WtCom= 9.97D-01 WtEn= 2.50D-03
 Coeff-Com: -0.506D+00 0.506D+00-0.289D-01-0.107D-01 0.268D-01-0.514D-01
 Coeff-Com:  0.782D-01 0.982D-01 0.456D-01 0.361D-01-0.502D+00-0.657D+00
 Coeff-Com:  0.121D-01 0.195D+01
 Coeff-En:   0.000D+00 0.000D+00 0.000D+00 0.000D+00 0.000D+00 0.000D+00
 Coeff-En:   0.000D+00 0.000D+00 0.000D+00 0.000D+00 0.000D+00 0.000D+00
 Coeff-En:   0.000D+00 0.100D+01
 Coeff:     -0.505D+00 0.505D+00-0.289D-01-0.107D-01 0.268D-01-0.513D-01
 Coeff:      0.780D-01 0.979D-01 0.455D-01 0.360D-01-0.501D+00-0.655D+00
 Coeff:      0.120D-01 0.195D+01
 Gap=     0.035 Goal=   None    Shift=    0.300
 Gap=     0.185 Goal=   None    Shift=    0.300
 RMSDP=7.34D-05 MaxDP=2.89D-03 DE=-1.56D-04 OVMax= 1.31D-02

 Cycle  51  Pass 1  IDiag  1:
 RMSU=  2.32D-05    CP:  9.99D-01  3.00D+00  3.00D+00  3.00D+00  3.00D+00
                    CP:  3.00D+00  3.00D+00  3.00D+00  2.92D+00  1.96D+00
 E= -562.875596173715     Delta-E=       -0.000126789118 Rises=F Damp=F
 DIIS: error= 1.16D-03 at cycle  51 NSaved=  15.
 NSaved=15 IEnMin=15 EnMin= -562.875596173715     IErMin= 8 ErrMin= 9.37D-04
 ErrMax= 1.16D-03  0.00D+00 EMaxC= 1.00D-01 BMatC= 2.78D-04 BMatP= 1.86D-04
 IDIUse=3 WtCom= 9.97D-01 WtEn= 2.50D-03
 Coeff-Com: -0.458D+00 0.457D+00-0.269D-01-0.210D-02-0.158D-01 0.444D-01
 Coeff-Com:  0.648D-01-0.490D-01 0.274D-01 0.842D-01 0.104D-01-0.433D+00
 Coeff-Com: -0.974D+00 0.695D+00 0.157D+01
 Coeff-En:   0.000D+00 0.000D+00 0.000D+00 0.000D+00 0.000D+00 0.000D+00
 Coeff-En:   0.000D+00 0.000D+00 0.000D+00 0.000D+00 0.000D+00 0.000D+00
 Coeff-En:   0.000D+00 0.000D+00 0.100D+01
 Coeff:     -0.456D+00 0.456D+00-0.268D-01-0.210D-02-0.158D-01 0.443D-01
 Coeff:      0.646D-01-0.488D-01 0.273D-01 0.840D-01 0.104D-01-0.432D+00
 Coeff:     -0.972D+00 0.694D+00 0.157D+01
 Gap=     0.035 Goal=   None    Shift=    0.300
 Gap=     0.184 Goal=   None    Shift=    0.300
 RMSDP=6.61D-05 MaxDP=2.53D-03 DE=-1.27D-04 OVMax= 1.20D-02

 Cycle  52  Pass 1  IDiag  1:
 RMSU=  4.54D-05    CP:  9.99D-01  3.00D+00  3.00D+00  3.00D+00  3.00D+00
                    CP:  3.00D+00  3.00D+00  3.00D+00  3.00D+00  2.82D+00
                    CP:  2.53D+00
 E= -562.875704988263     Delta-E=       -0.000108814548 Rises=F Damp=F
 DIIS: error= 1.06D-03 at cycle  52 NSaved=  16.
 NSaved=16 IEnMin=16 EnMin= -562.875704988263     IErMin= 8 ErrMin= 9.37D-04
 ErrMax= 1.06D-03  0.00D+00 EMaxC= 1.00D-01 BMatC= 2.33D-04 BMatP= 1.86D-04
 IDIUse=3 WtCom= 9.97D-01 WtEn= 2.50D-03
 Coeff-Com: -0.375D+00 0.360D+00-0.236D-01 0.678D-02-0.658D-01 0.929D-01
 Coeff-Com:  0.172D+00 0.253D-02-0.308D+00-0.237D+00 0.415D+00 0.101D+01
 Coeff-Com: -0.599D+00-0.138D+01-0.221D+01 0.414D+01
 Coeff-En:   0.000D+00 0.000D+00 0.000D+00 0.000D+00 0.000D+00 0.000D+00
 Coeff-En:   0.000D+00 0.000D+00 0.000D+00 0.000D+00 0.000D+00 0.000D+00
 Coeff-En:   0.000D+00 0.000D+00 0.000D+00 0.100D+01
 Coeff:     -0.374D+00 0.359D+00-0.235D-01 0.676D-02-0.656D-01 0.927D-01
 Coeff:      0.171D+00 0.253D-02-0.307D+00-0.236D+00 0.414D+00 0.101D+01
 Coeff:     -0.597D+00-0.138D+01-0.221D+01 0.413D+01
 Gap=     0.034 Goal=   None    Shift=    0.300
 Gap=     0.183 Goal=   None    Shift=    0.300
 RMSDP=6.39D-05 MaxDP=2.38D-03 DE=-1.09D-04 OVMax= 1.15D-02

 Cycle  53  Pass 1  IDiag  1:
 RMSU=  3.11D-05    CP:  9.99D-01  3.00D+00  3.00D+00  3.00D+00  3.00D+00
                    CP:  3.00D+00  3.00D+00  3.00D+00  3.00D+00  3.00D+00
                    CP:  3.00D+00  2.04D+00
 E= -562.875793649456     Delta-E=       -0.000088661194 Rises=F Damp=F
 DIIS: error= 9.96D-04 at cycle  53 NSaved=  17.
 NSaved=17 IEnMin=17 EnMin= -562.875793649456     IErMin= 8 ErrMin= 9.37D-04
 ErrMax= 9.96D-04  0.00D+00 EMaxC= 1.00D-01 BMatC= 2.14D-04 BMatP= 1.86D-04
 IDIUse=3 WtCom= 9.97D-01 WtEn= 2.50D-03
 Coeff-Com: -0.345D+00 0.322D+00-0.213D-01 0.417D-02-0.515D-01 0.561D-01
 Coeff-Com:  0.198D+00 0.119D+00-0.377D+00-0.305D+00 0.132D+00 0.115D+01
 Coeff-Com:  0.387D+00-0.902D+00-0.452D+01 0.347D+01 0.168D+01
 Coeff-En:   0.000D+00 0.000D+00 0.000D+00 0.000D+00 0.000D+00 0.000D+00
 Coeff-En:   0.000D+00 0.000D+00 0.000D+00 0.000D+00 0.000D+00 0.000D+00
 Coeff-En:   0.000D+00 0.000D+00 0.000D+00 0.000D+00 0.100D+01
 Coeff:     -0.344D+00 0.321D+00-0.212D-01 0.416D-02-0.514D-01 0.559D-01
 Coeff:      0.197D+00 0.118D+00-0.376D+00-0.304D+00 0.132D+00 0.115D+01
 Coeff:      0.386D+00-0.899D+00-0.451D+01 0.346D+01 0.168D+01
 Gap=     0.034 Goal=   None    Shift=    0.300
 Gap=     0.182 Goal=   None    Shift=    0.300
 RMSDP=5.83D-05 MaxDP=2.22D-03 DE=-8.87D-05 OVMax= 1.07D-02

 Cycle  54  Pass 1  IDiag  1:
 RMSU=  7.13D-06    CP:  9.99D-01  3.00D+00  3.00D+00  3.00D+00  3.00D+00
                    CP:  3.00D+00  3.00D+00  3.00D+00  3.00D+00  3.00D+00
                    CP:  3.00D+00  3.00D+00  2.22D+00
 E= -562.875871523219     Delta-E=       -0.000077873763 Rises=F Damp=F
 DIIS: error= 9.26D-04 at cycle  54 NSaved=  18.
 NSaved=18 IEnMin=18 EnMin= -562.875871523219     IErMin=18 ErrMin= 9.26D-04
 ErrMax= 9.26D-04  0.00D+00 EMaxC= 1.00D-01 BMatC= 1.90D-04 BMatP= 1.86D-04
 IDIUse=3 WtCom= 9.97D-01 WtEn= 2.50D-03
 Coeff-Com: -0.324D+00 0.307D+00-0.168D-01-0.359D-02-0.665D-02-0.181D-01
 Coeff-Com:  0.134D+00 0.179D+00-0.161D+00-0.116D+00-0.409D+00 0.664D-01
 Coeff-Com:  0.118D+01 0.115D+01-0.352D+01-0.180D+00 0.197D-01 0.272D+01
 Coeff-En:   0.000D+00 0.000D+00 0.000D+00 0.000D+00 0.000D+00 0.000D+00
 Coeff-En:   0.000D+00 0.000D+00 0.000D+00 0.000D+00 0.000D+00 0.000D+00
 Coeff-En:   0.000D+00 0.000D+00 0.000D+00 0.000D+00 0.000D+00 0.100D+01
 Coeff:     -0.323D+00 0.306D+00-0.167D-01-0.358D-02-0.663D-02-0.181D-01
 Coeff:      0.134D+00 0.179D+00-0.160D+00-0.116D+00-0.408D+00 0.662D-01
 Coeff:      0.118D+01 0.115D+01-0.351D+01-0.179D+00 0.196D-01 0.272D+01
 Gap=     0.034 Goal=   None    Shift=    0.300
 Gap=     0.181 Goal=   None    Shift=    0.300
 RMSDP=5.44D-05 MaxDP=2.11D-03 DE=-7.79D-05 OVMax= 1.00D-02

 Cycle  55  Pass 1  IDiag  1:
 RMSU=  4.19D-05    CP:  9.99D-01  3.00D+00  3.00D+00  3.00D+00  3.00D+00
                    CP:  3.00D+00  3.00D+00  3.00D+00  3.00D+00  3.00D+00
                    CP:  3.00D+00  3.00D+00  3.00D+00  2.15D+00
 E= -562.875938615146     Delta-E=       -0.000067091927 Rises=F Damp=F
 DIIS: error= 8.64D-04 at cycle  55 NSaved=  19.
 NSaved=19 IEnMin=19 EnMin= -562.875938615146     IErMin=19 ErrMin= 8.64D-04
 ErrMax= 8.64D-04  0.00D+00 EMaxC= 1.00D-01 BMatC= 1.72D-04 BMatP= 1.86D-04
 IDIUse=3 WtCom= 9.97D-01 WtEn= 2.50D-03
 Coeff-Com: -0.289D+00 0.278D+00-0.126D-01-0.619D-02 0.110D-01-0.497D-01
 Coeff-Com:  0.769D-01 0.162D+00 0.674D-01 0.576D-02-0.631D+00-0.769D+00
 Coeff-Com:  0.122D+01 0.199D+01-0.963D+00-0.228D+01-0.165D+01 0.144D+01
 Coeff-Com:  0.240D+01
 Coeff-En:   0.000D+00 0.000D+00 0.000D+00 0.000D+00 0.000D+00 0.000D+00
 Coeff-En:   0.000D+00 0.000D+00 0.000D+00 0.000D+00 0.000D+00 0.000D+00
 Coeff-En:   0.000D+00 0.000D+00 0.000D+00 0.000D+00 0.000D+00 0.000D+00
 Coeff-En:   0.100D+01
 Coeff:     -0.288D+00 0.278D+00-0.126D-01-0.618D-02 0.109D-01-0.496D-01
 Coeff:      0.767D-01 0.161D+00 0.672D-01 0.575D-02-0.630D+00-0.767D+00
 Coeff:      0.122D+01 0.198D+01-0.960D+00-0.227D+01-0.164D+01 0.143D+01
 Coeff:      0.239D+01
 Gap=     0.033 Goal=   None    Shift=    0.300
 Gap=     0.180 Goal=   None    Shift=    0.300
 RMSDP=5.21D-05 MaxDP=2.01D-03 DE=-6.71D-05 OVMax= 9.62D-03

 Cycle  56  Pass 1  IDiag  1:
 RMSU=  2.26D-05    CP:  9.99D-01  3.00D+00  3.00D+00  3.00D+00  3.00D+00
                    CP:  3.00D+00  3.00D+00  3.00D+00  3.00D+00  3.00D+00
                    CP:  3.00D+00  3.00D+00  3.00D+00  3.00D+00  2.10D+00
 E= -562.875997831897     Delta-E=       -0.000059216752 Rises=F Damp=F
 DIIS: error= 8.10D-04 at cycle  56 NSaved=  20.
 NSaved=20 IEnMin=20 EnMin= -562.875997831897     IErMin=20 ErrMin= 8.10D-04
 ErrMax= 8.10D-04  0.00D+00 EMaxC= 1.00D-01 BMatC= 1.58D-04 BMatP= 1.72D-04
 IDIUse=3 WtCom= 9.97D-01 WtEn= 2.50D-03
 Coeff-Com: -0.250D+00 0.236D+00-0.126D-01-0.272D-02-0.206D-01 0.157D-01
 Coeff-Com:  0.824D-01 0.863D-01 0.327D-01-0.862D-01-0.269D+00 0.262D-01
 Coeff-Com:  0.202D+00 0.135D+00-0.817D+00 0.115D+01-0.264D+00-0.185D+01
 Coeff-Com: -0.253D+00 0.286D+01
 Coeff-En:   0.000D+00 0.000D+00 0.000D+00 0.000D+00 0.000D+00 0.000D+00
 Coeff-En:   0.000D+00 0.000D+00 0.000D+00 0.000D+00 0.000D+00 0.000D+00
 Coeff-En:   0.000D+00 0.000D+00 0.000D+00 0.000D+00 0.000D+00 0.000D+00
 Coeff-En:   0.000D+00 0.100D+01
 Coeff:     -0.250D+00 0.235D+00-0.126D-01-0.271D-02-0.206D-01 0.156D-01
 Coeff:      0.822D-01 0.861D-01 0.326D-01-0.860D-01-0.268D+00 0.262D-01
 Coeff:      0.202D+00 0.135D+00-0.815D+00 0.115D+01-0.263D+00-0.185D+01
 Coeff:     -0.252D+00 0.286D+01
 Gap=     0.033 Goal=   None    Shift=    0.300
 Gap=     0.180 Goal=   None    Shift=    0.300
 RMSDP=4.85D-05 MaxDP=1.92D-03 DE=-5.92D-05 OVMax= 9.02D-03

 Cycle  57  Pass 1  IDiag  1:
 RMSU=  1.05D-05    CP:  9.99D-01  3.00D+00  3.00D+00  3.00D+00  3.00D+00
                    CP:  3.00D+00  3.00D+00  3.00D+00  3.00D+00  3.00D+00
                    CP:  3.00D+00  3.00D+00  3.00D+00  3.00D+00  3.00D+00
                    CP:  1.91D+00
 E= -562.876053507150     Delta-E=       -0.000055675252 Rises=F Damp=F
 DIIS: error= 7.50D-04 at cycle  57 NSaved=  20.
 NSaved=20 IEnMin=20 EnMin= -562.876053507150     IErMin=20 ErrMin= 7.50D-04
 ErrMax= 7.50D-04  0.00D+00 EMaxC= 1.00D-01 BMatC= 1.36D-04 BMatP= 1.58D-04
 IDIUse=3 WtCom= 9.97D-01 WtEn= 2.50D-03
 Coeff-Com: -0.180D+00 0.164D+00-0.300D-02-0.238D-01 0.241D-01 0.362D-01
 Coeff-Com:  0.291D-01 0.554D-01-0.262D-01-0.486D-01 0.286D+00-0.435D+00
 Coeff-Com: -0.510D+00-0.986D+00 0.250D+01 0.583D+00-0.245D+01-0.169D+01
 Coeff-Com:  0.163D+01 0.205D+01
 Coeff-En:   0.000D+00 0.000D+00 0.000D+00 0.000D+00 0.000D+00 0.000D+00
 Coeff-En:   0.000D+00 0.000D+00 0.000D+00 0.000D+00 0.000D+00 0.000D+00
 Coeff-En:   0.000D+00 0.000D+00 0.000D+00 0.000D+00 0.000D+00 0.000D+00
 Coeff-En:   0.000D+00 0.100D+01
 Coeff:     -0.180D+00 0.164D+00-0.300D-02-0.238D-01 0.241D-01 0.361D-01
 Coeff:      0.291D-01 0.553D-01-0.261D-01-0.485D-01 0.285D+00-0.434D+00
 Coeff:     -0.509D+00-0.983D+00 0.249D+01 0.582D+00-0.244D+01-0.169D+01
 Coeff:      0.162D+01 0.204D+01
 Gap=     0.032 Goal=   None    Shift=    0.300
 Gap=     0.178 Goal=   None    Shift=    0.300
 RMSDP=5.10D-05 MaxDP=1.91D-03 DE=-5.57D-05 OVMax= 9.26D-03

 Cycle  58  Pass 1  IDiag  1:
 RMSU=  3.69D-05    CP:  9.99D-01  3.00D+00  3.00D+00  3.00D+00  3.00D+00
                    CP:  3.00D+00  3.00D+00  3.00D+00  3.00D+00  3.00D+00
                    CP:  3.00D+00  3.00D+00  3.00D+00  3.00D+00  3.00D+00
                    CP:  2.98D+00  3.00D+00
 E= -562.876095050392     Delta-E=       -0.000041543242 Rises=F Damp=F
 DIIS: error= 7.27D-04 at cycle  58 NSaved=  20.
 NSaved=20 IEnMin=20 EnMin= -562.876095050392     IErMin=20 ErrMin= 7.27D-04
 ErrMax= 7.27D-04  0.00D+00 EMaxC= 1.00D-01 BMatC= 1.47D-04 BMatP= 1.36D-04
 IDIUse=3 WtCom= 9.97D-01 WtEn= 2.50D-03
 Coeff-Com: -0.346D-01-0.117D-02-0.314D-01 0.103D+00 0.597D-01 0.709D-01
 Coeff-Com: -0.106D+00-0.132D+00 0.501D-01 0.984D+00-0.923D+00-0.116D+01
 Coeff-Com: -0.268D+01 0.494D+01 0.145D+01-0.195D+01-0.282D+01-0.890D+00
 Coeff-Com:  0.185D+01 0.223D+01
 Coeff-En:   0.000D+00 0.000D+00 0.000D+00 0.000D+00 0.000D+00 0.000D+00
 Coeff-En:   0.000D+00 0.000D+00 0.000D+00 0.000D+00 0.000D+00 0.000D+00
 Coeff-En:   0.000D+00 0.000D+00 0.000D+00 0.000D+00 0.000D+00 0.000D+00
 Coeff-En:   0.000D+00 0.100D+01
 Coeff:     -0.345D-01-0.116D-02-0.313D-01 0.102D+00 0.595D-01 0.707D-01
 Coeff:     -0.106D+00-0.131D+00 0.500D-01 0.982D+00-0.921D+00-0.115D+01
 Coeff:     -0.267D+01 0.492D+01 0.144D+01-0.195D+01-0.282D+01-0.888D+00
 Coeff:      0.185D+01 0.223D+01
 Gap=     0.032 Goal=   None    Shift=    0.300
 Gap=     0.178 Goal=   None    Shift=    0.300
 RMSDP=5.21D-05 MaxDP=2.03D-03 DE=-4.15D-05 OVMax= 9.64D-03

 Cycle  59  Pass 1  IDiag  1:
 RMSU=  3.51D-05    CP:  9.99D-01  3.00D+00  3.00D+00  3.00D+00  3.00D+00
                    CP:  3.00D+00  3.00D+00  3.00D+00  3.00D+00  3.00D+00
                    CP:  3.00D+00  3.00D+00  3.00D+00  3.00D+00  3.00D+00
                    CP:  3.00D+00  3.00D+00  2.03D+00
 E= -562.876145496943     Delta-E=       -0.000050446551 Rises=F Damp=F
 DIIS: error= 6.76D-04 at cycle  59 NSaved=  20.
 NSaved=20 IEnMin=20 EnMin= -562.876145496943     IErMin=20 ErrMin= 6.76D-04
 ErrMax= 6.76D-04  0.00D+00 EMaxC= 1.00D-01 BMatC= 1.23D-04 BMatP= 1.36D-04
 IDIUse=3 WtCom= 9.97D-01 WtEn= 2.50D-03
 Coeff-Com: -0.118D-01 0.193D-01 0.395D-01-0.855D-01-0.230D-01 0.276D+00
 Coeff-Com:  0.168D+00-0.954D-01-0.425D-01-0.129D+01-0.510D+00-0.313D+00
 Coeff-Com:  0.340D+01 0.614D+00-0.290D+01-0.238D+01 0.611D+00 0.241D+01
 Coeff-Com:  0.143D+01-0.321D+00
 Coeff-En:   0.000D+00 0.000D+00 0.000D+00 0.000D+00 0.000D+00 0.000D+00
 Coeff-En:   0.000D+00 0.000D+00 0.000D+00 0.000D+00 0.000D+00 0.000D+00
 Coeff-En:   0.000D+00 0.000D+00 0.000D+00 0.000D+00 0.000D+00 0.000D+00
 Coeff-En:   0.000D+00 0.100D+01
 Coeff:     -0.118D-01 0.193D-01 0.394D-01-0.853D-01-0.229D-01 0.275D+00
 Coeff:      0.167D+00-0.952D-01-0.424D-01-0.129D+01-0.509D+00-0.312D+00
 Coeff:      0.340D+01 0.613D+00-0.289D+01-0.238D+01 0.609D+00 0.240D+01
 Coeff:      0.143D+01-0.318D+00
 Gap=     0.032 Goal=   None    Shift=    0.300
 Gap=     0.179 Goal=   None    Shift=    0.300
 RMSDP=4.68D-05 MaxDP=1.96D-03 DE=-5.04D-05 OVMax= 8.71D-03

 Cycle  60  Pass 1  IDiag  1:
 RMSU=  9.38D-06    CP:  9.99D-01  3.00D+00  3.00D+00  3.00D+00  3.00D+00
                    CP:  3.00D+00  3.00D+00  3.00D+00  3.00D+00  3.00D+00
                    CP:  3.00D+00  3.00D+00  3.00D+00  3.00D+00  3.00D+00
                    CP:  3.00D+00  3.00D+00  2.90D+00  1.94D+00
 E= -562.876196814278     Delta-E=       -0.000051317335 Rises=F Damp=F
 DIIS: error= 5.94D-04 at cycle  60 NSaved=  20.
 NSaved=20 IEnMin=20 EnMin= -562.876196814278     IErMin=20 ErrMin= 5.94D-04
 ErrMax= 5.94D-04  0.00D+00 EMaxC= 1.00D-01 BMatC= 7.90D-05 BMatP= 1.23D-04
 IDIUse=3 WtCom= 9.97D-01 WtEn= 2.50D-03
 Coeff-Com: -0.379D-01 0.423D-01-0.276D-01-0.937D-02 0.128D-01 0.861D-01
 Coeff-Com:  0.910D-01 0.625D+00-0.941D+00-0.722D-01-0.149D+01 0.206D+01
 Coeff-Com:  0.346D+00 0.226D+00-0.221D+01-0.292D+01 0.271D+01 0.340D+01
 Coeff-Com: -0.495D+01 0.404D+01
 Coeff-En:   0.000D+00 0.000D+00 0.000D+00 0.000D+00 0.000D+00 0.000D+00
 Coeff-En:   0.000D+00 0.000D+00 0.000D+00 0.000D+00 0.000D+00 0.000D+00
 Coeff-En:   0.000D+00 0.000D+00 0.000D+00 0.000D+00 0.000D+00 0.000D+00
 Coeff-En:   0.000D+00 0.100D+01
 Coeff:     -0.378D-01 0.422D-01-0.275D-01-0.935D-02 0.127D-01 0.859D-01
 Coeff:      0.908D-01 0.623D+00-0.939D+00-0.720D-01-0.148D+01 0.205D+01
 Coeff:      0.345D+00 0.225D+00-0.220D+01-0.291D+01 0.271D+01 0.339D+01
 Coeff:     -0.493D+01 0.404D+01
 Gap=     0.031 Goal=   None    Shift=    0.300
 Gap=     0.177 Goal=   None    Shift=    0.300
 RMSDP=5.12D-05 MaxDP=1.96D-03 DE=-5.13D-05 OVMax= 9.25D-03

 Cycle  61  Pass 1  IDiag  1:
 Restarting incremental Fock formation.
 E= -562.876226580915     Delta-E=       -0.000029766636 Rises=F Damp=F
 DIIS: error= 5.84D-04 at cycle  61 NSaved=  20.
 NSaved=20 IEnMin=20 EnMin= -562.876226580915     IErMin=20 ErrMin= 5.84D-04
 ErrMax= 5.84D-04  0.00D+00 EMaxC= 1.00D-01 BMatC= 9.71D-05 BMatP= 7.90D-05
 IDIUse=3 WtCom= 9.97D-01 WtEn= 2.50D-03
 Coeff-Com: -0.607D-01 0.156D-01 0.174D+00-0.787D-02 0.170D-01-0.388D+00
 Coeff-Com:  0.159D+00-0.996D-01 0.147D+01-0.170D+01-0.134D-01-0.367D+00
 Coeff-Com:  0.197D+01-0.117D+01-0.410D+01 0.208D+01 0.412D+01-0.556D+01
 Coeff-Com:  0.380D+01 0.667D+00
 Coeff-En:   0.000D+00 0.000D+00 0.000D+00 0.000D+00 0.000D+00 0.000D+00
 Coeff-En:   0.000D+00 0.000D+00 0.000D+00 0.000D+00 0.000D+00 0.000D+00
 Coeff-En:   0.000D+00 0.000D+00 0.000D+00 0.000D+00 0.000D+00 0.000D+00
 Coeff-En:   0.000D+00 0.100D+01
 Coeff:     -0.605D-01 0.155D-01 0.173D+00-0.785D-02 0.170D-01-0.387D+00
 Coeff:      0.159D+00-0.993D-01 0.146D+01-0.169D+01-0.133D-01-0.366D+00
 Coeff:      0.196D+01-0.117D+01-0.409D+01 0.207D+01 0.411D+01-0.555D+01
 Coeff:      0.379D+01 0.668D+00
 Gap=     0.031 Goal=   None    Shift=    0.300
 Gap=     0.177 Goal=   None    Shift=    0.300
 RMSDP=4.53D-05 MaxDP=1.86D-03 DE=-2.98D-05 OVMax= 8.44D-03

 Cycle  62  Pass 1  IDiag  1:
 RMSU=  4.53D-05    CP:  1.00D+00
 E= -562.876262046463     Delta-E=       -0.000035465548 Rises=F Damp=F
 DIIS: error= 5.39D-04 at cycle  62 NSaved=  20.
 NSaved=20 IEnMin=20 EnMin= -562.876262046463     IErMin=20 ErrMin= 5.39D-04
 ErrMax= 5.39D-04  0.00D+00 EMaxC= 1.00D-01 BMatC= 8.13D-05 BMatP= 7.90D-05
 IDIUse=3 WtCom= 9.97D-01 WtEn= 2.50D-03
 Coeff-Com: -0.199D-02 0.302D-01-0.790D-02 0.727D-02 0.155D+00 0.319D+00
 Coeff-Com: -0.500D+00-0.213D+00-0.226D+01 0.256D+01 0.129D+01 0.905D+00
 Coeff-Com: -0.148D+01-0.454D+01 0.125D+01 0.455D+01-0.416D+01 0.189D+01
 Coeff-Com: -0.364D+01 0.485D+01
 Coeff-En:   0.000D+00 0.000D+00 0.000D+00 0.000D+00 0.000D+00 0.000D+00
 Coeff-En:   0.000D+00 0.000D+00 0.000D+00 0.000D+00 0.000D+00 0.000D+00
 Coeff-En:   0.000D+00 0.000D+00 0.000D+00 0.000D+00 0.000D+00 0.000D+00
 Coeff-En:   0.000D+00 0.100D+01
 Coeff:     -0.199D-02 0.302D-01-0.788D-02 0.725D-02 0.155D+00 0.318D+00
 Coeff:     -0.498D+00-0.212D+00-0.226D+01 0.255D+01 0.128D+01 0.903D+00
 Coeff:     -0.148D+01-0.453D+01 0.124D+01 0.454D+01-0.415D+01 0.188D+01
 Coeff:     -0.363D+01 0.484D+01
 Gap=     0.031 Goal=   None    Shift=    0.300
 Gap=     0.176 Goal=   None    Shift=    0.300
 RMSDP=4.68D-05 MaxDP=1.86D-03 DE=-3.55D-05 OVMax= 8.60D-03

 Cycle  63  Pass 1  IDiag  1:
 RMSU=  5.82D-06    CP:  1.00D+00  2.03D+00
 E= -562.876290751374     Delta-E=       -0.000028704912 Rises=F Damp=F
 DIIS: error= 5.13D-04 at cycle  63 NSaved=  20.
 NSaved=20 IEnMin=20 EnMin= -562.876290751374     IErMin=20 ErrMin= 5.13D-04
 ErrMax= 5.13D-04  0.00D+00 EMaxC= 1.00D-01 BMatC= 8.13D-05 BMatP= 7.90D-05
 IDIUse=3 WtCom= 9.97D-01 WtEn= 2.50D-03
 Coeff-Com:  0.222D-01 0.223D-01 0.104D-01 0.153D+00 0.196D+00-0.432D+00
 Coeff-Com: -0.373D+00-0.208D+01 0.260D+01 0.148D+01 0.550D+00-0.134D+01
 Coeff-Com: -0.394D+01 0.103D+01 0.410D+01-0.368D+01 0.141D+01-0.439D+01
 Coeff-Com:  0.506D+01 0.594D+00
 Coeff-En:   0.000D+00 0.000D+00 0.000D+00 0.000D+00 0.000D+00 0.000D+00
 Coeff-En:   0.000D+00 0.000D+00 0.000D+00 0.000D+00 0.000D+00 0.000D+00
 Coeff-En:   0.000D+00 0.000D+00 0.000D+00 0.000D+00 0.000D+00 0.000D+00
 Coeff-En:   0.000D+00 0.100D+01
 Coeff:      0.222D-01 0.222D-01 0.104D-01 0.153D+00 0.195D+00-0.431D+00
 Coeff:     -0.372D+00-0.207D+01 0.259D+01 0.148D+01 0.549D+00-0.134D+01
 Coeff:     -0.393D+01 0.103D+01 0.409D+01-0.367D+01 0.140D+01-0.438D+01
 Coeff:      0.505D+01 0.595D+00
 Gap=     0.031 Goal=   None    Shift=    0.300
 Gap=     0.176 Goal=   None    Shift=    0.300
 RMSDP=4.23D-05 MaxDP=1.77D-03 DE=-2.87D-05 OVMax= 7.89D-03

 Cycle  64  Pass 1  IDiag  1:
 RMSU=  2.85D-06    CP:  1.00D+00  2.96D+00  1.12D+00
 E= -562.876319555190     Delta-E=       -0.000028803815 Rises=F Damp=F
 DIIS: error= 4.73D-04 at cycle  64 NSaved=  20.
 NSaved=20 IEnMin=20 EnMin= -562.876319555190     IErMin=20 ErrMin= 4.73D-04
 ErrMax= 4.73D-04  0.00D+00 EMaxC= 1.00D-01 BMatC= 6.89D-05 BMatP= 7.90D-05
 IDIUse=3 WtCom= 9.97D-01 WtEn= 2.50D-03
 Coeff-Com:  0.711D-01 0.104D+00 0.131D+00-0.249D+00-0.410D+00-0.146D+00
 Coeff-Com: -0.345D+00 0.535D+00 0.810D+00 0.365D+00-0.393D+00-0.217D+01
 Coeff-Com:  0.601D+00 0.255D+01-0.167D+01 0.400D+00-0.212D+01 0.222D+01
 Coeff-Com: -0.492D+01 0.562D+01
 Coeff-En:   0.000D+00 0.000D+00 0.000D+00 0.000D+00 0.000D+00 0.000D+00
 Coeff-En:   0.000D+00 0.000D+00 0.000D+00 0.000D+00 0.000D+00 0.000D+00
 Coeff-En:   0.000D+00 0.000D+00 0.000D+00 0.000D+00 0.000D+00 0.000D+00
 Coeff-En:   0.000D+00 0.100D+01
 Coeff:      0.710D-01 0.104D+00 0.131D+00-0.248D+00-0.409D+00-0.145D+00
 Coeff:     -0.344D+00 0.533D+00 0.808D+00 0.365D+00-0.392D+00-0.216D+01
 Coeff:      0.599D+00 0.255D+01-0.166D+01 0.399D+00-0.211D+01 0.221D+01
 Coeff:     -0.490D+01 0.561D+01
 Gap=     0.030 Goal=   None    Shift=    0.300
 Gap=     0.175 Goal=   None    Shift=    0.300
 RMSDP=4.13D-05 MaxDP=1.72D-03 DE=-2.88D-05 OVMax= 7.65D-03

 Cycle  65  Pass 1  IDiag  1:
 RMSU=  3.93D-05    CP:  1.00D+00  3.00D+00  1.60D+00  2.10D+00
 E= -562.876343928841     Delta-E=       -0.000024373651 Rises=F Damp=F
 DIIS: error= 4.42D-04 at cycle  65 NSaved=  20.
 NSaved=20 IEnMin=20 EnMin= -562.876343928841     IErMin=20 ErrMin= 4.42D-04
 ErrMax= 4.42D-04  0.00D+00 EMaxC= 1.00D-01 BMatC= 6.30D-05 BMatP= 6.89D-05
 IDIUse=3 WtCom= 9.97D-01 WtEn= 2.50D-03
 Coeff-Com:  0.767D-01 0.147D+00 0.116D+00-0.447D+00-0.194D+00-0.911D+00
 Coeff-Com:  0.814D+00 0.796D+00 0.521D+00-0.929D+00-0.185D+01 0.712D+00
 Coeff-Com:  0.249D+01-0.228D+01 0.144D+01-0.170D-01 0.512D+00-0.638D+01
 Coeff-Com:  0.459D+01 0.181D+01
 Coeff-En:   0.000D+00 0.000D+00 0.000D+00 0.000D+00 0.000D+00 0.000D+00
 Coeff-En:   0.000D+00 0.000D+00 0.000D+00 0.000D+00 0.000D+00 0.000D+00
 Coeff-En:   0.000D+00 0.000D+00 0.000D+00 0.000D+00 0.000D+00 0.000D+00
 Coeff-En:   0.000D+00 0.100D+01
 Coeff:      0.765D-01 0.146D+00 0.115D+00-0.445D+00-0.193D+00-0.909D+00
 Coeff:      0.812D+00 0.794D+00 0.520D+00-0.927D+00-0.185D+01 0.711D+00
 Coeff:      0.248D+01-0.228D+01 0.143D+01-0.169D-01 0.511D+00-0.637D+01
 Coeff:      0.458D+01 0.180D+01
 Gap=     0.030 Goal=   None    Shift=    0.300
 Gap=     0.175 Goal=   None    Shift=    0.300
 RMSDP=3.88D-05 MaxDP=1.65D-03 DE=-2.44D-05 OVMax= 7.21D-03

 Cycle  66  Pass 1  IDiag  1:
 RMSU=  2.61D-06    CP:  1.00D+00  3.00D+00  1.87D+00  3.00D+00  1.98D+00
 E= -562.876364406062     Delta-E=       -0.000020477221 Rises=F Damp=F
 DIIS: error= 4.15D-04 at cycle  66 NSaved=  20.
 NSaved=20 IEnMin=20 EnMin= -562.876364406062     IErMin=20 ErrMin= 4.15D-04
 ErrMax= 4.15D-04  0.00D+00 EMaxC= 1.00D-01 BMatC= 5.98D-05 BMatP= 6.30D-05
 IDIUse=3 WtCom= 9.97D-01 WtEn= 2.50D-03
 Coeff-Com:  0.175D+00 0.323D+00-0.497D+00-0.151D+00-0.124D+01 0.138D+01
 Coeff-Com:  0.373D+00 0.377D+00-0.111D+01-0.158D+01 0.712D+00 0.229D+01
 Coeff-Com: -0.278D+01 0.239D+01 0.176D+00 0.656D+00-0.385D+01 0.638D+00
 Coeff-Com:  0.121D+00 0.259D+01
 Coeff-En:   0.000D+00 0.000D+00 0.000D+00 0.000D+00 0.000D+00 0.000D+00
 Coeff-En:   0.000D+00 0.000D+00 0.000D+00 0.000D+00 0.000D+00 0.000D+00
 Coeff-En:   0.000D+00 0.000D+00 0.000D+00 0.000D+00 0.000D+00 0.000D+00
 Coeff-En:   0.000D+00 0.100D+01
 Coeff:      0.174D+00 0.322D+00-0.496D+00-0.151D+00-0.124D+01 0.138D+01
 Coeff:      0.372D+00 0.376D+00-0.110D+01-0.158D+01 0.710D+00 0.229D+01
 Coeff:     -0.277D+01 0.238D+01 0.175D+00 0.654D+00-0.384D+01 0.636D+00
 Coeff:      0.120D+00 0.259D+01
 Gap=     0.030 Goal=   None    Shift=    0.300
 Gap=     0.175 Goal=   None    Shift=    0.300
 RMSDP=3.61D-05 MaxDP=1.57D-03 DE=-2.05D-05 OVMax= 6.74D-03

 Cycle  67  Pass 1  IDiag  1:
 RMSU=  3.86D-06    CP:  1.00D+00  3.00D+00  1.93D+00  3.00D+00  2.89D+00
                    CP:  1.97D+00
 E= -562.876383637324     Delta-E=       -0.000019231262 Rises=F Damp=F
 DIIS: error= 3.86D-04 at cycle  67 NSaved=  20.
 NSaved=20 IEnMin=20 EnMin= -562.876383637324     IErMin=20 ErrMin= 3.86D-04
 ErrMax= 3.86D-04  0.00D+00 EMaxC= 1.00D-01 BMatC= 5.30D-05 BMatP= 5.98D-05
 IDIUse=3 WtCom= 9.97D-01 WtEn= 2.50D-03
 Coeff-Com:  0.331D+00-0.135D+00 0.444D+00-0.194D+01 0.106D+01 0.603D-01
 Coeff-Com:  0.118D+01-0.887D+00-0.228D+01 0.670D+00 0.245D+01-0.344D+01
 Coeff-Com:  0.303D+01 0.815D-02 0.983D+00-0.148D+01-0.173D+01-0.115D+01
 Coeff-Com:  0.256D+01 0.127D+01
 Coeff-En:   0.000D+00 0.000D+00 0.000D+00 0.000D+00 0.000D+00 0.000D+00
 Coeff-En:   0.000D+00 0.000D+00 0.000D+00 0.000D+00 0.000D+00 0.000D+00
 Coeff-En:   0.000D+00 0.000D+00 0.000D+00 0.000D+00 0.000D+00 0.000D+00
 Coeff-En:   0.000D+00 0.100D+01
 Coeff:      0.330D+00-0.134D+00 0.443D+00-0.194D+01 0.106D+01 0.601D-01
 Coeff:      0.117D+01-0.885D+00-0.228D+01 0.668D+00 0.244D+01-0.343D+01
 Coeff:      0.302D+01 0.813D-02 0.981D+00-0.148D+01-0.173D+01-0.115D+01
 Coeff:      0.256D+01 0.127D+01
 Gap=     0.030 Goal=   None    Shift=    0.300
 Gap=     0.174 Goal=   None    Shift=    0.300
 RMSDP=3.50D-05 MaxDP=1.52D-03 DE=-1.92D-05 OVMax= 6.53D-03

 Cycle  68  Pass 1  IDiag  1:
 RMSU=  3.06D-05    CP:  1.00D+00  3.00D+00  2.04D+00  3.00D+00  3.00D+00
                    CP:  3.00D+00  1.78D+00
 E= -562.876400186967     Delta-E=       -0.000016549643 Rises=F Damp=F
 DIIS: error= 3.62D-04 at cycle  68 NSaved=  20.
 NSaved=20 IEnMin=20 EnMin= -562.876400186967     IErMin=20 ErrMin= 3.62D-04
 ErrMax= 3.62D-04  0.00D+00 EMaxC= 1.00D-01 BMatC= 4.89D-05 BMatP= 5.30D-05
 IDIUse=3 WtCom= 9.97D-01 WtEn= 2.50D-03
 Coeff-Com:  0.189D+00 0.996D+00-0.194D+01 0.155D+00-0.344D+00 0.193D+01
 Coeff-Com: -0.225D+00-0.274D+01 0.513D+00 0.230D+01-0.347D+01 0.309D+01
 Coeff-Com: -0.246D+00 0.122D+01-0.116D+01-0.180D+01-0.138D+01 0.241D+01
 Coeff-Com:  0.112D+01 0.375D+00
 Coeff-En:   0.000D+00 0.000D+00 0.000D+00 0.000D+00 0.000D+00 0.000D+00
 Coeff-En:   0.000D+00 0.000D+00 0.000D+00 0.000D+00 0.000D+00 0.000D+00
 Coeff-En:   0.000D+00 0.000D+00 0.000D+00 0.000D+00 0.000D+00 0.000D+00
 Coeff-En:   0.000D+00 0.100D+01
 Coeff:      0.189D+00 0.994D+00-0.193D+01 0.155D+00-0.343D+00 0.192D+01
 Coeff:     -0.225D+00-0.273D+01 0.512D+00 0.229D+01-0.346D+01 0.308D+01
 Coeff:     -0.245D+00 0.122D+01-0.116D+01-0.179D+01-0.138D+01 0.241D+01
 Coeff:      0.112D+01 0.376D+00
 Gap=     0.030 Goal=   None    Shift=    0.300
 Gap=     0.174 Goal=   None    Shift=    0.300
 RMSDP=3.33D-05 MaxDP=1.45D-03 DE=-1.65D-05 OVMax= 6.21D-03

 Cycle  69  Pass 1  IDiag  1:
 RMSU=  2.98D-06    CP:  1.00D+00  3.00D+00  2.09D+00  3.00D+00  3.00D+00
                    CP:  3.00D+00  2.54D+00  2.08D+00
 E= -562.876414929669     Delta-E=       -0.000014742702 Rises=F Damp=F
 DIIS: error= 3.40D-04 at cycle  69 NSaved=  20.
 NSaved=20 IEnMin=20 EnMin= -562.876414929669     IErMin=20 ErrMin= 3.40D-04
 ErrMax= 3.40D-04  0.00D+00 EMaxC= 1.00D-01 BMatC= 4.48D-05 BMatP= 4.89D-05
 IDIUse=3 WtCom= 9.97D-01 WtEn= 2.50D-03
 Coeff-Com:  0.770D+00-0.134D+01 0.389D+00-0.145D+00 0.135D+01-0.715D+00
 Coeff-Com: -0.289D+01 0.128D+01 0.236D+01-0.326D+01 0.263D+01 0.796D+00
 Coeff-Com:  0.239D+00-0.218D+01-0.653D+00 0.637D+00 0.131D+01-0.142D+01
 Coeff-Com: -0.253D+01 0.436D+01
 Coeff-En:   0.000D+00 0.000D+00 0.000D+00 0.000D+00 0.000D+00 0.000D+00
 Coeff-En:   0.000D+00 0.000D+00 0.000D+00 0.000D+00 0.000D+00 0.000D+00
 Coeff-En:   0.000D+00 0.000D+00 0.000D+00 0.000D+00 0.000D+00 0.000D+00
 Coeff-En:   0.000D+00 0.100D+01
 Coeff:      0.768D+00-0.134D+01 0.388D+00-0.144D+00 0.135D+01-0.713D+00
 Coeff:     -0.289D+01 0.128D+01 0.236D+01-0.326D+01 0.262D+01 0.794D+00
 Coeff:      0.239D+00-0.217D+01-0.651D+00 0.635D+00 0.131D+01-0.142D+01
 Coeff:     -0.252D+01 0.435D+01
 Gap=     0.030 Goal=   None    Shift=    0.300
 Gap=     0.174 Goal=   None    Shift=    0.300
 RMSDP=3.30D-05 MaxDP=1.43D-03 DE=-1.47D-05 OVMax= 6.16D-03

 Cycle  70  Pass 1  IDiag  1:
 RMSU=  4.91D-06    CP:  1.00D+00  3.00D+00  2.20D+00  3.00D+00  3.00D+00
                    CP:  3.00D+00  3.00D+00  3.00D+00  1.85D+00
 E= -562.876428471354     Delta-E=       -0.000013541685 Rises=F Damp=F
 DIIS: error= 3.20D-04 at cycle  70 NSaved=  20.
 NSaved=20 IEnMin=20 EnMin= -562.876428471354     IErMin=20 ErrMin= 3.20D-04
 ErrMax= 3.20D-04  0.00D+00 EMaxC= 1.00D-01 BMatC= 4.14D-05 BMatP= 4.48D-05
 IDIUse=3 WtCom= 9.97D-01 WtEn= 2.50D-03
 Coeff-Com: -0.403D+00 0.340D+00 0.214D+00 0.410D+00-0.696D+00-0.188D+01
 Coeff-Com:  0.157D+01 0.178D+01-0.258D+01 0.175D+01 0.982D+00-0.416D+00
 Coeff-Com: -0.439D+01 0.219D+01 0.245D+01 0.286D+00-0.242D+01-0.409D+01
 Coeff-Com:  0.400D+01 0.191D+01
 Coeff-En:   0.000D+00 0.000D+00 0.000D+00 0.000D+00 0.000D+00 0.000D+00
 Coeff-En:   0.000D+00 0.000D+00 0.000D+00 0.000D+00 0.000D+00 0.000D+00
 Coeff-En:   0.000D+00 0.000D+00 0.000D+00 0.000D+00 0.000D+00 0.000D+00
 Coeff-En:   0.000D+00 0.100D+01
 Coeff:     -0.402D+00 0.339D+00 0.213D+00 0.409D+00-0.694D+00-0.187D+01
 Coeff:      0.157D+01 0.177D+01-0.257D+01 0.174D+01 0.979D+00-0.415D+00
 Coeff:     -0.438D+01 0.218D+01 0.244D+01 0.285D+00-0.241D+01-0.408D+01
 Coeff:      0.399D+01 0.191D+01
 Gap=     0.030 Goal=   None    Shift=    0.300
 Gap=     0.173 Goal=   None    Shift=    0.300
 RMSDP=3.20D-05 MaxDP=1.38D-03 DE=-1.35D-05 OVMax= 5.98D-03

 Cycle  71  Pass 1  IDiag  1:
 RMSU=  2.30D-05    CP:  1.00D+00  3.00D+00  2.22D+00  3.00D+00  3.00D+00
                    CP:  3.00D+00  3.00D+00  3.00D+00  2.92D+00  3.00D+00
 E= -562.876440744384     Delta-E=       -0.000012273030 Rises=F Damp=F
 DIIS: error= 3.02D-04 at cycle  71 NSaved=  20.
 NSaved=20 IEnMin=20 EnMin= -562.876440744384     IErMin=20 ErrMin= 3.02D-04
 ErrMax= 3.02D-04  0.00D+00 EMaxC= 1.00D-01 BMatC= 3.81D-05 BMatP= 4.14D-05
 IDIUse=3 WtCom= 9.97D-01 WtEn= 2.50D-03
 Coeff-Com:  0.425D-01-0.194D+00 0.400D+00-0.643D+00-0.155D+01 0.152D+01
 Coeff-Com:  0.170D+01-0.284D+01 0.215D+01 0.118D+01-0.569D+00-0.374D+01
 Coeff-Com:  0.128D+01 0.141D+01 0.102D+01-0.112D+01-0.360D+01 0.307D+01
 Coeff-Com:  0.371D+00 0.112D+01
 Coeff-En:   0.000D+00 0.000D+00 0.000D+00 0.000D+00 0.000D+00 0.000D+00
 Coeff-En:   0.000D+00 0.000D+00 0.000D+00 0.000D+00 0.000D+00 0.000D+00
 Coeff-En:   0.000D+00 0.000D+00 0.000D+00 0.000D+00 0.000D+00 0.000D+00
 Coeff-En:   0.000D+00 0.100D+01
 Coeff:      0.424D-01-0.193D+00 0.399D+00-0.641D+00-0.155D+01 0.152D+01
 Coeff:      0.170D+01-0.283D+01 0.214D+01 0.117D+01-0.567D+00-0.373D+01
 Coeff:      0.128D+01 0.140D+01 0.102D+01-0.112D+01-0.359D+01 0.306D+01
 Coeff:      0.370D+00 0.112D+01
 Gap=     0.030 Goal=   None    Shift=    0.300
 Gap=     0.174 Goal=   None    Shift=    0.300
 RMSDP=2.83D-05 MaxDP=1.27D-03 DE=-1.23D-05 OVMax= 5.29D-03

 Cycle  72  Pass 1  IDiag  1:
 RMSU=  5.99D-06    CP:  1.00D+00  3.00D+00  1.94D+00  3.00D+00  3.00D+00
                    CP:  3.00D+00  3.00D+00  3.00D+00  3.00D+00  3.00D+00
                    CP:  2.20D+00
 E= -562.876452670092     Delta-E=       -0.000011925708 Rises=F Damp=F
 DIIS: error= 2.78D-04 at cycle  72 NSaved=  20.
 NSaved=20 IEnMin=20 EnMin= -562.876452670092     IErMin=20 ErrMin= 2.78D-04
 ErrMax= 2.78D-04  0.00D+00 EMaxC= 1.00D-01 BMatC= 3.10D-05 BMatP= 3.81D-05
 IDIUse=3 WtCom= 9.97D-01 WtEn= 2.50D-03
 Coeff-Com: -0.238D+00 0.723D+00-0.432D+00-0.165D+01 0.846D+00 0.162D+01
 Coeff-Com: -0.226D+01 0.150D+01 0.971D+00-0.335D+00-0.157D+01-0.152D+00
 Coeff-Com:  0.796D+00 0.744D+00 0.750D-01-0.221D+01 0.143D+01-0.104D+01
 Coeff-Com: -0.157D+01 0.377D+01
 Coeff-En:   0.000D+00 0.000D+00 0.000D+00 0.000D+00 0.000D+00 0.000D+00
 Coeff-En:   0.000D+00 0.000D+00 0.000D+00 0.000D+00 0.000D+00 0.000D+00
 Coeff-En:   0.000D+00 0.000D+00 0.000D+00 0.000D+00 0.000D+00 0.000D+00
 Coeff-En:   0.000D+00 0.100D+01
 Coeff:     -0.237D+00 0.721D+00-0.431D+00-0.165D+01 0.844D+00 0.161D+01
 Coeff:     -0.226D+01 0.149D+01 0.968D+00-0.334D+00-0.157D+01-0.152D+00
 Coeff:      0.794D+00 0.742D+00 0.748D-01-0.220D+01 0.143D+01-0.104D+01
 Coeff:     -0.157D+01 0.376D+01
 Gap=     0.030 Goal=   None    Shift=    0.300
 Gap=     0.173 Goal=   None    Shift=    0.300
 RMSDP=2.95D-05 MaxDP=1.28D-03 DE=-1.19D-05 OVMax= 5.50D-03

 Cycle  73  Pass 1  IDiag  1:
 RMSU=  1.11D-05    CP:  1.00D+00  3.00D+00  2.05D+00  3.00D+00  3.00D+00
                    CP:  3.00D+00  3.00D+00  3.00D+00  3.00D+00  3.00D+00
                    CP:  3.00D+00  1.86D+00
 E= -562.876461526339     Delta-E=       -0.000008856247 Rises=F Damp=F
 DIIS: error= 2.66D-04 at cycle  73 NSaved=  20.
 NSaved=20 IEnMin=20 EnMin= -562.876461526339     IErMin=20 ErrMin= 2.66D-04
 ErrMax= 2.66D-04  0.00D+00 EMaxC= 1.00D-01 BMatC= 3.15D-05 BMatP= 3.10D-05
 IDIUse=3 WtCom= 9.97D-01 WtEn= 2.50D-03
 Coeff-Com:  0.662D-01-0.428D+00-0.619D+00 0.801D+00 0.617D+00-0.127D+01
 Coeff-Com:  0.934D+00 0.981D+00-0.560D+00-0.174D+01 0.110D+00 0.113D+01
 Coeff-Com:  0.504D+00 0.130D-01-0.132D+01 0.103D+01-0.800D+00-0.417D+01
 Coeff-Com:  0.352D+01 0.219D+01
 Coeff-En:   0.000D+00 0.000D+00 0.000D+00 0.000D+00 0.000D+00 0.000D+00
 Coeff-En:   0.000D+00 0.000D+00 0.000D+00 0.000D+00 0.000D+00 0.000D+00
 Coeff-En:   0.000D+00 0.000D+00 0.000D+00 0.000D+00 0.000D+00 0.000D+00
 Coeff-En:   0.000D+00 0.100D+01
 Coeff:      0.661D-01-0.427D+00-0.618D+00 0.799D+00 0.615D+00-0.126D+01
 Coeff:      0.932D+00 0.979D+00-0.559D+00-0.174D+01 0.110D+00 0.113D+01
 Coeff:      0.503D+00 0.129D-01-0.131D+01 0.102D+01-0.798D+00-0.416D+01
 Coeff:      0.351D+01 0.219D+01
 Gap=     0.030 Goal=   None    Shift=    0.300
 Gap=     0.173 Goal=   None    Shift=    0.300
 RMSDP=3.04D-05 MaxDP=1.30D-03 DE=-8.86D-06 OVMax= 5.65D-03

 Cycle  74  Pass 1  IDiag  1:
 RMSU=  9.33D-06    CP:  1.00D+00  3.00D+00  2.23D+00  3.00D+00  3.00D+00
                    CP:  3.00D+00  3.00D+00  3.00D+00  3.00D+00  3.00D+00
                    CP:  3.00D+00  2.72D+00  3.00D+00
 E= -562.876469695113     Delta-E=       -0.000008168774 Rises=F Damp=F
 DIIS: error= 2.57D-04 at cycle  74 NSaved=  20.
 NSaved=20 IEnMin=20 EnMin= -562.876469695113     IErMin=20 ErrMin= 2.57D-04
 ErrMax= 2.57D-04  0.00D+00 EMaxC= 1.00D-01 BMatC= 3.26D-05 BMatP= 3.10D-05
 IDIUse=3 WtCom= 9.97D-01 WtEn= 2.50D-03
 Coeff-Com: -0.440D+00-0.584D+00 0.930D+00 0.585D+00-0.133D+01 0.108D+01
 Coeff-Com:  0.967D+00-0.576D+00-0.205D+01 0.288D+00 0.113D+01 0.575D+00
 Coeff-Com: -0.836D-01-0.134D+01 0.119D+01-0.640D+00-0.403D+01 0.302D+01
 Coeff-Com:  0.173D+01 0.581D+00
 Coeff-En:   0.000D+00 0.000D+00 0.000D+00 0.000D+00 0.000D+00 0.000D+00
 Coeff-En:   0.000D+00 0.000D+00 0.000D+00 0.000D+00 0.000D+00 0.000D+00
 Coeff-En:   0.000D+00 0.000D+00 0.000D+00 0.000D+00 0.000D+00 0.000D+00
 Coeff-En:   0.000D+00 0.100D+01
 Coeff:     -0.439D+00-0.583D+00 0.927D+00 0.584D+00-0.133D+01 0.107D+01
 Coeff:      0.964D+00-0.575D+00-0.204D+01 0.287D+00 0.113D+01 0.574D+00
 Coeff:     -0.834D-01-0.134D+01 0.119D+01-0.638D+00-0.402D+01 0.301D+01
 Coeff:      0.173D+01 0.582D+00
 Gap=     0.030 Goal=   None    Shift=    0.300
 Gap=     0.173 Goal=   None    Shift=    0.300
 RMSDP=2.75D-05 MaxDP=1.22D-03 DE=-8.17D-06 OVMax= 5.15D-03

 Cycle  75  Pass 1  IDiag  1:
 RMSU=  1.36D-05    CP:  1.00D+00  3.00D+00  2.09D+00  3.00D+00  3.00D+00
                    CP:  3.00D+00  3.00D+00  3.00D+00  3.00D+00  3.00D+00
                    CP:  3.00D+00  3.00D+00  3.00D+00  3.00D+00
 E= -562.876478432609     Delta-E=       -0.000008737496 Rises=F Damp=F
 DIIS: error= 2.41D-04 at cycle  75 NSaved=  20.
 NSaved=20 IEnMin=20 EnMin= -562.876478432609     IErMin=20 ErrMin= 2.41D-04
 ErrMax= 2.41D-04  0.00D+00 EMaxC= 1.00D-01 BMatC= 2.87D-05 BMatP= 3.10D-05
 IDIUse=3 WtCom= 9.98D-01 WtEn= 2.41D-03
 Coeff-Com: -0.104D+01 0.852D+00 0.591D+00-0.952D+00 0.732D+00 0.978D+00
 Coeff-Com: -0.641D+00-0.215D+01 0.619D+00 0.202D+01-0.711D-01-0.153D+01
 Coeff-Com: -0.112D+01 0.155D+01 0.619D+00-0.328D+01 0.161D+01 0.164D+01
 Coeff-Com: -0.376D+01 0.432D+01
 Coeff-En:   0.000D+00 0.000D+00 0.000D+00 0.000D+00 0.000D+00 0.000D+00
 Coeff-En:   0.000D+00 0.000D+00 0.000D+00 0.000D+00 0.000D+00 0.000D+00
 Coeff-En:   0.000D+00 0.000D+00 0.000D+00 0.000D+00 0.000D+00 0.000D+00
 Coeff-En:   0.000D+00 0.100D+01
 Coeff:     -0.104D+01 0.850D+00 0.589D+00-0.950D+00 0.730D+00 0.976D+00
 Coeff:     -0.639D+00-0.214D+01 0.617D+00 0.201D+01-0.709D-01-0.152D+01
 Coeff:     -0.112D+01 0.155D+01 0.617D+00-0.327D+01 0.161D+01 0.164D+01
 Coeff:     -0.375D+01 0.431D+01
 Gap=     0.029 Goal=   None    Shift=    0.300
 Gap=     0.172 Goal=   None    Shift=    0.300
 RMSDP=3.01D-05 MaxDP=1.29D-03 DE=-8.74D-06 OVMax= 5.61D-03

 Cycle  76  Pass 1  IDiag  1:
 RMSU=  1.76D-05    CP:  1.00D+00  3.00D+00  2.29D+00  3.00D+00  3.00D+00
                    CP:  3.00D+00  3.00D+00  3.00D+00  3.00D+00  3.00D+00
                    CP:  3.00D+00  3.00D+00  3.00D+00  3.00D+00  2.79D+00
 E= -562.876485375914     Delta-E=       -0.000006943305 Rises=F Damp=F
 DIIS: error= 2.34D-04 at cycle  76 NSaved=  20.
 NSaved=20 IEnMin=20 EnMin= -562.876485375914     IErMin=20 ErrMin= 2.34D-04
 ErrMax= 2.34D-04  0.00D+00 EMaxC= 1.00D-01 BMatC= 3.02D-05 BMatP= 2.87D-05
 IDIUse=3 WtCom= 9.98D-01 WtEn= 2.34D-03
 Coeff-Com: -0.284D-01 0.696D-01-0.506D+00 0.262D+00 0.118D+01-0.780D+00
 Coeff-Com: -0.170D+01 0.250D+00 0.193D+01-0.330D-01-0.430D+00-0.437D+00
 Coeff-Com: -0.210D+00 0.240D+00-0.415D+01 0.312D+01 0.282D+01-0.570D+01
 Coeff-Com:  0.407D+01 0.101D+01
 Coeff-En:   0.000D+00 0.000D+00 0.000D+00 0.000D+00 0.000D+00 0.000D+00
 Coeff-En:   0.000D+00 0.000D+00 0.000D+00 0.000D+00 0.000D+00 0.000D+00
 Coeff-En:   0.000D+00 0.000D+00 0.000D+00 0.000D+00 0.000D+00 0.000D+00
 Coeff-En:   0.000D+00 0.100D+01
 Coeff:     -0.284D-01 0.695D-01-0.505D+00 0.261D+00 0.118D+01-0.778D+00
 Coeff:     -0.169D+01 0.249D+00 0.193D+01-0.329D-01-0.429D+00-0.436D+00
 Coeff:     -0.210D+00 0.240D+00-0.414D+01 0.311D+01 0.282D+01-0.569D+01
 Coeff:      0.406D+01 0.101D+01
 Gap=     0.029 Goal=   None    Shift=    0.300
 Gap=     0.172 Goal=   None    Shift=    0.300
 RMSDP=3.00D-05 MaxDP=1.30D-03 DE=-6.94D-06 OVMax= 5.60D-03

 Cycle  77  Pass 1  IDiag  1:
 RMSU=  2.09D-05    CP:  1.00D+00  3.00D+00  2.45D+00  3.00D+00  3.00D+00
                    CP:  3.00D+00  3.00D+00  3.00D+00  3.00D+00  3.00D+00
                    CP:  3.00D+00  3.00D+00  3.00D+00  3.00D+00  3.00D+00
                    CP:  2.04D+00
 E= -562.876492458435     Delta-E=       -0.000007082521 Rises=F Damp=F
 DIIS: error= 2.24D-04 at cycle  77 NSaved=  20.
 NSaved=20 IEnMin=20 EnMin= -562.876492458435     IErMin=20 ErrMin= 2.24D-04
 ErrMax= 2.24D-04  0.00D+00 EMaxC= 1.00D-01 BMatC= 2.96D-05 BMatP= 2.87D-05
 IDIUse=3 WtCom= 9.98D-01 WtEn= 2.24D-03
 Coeff-Com:  0.278D-01-0.477D+00 0.248D+00 0.118D+01-0.786D+00-0.172D+01
 Coeff-Com:  0.284D+00 0.194D+01-0.377D-01-0.461D+00-0.433D+00-0.182D+00
 Coeff-Com:  0.253D+00-0.419D+01 0.309D+01 0.283D+01-0.558D+01 0.404D+01
 Coeff-Com:  0.103D+01-0.561D-01
 Coeff-En:   0.000D+00 0.000D+00 0.000D+00 0.000D+00 0.000D+00 0.000D+00
 Coeff-En:   0.000D+00 0.000D+00 0.000D+00 0.000D+00 0.000D+00 0.000D+00
 Coeff-En:   0.000D+00 0.000D+00 0.000D+00 0.000D+00 0.000D+00 0.000D+00
 Coeff-En:   0.000D+00 0.100D+01
 Coeff:      0.277D-01-0.476D+00 0.248D+00 0.117D+01-0.784D+00-0.171D+01
 Coeff:      0.284D+00 0.194D+01-0.376D-01-0.460D+00-0.432D+00-0.182D+00
 Coeff:      0.252D+00-0.418D+01 0.308D+01 0.282D+01-0.557D+01 0.403D+01
 Coeff:      0.103D+01-0.537D-01
 Gap=     0.029 Goal=   None    Shift=    0.300
 Gap=     0.172 Goal=   None    Shift=    0.300
 RMSDP=2.71D-05 MaxDP=1.21D-03 DE=-7.08D-06 OVMax= 5.08D-03

 Cycle  78  Pass 1  IDiag  1:
 RMSU=  1.40D-06    CP:  1.00D+00  3.00D+00  2.37D+00  3.00D+00  3.00D+00
                    CP:  3.00D+00  3.00D+00  3.00D+00  3.00D+00  3.00D+00
                    CP:  3.00D+00  3.00D+00  3.00D+00  3.00D+00  3.00D+00
                    CP:  3.00D+00  2.01D+00
 E= -562.876499737079     Delta-E=       -0.000007278644 Rises=F Damp=F
 DIIS: error= 2.09D-04 at cycle  78 NSaved=  20.
 NSaved=20 IEnMin=20 EnMin= -562.876499737079     IErMin=20 ErrMin= 2.09D-04
 ErrMax= 2.09D-04  0.00D+00 EMaxC= 1.00D-01 BMatC= 2.59D-05 BMatP= 2.87D-05
 IDIUse=3 WtCom= 9.98D-01 WtEn= 2.09D-03
 Large coefficients: NSaved= 20 BigCof=   16.03 CofMax=   10.00 Det=-5.45D-10
 Inversion failed.  Reducing to 19 matrices.
 Large coefficients: NSaved= 19 BigCof=   14.77 CofMax=   10.00 Det=-5.55D-10
 Inversion failed.  Reducing to 18 matrices.
 Large coefficients: NSaved= 18 BigCof=   14.53 CofMax=   10.00 Det=-5.57D-10
 Inversion failed.  Reducing to 17 matrices.
 Large coefficients: NSaved= 17 BigCof=   14.42 CofMax=   10.00 Det=-5.57D-10
 Inversion failed.  Reducing to 16 matrices.
 Large coefficients: NSaved= 16 BigCof=   14.28 CofMax=   10.00 Det=-5.60D-10
 Inversion failed.  Reducing to 15 matrices.
 Large coefficients: NSaved= 15 BigCof=   14.89 CofMax=   10.00 Det=-5.88D-10
 Inversion failed.  Reducing to 14 matrices.
 Large coefficients: NSaved= 14 BigCof=   16.62 CofMax=   10.00 Det=-6.27D-10
 Inversion failed.  Reducing to 13 matrices.
 Large coefficients: NSaved= 13 BigCof=   14.03 CofMax=   10.00 Det=-6.60D-10
 Inversion failed.  Reducing to 12 matrices.
 Large coefficients: NSaved= 12 BigCof=   14.41 CofMax=   10.00 Det=-6.69D-10
 Inversion failed.  Reducing to 11 matrices.
 Large coefficients: NSaved= 11 BigCof=   14.23 CofMax=   10.00 Det=-6.82D-10
 Inversion failed.  Reducing to 10 matrices.
 Large coefficients: NSaved= 10 BigCof=   14.23 CofMax=   10.00 Det=-6.82D-10
 Inversion failed.  Reducing to  9 matrices.
 Large coefficients: NSaved=  9 BigCof=   13.84 CofMax=   10.00 Det=-6.83D-10
 Inversion failed.  Reducing to  8 matrices.
 Large coefficients: NSaved=  8 BigCof=   13.83 CofMax=   10.00 Det=-6.83D-10
 Inversion failed.  Reducing to  7 matrices.
 Large coefficients: NSaved=  7 BigCof=   20.70 CofMax=   10.00 Det=-8.84D-10
 Inversion failed.  Reducing to  6 matrices.
 Large coefficients: NSaved=  6 BigCof=   19.28 CofMax=   10.00 Det=-1.39D-09
 Inversion failed.  Reducing to  5 matrices.
 Large coefficients: NSaved=  5 BigCof=   20.43 CofMax=   10.00 Det=-1.53D-09
 Inversion failed.  Reducing to  4 matrices.
 Large coefficients: NSaved=  4 BigCof=   19.30 CofMax=   10.00 Det=-1.41D-08
 Inversion failed.  Reducing to  3 matrices.
 Large coefficients: NSaved=  3 BigCof=   14.71 CofMax=   10.00 Det=-2.46D-08
 Inversion failed.  Reducing to  2 matrices.
 Large coefficients: NSaved=  2 BigCof=   14.46 CofMax=   10.00 Det=-1.32D-07
 Coeff-Com: -0.135D+02 0.145D+02
 Coeff-En:   0.000D+00 0.100D+01
 Coeff:     -0.134D+02 0.144D+02
 Gap=     0.029 Goal=   None    Shift=    0.300
 Gap=     0.171 Goal=   None    Shift=    0.300
 RMSDP=3.59D-05 MaxDP=1.50D-03 DE=-7.28D-06 OVMax= 6.68D-03

 Cycle  79  Pass 1  IDiag  1:
 RMSU=  2.31D-05    CP:  1.00D+00  3.00D+00  2.67D+00  3.00D+00  3.00D+00
                    CP:  3.00D+00  3.00D+00  3.00D+00  3.00D+00  3.00D+00
                    CP:  3.00D+00  3.00D+00  3.00D+00  3.00D+00  3.00D+00
                    CP:  3.00D+00  3.00D+00  4.97D-01
 E= -562.876506485519     Delta-E=       -0.000006748440 Rises=F Damp=F
 DIIS: error= 2.05D-04 at cycle  79 NSaved=   3.
 NSaved= 3 IEnMin= 3 EnMin= -562.876506485519     IErMin= 3 ErrMin= 2.05D-04
 ErrMax= 2.05D-04  0.00D+00 EMaxC= 1.00D-01 BMatC= 2.74D-05 BMatP= 2.59D-05
 IDIUse=3 WtCom= 9.98D-01 WtEn= 2.05D-03
 Large coefficients: NSaved=  3 BigCof=   14.20 CofMax=   10.00 Det=-1.29D-07
 Inversion failed.  Reducing to  2 matrices.
 Coeff-Com:  0.855D+00 0.145D+00
 Coeff-En:   0.000D+00 0.100D+01
 Coeff:      0.854D+00 0.146D+00
 Gap=     0.032 Goal=   None    Shift=    0.300
 Gap=     0.177 Goal=   None    Shift=    0.300
 RMSDP=3.21D-05 MaxDP=2.02D-03 DE=-6.75D-06 OVMax= 2.28D-03

 Cycle  80  Pass 1  IDiag  1:
 RMSU=  1.82D-05    CP:  1.00D+00  3.00D+00 -1.05D+00  3.00D+00  3.00D+00
                    CP:  3.00D+00  3.00D+00  3.00D+00  3.00D+00  3.00D+00
                    CP:  3.00D+00  3.00D+00  3.00D+00  3.00D+00  3.00D+00
                    CP:  3.00D+00  3.00D+00  3.00D+00  1.53D+00
 E= -562.876516293226     Delta-E=       -0.000009807708 Rises=F Damp=F
 DIIS: error= 1.70D-04 at cycle  80 NSaved=   3.
 NSaved= 3 IEnMin= 3 EnMin= -562.876516293226     IErMin= 3 ErrMin= 1.70D-04
 ErrMax= 1.70D-04  0.00D+00 EMaxC= 1.00D-01 BMatC= 1.43D-05 BMatP= 2.59D-05
 IDIUse=3 WtCom= 9.98D-01 WtEn= 1.70D-03
 Coeff-Com:  0.108D+01-0.707D+00 0.627D+00
 Coeff-En:   0.000D+00 0.000D+00 0.100D+01
 Coeff:      0.108D+01-0.706D+00 0.628D+00
 Gap=     0.031 Goal=   None    Shift=    0.300
 Gap=     0.175 Goal=   None    Shift=    0.300
 RMSDP=1.36D-05 MaxDP=5.58D-04 DE=-9.81D-06 OVMax= 1.46D-03

 Cycle  81  Pass 1  IDiag  1:
 Restarting incremental Fock formation.
 E= -562.876520770654     Delta-E=       -0.000004477428 Rises=F Damp=F
 DIIS: error= 1.05D-04 at cycle  81 NSaved=   4.
 NSaved= 4 IEnMin= 4 EnMin= -562.876520770654     IErMin= 4 ErrMin= 1.05D-04
 ErrMax= 1.05D-04  0.00D+00 EMaxC= 1.00D-01 BMatC= 2.82D-06 BMatP= 1.43D-05
 IDIUse=3 WtCom= 9.99D-01 WtEn= 1.05D-03
 Coeff-Com:  0.451D+00-0.282D+00-0.962D-01 0.928D+00
 Coeff-En:   0.000D+00 0.000D+00 0.000D+00 0.100D+01
 Coeff:      0.450D+00-0.282D+00-0.961D-01 0.928D+00
 Gap=     0.030 Goal=   None    Shift=    0.300
 Gap=     0.175 Goal=   None    Shift=    0.300
 RMSDP=9.11D-06 MaxDP=4.05D-04 DE=-4.48D-06 OVMax= 1.43D-03

 Cycle  82  Pass 1  IDiag  1:
 RMSU=  9.10D-06    CP:  1.00D+00
 E= -562.876522839805     Delta-E=       -0.000002069150 Rises=F Damp=F
 DIIS: error= 1.02D-04 at cycle  82 NSaved=   5.
 NSaved= 5 IEnMin= 5 EnMin= -562.876522839805     IErMin= 5 ErrMin= 1.02D-04
 ErrMax= 1.02D-04  0.00D+00 EMaxC= 1.00D-01 BMatC= 1.12D-06 BMatP= 2.82D-06
 IDIUse=3 WtCom= 9.99D-01 WtEn= 1.02D-03
 Coeff-Com:  0.528D-01 0.109D-01-0.169D+00 0.179D+00 0.926D+00
 Coeff-En:   0.000D+00 0.000D+00 0.000D+00 0.000D+00 0.100D+01
 Coeff:      0.527D-01 0.109D-01-0.169D+00 0.179D+00 0.926D+00
 Gap=     0.030 Goal=   None    Shift=    0.300
 Gap=     0.174 Goal=   None    Shift=    0.300
 RMSDP=8.57D-06 MaxDP=3.93D-04 DE=-2.07D-06 OVMax= 1.50D-03

 Cycle  83  Pass 1  IDiag  1:
 RMSU=  3.47D-06    CP:  1.00D+00  1.86D+00
 E= -562.876524544033     Delta-E=       -0.000001704228 Rises=F Damp=F
 DIIS: error= 9.98D-05 at cycle  83 NSaved=   6.
 NSaved= 6 IEnMin= 6 EnMin= -562.876524544033     IErMin= 6 ErrMin= 9.98D-05
 ErrMax= 9.98D-05  0.00D+00 EMaxC= 1.00D-01 BMatC= 5.87D-07 BMatP= 1.12D-06
 IDIUse=1 WtCom= 1.00D+00 WtEn= 0.00D+00
 Coeff-Com: -0.214D+00 0.193D+00-0.821D-02-0.374D+00 0.139D+00 0.126D+01
 Coeff:     -0.214D+00 0.193D+00-0.821D-02-0.374D+00 0.139D+00 0.126D+01
 Gap=     0.030 Goal=   None    Shift=    0.300
 Gap=     0.174 Goal=   None    Shift=    0.300
 RMSDP=9.05D-06 MaxDP=4.07D-04 DE=-1.70D-06 OVMax= 1.63D-03

 Cycle  84  Pass 1  IDiag  1:
 RMSU=  1.80D-06    CP:  1.00D+00  2.73D+00  2.16D+00
 E= -562.876526180183     Delta-E=       -0.000001636150 Rises=F Damp=F
 DIIS: error= 9.70D-05 at cycle  84 NSaved=   7.
 NSaved= 7 IEnMin= 7 EnMin= -562.876526180183     IErMin= 7 ErrMin= 9.70D-05
 ErrMax= 9.70D-05  0.00D+00 EMaxC= 1.00D-01 BMatC= 4.77D-07 BMatP= 5.87D-07
 IDIUse=1 WtCom= 1.00D+00 WtEn= 0.00D+00
 Coeff-Com: -0.237D+00 0.158D+00 0.784D-01-0.340D+00-0.339D+00 0.341D+00
 Coeff-Com:  0.134D+01
 Coeff:     -0.237D+00 0.158D+00 0.784D-01-0.340D+00-0.339D+00 0.341D+00
 Coeff:      0.134D+01
 Gap=     0.030 Goal=   None    Shift=    0.300
 Gap=     0.174 Goal=   None    Shift=    0.300
 RMSDP=9.11D-06 MaxDP=4.17D-04 DE=-1.64D-06 OVMax= 1.67D-03

 Cycle  85  Pass 1  IDiag  1:
 RMSU=  5.54D-06    CP:  1.00D+00  3.00D+00  3.00D+00  2.04D+00
 E= -562.876527764949     Delta-E=       -0.000001584766 Rises=F Damp=F
 DIIS: error= 9.39D-05 at cycle  85 NSaved=   8.
 NSaved= 8 IEnMin= 8 EnMin= -562.876527764949     IErMin= 8 ErrMin= 9.39D-05
 ErrMax= 9.39D-05  0.00D+00 EMaxC= 1.00D-01 BMatC= 4.56D-07 BMatP= 4.77D-07
 IDIUse=1 WtCom= 1.00D+00 WtEn= 0.00D+00
 Coeff-Com: -0.141D+00 0.505D-01 0.451D-01-0.578D-01-0.316D+00-0.390D+00
 Coeff-Com:  0.498D+00 0.131D+01
 Coeff:     -0.141D+00 0.505D-01 0.451D-01-0.578D-01-0.316D+00-0.390D+00
 Coeff:      0.498D+00 0.131D+01
 Gap=     0.030 Goal=   None    Shift=    0.300
 Gap=     0.174 Goal=   None    Shift=    0.300
 RMSDP=8.82D-06 MaxDP=4.08D-04 DE=-1.58D-06 OVMax= 1.64D-03

 Cycle  86  Pass 1  IDiag  1:
 RMSU=  2.49D-06    CP:  1.00D+00  3.00D+00  3.00D+00  3.00D+00  2.48D+00
 E= -562.876529260581     Delta-E=       -0.000001495632 Rises=F Damp=F
 DIIS: error= 9.08D-05 at cycle  86 NSaved=   9.
 NSaved= 9 IEnMin= 9 EnMin= -562.876529260581     IErMin= 9 ErrMin= 9.08D-05
 ErrMax= 9.08D-05  0.00D+00 EMaxC= 1.00D-01 BMatC= 4.37D-07 BMatP= 4.56D-07
 IDIUse=1 WtCom= 1.00D+00 WtEn= 0.00D+00
 Coeff-Com: -0.118D+00 0.493D-01-0.190D-01 0.112D+00-0.587D-01-0.422D+00
 Coeff-Com: -0.396D+00 0.473D-01 0.180D+01
 Coeff:     -0.118D+00 0.493D-01-0.190D-01 0.112D+00-0.587D-01-0.422D+00
 Coeff:     -0.396D+00 0.473D-01 0.180D+01
 Gap=     0.030 Goal=   None    Shift=    0.300
 Gap=     0.174 Goal=   None    Shift=    0.300
 RMSDP=8.94D-06 MaxDP=4.10D-04 DE=-1.50D-06 OVMax= 1.66D-03

 Cycle  87  Pass 1  IDiag  1:
 RMSU=  5.77D-06    CP:  1.00D+00  3.00D+00  3.00D+00  3.00D+00  3.00D+00
                    CP:  2.11D+00
 E= -562.876530727605     Delta-E=       -0.000001467024 Rises=F Damp=F
 DIIS: error= 8.82D-05 at cycle  87 NSaved=  10.
 NSaved=10 IEnMin=10 EnMin= -562.876530727605     IErMin=10 ErrMin= 8.82D-05
 ErrMax= 8.82D-05  0.00D+00 EMaxC= 1.00D-01 BMatC= 4.35D-07 BMatP= 4.37D-07
 IDIUse=1 WtCom= 1.00D+00 WtEn= 0.00D+00
 Coeff-Com: -0.129D+00 0.761D-01-0.280D-01-0.734D-02 0.118D+00 0.242D+00
 Coeff-Com: -0.411D+00-0.135D+01 0.237D+00 0.225D+01
 Coeff:     -0.129D+00 0.761D-01-0.280D-01-0.734D-02 0.118D+00 0.242D+00
 Coeff:     -0.411D+00-0.135D+01 0.237D+00 0.225D+01
 Gap=     0.030 Goal=   None    Shift=    0.300
 Gap=     0.174 Goal=   None    Shift=    0.300
 RMSDP=9.15D-06 MaxDP=4.15D-04 DE=-1.47D-06 OVMax= 1.70D-03

 Cycle  88  Pass 1  IDiag  1:
 RMSU=  1.19D-06    CP:  1.00D+00  3.00D+00  3.00D+00  3.00D+00  3.00D+00
                    CP:  3.00D+00  2.50D+00
 E= -562.876532175871     Delta-E=       -0.000001448265 Rises=F Damp=F
 DIIS: error= 8.62D-05 at cycle  88 NSaved=  11.
 NSaved=11 IEnMin=11 EnMin= -562.876532175871     IErMin=11 ErrMin= 8.62D-05
 ErrMax= 8.62D-05  0.00D+00 EMaxC= 1.00D-01 BMatC= 4.53D-07 BMatP= 4.35D-07
 IDIUse=1 WtCom= 1.00D+00 WtEn= 0.00D+00
 Coeff-Com: -0.135D+00 0.651D-01 0.157D-01-0.148D+00 0.583D-01 0.551D+00
 Coeff-Com:  0.126D+00-0.117D+01-0.129D+01 0.111D+01 0.182D+01
 Coeff:     -0.135D+00 0.651D-01 0.157D-01-0.148D+00 0.583D-01 0.551D+00
 Coeff:      0.126D+00-0.117D+01-0.129D+01 0.111D+01 0.182D+01
 Gap=     0.030 Goal=   None    Shift=    0.300
 Gap=     0.173 Goal=   None    Shift=    0.300
 RMSDP=9.06D-06 MaxDP=4.10D-04 DE=-1.45D-06 OVMax= 1.69D-03

 Cycle  89  Pass 1  IDiag  1:
 RMSU=  5.94D-06    CP:  1.00D+00  3.00D+00  3.00D+00  3.00D+00  3.00D+00
                    CP:  3.00D+00  3.00D+00  3.00D+00
 E= -562.876533574223     Delta-E=       -0.000001398352 Rises=F Damp=F
 DIIS: error= 8.48D-05 at cycle  89 NSaved=  12.
 NSaved=12 IEnMin=12 EnMin= -562.876533574223     IErMin=12 ErrMin= 8.48D-05
 ErrMax= 8.48D-05  0.00D+00 EMaxC= 1.00D-01 BMatC= 4.62D-07 BMatP= 4.35D-07
 IDIUse=1 WtCom= 1.00D+00 WtEn= 0.00D+00
 Coeff-Com: -0.993D-01 0.238D-02 0.181D-01-0.886D-01 0.779D-02 0.892D-01
 Coeff-Com:  0.253D+00 0.121D+00-0.542D+00-0.811D+00-0.474D+00 0.252D+01
 Coeff:     -0.993D-01 0.238D-02 0.181D-01-0.886D-01 0.779D-02 0.892D-01
 Coeff:      0.253D+00 0.121D+00-0.542D+00-0.811D+00-0.474D+00 0.252D+01
 Gap=     0.030 Goal=   None    Shift=    0.300
 Gap=     0.173 Goal=   None    Shift=    0.300
 RMSDP=8.79D-06 MaxDP=3.98D-04 DE=-1.40D-06 OVMax= 1.64D-03

 Cycle  90  Pass 1  IDiag  1:
 RMSU=  2.50D-06    CP:  1.00D+00  3.00D+00  3.00D+00  3.00D+00  3.00D+00
                    CP:  3.00D+00  3.00D+00  3.00D+00  2.42D+00
 E= -562.876534907564     Delta-E=       -0.000001333342 Rises=F Damp=F
 DIIS: error= 8.29D-05 at cycle  90 NSaved=  13.
 NSaved=13 IEnMin=13 EnMin= -562.876534907564     IErMin=13 ErrMin= 8.29D-05
 ErrMax= 8.29D-05  0.00D+00 EMaxC= 1.00D-01 BMatC= 4.50D-07 BMatP= 4.35D-07
 IDIUse=1 WtCom= 1.00D+00 WtEn= 0.00D+00
 Coeff-Com: -0.429D-01-0.687D-01-0.517D-01 0.264D+00 0.424D-02-0.161D+01
 Coeff-Com: -0.108D+00 0.247D+01 0.432D+01-0.248D+01-0.901D+01 0.273D+00
 Coeff-Com:  0.703D+01
 Coeff:     -0.429D-01-0.687D-01-0.517D-01 0.264D+00 0.424D-02-0.161D+01
 Coeff:     -0.108D+00 0.247D+01 0.432D+01-0.248D+01-0.901D+01 0.273D+00
 Coeff:      0.703D+01
 Gap=     0.030 Goal=   None    Shift=    0.300
 Gap=     0.173 Goal=   None    Shift=    0.300
 RMSDP=1.13D-05 MaxDP=4.82D-04 DE=-1.33D-06 OVMax= 2.06D-03

 Cycle  91  Pass 1  IDiag  1:
 RMSU=  7.44D-06    CP:  1.00D+00  3.00D+00  3.00D+00  3.00D+00  3.00D+00
                    CP:  3.00D+00  3.00D+00  3.00D+00  3.00D+00  2.23D+00
 E= -562.876536440927     Delta-E=       -0.000001533363 Rises=F Damp=F
 DIIS: error= 8.56D-05 at cycle  91 NSaved=  14.
 NSaved=14 IEnMin=14 EnMin= -562.876536440927     IErMin=13 ErrMin= 8.29D-05
 ErrMax= 8.56D-05  0.00D+00 EMaxC= 1.00D-01 BMatC= 7.14D-07 BMatP= 4.35D-07
 IDIUse=1 WtCom= 1.00D+00 WtEn= 0.00D+00
 Large coefficients: NSaved= 14 BigCof=   10.30 CofMax=   10.00 Det=-3.73D-10
 Inversion failed.  Reducing to 13 matrices.
 Large coefficients: NSaved= 13 BigCof=   10.52 CofMax=   10.00 Det=-4.13D-10
 Inversion failed.  Reducing to 12 matrices.
 Coeff-Com: -0.110D+00 0.295D+00 0.405D+00-0.628D+00-0.946D+00-0.424D+00
 Coeff-Com:  0.364D+01 0.890D+00-0.617D+01-0.193D+01 0.614D+01-0.165D+00
 Coeff:     -0.110D+00 0.295D+00 0.405D+00-0.628D+00-0.946D+00-0.424D+00
 Coeff:      0.364D+01 0.890D+00-0.617D+01-0.193D+01 0.614D+01-0.165D+00
 Gap=     0.030 Goal=   None    Shift=    0.300
 Gap=     0.173 Goal=   None    Shift=    0.300
 RMSDP=8.36D-06 MaxDP=3.79D-04 DE=-1.53D-06 OVMax= 1.56D-03

 Cycle  92  Pass 1  IDiag  1:
 RMSU=  3.09D-06    CP:  1.00D+00  3.00D+00  3.00D+00  3.00D+00  3.00D+00
                    CP:  3.00D+00  3.00D+00  3.00D+00  3.00D+00  3.00D+00
                    CP:  2.00D+00
 E= -562.876537735550     Delta-E=       -0.000001294623 Rises=F Damp=F
 DIIS: error= 8.02D-05 at cycle  92 NSaved=  13.
 NSaved=13 IEnMin=13 EnMin= -562.876537735550     IErMin=13 ErrMin= 8.02D-05
 ErrMax= 8.02D-05  0.00D+00 EMaxC= 1.00D-01 BMatC= 4.35D-07 BMatP= 4.35D-07
 IDIUse=1 WtCom= 1.00D+00 WtEn= 0.00D+00
 Coeff-Com: -0.933D-01 0.356D+00 0.164D+00-0.175D+01-0.807D+00 0.177D+01
 Coeff-Com:  0.490D+01-0.341D+00-0.900D+01-0.327D+01 0.810D+01-0.143D+01
 Coeff-Com:  0.241D+01
 Coeff:     -0.933D-01 0.356D+00 0.164D+00-0.175D+01-0.807D+00 0.177D+01
 Coeff:      0.490D+01-0.341D+00-0.900D+01-0.327D+01 0.810D+01-0.143D+01
 Coeff:      0.241D+01
 Gap=     0.030 Goal=   None    Shift=    0.300
 Gap=     0.173 Goal=   None    Shift=    0.300
 RMSDP=1.22D-05 MaxDP=5.14D-04 DE=-1.29D-06 OVMax= 2.23D-03

 Cycle  93  Pass 1  IDiag  1:
 RMSU=  5.33D-06    CP:  1.00D+00  3.00D+00  3.00D+00  3.00D+00  3.00D+00
                    CP:  3.00D+00  3.00D+00  3.00D+00  3.00D+00  3.00D+00
                    CP:  3.00D+00  1.34D+00
 E= -562.876539253195     Delta-E=       -0.000001517645 Rises=F Damp=F
 DIIS: error= 8.42D-05 at cycle  93 NSaved=  14.
 NSaved=14 IEnMin=14 EnMin= -562.876539253195     IErMin=13 ErrMin= 8.02D-05
 ErrMax= 8.42D-05  0.00D+00 EMaxC= 1.00D-01 BMatC= 8.19D-07 BMatP= 4.35D-07
 IDIUse=1 WtCom= 1.00D+00 WtEn= 0.00D+00
 Coeff-Com: -0.757D-01-0.115D-01 0.175D-01-0.290D+00-0.113D+01 0.156D+00
 Coeff-Com:  0.109D+01 0.288D+01-0.126D+01-0.569D+01 0.378D+01-0.617D+01
 Coeff-Com:  0.441D+01 0.330D+01
 Coeff:     -0.757D-01-0.115D-01 0.175D-01-0.290D+00-0.113D+01 0.156D+00
 Coeff:      0.109D+01 0.288D+01-0.126D+01-0.569D+01 0.378D+01-0.617D+01
 Coeff:      0.441D+01 0.330D+01
 Gap=     0.029 Goal=   None    Shift=    0.300
 Gap=     0.172 Goal=   None    Shift=    0.300
 RMSDP=1.56D-05 MaxDP=6.46D-04 DE=-1.52D-06 OVMax= 2.84D-03

 Cycle  94  Pass 1  IDiag  1:
 RMSU=  7.09D-06    CP:  1.00D+00  3.00D+00  3.00D+00  3.00D+00  3.00D+00
                    CP:  3.00D+00  3.00D+00  3.00D+00  3.00D+00  3.00D+00
                    CP:  3.00D+00  1.65D+00  3.00D+00
 E= -562.876540904337     Delta-E=       -0.000001651142 Rises=F Damp=F
 DIIS: error= 9.05D-05 at cycle  94 NSaved=  15.
 NSaved=15 IEnMin=15 EnMin= -562.876540904337     IErMin=13 ErrMin= 8.02D-05
 ErrMax= 9.05D-05  0.00D+00 EMaxC= 1.00D-01 BMatC= 1.82D-06 BMatP= 4.35D-07
 IDIUse=1 WtCom= 1.00D+00 WtEn= 0.00D+00
 Coeff-Com: -0.733D-01-0.349D-01 0.278D-01-0.160D+00-0.114D+01-0.466D-01
 Coeff-Com:  0.847D+00 0.299D+01-0.719D+00-0.563D+01 0.353D+01-0.648D+01
 Coeff-Com:  0.454D+01 0.319D+01 0.162D+00
 Coeff:     -0.733D-01-0.349D-01 0.278D-01-0.160D+00-0.114D+01-0.466D-01
 Coeff:      0.847D+00 0.299D+01-0.719D+00-0.563D+01 0.353D+01-0.648D+01
 Coeff:      0.454D+01 0.319D+01 0.162D+00
 Gap=     0.029 Goal=   None    Shift=    0.300
 Gap=     0.172 Goal=   None    Shift=    0.300
 RMSDP=1.39D-05 MaxDP=6.07D-04 DE=-1.65D-06 OVMax= 2.59D-03

 Cycle  95  Pass 1  IDiag  1:
 RMSU=  7.88D-06    CP:  1.00D+00  3.00D+00  3.00D+00  3.00D+00  3.00D+00
                    CP:  3.00D+00  3.00D+00  3.00D+00  3.00D+00  3.00D+00
                    CP:  3.00D+00  2.64D+00  3.00D+00  2.55D+00
 E= -562.876542630812     Delta-E=       -0.000001726475 Rises=F Damp=F
 DIIS: error= 8.90D-05 at cycle  95 NSaved=  16.
 NSaved=16 IEnMin=16 EnMin= -562.876542630812     IErMin=13 ErrMin= 8.02D-05
 ErrMax= 8.90D-05  0.00D+00 EMaxC= 1.00D-01 BMatC= 1.80D-06 BMatP= 4.35D-07
 IDIUse=1 WtCom= 1.00D+00 WtEn= 0.00D+00
 Coeff-Com: -0.469D-01-0.165D+00-0.159D+00 0.167D-01-0.110D+01 0.208D+00
 Coeff-Com:  0.598D+00 0.283D+01-0.433D+00-0.608D+01 0.435D+01-0.863D+01
 Coeff-Com:  0.591D+01 0.292D+01 0.283D+01-0.205D+01
 Coeff:     -0.469D-01-0.165D+00-0.159D+00 0.167D-01-0.110D+01 0.208D+00
 Coeff:      0.598D+00 0.283D+01-0.433D+00-0.608D+01 0.435D+01-0.863D+01
 Coeff:      0.591D+01 0.292D+01 0.283D+01-0.205D+01
 Gap=     0.029 Goal=   None    Shift=    0.300
 Gap=     0.172 Goal=   None    Shift=    0.300
 RMSDP=1.27D-05 MaxDP=5.68D-04 DE=-1.73D-06 OVMax= 2.38D-03

 Cycle  96  Pass 1  IDiag  1:
 RMSU=  7.08D-06    CP:  1.00D+00  3.00D+00  3.00D+00  3.00D+00  3.00D+00
                    CP:  3.00D+00  3.00D+00  3.00D+00  3.00D+00  3.00D+00
                    CP:  3.00D+00  3.00D+00  3.00D+00  3.00D+00  1.92D+00
 E= -562.876544244073     Delta-E=       -0.000001613261 Rises=F Damp=F
 DIIS: error= 8.55D-05 at cycle  96 NSaved=  17.
 NSaved=17 IEnMin=17 EnMin= -562.876544244073     IErMin=13 ErrMin= 8.02D-05
 ErrMax= 8.55D-05  0.00D+00 EMaxC= 1.00D-01 BMatC= 1.65D-06 BMatP= 4.35D-07
 IDIUse=1 WtCom= 1.00D+00 WtEn= 0.00D+00
 Coeff-Com: -0.711D-01-0.291D-01-0.982D-01-0.176D+00-0.119D+01-0.105D-03
 Coeff-Com:  0.173D+01 0.224D+01-0.130D+01-0.617D+01 0.495D+01-0.857D+01
 Coeff-Com:  0.646D+01 0.165D+01 0.623D+01-0.742D+01 0.277D+01
 Coeff:     -0.711D-01-0.291D-01-0.982D-01-0.176D+00-0.119D+01-0.105D-03
 Coeff:      0.173D+01 0.224D+01-0.130D+01-0.617D+01 0.495D+01-0.857D+01
 Coeff:      0.646D+01 0.165D+01 0.623D+01-0.742D+01 0.277D+01
 Gap=     0.029 Goal=   None    Shift=    0.300
 Gap=     0.172 Goal=   None    Shift=    0.300
 RMSDP=1.25D-05 MaxDP=5.59D-04 DE=-1.61D-06 OVMax= 2.34D-03

 Cycle  97  Pass 1  IDiag  1:
 RMSU=  4.38D-07    CP:  1.00D+00  3.00D+00  3.00D+00  3.00D+00  3.00D+00
                    CP:  3.00D+00  3.00D+00  3.00D+00  3.00D+00  3.00D+00
                    CP:  3.00D+00  3.00D+00  3.00D+00  3.00D+00  2.83D+00
                    CP:  2.45D+00
 E= -562.876545736117     Delta-E=       -0.000001492044 Rises=F Damp=F
 DIIS: error= 8.28D-05 at cycle  97 NSaved=  18.
 NSaved=18 IEnMin=18 EnMin= -562.876545736117     IErMin=13 ErrMin= 8.02D-05
 ErrMax= 8.28D-05  0.00D+00 EMaxC= 1.00D-01 BMatC= 1.66D-06 BMatP= 4.35D-07
 IDIUse=1 WtCom= 1.00D+00 WtEn= 0.00D+00
 Large coefficients: NSaved= 18 BigCof=   13.56 CofMax=   10.00 Det=-2.19D-10
 Inversion failed.  Reducing to 17 matrices.
 Large coefficients: NSaved= 17 BigCof=   13.50 CofMax=   10.00 Det=-2.19D-10
 Inversion failed.  Reducing to 16 matrices.
 Large coefficients: NSaved= 16 BigCof=   13.75 CofMax=   10.00 Det=-2.65D-10
 Inversion failed.  Reducing to 15 matrices.
 Large coefficients: NSaved= 15 BigCof=   14.27 CofMax=   10.00 Det=-2.69D-10
 Inversion failed.  Reducing to 14 matrices.
 Large coefficients: NSaved= 14 BigCof=   13.87 CofMax=   10.00 Det=-2.99D-10
 Inversion failed.  Reducing to 13 matrices.
 Large coefficients: NSaved= 13 BigCof=   14.25 CofMax=   10.00 Det=-3.01D-10
 Inversion failed.  Reducing to 12 matrices.
 Large coefficients: NSaved= 12 BigCof=   14.35 CofMax=   10.00 Det=-3.01D-10
 Inversion failed.  Reducing to 11 matrices.
 Large coefficients: NSaved= 11 BigCof=   13.63 CofMax=   10.00 Det=-3.38D-10
 Inversion failed.  Reducing to 10 matrices.
 Large coefficients: NSaved= 10 BigCof=   13.45 CofMax=   10.00 Det=-3.54D-10
 Inversion failed.  Reducing to  9 matrices.
 Large coefficients: NSaved=  9 BigCof=   13.47 CofMax=   10.00 Det=-3.54D-10
 Inversion failed.  Reducing to  8 matrices.
 Large coefficients: NSaved=  8 BigCof=   11.86 CofMax=   10.00 Det=-3.68D-10
 Inversion failed.  Reducing to  7 matrices.
 Large coefficients: NSaved=  7 BigCof=   11.83 CofMax=   10.00 Det=-3.68D-10
 Inversion failed.  Reducing to  6 matrices.
 Coeff-Com:  0.497D+00 0.134D+01-0.160D+01 0.152D+00-0.430D+00 0.104D+01
 Coeff:      0.497D+00 0.134D+01-0.160D+01 0.152D+00-0.430D+00 0.104D+01
 Gap=     0.030 Goal=   None    Shift=    0.300
 Gap=     0.173 Goal=   None    Shift=    0.300
 RMSDP=7.81D-06 MaxDP=3.79D-04 DE=-1.49D-06 OVMax= 6.04D-04

 Cycle  98  Pass 1  IDiag  1:
 RMSU=  7.04D-06    CP:  1.00D+00  3.00D+00  3.00D+00  3.00D+00  3.00D+00
                    CP:  3.00D+00  3.00D+00  3.00D+00  3.00D+00  3.00D+00
                    CP:  3.00D+00  3.00D+00  3.00D+00  3.00D+00  2.79D+00
                    CP:  2.77D+00 -3.00D+00
 E= -562.876546598153     Delta-E=       -0.000000862036 Rises=F Damp=F
 DIIS: error= 6.21D-05 at cycle  98 NSaved=   7.
 NSaved= 7 IEnMin= 7 EnMin= -562.876546598153     IErMin= 7 ErrMin= 6.21D-05
 ErrMax= 6.21D-05  0.00D+00 EMaxC= 1.00D-01 BMatC= 3.30D-07 BMatP= 4.35D-07
 IDIUse=1 WtCom= 1.00D+00 WtEn= 0.00D+00
 Coeff-Com:  0.135D+00-0.402D+00 0.292D+01-0.434D+01-0.114D+01 0.297D+01
 Coeff-Com:  0.862D+00
 Coeff:      0.135D+00-0.402D+00 0.292D+01-0.434D+01-0.114D+01 0.297D+01
 Coeff:      0.862D+00
 Gap=     0.030 Goal=   None    Shift=    0.300
 Gap=     0.173 Goal=   None    Shift=    0.300
 RMSDP=6.94D-06 MaxDP=3.14D-04 DE=-8.62D-07 OVMax= 1.27D-03

 Cycle  99  Pass 1  IDiag  1:
 RMSU=  4.73D-06    CP:  1.00D+00  3.00D+00  3.00D+00  3.00D+00  3.00D+00
                    CP:  3.00D+00  3.00D+00  3.00D+00  3.00D+00  3.00D+00
                    CP:  3.00D+00  3.00D+00  3.00D+00  3.00D+00  3.00D+00
                    CP:  3.00D+00 -3.00D+00  1.01D+00
 E= -562.876547419509     Delta-E=       -0.000000821356 Rises=F Damp=F
 DIIS: error= 6.22D-05 at cycle  99 NSaved=   8.
 NSaved= 8 IEnMin= 8 EnMin= -562.876547419509     IErMin= 7 ErrMin= 6.21D-05
 ErrMax= 6.22D-05  0.00D+00 EMaxC= 1.00D-01 BMatC= 2.37D-07 BMatP= 3.30D-07
 IDIUse=1 WtCom= 1.00D+00 WtEn= 0.00D+00
 Coeff-Com: -0.819D+00-0.150D+01 0.356D+01-0.541D+01-0.115D+01 0.409D+01
 Coeff-Com:  0.302D+00 0.192D+01
 Coeff:     -0.819D+00-0.150D+01 0.356D+01-0.541D+01-0.115D+01 0.409D+01
 Coeff:      0.302D+00 0.192D+01
 Gap=     0.029 Goal=   None    Shift=    0.300
 Gap=     0.172 Goal=   None    Shift=    0.300
 RMSDP=1.83D-05 MaxDP=6.82D-04 DE=-8.21D-07 OVMax= 3.17D-03

 Cycle 100  Pass 1  IDiag  1:
 RMSU=  8.45D-06    CP:  1.00D+00  3.00D+00  3.00D+00  3.00D+00  3.00D+00
                    CP:  3.00D+00  3.00D+00  3.00D+00  3.00D+00  3.00D+00
                    CP:  3.00D+00  3.00D+00  3.00D+00  3.00D+00  3.00D+00
                    CP:  3.00D+00  3.00D+00  1.80D-01  3.00D+00
 E= -562.876548700842     Delta-E=       -0.000001281334 Rises=F Damp=F
 DIIS: error= 7.81D-05 at cycle 100 NSaved=   9.
 NSaved= 9 IEnMin= 9 EnMin= -562.876548700842     IErMin= 7 ErrMin= 6.21D-05
 ErrMax= 7.81D-05  0.00D+00 EMaxC= 1.00D-01 BMatC= 2.05D-06 BMatP= 2.37D-07
 IDIUse=1 WtCom= 1.00D+00 WtEn= 0.00D+00
 Coeff-Com: -0.691D+00-0.838D+00 0.832D+00-0.391D+01 0.392D+00 0.233D+01
 Coeff-Com:  0.611D+00 0.123D+01 0.104D+01
 Coeff:     -0.691D+00-0.838D+00 0.832D+00-0.391D+01 0.392D+00 0.233D+01
 Coeff:      0.611D+00 0.123D+01 0.104D+01
 Gap=     0.029 Goal=   None    Shift=    0.300
 Gap=     0.172 Goal=   None    Shift=    0.300
 RMSDP=1.77D-05 MaxDP=7.24D-04 DE=-1.28D-06 OVMax= 3.24D-03

 Cycle 101  Pass 1  IDiag  1:
 Restarting incremental Fock formation.
 E= -562.876550009988     Delta-E=       -0.000001309145 Rises=F Damp=F
 DIIS: error= 8.30D-05 at cycle 101 NSaved=  10.
 NSaved=10 IEnMin=10 EnMin= -562.876550009988     IErMin= 7 ErrMin= 6.21D-05
 ErrMax= 8.30D-05  0.00D+00 EMaxC= 1.00D-01 BMatC= 3.15D-06 BMatP= 2.37D-07
 IDIUse=1 WtCom= 1.00D+00 WtEn= 0.00D+00
 Coeff-Com: -0.605D+00-0.872D+00 0.195D+01-0.559D+01 0.124D+01 0.173D+01
 Coeff-Com:  0.858D+00 0.105D+01 0.665D+00 0.576D+00
 Coeff:     -0.605D+00-0.872D+00 0.195D+01-0.559D+01 0.124D+01 0.173D+01
 Coeff:      0.858D+00 0.105D+01 0.665D+00 0.576D+00
 Gap=     0.029 Goal=   None    Shift=    0.300
 Gap=     0.172 Goal=   None    Shift=    0.300
 RMSDP=1.56D-05 MaxDP=6.79D-04 DE=-1.31D-06 OVMax= 2.92D-03

 Cycle 102  Pass 1  IDiag  1:
 RMSU=  1.56D-05    CP:  1.00D+00
 E= -562.876551535048     Delta-E=       -0.000001525061 Rises=F Damp=F
 DIIS: error= 8.08D-05 at cycle 102 NSaved=  11.
 NSaved=11 IEnMin=11 EnMin= -562.876551535048     IErMin= 7 ErrMin= 6.21D-05
 ErrMax= 8.08D-05  0.00D+00 EMaxC= 1.00D-01 BMatC= 2.97D-06 BMatP= 2.37D-07
 IDIUse=1 WtCom= 1.00D+00 WtEn= 0.00D+00
 Coeff-Com: -0.463D+00-0.814D+00 0.531D+00-0.485D+01 0.174D+01 0.164D+01
 Coeff-Com:  0.881D+00 0.104D+01 0.413D+00 0.245D+01-0.157D+01
 Coeff:     -0.463D+00-0.814D+00 0.531D+00-0.485D+01 0.174D+01 0.164D+01
 Coeff:      0.881D+00 0.104D+01 0.413D+00 0.245D+01-0.157D+01
 Gap=     0.029 Goal=   None    Shift=    0.300
 Gap=     0.172 Goal=   None    Shift=    0.300
 RMSDP=1.41D-05 MaxDP=6.37D-04 DE=-1.53D-06 OVMax= 2.64D-03

 Cycle 103  Pass 1  IDiag  1:
 RMSU=  1.00D-06    CP:  1.00D+00  1.90D+00
 E= -562.876552963732     Delta-E=       -0.000001428684 Rises=F Damp=F
 DIIS: error= 7.67D-05 at cycle 103 NSaved=  12.
 NSaved=12 IEnMin=12 EnMin= -562.876552963732     IErMin= 7 ErrMin= 6.21D-05
 ErrMax= 7.67D-05  0.00D+00 EMaxC= 1.00D-01 BMatC= 2.63D-06 BMatP= 2.37D-07
 IDIUse=1 WtCom= 1.00D+00 WtEn= 0.00D+00
 Coeff-Com: -0.282D+00-0.294D+00-0.180D+01-0.241D+01 0.250D+01-0.485D+00
 Coeff-Com:  0.126D+01 0.468D+00-0.318D-02 0.733D+01-0.960D+01 0.432D+01
 Coeff:     -0.282D+00-0.294D+00-0.180D+01-0.241D+01 0.250D+01-0.485D+00
 Coeff:      0.126D+01 0.468D+00-0.318D-02 0.733D+01-0.960D+01 0.432D+01
 Gap=     0.029 Goal=   None    Shift=    0.300
 Gap=     0.172 Goal=   None    Shift=    0.300
 RMSDP=1.42D-05 MaxDP=6.40D-04 DE=-1.43D-06 OVMax= 2.67D-03

 Cycle 104  Pass 1  IDiag  1:
 RMSU=  5.28D-07    CP:  1.00D+00  2.81D+00  1.84D+00
 E= -562.876554239673     Delta-E=       -0.000001275941 Rises=F Damp=F
 DIIS: error= 7.43D-05 at cycle 104 NSaved=  13.
 NSaved=13 IEnMin=13 EnMin= -562.876554239673     IErMin= 7 ErrMin= 6.21D-05
 ErrMax= 7.43D-05  0.00D+00 EMaxC= 1.00D-01 BMatC= 2.68D-06 BMatP= 2.37D-07
 IDIUse=1 WtCom= 1.00D+00 WtEn= 0.00D+00
 Large coefficients: NSaved= 13 BigCof=   10.10 CofMax=   10.00 Det=-1.10D-10
 Inversion failed.  Reducing to 12 matrices.
 Large coefficients: NSaved= 12 BigCof=   11.26 CofMax=   10.00 Det=-1.42D-10
 Inversion failed.  Reducing to 11 matrices.
 Large coefficients: NSaved= 11 BigCof=   12.52 CofMax=   10.00 Det=-2.05D-10
 Inversion failed.  Reducing to 10 matrices.
 Large coefficients: NSaved= 10 BigCof=   10.44 CofMax=   10.00 Det=-2.43D-10
 Inversion failed.  Reducing to  9 matrices.
 Large coefficients: NSaved=  9 BigCof=   11.04 CofMax=   10.00 Det=-2.44D-10
 Inversion failed.  Reducing to  8 matrices.
 Large coefficients: NSaved=  8 BigCof=   10.48 CofMax=   10.00 Det=-2.83D-10
 Inversion failed.  Reducing to  7 matrices.
 Coeff-Com:  0.253D+00 0.450D+00 0.765D+00-0.705D+00-0.182D+01-0.168D+00
 Coeff-Com:  0.222D+01
 Coeff:      0.253D+00 0.450D+00 0.765D+00-0.705D+00-0.182D+01-0.168D+00
 Coeff:      0.222D+01
 Gap=     0.030 Goal=   None    Shift=    0.300
 Gap=     0.173 Goal=   None    Shift=    0.300
 RMSDP=8.01D-06 MaxDP=3.64D-04 DE=-1.28D-06 OVMax= 6.88D-04

 Cycle 105  Pass 1  IDiag  1:
 RMSU=  6.19D-06    CP:  1.00D+00  2.93D+00  3.00D+00 -3.00D+00
 E= -562.876555467457     Delta-E=       -0.000001227784 Rises=F Damp=F
 DIIS: error= 5.30D-05 at cycle 105 NSaved=   8.
 NSaved= 8 IEnMin= 8 EnMin= -562.876555467457     IErMin= 8 ErrMin= 5.30D-05
 ErrMax= 5.30D-05  0.00D+00 EMaxC= 1.00D-01 BMatC= 2.59D-07 BMatP= 2.37D-07
 IDIUse=1 WtCom= 1.00D+00 WtEn= 0.00D+00
 Coeff-Com: -0.274D+00-0.309D-01 0.137D+01-0.105D+01-0.453D+00-0.152D+01
 Coeff-Com:  0.180D+01 0.116D+01
 Coeff:     -0.274D+00-0.309D-01 0.137D+01-0.105D+01-0.453D+00-0.152D+01
 Coeff:      0.180D+01 0.116D+01
 Gap=     0.029 Goal=   None    Shift=    0.300
 Gap=     0.172 Goal=   None    Shift=    0.300
 RMSDP=5.84D-06 MaxDP=2.87D-04 DE=-1.23D-06 OVMax= 1.06D-03

 Cycle 106  Pass 1  IDiag  1:
 RMSU=  4.56D-06    CP:  1.00D+00  3.00D+00  3.00D+00 -3.00D+00  1.27D+00
 E= -562.876556028072     Delta-E=       -0.000000560615 Rises=F Damp=F
 DIIS: error= 5.05D-05 at cycle 106 NSaved=   9.
 NSaved= 9 IEnMin= 9 EnMin= -562.876556028072     IErMin= 9 ErrMin= 5.05D-05
 ErrMax= 5.05D-05  0.00D+00 EMaxC= 1.00D-01 BMatC= 1.84D-07 BMatP= 2.37D-07
 IDIUse=1 WtCom= 1.00D+00 WtEn= 0.00D+00
 Coeff-Com: -0.844D+00-0.612D+00 0.132D+01-0.259D+01 0.239D+01-0.275D+01
 Coeff-Com:  0.150D+01 0.600D+00 0.199D+01
 Coeff:     -0.844D+00-0.612D+00 0.132D+01-0.259D+01 0.239D+01-0.275D+01
 Coeff:      0.150D+01 0.600D+00 0.199D+01
 Gap=     0.029 Goal=   None    Shift=    0.300
 Gap=     0.172 Goal=   None    Shift=    0.300
 RMSDP=1.50D-05 MaxDP=5.65D-04 DE=-5.61D-07 OVMax= 2.66D-03

 Cycle 107  Pass 1  IDiag  1:
 RMSU=  6.37D-06    CP:  1.00D+00  3.00D+00  3.00D+00  1.64D+00  7.84D-01
                    CP:  3.00D+00
 E= -562.876556791088     Delta-E=       -0.000000763017 Rises=F Damp=F
 DIIS: error= 6.21D-05 at cycle 107 NSaved=  10.
 NSaved=10 IEnMin=10 EnMin= -562.876556791088     IErMin= 9 ErrMin= 5.05D-05
 ErrMax= 6.21D-05  0.00D+00 EMaxC= 1.00D-01 BMatC= 1.43D-06 BMatP= 1.84D-07
 IDIUse=1 WtCom= 1.00D+00 WtEn= 0.00D+00
 Coeff-Com: -0.498D+00-0.477D+00 0.616D+00-0.160D+01-0.203D+01 0.247D+01
 Coeff-Com: -0.254D+00 0.449D+00 0.975D+00 0.135D+01
 Coeff:     -0.498D+00-0.477D+00 0.616D+00-0.160D+01-0.203D+01 0.247D+01
 Coeff:     -0.254D+00 0.449D+00 0.975D+00 0.135D+01
 Gap=     0.029 Goal=   None    Shift=    0.300
 Gap=     0.171 Goal=   None    Shift=    0.300
 RMSDP=1.56D-05 MaxDP=6.34D-04 DE=-7.63D-07 OVMax= 2.88D-03

 Cycle 108  Pass 1  IDiag  1:
 RMSU=  6.98D-06    CP:  1.00D+00  3.00D+00  3.00D+00  3.00D+00  5.19D-01
                    CP:  3.00D+00  3.00D+00
 E= -562.876557606907     Delta-E=       -0.000000815819 Rises=F Damp=F
 DIIS: error= 6.68D-05 at cycle 108 NSaved=  11.
 NSaved=11 IEnMin=11 EnMin= -562.876557606907     IErMin= 9 ErrMin= 5.05D-05
 ErrMax= 6.68D-05  0.00D+00 EMaxC= 1.00D-01 BMatC= 2.33D-06 BMatP= 1.84D-07
 IDIUse=1 WtCom= 1.00D+00 WtEn= 0.00D+00
 Coeff-Com: -0.383D+00-0.389D+00 0.464D+00-0.951D+00-0.377D+01 0.395D+01
 Coeff-Com: -0.665D+00 0.447D+00 0.700D+00 0.125D+01 0.347D+00
 Coeff:     -0.383D+00-0.389D+00 0.464D+00-0.951D+00-0.377D+01 0.395D+01
 Coeff:     -0.665D+00 0.447D+00 0.700D+00 0.125D+01 0.347D+00
 Gap=     0.029 Goal=   None    Shift=    0.300
 Gap=     0.171 Goal=   None    Shift=    0.300
 RMSDP=1.40D-05 MaxDP=6.15D-04 DE=-8.16D-07 OVMax= 2.62D-03

 Cycle 109  Pass 1  IDiag  1:
 RMSU=  1.12D-05    CP:  1.00D+00  3.00D+00  3.00D+00  3.00D+00  5.37D-01
                    CP:  3.00D+00  3.00D+00  2.20D+00
 E= -562.876558599670     Delta-E=       -0.000000992763 Rises=F Damp=F
 DIIS: error= 6.56D-05 at cycle 109 NSaved=  12.
 NSaved=12 IEnMin=12 EnMin= -562.876558599670     IErMin= 9 ErrMin= 5.05D-05
 ErrMax= 6.56D-05  0.00D+00 EMaxC= 1.00D-01 BMatC= 2.26D-06 BMatP= 1.84D-07
 IDIUse=1 WtCom= 1.00D+00 WtEn= 0.00D+00
 Coeff-Com: -0.351D+00-0.379D+00 0.409D+00-0.990D+00-0.397D+01 0.423D+01
 Coeff-Com: -0.683D+00 0.465D+00 0.632D+00 0.120D+01 0.853D+00-0.421D+00
 Coeff:     -0.351D+00-0.379D+00 0.409D+00-0.990D+00-0.397D+01 0.423D+01
 Coeff:     -0.683D+00 0.465D+00 0.632D+00 0.120D+01 0.853D+00-0.421D+00
 Gap=     0.029 Goal=   None    Shift=    0.300
 Gap=     0.171 Goal=   None    Shift=    0.300
 RMSDP=1.26D-05 MaxDP=5.76D-04 DE=-9.93D-07 OVMax= 2.37D-03

 Cycle 110  Pass 1  IDiag  1:
 RMSU=  2.13D-06    CP:  1.00D+00  3.00D+00  3.00D+00  3.00D+00  6.79D-01
                    CP:  3.00D+00  3.00D+00  3.00D+00  1.89D+00
 E= -562.876559577025     Delta-E=       -0.000000977355 Rises=F Damp=F
 DIIS: error= 6.24D-05 at cycle 110 NSaved=  13.
 NSaved=13 IEnMin=13 EnMin= -562.876559577025     IErMin= 9 ErrMin= 5.05D-05
 ErrMax= 6.24D-05  0.00D+00 EMaxC= 1.00D-01 BMatC= 1.98D-06 BMatP= 1.84D-07
 IDIUse=1 WtCom= 1.00D+00 WtEn= 0.00D+00
 Large coefficients: NSaved= 13 BigCof=   12.06 CofMax=   10.00 Det=-5.46D-11
 Inversion failed.  Reducing to 12 matrices.
 Large coefficients: NSaved= 12 BigCof=   13.21 CofMax=   10.00 Det=-6.18D-11
 Inversion failed.  Reducing to 11 matrices.
 Large coefficients: NSaved= 11 BigCof=   13.55 CofMax=   10.00 Det=-6.53D-11
 Inversion failed.  Reducing to 10 matrices.
 Large coefficients: NSaved= 10 BigCof=   11.38 CofMax=   10.00 Det=-7.36D-11
 Inversion failed.  Reducing to  9 matrices.
 Large coefficients: NSaved=  9 BigCof=   11.06 CofMax=   10.00 Det=-8.35D-11
 Inversion failed.  Reducing to  8 matrices.
 Large coefficients: NSaved=  8 BigCof=   15.84 CofMax=   10.00 Det=-9.49D-11
 Inversion failed.  Reducing to  7 matrices.
 Large coefficients: NSaved=  7 BigCof=   15.62 CofMax=   10.00 Det=-1.06D-10
 Inversion failed.  Reducing to  6 matrices.
 Large coefficients: NSaved=  6 BigCof=   14.17 CofMax=   10.00 Det=-1.07D-10
 Inversion failed.  Reducing to  5 matrices.
 Large coefficients: NSaved=  5 BigCof=   14.71 CofMax=   10.00 Det=-1.20D-10
 Inversion failed.  Reducing to  4 matrices.
 Large coefficients: NSaved=  4 BigCof=   19.25 CofMax=   10.00 Det=-1.33D-10
 Inversion failed.  Reducing to  3 matrices.
 Large coefficients: NSaved=  3 BigCof=   24.51 CofMax=   10.00 Det=-2.04D-09
 Inversion failed.  Reducing to  2 matrices.
 Large coefficients: NSaved=  2 BigCof=   10.76 CofMax=   10.00 Det=-1.37D-08
 Coeff-Com: -0.976D+01 0.108D+02
 Coeff:     -0.976D+01 0.108D+02
 Gap=     0.029 Goal=   None    Shift=    0.300
 Gap=     0.172 Goal=   None    Shift=    0.300
 RMSDP=1.34D-05 MaxDP=5.81D-04 DE=-9.77D-07 OVMax= 2.44D-03

 Cycle 111  Pass 1  IDiag  1:
 RMSU=  4.47D-06    CP:  1.00D+00  3.00D+00  3.00D+00  3.00D+00  1.07D+00
                    CP:  3.00D+00  3.00D+00  3.00D+00  2.82D+00  3.00D+00
 E= -562.876560635663     Delta-E=       -0.000001058638 Rises=F Damp=F
 DIIS: error= 5.92D-05 at cycle 111 NSaved=   3.
 NSaved= 3 IEnMin= 3 EnMin= -562.876560635663     IErMin= 3 ErrMin= 5.92D-05
 ErrMax= 5.92D-05  0.00D+00 EMaxC= 1.00D-01 BMatC= 1.60D-06 BMatP= 1.98D-06
 IDIUse=1 WtCom= 1.00D+00 WtEn= 0.00D+00
 Coeff-Com: -0.941D+01 0.981D+01 0.599D+00
 Coeff:     -0.941D+01 0.981D+01 0.599D+00
 Gap=     0.029 Goal=   None    Shift=    0.300
 Gap=     0.172 Goal=   None    Shift=    0.300
 RMSDP=1.21D-05 MaxDP=5.49D-04 DE=-1.06D-06 OVMax= 2.26D-03

 Cycle 112  Pass 1  IDiag  1:
 RMSU=  9.41D-06    CP:  1.00D+00  3.00D+00  3.00D+00  3.00D+00  1.22D+00
                    CP:  3.00D+00  3.00D+00  3.00D+00  3.00D+00  3.00D+00
                    CP:  2.09D+00
 E= -562.876561490397     Delta-E=       -0.000000854734 Rises=F Damp=F
 DIIS: error= 5.73D-05 at cycle 112 NSaved=   4.
 NSaved= 4 IEnMin= 4 EnMin= -562.876561490397     IErMin= 4 ErrMin= 5.73D-05
 ErrMax= 5.73D-05  0.00D+00 EMaxC= 1.00D-01 BMatC= 1.14D-06 BMatP= 1.60D-06
 IDIUse=1 WtCom= 1.00D+00 WtEn= 0.00D+00
 Coeff-Com: -0.829D+01 0.825D+01 0.111D+00 0.927D+00
 Coeff:     -0.829D+01 0.825D+01 0.111D+00 0.927D+00
 Gap=     0.029 Goal=   None    Shift=    0.300
 Gap=     0.172 Goal=   None    Shift=    0.300
 RMSDP=1.12D-05 MaxDP=5.15D-04 DE=-8.55D-07 OVMax= 2.09D-03

 Cycle 113  Pass 1  IDiag  1:
 RMSU=  1.72D-06    CP:  1.00D+00  3.00D+00  3.00D+00  3.00D+00  1.35D+00
                    CP:  3.00D+00  3.00D+00  3.00D+00  3.00D+00  3.00D+00
                    CP:  3.00D+00  2.06D+00
 E= -562.876562194017     Delta-E=       -0.000000703620 Rises=F Damp=F
 DIIS: error= 5.49D-05 at cycle 113 NSaved=   5.
 NSaved= 5 IEnMin= 5 EnMin= -562.876562194017     IErMin= 5 ErrMin= 5.49D-05
 ErrMax= 5.49D-05  0.00D+00 EMaxC= 1.00D-01 BMatC= 1.07D-06 BMatP= 1.14D-06
 IDIUse=1 WtCom= 1.00D+00 WtEn= 0.00D+00
 Coeff-Com: -0.708D+01 0.668D+01-0.980D-02-0.293D-01 0.144D+01
 Coeff:     -0.708D+01 0.668D+01-0.980D-02-0.293D-01 0.144D+01
 Gap=     0.029 Goal=   None    Shift=    0.300
 Gap=     0.172 Goal=   None    Shift=    0.300
 RMSDP=1.11D-05 MaxDP=5.07D-04 DE=-7.04D-07 OVMax= 2.07D-03

 Cycle 114  Pass 1  IDiag  1:
 RMSU=  3.95D-06    CP:  1.00D+00  3.00D+00  3.00D+00  3.00D+00  1.45D+00
                    CP:  3.00D+00  3.00D+00  3.00D+00  3.00D+00  3.00D+00
                    CP:  3.00D+00  3.00D+00  3.00D+00
 E= -562.876562818343     Delta-E=       -0.000000624326 Rises=F Damp=F
 DIIS: error= 5.35D-05 at cycle 114 NSaved=   6.
 NSaved= 6 IEnMin= 6 EnMin= -562.876562818343     IErMin= 6 ErrMin= 5.35D-05
 ErrMax= 5.35D-05  0.00D+00 EMaxC= 1.00D-01 BMatC= 1.11D-06 BMatP= 1.07D-06
 IDIUse=1 WtCom= 1.00D+00 WtEn= 0.00D+00
 Coeff-Com: -0.716D+01 0.673D+01 0.114D+00-0.311D+00 0.752D+00 0.872D+00
 Coeff:     -0.716D+01 0.673D+01 0.114D+00-0.311D+00 0.752D+00 0.872D+00
 Gap=     0.029 Goal=   None    Shift=    0.300
 Gap=     0.172 Goal=   None    Shift=    0.300
 RMSDP=1.10D-05 MaxDP=5.03D-04 DE=-6.24D-07 OVMax= 2.06D-03

 Cycle 115  Pass 1  IDiag  1:
 RMSU=  9.25D-06    CP:  1.00D+00  3.00D+00  3.00D+00  3.00D+00  1.56D+00
                    CP:  3.00D+00  3.00D+00  3.00D+00  3.00D+00  3.00D+00
                    CP:  3.00D+00  3.00D+00  3.00D+00  2.51D+00
 E= -562.876563408355     Delta-E=       -0.000000590012 Rises=F Damp=F
 DIIS: error= 5.35D-05 at cycle 115 NSaved=   7.
 NSaved= 7 IEnMin= 7 EnMin= -562.876563408355     IErMin= 6 ErrMin= 5.35D-05
 ErrMax= 5.35D-05  0.00D+00 EMaxC= 1.00D-01 BMatC= 1.14D-06 BMatP= 1.07D-06
 IDIUse=1 WtCom= 1.00D+00 WtEn= 0.00D+00
 Coeff-Com: -0.681D+01 0.634D+01 0.764D-01-0.475D+00 0.647D+00 0.352D+01
 Coeff-Com: -0.230D+01
 Coeff:     -0.681D+01 0.634D+01 0.764D-01-0.475D+00 0.647D+00 0.352D+01
 Coeff:     -0.230D+01
 Gap=     0.029 Goal=   None    Shift=    0.300
 Gap=     0.172 Goal=   None    Shift=    0.300
 RMSDP=8.38D-06 MaxDP=4.08D-04 DE=-5.90D-07 OVMax= 1.56D-03

 Cycle 116  Pass 1  IDiag  1:
 RMSU=  2.36D-06    CP:  1.00D+00  3.00D+00  3.00D+00  3.00D+00  1.82D+00
                    CP:  3.00D+00  3.00D+00  3.00D+00  3.00D+00  3.00D+00
                    CP:  3.00D+00  3.00D+00  3.00D+00  3.00D+00  1.76D+00
 E= -562.876564032148     Delta-E=       -0.000000623793 Rises=F Damp=F
 DIIS: error= 4.73D-05 at cycle 116 NSaved=   8.
 NSaved= 8 IEnMin= 8 EnMin= -562.876564032148     IErMin= 8 ErrMin= 4.73D-05
 ErrMax= 4.73D-05  0.00D+00 EMaxC= 1.00D-01 BMatC= 7.31D-07 BMatP= 1.07D-06
 IDIUse=1 WtCom= 1.00D+00 WtEn= 0.00D+00
 Coeff-Com:  0.994D+00-0.138D+01 0.271D+00-0.900D+00-0.964D+00 0.544D+01
 Coeff-Com: -0.673D+01 0.427D+01
 Coeff:      0.994D+00-0.138D+01 0.271D+00-0.900D+00-0.964D+00 0.544D+01
 Coeff:     -0.673D+01 0.427D+01
 Gap=     0.029 Goal=   None    Shift=    0.300
 Gap=     0.172 Goal=   None    Shift=    0.300
 RMSDP=4.96D-06 MaxDP=2.46D-04 DE=-6.24D-07 OVMax= 7.52D-04

 Cycle 117  Pass 1  IDiag  1:
 RMSU=  1.17D-06    CP:  1.00D+00  3.00D+00  3.00D+00  3.00D+00  2.34D+00
                    CP:  3.00D+00  3.00D+00  3.00D+00  3.00D+00  3.00D+00
                    CP:  3.00D+00  3.00D+00  3.00D+00  3.00D+00  2.10D+00
                    CP:  1.72D+00
 E= -562.876564554130     Delta-E=       -0.000000521982 Rises=F Damp=F
 DIIS: error= 3.80D-05 at cycle 117 NSaved=   9.
 NSaved= 9 IEnMin= 9 EnMin= -562.876564554130     IErMin= 9 ErrMin= 3.80D-05
 ErrMax= 3.80D-05  0.00D+00 EMaxC= 1.00D-01 BMatC= 1.87D-07 BMatP= 7.31D-07
 IDIUse=1 WtCom= 1.00D+00 WtEn= 0.00D+00
 Coeff-Com:  0.491D+01-0.485D+01 0.346D+00-0.125D+00-0.123D+01-0.378D+01
 Coeff-Com:  0.119D+01 0.323D+01 0.131D+01
 Coeff:      0.491D+01-0.485D+01 0.346D+00-0.125D+00-0.123D+01-0.378D+01
 Coeff:      0.119D+01 0.323D+01 0.131D+01
 Gap=     0.029 Goal=   None    Shift=    0.300
 Gap=     0.172 Goal=   None    Shift=    0.300
 RMSDP=4.51D-06 MaxDP=2.32D-04 DE=-5.22D-07 OVMax= 7.83D-04

 Cycle 118  Pass 1  IDiag  1:
 RMSU=  1.03D-06    CP:  1.00D+00  3.00D+00  3.00D+00  3.00D+00  2.65D+00
                    CP:  3.00D+00  3.00D+00  3.00D+00  3.00D+00  3.00D+00
                    CP:  3.00D+00  3.00D+00  3.00D+00  3.00D+00  2.44D+00
                    CP:  2.70D+00  1.34D+00
 E= -562.876564860439     Delta-E=       -0.000000306309 Rises=F Damp=F
 DIIS: error= 3.38D-05 at cycle 118 NSaved=  10.
 NSaved=10 IEnMin=10 EnMin= -562.876564860439     IErMin=10 ErrMin= 3.38D-05
 ErrMax= 3.38D-05  0.00D+00 EMaxC= 1.00D-01 BMatC= 9.74D-08 BMatP= 1.87D-07
 IDIUse=1 WtCom= 1.00D+00 WtEn= 0.00D+00
 Coeff-Com:  0.217D+01-0.189D+01 0.169D+00 0.224D+00-0.782D+00-0.444D+01
 Coeff-Com:  0.313D+01 0.900D+00 0.432D+00 0.109D+01
 Coeff:      0.217D+01-0.189D+01 0.169D+00 0.224D+00-0.782D+00-0.444D+01
 Coeff:      0.313D+01 0.900D+00 0.432D+00 0.109D+01
 Gap=     0.029 Goal=   None    Shift=    0.300
 Gap=     0.172 Goal=   None    Shift=    0.300
 RMSDP=4.12D-06 MaxDP=2.08D-04 DE=-3.06D-07 OVMax= 7.52D-04

 Cycle 119  Pass 1  IDiag  1:
 RMSU=  1.61D-06    CP:  1.00D+00  3.00D+00  3.00D+00  3.00D+00  2.82D+00
                    CP:  3.00D+00  3.00D+00  3.00D+00  3.00D+00  3.00D+00
                    CP:  3.00D+00  3.00D+00  3.00D+00  3.00D+00  2.79D+00
                    CP:  3.00D+00  1.56D+00  1.65D+00
 E= -562.876565097485     Delta-E=       -0.000000237046 Rises=F Damp=F
 DIIS: error= 3.17D-05 at cycle 119 NSaved=  11.
 NSaved=11 IEnMin=11 EnMin= -562.876565097485     IErMin=11 ErrMin= 3.17D-05
 ErrMax= 3.17D-05  0.00D+00 EMaxC= 1.00D-01 BMatC= 7.91D-08 BMatP= 9.74D-08
 IDIUse=1 WtCom= 1.00D+00 WtEn= 0.00D+00
 Coeff-Com: -0.941D+00 0.114D+01 0.190D-01 0.182D+00-0.200D+00-0.280D+01
 Coeff-Com:  0.272D+01-0.395D+00-0.155D+00-0.981D-02 0.144D+01
 Coeff:     -0.941D+00 0.114D+01 0.190D-01 0.182D+00-0.200D+00-0.280D+01
 Coeff:      0.272D+01-0.395D+00-0.155D+00-0.981D-02 0.144D+01
 Gap=     0.029 Goal=   None    Shift=    0.300
 Gap=     0.172 Goal=   None    Shift=    0.300
 RMSDP=4.73D-06 MaxDP=2.20D-04 DE=-2.37D-07 OVMax= 8.78D-04

 Cycle 120  Pass 1  IDiag  1:
 RMSU=  1.93D-06    CP:  1.00D+00  3.00D+00  3.00D+00  3.00D+00  2.87D+00
                    CP:  3.00D+00  3.00D+00  3.00D+00  3.00D+00  3.00D+00
                    CP:  3.00D+00  3.00D+00  3.00D+00  3.00D+00  3.00D+00
                    CP:  3.00D+00  1.50D+00  2.19D+00  2.65D+00
 E= -562.876565330078     Delta-E=       -0.000000232593 Rises=F Damp=F
 DIIS: error= 3.14D-05 at cycle 120 NSaved=  12.
 NSaved=12 IEnMin=12 EnMin= -562.876565330078     IErMin=12 ErrMin= 3.14D-05
 ErrMax= 3.14D-05  0.00D+00 EMaxC= 1.00D-01 BMatC= 1.05D-07 BMatP= 7.91D-08
 IDIUse=1 WtCom= 1.00D+00 WtEn= 0.00D+00
 Coeff-Com: -0.382D+01 0.345D+01-0.451D-02-0.244D+00 0.321D+00 0.239D+01
 Coeff-Com: -0.207D+01 0.264D+00-0.117D+00-0.217D+01-0.283D+00 0.328D+01
 Coeff:     -0.382D+01 0.345D+01-0.451D-02-0.244D+00 0.321D+00 0.239D+01
 Coeff:     -0.207D+01 0.264D+00-0.117D+00-0.217D+01-0.283D+00 0.328D+01
 Gap=     0.029 Goal=   None    Shift=    0.300
 Gap=     0.172 Goal=   None    Shift=    0.300
 RMSDP=7.04D-06 MaxDP=2.97D-04 DE=-2.33D-07 OVMax= 1.30D-03

 Cycle 121  Pass 1  IDiag  1:
 Restarting incremental Fock formation.
 E= -562.876565597282     Delta-E=       -0.000000267205 Rises=F Damp=F
 DIIS: error= 3.39D-05 at cycle 121 NSaved=  13.
 NSaved=13 IEnMin=13 EnMin= -562.876565597282     IErMin=12 ErrMin= 3.14D-05
 ErrMax= 3.39D-05  0.00D+00 EMaxC= 1.00D-01 BMatC= 2.84D-07 BMatP= 7.91D-08
 IDIUse=1 WtCom= 1.00D+00 WtEn= 0.00D+00
 Coeff-Com: -0.345D+01 0.264D+01 0.956D-01-0.557D+00 0.308D+00 0.486D+01
 Coeff-Com: -0.563D+01 0.193D+01 0.226D+00-0.217D+01-0.146D+01 0.234D+01
 Coeff-Com:  0.187D+01
 Coeff:     -0.345D+01 0.264D+01 0.956D-01-0.557D+00 0.308D+00 0.486D+01
 Coeff:     -0.563D+01 0.193D+01 0.226D+00-0.217D+01-0.146D+01 0.234D+01
 Coeff:      0.187D+01
 Gap=     0.029 Goal=   None    Shift=    0.300
 Gap=     0.171 Goal=   None    Shift=    0.300
 RMSDP=8.80D-06 MaxDP=3.71D-04 DE=-2.67D-07 OVMax= 1.63D-03

 Cycle 122  Pass 1  IDiag  1:
 RMSU=  8.80D-06    CP:  1.00D+00
 E= -562.876565887796     Delta-E=       -0.000000290514 Rises=F Damp=F
 DIIS: error= 3.65D-05 at cycle 122 NSaved=  14.
 NSaved=14 IEnMin=14 EnMin= -562.876565887796     IErMin=12 ErrMin= 3.14D-05
 ErrMax= 3.65D-05  0.00D+00 EMaxC= 1.00D-01 BMatC= 5.44D-07 BMatP= 7.91D-08
 IDIUse=1 WtCom= 1.00D+00 WtEn= 0.00D+00
 Coeff-Com: -0.286D+01 0.204D+01 0.148D+00-0.636D+00 0.468D-01 0.540D+01
 Coeff-Com: -0.649D+01 0.224D+01 0.173D+00-0.150D+01-0.943D+00 0.121D+01
 Coeff-Com:  0.991D+00 0.118D+01
 Coeff:     -0.286D+01 0.204D+01 0.148D+00-0.636D+00 0.468D-01 0.540D+01
 Coeff:     -0.649D+01 0.224D+01 0.173D+00-0.150D+01-0.943D+00 0.121D+01
 Coeff:      0.991D+00 0.118D+01
 Gap=     0.029 Goal=   None    Shift=    0.300
 Gap=     0.171 Goal=   None    Shift=    0.300
 RMSDP=8.55D-06 MaxDP=3.73D-04 DE=-2.91D-07 OVMax= 1.60D-03

 Cycle 123  Pass 1  IDiag  1:
 RMSU=  8.34D-07    CP:  1.00D+00  1.97D+00
 E= -562.876566219201     Delta-E=       -0.000000331406 Rises=F Damp=F
 DIIS: error= 3.67D-05 at cycle 123 NSaved=  15.
 NSaved=15 IEnMin=15 EnMin= -562.876566219201     IErMin=12 ErrMin= 3.14D-05
 ErrMax= 3.67D-05  0.00D+00 EMaxC= 1.00D-01 BMatC= 5.94D-07 BMatP= 7.91D-08
 IDIUse=1 WtCom= 1.00D+00 WtEn= 0.00D+00
 Coeff-Com: -0.323D+01 0.239D+01 0.151D+00-0.634D+00 0.405D-01 0.551D+01
 Coeff-Com: -0.665D+01 0.234D+01 0.202D+00-0.147D+01-0.114D+01 0.119D+01
 Coeff-Com:  0.104D+01 0.199D+01-0.730D+00
 Coeff:     -0.323D+01 0.239D+01 0.151D+00-0.634D+00 0.405D-01 0.551D+01
 Coeff:     -0.665D+01 0.234D+01 0.202D+00-0.147D+01-0.114D+01 0.119D+01
 Coeff:      0.104D+01 0.199D+01-0.730D+00
 Gap=     0.029 Goal=   None    Shift=    0.300
 Gap=     0.171 Goal=   None    Shift=    0.300
 RMSDP=7.76D-06 MaxDP=3.52D-04 DE=-3.31D-07 OVMax= 1.45D-03

 Cycle 124  Pass 1  IDiag  1:
 RMSU=  3.04D-07    CP:  1.00D+00  2.84D+00  2.42D+00
 E= -562.876566549145     Delta-E=       -0.000000329944 Rises=F Damp=F
 DIIS: error= 3.53D-05 at cycle 124 NSaved=  16.
 NSaved=16 IEnMin=16 EnMin= -562.876566549145     IErMin=12 ErrMin= 3.14D-05
 ErrMax= 3.53D-05  0.00D+00 EMaxC= 1.00D-01 BMatC= 5.43D-07 BMatP= 7.91D-08
 IDIUse=1 WtCom= 1.00D+00 WtEn= 0.00D+00
 Coeff-Com: -0.535D+00-0.490D+00 0.984D-01-0.449D+00 0.269D+00 0.500D+01
 Coeff-Com: -0.710D+01 0.278D+01 0.290D+00-0.620D+00-0.106D+01-0.439D-01
 Coeff-Com:  0.215D+00 0.524D+01-0.746D+01 0.486D+01
 Coeff:     -0.535D+00-0.490D+00 0.984D-01-0.449D+00 0.269D+00 0.500D+01
 Coeff:     -0.710D+01 0.278D+01 0.290D+00-0.620D+00-0.106D+01-0.439D-01
 Coeff:      0.215D+00 0.524D+01-0.746D+01 0.486D+01
 Gap=     0.029 Goal=   None    Shift=    0.300
 Gap=     0.171 Goal=   None    Shift=    0.300
 RMSDP=8.24D-06 MaxDP=3.69D-04 DE=-3.30D-07 OVMax= 1.55D-03

 Cycle 125  Pass 1  IDiag  1:
 RMSU=  6.75D-06    CP:  1.00D+00  3.00D+00  3.00D+00  1.63D+00
 E= -562.876566867708     Delta-E=       -0.000000318563 Rises=F Damp=F
 DIIS: error= 3.48D-05 at cycle 125 NSaved=  17.
 NSaved=17 IEnMin=17 EnMin= -562.876566867708     IErMin=12 ErrMin= 3.14D-05
 ErrMax= 3.48D-05  0.00D+00 EMaxC= 1.00D-01 BMatC= 5.57D-07 BMatP= 7.91D-08
 IDIUse=1 WtCom= 1.00D+00 WtEn= 0.00D+00
 Large coefficients: NSaved= 17 BigCof=   11.23 CofMax=   10.00 Det=-3.62D-11
 Inversion failed.  Reducing to 16 matrices.
 Large coefficients: NSaved= 16 BigCof=   10.50 CofMax=   10.00 Det=-5.33D-11
 Inversion failed.  Reducing to 15 matrices.
 Coeff-Com:  0.232D+00-0.206D+00-0.688D+00 0.126D+01-0.199D+01 0.766D+00
 Coeff-Com: -0.116D+00 0.206D+00 0.999D+00-0.759D+00-0.400D+00 0.302D+01
 Coeff-Com: -0.563D+01 0.151D+01 0.280D+01
 Coeff:      0.232D+00-0.206D+00-0.688D+00 0.126D+01-0.199D+01 0.766D+00
 Coeff:     -0.116D+00 0.206D+00 0.999D+00-0.759D+00-0.400D+00 0.302D+01
 Coeff:     -0.563D+01 0.151D+01 0.280D+01
 Gap=     0.029 Goal=   None    Shift=    0.300
 Gap=     0.172 Goal=   None    Shift=    0.300
 RMSDP=5.32D-06 MaxDP=2.62D-04 DE=-3.19D-07 OVMax= 9.56D-04

 Cycle 126  Pass 1  IDiag  1:
 RMSU=  1.92D-06    CP:  1.00D+00  3.00D+00  3.00D+00  3.00D+00  1.73D+00
 E= -562.876567207345     Delta-E=       -0.000000339637 Rises=F Damp=F
 DIIS: error= 2.97D-05 at cycle 126 NSaved=  16.
 NSaved=16 IEnMin=16 EnMin= -562.876567207345     IErMin=16 ErrMin= 2.97D-05
 ErrMax= 2.97D-05  0.00D+00 EMaxC= 1.00D-01 BMatC= 2.03D-07 BMatP= 7.91D-08
 IDIUse=1 WtCom= 1.00D+00 WtEn= 0.00D+00
 Coeff-Com:  0.381D+00-0.110D+01-0.981D+00 0.388D+01-0.343D+01 0.117D+01
 Coeff-Com:  0.523D-01-0.781D+00-0.161D+00-0.408D+00 0.865D+00 0.385D+01
 Coeff-Com: -0.669D+01-0.192D+01 0.392D+01 0.235D+01
 Coeff:      0.381D+00-0.110D+01-0.981D+00 0.388D+01-0.343D+01 0.117D+01
 Coeff:      0.523D-01-0.781D+00-0.161D+00-0.408D+00 0.865D+00 0.385D+01
 Coeff:     -0.669D+01-0.192D+01 0.392D+01 0.235D+01
 Gap=     0.029 Goal=   None    Shift=    0.300
 Gap=     0.171 Goal=   None    Shift=    0.300
 RMSDP=7.83D-06 MaxDP=3.40D-04 DE=-3.40D-07 OVMax= 1.46D-03

 Cycle 127  Pass 1  IDiag  1:
 RMSU=  5.08D-07    CP:  1.00D+00  3.00D+00  3.00D+00  3.00D+00  2.89D+00
                    CP:  9.66D-01
 E= -562.876567448944     Delta-E=       -0.000000241598 Rises=F Damp=F
 DIIS: error= 3.11D-05 at cycle 127 NSaved=  17.
 NSaved=17 IEnMin=17 EnMin= -562.876567448944     IErMin=16 ErrMin= 2.97D-05
 ErrMax= 3.11D-05  0.00D+00 EMaxC= 1.00D-01 BMatC= 3.65D-07 BMatP= 7.91D-08
 IDIUse=1 WtCom= 1.00D+00 WtEn= 0.00D+00
 Coeff-Com:  0.260D+00-0.883D+00-0.821D+00 0.221D+01-0.227D+01 0.138D+01
 Coeff-Com:  0.208D+00-0.794D+00-0.152D+00-0.117D+00 0.525D+00 0.338D+01
 Coeff-Com: -0.681D+01 0.984D+00 0.138D+01 0.103D+01 0.150D+01
 Coeff:      0.260D+00-0.883D+00-0.821D+00 0.221D+01-0.227D+01 0.138D+01
 Coeff:      0.208D+00-0.794D+00-0.152D+00-0.117D+00 0.525D+00 0.338D+01
 Coeff:     -0.681D+01 0.984D+00 0.138D+01 0.103D+01 0.150D+01
 Gap=     0.029 Goal=   None    Shift=    0.300
 Gap=     0.171 Goal=   None    Shift=    0.300
 RMSDP=8.04D-06 MaxDP=3.55D-04 DE=-2.42D-07 OVMax= 1.51D-03

 Cycle 128  Pass 1  IDiag  1:
 RMSU=  7.29D-06    CP:  1.00D+00  3.00D+00  3.00D+00  3.00D+00  3.00D+00
                    CP:  9.88D-01  1.36D+00
 E= -562.876567696748     Delta-E=       -0.000000247804 Rises=F Damp=F
 DIIS: error= 3.22D-05 at cycle 128 NSaved=  18.
 NSaved=18 IEnMin=18 EnMin= -562.876567696748     IErMin=16 ErrMin= 2.97D-05
 ErrMax= 3.22D-05  0.00D+00 EMaxC= 1.00D-01 BMatC= 4.36D-07 BMatP= 7.91D-08
 IDIUse=1 WtCom= 1.00D+00 WtEn= 0.00D+00
 Coeff-Com:  0.851D-01-0.405D+00-0.651D+00 0.378D+00-0.698D+00 0.105D+01
 Coeff-Com:  0.251D+00-0.930D+00 0.113D+00 0.501D+00 0.533D+00 0.153D+01
 Coeff-Com: -0.577D+01 0.366D+01-0.102D+01 0.512D-01 0.784D-01 0.224D+01
 Coeff:      0.851D-01-0.405D+00-0.651D+00 0.378D+00-0.698D+00 0.105D+01
 Coeff:      0.251D+00-0.930D+00 0.113D+00 0.501D+00 0.533D+00 0.153D+01
 Coeff:     -0.577D+01 0.366D+01-0.102D+01 0.512D-01 0.784D-01 0.224D+01
 Gap=     0.029 Goal=   None    Shift=    0.300
 Gap=     0.171 Goal=   None    Shift=    0.300
 RMSDP=8.15D-06 MaxDP=3.63D-04 DE=-2.48D-07 OVMax= 1.53D-03

 >>>>>>>>>> Convergence criterion not met.
 SCF Done:  E(UPBE1PBE) =  -562.876567697     A.U. after  129 cycles
            NFock=128  Conv=0.81D-05     -V/T= 2.2015
 <Sx>= 0.0000 <Sy>= 0.0000 <Sz>= 0.5000 <S**2>= 0.7518 S= 0.5009
 <L.S>= 0.000000000000E+00
 KE= 4.684730321873D+02 PE=-2.392953842998D+03 EE= 8.057861795193D+02
 Annihilation of the first spin contaminant:
 S**2 before annihilation     0.7518,   after     0.7500
 Leave Link  502 at Sat Sep 12 01:51:59 2026, MaxMem=  6442450944 cpu:            1006.0 elap:            1005.7
 (Enter C:\G16W\l508.exe)
 Two-electron integral symmetry not used.
 Tight linear equation convergence will be used.
 UPBE1PBE wavefunction.
 Quadratic Convergence SCF Method.
 Line search only if initial step raises energy.
 Fock matrices will be formed incrementally for  20 cycles.
 FoFJK:  IHMeth= 1 ICntrl=       0 DoSepK=F KAlg= 0 I1Cent=           0 FoldK=F
 IRaf= 920000000 NMat=       1 IRICut=       1 DoRegI=T DoRafI=F ISym2E= 0 IDoP0=0 IntGTp=1.
 FoFCou: FMM=F IPFlag=           0 FMFlag=      100000 FMFlg1=           0
         NFxFlg=           0 DoJE=F BraDBF=F KetDBF=F FulRan=T
         wScrn=  0.000000 ICntrl=         0 IOpCl=  1 I1Cent=           0 NGrid=           0
         NMat0=    1 NMatS0=      1 NMatT0=    0 NMatD0=    1 NMtDS0=    0 NMtDT0=    0
 Symmetry not used in FoFCou.
 Defaulting to unpruned grid for atomic number  47.
 Defaulting to unpruned grid for atomic number  47.
 Defaulting to unpruned grid for atomic number  47.
 Defaulting to unpruned grid for atomic number  47.
 Defaulting to unpruned grid for atomic number  47.
 Defaulting to unpruned grid for atomic number  47.
 Defaulting to unpruned grid for atomic number  47.
 Defaulting to unpruned grid for atomic number  47.
 Iteration   1 EE= -562.876567942794                                    Grad=4.869D-04 Max rot=    0.0059 deg.
 QCNR:  CnvC1=4.87D-09 CnvC2=4.87D-08
 LinEq1:  Iter=  0 NonCon=     1 RMS=3.22D-05 Max=3.53D-03 NDo=     1
 AX will form     1 AO Fock derivatives at one time.
 LinEq1:  Iter=  1 NonCon=     1 RMS=9.40D-06 Max=2.65D-04 NDo=     1
 LinEq1:  Iter=  2 NonCon=     1 RMS=1.03D-05 Max=4.50D-04 NDo=     1
 LinEq1:  Iter=  3 NonCon=     1 RMS=9.67D-06 Max=4.79D-04 NDo=     1
 LinEq1:  Iter=  4 NonCon=     1 RMS=4.77D-06 Max=2.15D-04 NDo=     1
 LinEq1:  Iter=  5 NonCon=     1 RMS=3.07D-06 Max=1.21D-04 NDo=     1
 LinEq1:  Iter=  6 NonCon=     1 RMS=2.94D-06 Max=7.93D-05 NDo=     1
 LinEq1:  Iter=  7 NonCon=     1 RMS=1.80D-06 Max=5.99D-05 NDo=     1
 LinEq1:  Iter=  8 NonCon=     1 RMS=1.28D-06 Max=5.34D-05 NDo=     1
 LinEq1:  Iter=  9 NonCon=     1 RMS=1.08D-06 Max=3.77D-05 NDo=     1
 LinEq1:  Iter= 10 NonCon=     1 RMS=5.67D-07 Max=1.86D-05 NDo=     1
 LinEq1:  Iter= 11 NonCon=     1 RMS=3.42D-07 Max=8.87D-06 NDo=     1
 LinEq1:  Iter= 12 NonCon=     1 RMS=1.40D-07 Max=3.25D-06 NDo=     1
 LinEq1:  Iter= 13 NonCon=     1 RMS=8.09D-08 Max=2.32D-06 NDo=     1
 LinEq1:  Iter= 14 NonCon=     1 RMS=4.64D-08 Max=1.05D-06 NDo=     1
 LinEq1:  Iter= 15 NonCon=     1 RMS=2.99D-08 Max=6.98D-07 NDo=     1
 LinEq1:  Iter= 16 NonCon=     1 RMS=1.92D-08 Max=4.97D-07 NDo=     1
 LinEq1:  Iter= 17 NonCon=     1 RMS=1.17D-08 Max=3.52D-07 NDo=     1
 LinEq1:  Iter= 18 NonCon=     1 RMS=4.70D-09 Max=1.19D-07 NDo=     1
 LinEq1:  Iter= 19 NonCon=     0 RMS=1.54D-09 Max=3.01D-08 NDo=     1
 Linear equations converged to 4.869D-09 4.869D-08 after    19 iterations.
 Angle between quadratic step and gradient=  78.72 degrees.
     ILin= 1 X=0.000D+00 Y=-5.628765679428D+02 DE= 0.00D+00 F= -4.74D-06
 RMSU=  1.33D-04    CP:  1.00D+00
     ILin= 2 X=1.000D+00 Y=-5.628765704181D+02 DE=-2.48D-06 F= -2.81D-07 OKLS=T
     Reject lnstep IMin12=  1  2 Big=T Turn=F Min= 1.066D+00 FVal=-5.628765704274D+02 Lims=  0.00D+00  1.00D+00
 RMSU=  6.55D-06    CP:  1.00D+00  2.00D+00
     ILin= 3 X=2.000D+00 Y=-5.628765684888D+02 DE=-5.46D-07 F=  4.22D-06
     An  expanding polynomial of degree  3 produced  1.0620
     Minimum is close to point  2 DX=  6.20D-02 DF= -8.46D-09 DXR=  5.84D-02 DFR=  3.42D-03 which will be used.
 Iteration   2 EE= -562.876570418137     Delta-E=       -0.000002475343 Grad=1.501D-04 Max rot=    0.0012 deg.
 QCNR:  CnvC1=1.50D-09 CnvC2=1.50D-08
 LinEq1:  Iter=  0 NonCon=     1 RMS=3.17D-06 Max=2.08D-04 NDo=     1
 LinEq1:  Iter=  1 NonCon=     1 RMS=3.71D-06 Max=2.76D-04 NDo=     1
 LinEq1:  Iter=  2 NonCon=     1 RMS=3.77D-06 Max=1.77D-04 NDo=     1
 LinEq1:  Iter=  3 NonCon=     1 RMS=2.23D-06 Max=4.81D-05 NDo=     1
 LinEq1:  Iter=  4 NonCon=     1 RMS=1.11D-06 Max=2.48D-05 NDo=     1
 LinEq1:  Iter=  5 NonCon=     1 RMS=9.74D-07 Max=2.34D-05 NDo=     1
 LinEq1:  Iter=  6 NonCon=     1 RMS=8.41D-07 Max=2.33D-05 NDo=     1
 LinEq1:  Iter=  7 NonCon=     1 RMS=4.28D-07 Max=1.47D-05 NDo=     1
 LinEq1:  Iter=  8 NonCon=     1 RMS=3.52D-07 Max=1.86D-05 NDo=     1
 LinEq1:  Iter=  9 NonCon=     1 RMS=2.31D-07 Max=7.94D-06 NDo=     1
 LinEq1:  Iter= 10 NonCon=     1 RMS=1.76D-07 Max=7.08D-06 NDo=     1
 LinEq1:  Iter= 11 NonCon=     1 RMS=9.03D-08 Max=3.19D-06 NDo=     1
 LinEq1:  Iter= 12 NonCon=     1 RMS=3.63D-08 Max=9.74D-07 NDo=     1
 LinEq1:  Iter= 13 NonCon=     1 RMS=2.25D-08 Max=6.19D-07 NDo=     1
 LinEq1:  Iter= 14 NonCon=     1 RMS=1.20D-08 Max=2.12D-07 NDo=     1
 LinEq1:  Iter= 15 NonCon=     1 RMS=7.70D-09 Max=2.56D-07 NDo=     1
 LinEq1:  Iter= 16 NonCon=     1 RMS=5.53D-09 Max=2.07D-07 NDo=     1
 LinEq1:  Iter= 17 NonCon=     1 RMS=3.53D-09 Max=7.55D-08 NDo=     1
 LinEq1:  Iter= 18 NonCon=     1 RMS=1.41D-09 Max=2.98D-08 NDo=     1
 LinEq1:  Iter= 19 NonCon=     0 RMS=5.84D-10 Max=1.35D-08 NDo=     1
 Linear equations converged to 1.501D-09 1.501D-08 after    19 iterations.
 Angle between quadratic step and gradient=  83.83 degrees.
     ILin= 1 X=0.000D+00 Y=-5.628765704181D+02 DE= 0.00D+00 F= -6.04D-08
 RMSU=  1.56D-06    CP:  1.00D+00  1.07D+00  2.61D-02
     ILin= 2 X=1.000D+00 Y=-5.628765704485D+02 DE=-3.04D-08 F= -6.43D-10 OKLS=T
     Reject lnstep IMin12=  1  2 Big=T Turn=F Min= 1.011D+00 FVal=-5.628765704485D+02 Lims=  0.00D+00  1.00D+00
 RMSU=  3.62D-09    CP:  1.00D+00  1.15D+00  5.78D-02  2.00D+00
     ILin= 3 X=2.000D+00 Y=-5.628765704199D+02 DE=-1.72D-09 F=  5.78D-08
     An  expanding polynomial of degree  3 produced  1.0145
     Minimum is close to point  2 DX=  1.45D-02 DF= -6.25D-12 DXR=  1.43D-02 DFR=  2.06D-04 which will be used.
 Iteration   3 EE= -562.876570448543     Delta-E=       -0.000000030406 Grad=8.478D-07 Max rot=    0.0000 deg.
 Rotation gradient small -- convergence achieved.
 SCF Done:  E(UPBE1PBE) =  -562.876570449     a.u. after    3 cycles
            Convg  =    0.8478D-06                    43 Fock formations.
              S**2 =  0.7518                  -V/T =  2.2015
 <Sx>= 0.0000 <Sy>= 0.0000 <Sz>= 0.5000 <S**2>= 0.7518 S= 0.5009
 <L.S>= 0.000000000000E+00
 Annihilation of the first spin contaminant:
 S**2 before annihilation     0.7518,   after     0.7500
 Leave Link  508 at Sat Sep 12 01:56:03 2026, MaxMem=  6442450944 cpu:             244.0 elap:             244.2
 (Enter C:\G16W\l601.exe)
 Copying SCF densities to generalized density rwf, IOpCl= 1 IROHF=0.

 **********************************************************************

            Population analysis using the SCF Density.

 **********************************************************************

 Alpha  occ. eigenvalues --  -14.44685 -14.41896 -10.33365 -10.33248 -10.32538
 Alpha  occ. eigenvalues --  -10.30693 -10.30440 -10.30003 -10.29926 -10.29910
 Alpha  occ. eigenvalues --   -3.72844  -2.30799  -2.30790  -2.30763  -0.98709
 Alpha  occ. eigenvalues --   -0.96472  -0.94401  -0.85554  -0.84529  -0.73092
 Alpha  occ. eigenvalues --   -0.70680  -0.64548  -0.58756  -0.55529  -0.53236
 Alpha  occ. eigenvalues --   -0.50819  -0.48346  -0.47675  -0.44489  -0.43677
 Alpha  occ. eigenvalues --   -0.42359  -0.40667  -0.40263  -0.39758  -0.38195
 Alpha  occ. eigenvalues --   -0.33220  -0.32179  -0.30158  -0.30158  -0.30068
 Alpha  occ. eigenvalues --   -0.29874  -0.28636  -0.13618
 Alpha virt. eigenvalues --   -0.10716  -0.07777  -0.01845   0.01004   0.01712
 Alpha virt. eigenvalues --    0.02617   0.03094   0.04360   0.05308   0.05936
 Alpha virt. eigenvalues --    0.07737   0.09971   0.11938   0.12961   0.16318
 Alpha virt. eigenvalues --    0.16705   0.18888   0.19717   0.23950   0.26057
 Alpha virt. eigenvalues --    0.26373   0.29486   0.32241   0.32627   0.35409
 Alpha virt. eigenvalues --    0.35665   0.36604   0.38725   0.40658   0.41638
 Alpha virt. eigenvalues --    0.43821   0.43915   0.45466   0.45672   0.47354
 Alpha virt. eigenvalues --    0.48278   0.48285   0.50648   0.50660   0.51487
 Alpha virt. eigenvalues --    0.55302   0.55730   0.56211   0.58439   0.59981
 Alpha virt. eigenvalues --    0.60174   0.61136   0.62558   0.63518   0.63737
 Alpha virt. eigenvalues --    0.64852   0.65874   0.67446   0.69370   0.71335
 Alpha virt. eigenvalues --    0.73176   0.73664   0.78487   0.78871   0.80639
 Alpha virt. eigenvalues --    0.87326   0.88311   0.88587   0.93815   0.96958
 Alpha virt. eigenvalues --    0.97788   0.99448   1.04216   1.05816   1.09746
 Alpha virt. eigenvalues --    1.10992   1.15237   1.15594   1.17109   1.21228
 Alpha virt. eigenvalues --    1.23280   1.23760   1.24155   1.29425   1.29425
 Alpha virt. eigenvalues --    1.31631   1.46610   1.50779   1.54689   1.56141
 Alpha virt. eigenvalues --    1.58944   1.61493   1.62483   1.63422   1.68143
 Alpha virt. eigenvalues --    1.71246   1.72485   1.72750   1.73289   1.74696
 Alpha virt. eigenvalues --    1.75592   1.82568   1.85054   1.87626   1.89892
 Alpha virt. eigenvalues --    1.93823   1.94512   1.95155   1.96876   2.00223
 Alpha virt. eigenvalues --    2.04060   2.07031   2.12354   2.13451   2.18920
 Alpha virt. eigenvalues --    2.21829   2.23913   2.24254   2.24852   2.26907
 Alpha virt. eigenvalues --    2.27046   2.27362   2.29011   2.29429   2.38184
 Alpha virt. eigenvalues --    2.47530   2.57156   2.57630   2.60886   2.63930
 Alpha virt. eigenvalues --    2.64722   2.64724   2.64775   2.64776   2.65101
 Alpha virt. eigenvalues --    2.65340   2.69545   2.71791   2.74759   2.79253
 Alpha virt. eigenvalues --    2.90553   2.93384   2.96124   3.00531   3.04217
 Alpha virt. eigenvalues --    3.04428   3.11064   3.14913   3.36976   3.46117
 Alpha virt. eigenvalues --    3.50429   3.72459  53.84138
  Beta  occ. eigenvalues --  -14.44476 -14.41897 -10.33356 -10.33251 -10.32540
  Beta  occ. eigenvalues --  -10.30697 -10.30439 -10.30006 -10.29925 -10.29908
  Beta  occ. eigenvalues --   -3.72684  -2.30697  -2.30692  -2.30682  -0.98617
  Beta  occ. eigenvalues --   -0.96433  -0.94392  -0.85545  -0.84528  -0.73087
  Beta  occ. eigenvalues --   -0.70680  -0.64542  -0.58748  -0.55530  -0.53219
  Beta  occ. eigenvalues --   -0.50812  -0.48339  -0.46962  -0.44455  -0.43658
  Beta  occ. eigenvalues --   -0.42278  -0.40561  -0.40263  -0.39737  -0.38192
  Beta  occ. eigenvalues --   -0.33153  -0.32156  -0.29649  -0.29649  -0.29448
  Beta  occ. eigenvalues --   -0.29288  -0.27812
  Beta virt. eigenvalues --   -0.10662  -0.07769  -0.04461  -0.01338   0.01892
  Beta virt. eigenvalues --    0.02782   0.03108   0.05004   0.05038   0.06328
  Beta virt. eigenvalues --    0.06368   0.07881   0.10960   0.12767   0.14418
  Beta virt. eigenvalues --    0.16720   0.16740   0.18934   0.19933   0.23963
  Beta virt. eigenvalues --    0.26131   0.26400   0.29548   0.32548   0.32755
  Beta virt. eigenvalues --    0.37886   0.38060   0.38150   0.39197   0.41220
  Beta virt. eigenvalues --    0.41780   0.43857   0.43957   0.45828   0.46236
  Beta virt. eigenvalues --    0.47433   0.50333   0.50380   0.50726   0.51859
  Beta virt. eigenvalues --    0.52918   0.55411   0.55813   0.56368   0.58692
  Beta virt. eigenvalues --    0.60051   0.60264   0.62011   0.63274   0.63588
  Beta virt. eigenvalues --    0.64014   0.65118   0.65927   0.67468   0.69394
  Beta virt. eigenvalues --    0.71362   0.73183   0.73688   0.78497   0.78892
  Beta virt. eigenvalues --    0.80688   0.87372   0.88322   0.88600   0.93834
  Beta virt. eigenvalues --    0.97117   0.98129   0.99504   1.04476   1.05871
  Beta virt. eigenvalues --    1.09859   1.11046   1.15246   1.15662   1.17106
  Beta virt. eigenvalues --    1.21230   1.23354   1.23762   1.24188   1.29453
  Beta virt. eigenvalues --    1.29914   1.31660   1.46653   1.50783   1.54678
  Beta virt. eigenvalues --    1.56115   1.58942   1.61494   1.62489   1.63431
  Beta virt. eigenvalues --    1.68145   1.71249   1.72499   1.72750   1.73294
  Beta virt. eigenvalues --    1.74712   1.75608   1.82582   1.85088   1.87637
  Beta virt. eigenvalues --    1.89908   1.93865   1.94520   1.95176   1.96886
  Beta virt. eigenvalues --    2.00241   2.04072   2.08270   2.12375   2.13457
  Beta virt. eigenvalues --    2.19063   2.21885   2.23944   2.24388   2.24982
  Beta virt. eigenvalues --    2.26919   2.27114   2.27368   2.29031   2.29433
  Beta virt. eigenvalues --    2.38196   2.47539   2.57195   2.57632   2.60886
  Beta virt. eigenvalues --    2.63984   2.64754   2.64754   2.64770   2.64771
  Beta virt. eigenvalues --    2.65263   2.65497   2.69787   2.71798   2.74788
  Beta virt. eigenvalues --    2.79256   2.90565   2.93461   2.96251   3.00577
  Beta virt. eigenvalues --    3.04238   3.04482   3.11133   3.14960   3.37005
  Beta virt. eigenvalues --    3.46172   3.50530   3.72485  53.84294
          Condensed to atoms (all electrons):
               1          2          3          4          5          6
     1  N    6.033115   0.908818  -0.018659  -0.003134   0.000125  -0.000004
     2  C    0.908818   5.135865   0.305796  -0.112736   0.022024  -0.002693
     3  C   -0.018659   0.305796   5.224067   0.352418   0.096811  -0.157192
     4  C   -0.003134  -0.112736   0.352418   4.982875   0.286010   0.089326
     5  C    0.000125   0.022024   0.096811   0.286010   5.053514   0.262117
     6  C   -0.000004  -0.002693  -0.157192   0.089326   0.262117   5.049940
     7  C    0.000075   0.019421   0.079773  -0.130287   0.089404   0.291590
     8  C   -0.003519  -0.099306   0.322473   0.081711  -0.158228   0.095424
     9  C   -0.001525  -0.051265  -0.100232   0.020207  -0.002651   0.022608
    10  N   -0.000242  -0.001890  -0.003182   0.000132  -0.000006   0.000172
    11  H   -0.000663  -0.027755  -0.052735   0.462489  -0.065418   0.013425
    12  H   -0.000005  -0.000688   0.013542  -0.064228   0.451776  -0.065117
    13  H    0.000000   0.000094  -0.000520   0.012497  -0.064845   0.451987
    14  H    0.000002   0.000132   0.016720  -0.001984   0.013322  -0.063389
    15  Ag   0.000903   0.000468  -0.000024   0.000091   0.000006   0.000081
               7          8          9         10         11         12
     1  N    0.000075  -0.003519  -0.001525  -0.000242  -0.000663  -0.000005
     2  C    0.019421  -0.099306  -0.051265  -0.001890  -0.027755  -0.000688
     3  C    0.079773   0.322473  -0.100232  -0.003182  -0.052735   0.013542
     4  C   -0.130287   0.081711   0.020207   0.000132   0.462489  -0.064228
     5  C    0.089404  -0.158228  -0.002651  -0.000006  -0.065418   0.451776
     6  C    0.291590   0.095424   0.022608   0.000172   0.013425  -0.065117
     7  C    4.989365   0.343870  -0.116065  -0.003715  -0.001997   0.012611
     8  C    0.343870   5.222346   0.338459  -0.018336   0.017041  -0.000566
     9  C   -0.116065   0.338459   5.160403   0.777763   0.000136   0.000093
    10  N   -0.003715  -0.018336   0.777763   6.155867   0.000002   0.000000
    11  H   -0.001997   0.017041   0.000136   0.000002   0.625524  -0.010363
    12  H    0.012611  -0.000566   0.000093   0.000000  -0.010363   0.628621
    13  H   -0.064210   0.013501  -0.000721  -0.000005  -0.000232  -0.011454
    14  H    0.461853  -0.054498  -0.027168  -0.000883   0.000010  -0.000231
    15  Ag  -0.000171  -0.000486  -0.008118   0.026361  -0.000005   0.000000
              13         14         15
     1  N    0.000000   0.000002   0.000903
     2  C    0.000094   0.000132   0.000468
     3  C   -0.000520   0.016720  -0.000024
     4  C    0.012497  -0.001984   0.000091
     5  C   -0.064845   0.013322   0.000006
     6  C    0.451987  -0.063389   0.000081
     7  C   -0.064210   0.461853  -0.000171
     8  C    0.013501  -0.054498  -0.000486
     9  C   -0.000721  -0.027168  -0.008118
    10  N   -0.000005  -0.000883   0.026361
    11  H   -0.000232   0.000010  -0.000005
    12  H   -0.011454  -0.000231   0.000000
    13  H    0.628258  -0.010308  -0.000006
    14  H   -0.010308   0.625379  -0.000001
    15  Ag  -0.000006  -0.000001  19.100857
          Atomic-Atomic Spin Densities.
               1          2          3          4          5          6
     1  N   -0.000033  -0.000466  -0.000054   0.000025   0.000000   0.000000
     2  C   -0.000466   0.001172  -0.000112  -0.000033   0.000012  -0.000004
     3  C   -0.000054  -0.000112  -0.002284  -0.000015   0.000080  -0.000033
     4  C    0.000025  -0.000033  -0.000015   0.001470  -0.000049   0.000015
     5  C    0.000000   0.000012   0.000080  -0.000049  -0.002240   0.000036
     6  C    0.000000  -0.000004  -0.000033   0.000015   0.000036   0.001447
     7  C   -0.000001   0.000011  -0.000001  -0.000056   0.000071   0.000016
     8  C    0.000023  -0.000098  -0.000167   0.000040   0.000009   0.000065
     9  C   -0.000068   0.000258  -0.000001  -0.000070  -0.000008  -0.000020
    10  N    0.000023  -0.000085   0.000054   0.000005   0.000000   0.000003
    11  H   -0.000007  -0.000011   0.000041  -0.000051  -0.000010  -0.000004
    12  H    0.000000   0.000000   0.000004   0.000004  -0.000040  -0.000001
    13  H    0.000000   0.000000   0.000004  -0.000003   0.000008  -0.000012
    14  H    0.000000  -0.000002   0.000002  -0.000008   0.000004  -0.000081
    15  Ag  -0.000047   0.000082   0.000016  -0.000001   0.000000  -0.000002
               7          8          9         10         11         12
     1  N   -0.000001   0.000023  -0.000068   0.000023  -0.000007   0.000000
     2  C    0.000011  -0.000098   0.000258  -0.000085  -0.000011   0.000000
     3  C   -0.000001  -0.000167  -0.000001   0.000054   0.000041   0.000004
     4  C   -0.000056   0.000040  -0.000070   0.000005  -0.000051   0.000004
     5  C    0.000071   0.000009  -0.000008   0.000000  -0.000010  -0.000040
     6  C    0.000016   0.000065  -0.000020   0.000003  -0.000004  -0.000001
     7  C   -0.002161  -0.000695   0.000525  -0.000063   0.000005   0.000002
     8  C   -0.000695   0.007063  -0.001529   0.001375   0.000002   0.000002
     9  C    0.000525  -0.001529   0.004678  -0.026198   0.000004   0.000000
    10  N   -0.000063   0.001375  -0.026198   0.153199   0.000000   0.000000
    11  H    0.000005   0.000002   0.000004   0.000000  -0.000006   0.000003
    12  H    0.000002   0.000002   0.000000   0.000000   0.000003   0.000126
    13  H   -0.000013  -0.000010   0.000003   0.000000   0.000001   0.000002
    14  H   -0.000094  -0.000344   0.000295  -0.000113   0.000000   0.000001
    15  Ag   0.000018  -0.001162   0.012249  -0.099152   0.000000   0.000000
              13         14         15
     1  N    0.000000   0.000000  -0.000047
     2  C    0.000000  -0.000002   0.000082
     3  C    0.000004   0.000002   0.000016
     4  C   -0.000003  -0.000008  -0.000001
     5  C    0.000008   0.000004   0.000000
     6  C   -0.000012  -0.000081  -0.000002
     7  C   -0.000013  -0.000094   0.000018
     8  C   -0.000010  -0.000344  -0.001162
     9  C    0.000003   0.000295   0.012249
    10  N    0.000000  -0.000113  -0.099152
    11  H    0.000001   0.000000   0.000000
    12  H    0.000002   0.000001   0.000000
    13  H   -0.000045   0.000023   0.000000
    14  H    0.000023   0.000538   0.000102
    15  Ag   0.000000   0.000102   1.068026
 Mulliken charges and spin densities:
               1          2
     1  N    0.084715  -0.000605
     2  C   -0.096284   0.000722
     3  C   -0.079056  -0.002465
     4  C    0.024613   0.001273
     5  C    0.016040  -0.002129
     6  C    0.011726   0.001424
     7  C    0.028484  -0.002436
     8  C   -0.099885   0.004573
     9  C   -0.011924  -0.009883
    10  N    0.067964   0.029047
    11  H    0.040543  -0.000033
    12  H    0.046009   0.000102
    13  H    0.045965  -0.000044
    14  H    0.041045   0.000325
    15  Ag  -0.119955   0.980130
 Sum of Mulliken charges =   0.00000   1.00000
 Mulliken charges and spin densities with hydrogens summed into heavy atoms:
               1          2
     1  N    0.084715  -0.000605
     2  C   -0.096284   0.000722
     3  C   -0.079056  -0.002465
     4  C    0.065156   0.001240
     5  C    0.062050  -0.002027
     6  C    0.057691   0.001379
     7  C    0.069529  -0.002111
     8  C   -0.099885   0.004573
     9  C   -0.011924  -0.009883
    10  N    0.067964   0.029047
    15  Ag  -0.119955   0.980130
 Electronic spatial extent (au):  <R**2>=           3747.0666
 Charge=              0.0000 electrons
 Dipole moment (field-independent basis, Debye):
    X=             -8.9953    Y=             -5.3418    Z=              0.9293  Tot=             10.5031
 Quadrupole moment (field-independent basis, Debye-Ang):
   XX=           -102.4446   YY=           -101.9042   ZZ=            -79.1074
   XY=            -20.8352   XZ=              3.1525   YZ=              3.2799
 Traceless Quadrupole moment (field-independent basis, Debye-Ang):
   XX=             -7.9592   YY=             -7.4188   ZZ=             15.3780
   XY=            -20.8352   XZ=              3.1525   YZ=              3.2799
 Octapole moment (field-independent basis, Debye-Ang**2):
  XXX=           -466.6809  YYY=           -496.0884  ZZZ=             46.9234  XYY=           -246.7338
  XXY=           -192.6839  XXZ=             30.6864  XZZ=           -107.4323  YZZ=           -110.5689
  YYZ=             39.4444  XYZ=             18.2464
 Hexadecapole moment (field-independent basis, Debye-Ang**3):
 XXXX=          -3295.0805 YYYY=          -4331.7510 ZZZZ=           -154.6299 XXXY=          -1483.6844
 XXXZ=            230.1125 YYYX=          -1821.6406 YYYZ=            337.9908 ZZZX=            177.0331
 ZZZY=            226.6019 XXYY=          -1584.7609 XXZZ=           -507.8018 YYZZ=           -626.3807
 XXYZ=            143.7336 YYXZ=            151.0208 ZZXY=           -392.5159
 N-N= 5.558180635945D+02 E-N=-2.392948454622D+03  KE= 4.684720844590D+02
                          Isotropic Fermi Contact Couplings
        Atom                 a.u.       MegaHertz       Gauss      10(-4) cm-1
     1  N(14)             -0.00004      -0.01408      -0.00502      -0.00470
     2  C(13)              0.00020       0.21995       0.07848       0.07337
     3  C(13)             -0.00091      -1.02674      -0.36636      -0.34248
     4  C(13)              0.00030       0.33980       0.12125       0.11334
     5  C(13)             -0.00034      -0.37709      -0.13456      -0.12578
     6  C(13)              0.00028       0.32007       0.11421       0.10676
     7  C(13)             -0.00091      -1.02628      -0.36620      -0.34233
     8  C(13)              0.00375       4.21761       1.50495       1.40684
     9  C(13)              0.01645      18.49175       6.59832       6.16818
    10  N(14)              0.21037      67.97178      24.25402      22.67294
    11  H(1)              -0.00001      -0.06627      -0.02365      -0.02211
    12  H(1)               0.00003       0.13203       0.04711       0.04404
    13  H(1)              -0.00001      -0.06469      -0.02308      -0.02158
    14  H(1)               0.00004       0.16769       0.05984       0.05594
    15  Ag(107             0.00028      -0.05052      -0.01803      -0.01685
 --------------------------------------------------------
       Center         ----  Spin Dipole Couplings  ----
                      3XX-RR        3YY-RR        3ZZ-RR
 --------------------------------------------------------
     1   Atom       -0.000114      0.001898     -0.001784
     2   Atom       -0.000780      0.001173     -0.000393
     3   Atom        0.000925      0.001598     -0.002523
     4   Atom       -0.000587     -0.000066      0.000653
     5   Atom        0.001065      0.001152     -0.002218
     6   Atom       -0.000268     -0.000507      0.000775
     7   Atom        0.001467      0.001157     -0.002624
     8   Atom       -0.000483      0.000433      0.000051
     9   Atom        0.003196      0.007068     -0.010264
    10   Atom        0.006788      0.016408     -0.023197
    11   Atom       -0.000172      0.000400     -0.000228
    12   Atom        0.000066      0.000124     -0.000190
    13   Atom        0.000321     -0.000084     -0.000237
    14   Atom        0.001081     -0.000366     -0.000715
    15   Atom       -0.005848     -0.016870      0.022718
 --------------------------------------------------------
                        XY            XZ            YZ
 --------------------------------------------------------
     1   Atom        0.000124     -0.000085     -0.000392
     2   Atom        0.000605     -0.000047     -0.000189
     3   Atom        0.000715     -0.000220     -0.000463
     4   Atom        0.000441      0.000007      0.000057
     5   Atom        0.000363     -0.000177     -0.000369
     6   Atom        0.000482     -0.000006      0.000114
     7   Atom        0.000799     -0.000257     -0.000430
     8   Atom        0.003179     -0.000310     -0.000179
     9   Atom        0.016313     -0.002263     -0.002509
    10   Atom        0.038046     -0.005205     -0.005750
    11   Atom        0.000278     -0.000031     -0.000078
    12   Atom        0.000151     -0.000027     -0.000039
    13   Atom        0.000345     -0.000059     -0.000031
    14   Atom        0.000991     -0.000178     -0.000079
    15   Atom       -0.033910      0.004740      0.005597
 --------------------------------------------------------


 ---------------------------------------------------------------------------------
              Anisotropic Spin Dipole Couplings in Principal Axis System
 ---------------------------------------------------------------------------------

       Atom             a.u.   MegaHertz   Gauss  10(-4) cm-1        Axes

              Baa    -0.0018    -0.071    -0.025    -0.024  0.0417  0.1031  0.9938
     1 N(14)  Bbb    -0.0001    -0.005    -0.002    -0.002  0.9971 -0.0678 -0.0348
              Bcc     0.0019     0.075     0.027     0.025  0.0638  0.9924 -0.1056
 
              Baa    -0.0010    -0.128    -0.046    -0.043  0.9615 -0.2746 -0.0120
     2 C(13)  Bbb    -0.0004    -0.056    -0.020    -0.019  0.0417  0.1027  0.9938
              Bcc     0.0014     0.183     0.065     0.061  0.2717  0.9561 -0.1102
 
              Baa    -0.0026    -0.346    -0.124    -0.115  0.0414  0.1030  0.9938
     3 C(13)  Bbb     0.0005     0.063     0.023     0.021  0.8476 -0.5303  0.0196
              Bcc     0.0021     0.283     0.101     0.094  0.5290  0.8416 -0.1092
 
              Baa    -0.0008    -0.113    -0.040    -0.038  0.8683 -0.4958  0.0149
     4 C(13)  Bbb     0.0002     0.024     0.009     0.008  0.4943  0.8623 -0.1098
              Bcc     0.0007     0.088     0.032     0.030  0.0416  0.1028  0.9938
 
              Baa    -0.0023    -0.304    -0.108    -0.101  0.0416  0.1028  0.9938
     5 C(13)  Bbb     0.0007     0.100     0.036     0.033  0.7601 -0.6489  0.0353
              Bcc     0.0015     0.203     0.073     0.068  0.6485  0.7539 -0.1051
 
              Baa    -0.0009    -0.119    -0.043    -0.040 -0.6121  0.7888 -0.0560
     6 C(13)  Bbb     0.0001     0.014     0.005     0.005  0.7897  0.6059 -0.0961
              Bcc     0.0008     0.106     0.038     0.035  0.0419  0.1031  0.9938
 
              Baa    -0.0027    -0.359    -0.128    -0.120  0.0417  0.1027  0.9938
     7 C(13)  Bbb     0.0005     0.068     0.024     0.023 -0.6469  0.7608 -0.0515
              Bcc     0.0022     0.292     0.104     0.097  0.7614  0.6408 -0.0982
 
              Baa    -0.0032    -0.435    -0.155    -0.145  0.7566 -0.6529  0.0359
     8 C(13)  Bbb     0.0000     0.003     0.001     0.001  0.0424  0.1037  0.9937
              Bcc     0.0032     0.432     0.154     0.144  0.6525  0.7503 -0.1061
 
              Baa    -0.0113    -1.516    -0.541    -0.506  0.7496 -0.6609  0.0368
     9 C(13)  Bbb    -0.0106    -1.425    -0.508    -0.475  0.0416  0.1026  0.9939
              Bcc     0.0219     2.941     1.049     0.981  0.6606  0.7435 -0.1044
 
              Baa    -0.0268    -1.032    -0.368    -0.344  0.7521 -0.6580  0.0367
    10 N(14)  Bbb    -0.0240    -0.926    -0.330    -0.309  0.0412  0.1026  0.9939
              Bcc     0.0508     1.958     0.699     0.653  0.6578  0.7460 -0.1043
 
              Baa    -0.0003    -0.152    -0.054    -0.051  0.9268 -0.3756  0.0001
    11 H(1)   Bbb    -0.0002    -0.127    -0.045    -0.042  0.0415  0.1028  0.9938
              Bcc     0.0005     0.279     0.099     0.093  0.3733  0.9211 -0.1109
 
              Baa    -0.0002    -0.104    -0.037    -0.035  0.0416  0.1028  0.9938
    12 H(1)   Bbb    -0.0001    -0.031    -0.011    -0.010  0.7741 -0.6322  0.0330
              Bcc     0.0003     0.135     0.048     0.045  0.6316  0.7680 -0.1059
 
              Baa    -0.0003    -0.150    -0.054    -0.050 -0.5010  0.8627 -0.0685
    13 H(1)   Bbb    -0.0002    -0.129    -0.046    -0.043  0.0415  0.1030  0.9938
              Bcc     0.0005     0.280     0.100     0.093  0.8644  0.4951 -0.0874
 
              Baa    -0.0009    -0.464    -0.166    -0.155 -0.4569  0.8865 -0.0725
    14 H(1)   Bbb    -0.0007    -0.390    -0.139    -0.130  0.0417  0.1027  0.9938
              Bcc     0.0016     0.854     0.305     0.285  0.8885  0.4511 -0.0839
 
              Baa    -0.0465     1.009     0.360     0.336  0.6443  0.7575 -0.1054
    15 Ag(107 Bbb     0.0230    -0.499    -0.178    -0.166  0.7635 -0.6450  0.0320
              Bcc     0.0235    -0.510    -0.182    -0.170  0.0437  0.1011  0.9939
 

 ---------------------------------------------------------------------------------

 No NMR shielding tensors so no spin-rotation constants.
 Leave Link  601 at Sat Sep 12 01:56:06 2026, MaxMem=  6442450944 cpu:               2.0 elap:               2.5
 (Enter C:\G16W\l9999.exe)
 Unable to Open any file for archive entry.
 1|1|UNPC-DESKTOP-2JKEGCA|SP|UPBE1PBE|def2SVP|C8H4Ag1N2(2)|JHKIM|12-Sep
 -2026|0||#P PBE1PBE/Def2SVP EmpiricalDispersion=GD3BJ SP SCF=(XQC,MaxC
 ycle=128,VShift=300) NoSymm||oDCNB t=0.000 dz=+0.00 class=site2site||0
 ,2|N,0,3.359597,-1.016115,-0.035519|C,0,2.244882,-0.753268,-0.016024|C
 ,0,0.861235,-0.456159,0.011127|C,0,-0.069315,-1.482359,0.156214|C,0,-1
 .420759,-1.189055,0.182444|C,0,-1.856402,0.123497,0.064924|C,0,-0.9439
 69,1.152892,-0.079741|C,0,0.420147,0.872796,-0.10787|C,0,1.356232,1.92
 4162,-0.255744|N,0,2.096312,2.790084,-0.376328|H,0,0.277793,-2.500831,
 0.247029|H,0,-2.138501,-1.987239,0.295041|H,0,-2.912552,0.344906,0.086
 234|H,0,-1.274701,2.17669,-0.171784|Ag,0,3.582338,4.528791,-0.618452||
 Version=EM64W-G16RevC.01|HF=-562.8765704|S2=0.751767|S2-1=0.|S2A=0.750
 003|RMSD=7.547e-009|Dipole=-3.5390343,-2.1016446,0.3656042|Quadrupole=
 -5.9174971,-5.5156923,11.4331894,-15.490452,2.3437764,2.4385437|PG=C01
  [X(C8H4Ag1N2)]||@
 The archive entry for this job was punched.


 LIFE CAN ONLY BE UNDERSTOOD BACKWARD, BUT MUST
 BE LIVED FORWARD. -- KIRKEGAARD
 Job cpu time:       0 days  0 hours 21 minutes  8.0 seconds.
 Elapsed time:       0 days  0 hours 21 minutes  5.5 seconds.
 File lengths (MBytes):  RWF=     40 Int=      0 D2E=      0 Chk=      4 Scr=      1
 Normal termination of Gaussian 16 at Sat Sep 12 01:56:07 2026.
