 Entering Gaussian System, Link 0=C:\G16W\g16.exe
 Input=pDCNB_t5_z1.gjf
 Output=pDCNB_t5_z1.out
 Initial command:
 C:\G16W\l1.exe ".\Gau-24272.inp" "pDCNB_t5_z1.out" /scrdir=".\"
 Entering Link 1 = C:\G16W\l1.exe PID=    102568.
  
 Copyright (c) 1988-2019, Gaussian, Inc.  All Rights Reserved.
  
 This is part of the Gaussian(R) 16 program.  It is based on
 the Gaussian(R) 09 system (copyright 2009, Gaussian, Inc.),
 the Gaussian(R) 03 system (copyright 2003, Gaussian, Inc.),
 the Gaussian(R) 98 system (copyright 1998, Gaussian, Inc.),
 the Gaussian(R) 94 system (copyright 1995, Gaussian, Inc.),
 the Gaussian 92(TM) system (copyright 1992, Gaussian, Inc.),
 the Gaussian 90(TM) system (copyright 1990, Gaussian, Inc.),
 the Gaussian 88(TM) system (copyright 1988, Gaussian, Inc.),
 the Gaussian 86(TM) system (copyright 1986, Carnegie Mellon
 University), and the Gaussian 82(TM) system (copyright 1983,
 Carnegie Mellon University). Gaussian is a federally registered
 trademark of Gaussian, Inc.
  
 This software contains proprietary and confidential information,
 including trade secrets, belonging to Gaussian, Inc.
  
 This software is provided under written license and may be
 used, copied, transmitted, or stored only in accord with that
 written license.
  
 The following legend is applicable only to US Government
 contracts under FAR:
  
                    RESTRICTED RIGHTS LEGEND
  
 Use, reproduction and disclosure by the US Government is
 subject to restrictions as set forth in subparagraphs (a)
 and (c) of the Commercial Computer Software - Restricted
 Rights clause in FAR 52.227-19.
  
 Gaussian, Inc.
 340 Quinnipiac St., Bldg. 40, Wallingford CT 06492
  
  
 ---------------------------------------------------------------
 Warning -- This program may not be used in any manner that
 competes with the business of Gaussian, Inc. or will provide
 assistance to any competitor of Gaussian, Inc.  The licensee
 of this program is prohibited from giving any competitor of
 Gaussian, Inc. access to this program.  By using this program,
 the user acknowledges that Gaussian, Inc. is engaged in the
 business of creating and licensing software in the field of
 computational chemistry and represents and warrants to the
 licensee that it is not a competitor of Gaussian, Inc. and that
 it will not use this program in any manner prohibited above.
 ---------------------------------------------------------------
  

 Cite this work as:
 Gaussian 16, Revision C.01,
 M. J. Frisch, G. W. Trucks, H. B. Schlegel, G. E. Scuseria, 
 M. A. Robb, J. R. Cheeseman, G. Scalmani, V. Barone, 
 G. A. Petersson, H. Nakatsuji, X. Li, M. Caricato, A. V. Marenich, 
 J. Bloino, B. G. Janesko, R. Gomperts, B. Mennucci, H. P. Hratchian, 
 J. V. Ortiz, A. F. Izmaylov, J. L. Sonnenberg, D. Williams-Young, 
 F. Ding, F. Lipparini, F. Egidi, J. Goings, B. Peng, A. Petrone, 
 T. Henderson, D. Ranasinghe, V. G. Zakrzewski, J. Gao, N. Rega, 
 G. Zheng, W. Liang, M. Hada, M. Ehara, K. Toyota, R. Fukuda, 
 J. Hasegawa, M. Ishida, T. Nakajima, Y. Honda, O. Kitao, H. Nakai, 
 T. Vreven, K. Throssell, J. A. Montgomery, Jr., J. E. Peralta, 
 F. Ogliaro, M. J. Bearpark, J. J. Heyd, E. N. Brothers, K. N. Kudin, 
 V. N. Staroverov, T. A. Keith, R. Kobayashi, J. Normand, 
 K. Raghavachari, A. P. Rendell, J. C. Burant, S. S. Iyengar, 
 J. Tomasi, M. Cossi, J. M. Millam, M. Klene, C. Adamo, R. Cammi, 
 J. W. Ochterski, R. L. Martin, K. Morokuma, O. Farkas, 
 J. B. Foresman, and D. J. Fox, Gaussian, Inc., Wallingford CT, 2019.
 
 ******************************************
 Gaussian 16:  EM64W-G16RevC.01 30-May-2019
                12-Sep-2026 
 ******************************************
 %Chk=pDCNB.chk
 %NProcShared=8
 Will use up to    8 processors via shared memory.
 %Mem=48GB
 ----------------------------------------------------------------------
 #P PBE1PBE/Def2SVP EmpiricalDispersion=GD3BJ SP SCF=(XQC,MaxCycle=128)
  NoSymm Guess=Read
 ----------------------------------------------------------------------
 1/38=1,172=1/1;
 2/12=2,15=1,17=6,18=5,40=1/2;
 3/5=43,7=101,11=2,25=1,30=1,74=-13,116=-2,124=41/1,2,3;
 4/5=1/1;
 5/5=2,7=128,8=3,13=1,38=6/2,8;
 6/7=2,8=2,9=2,10=2,28=1/1;
 99/5=1,9=1/99;
 Leave Link    1 at Sat Sep 12 02:26:42 2026, MaxMem=  6442450944 cpu:               1.0 elap:               0.3
 (Enter C:\G16W\l101.exe)
 --------------------------------------
 pDCNB t=0.833 dz=+0.40 class=site2site
 --------------------------------------
 Symbolic Z-matrix:
 Charge =  0 Multiplicity = 2
 N                     3.9317    0.14419   0.27529 
 C                     2.78951   0.10233   0.19527 
 C                     1.37857   0.05056   0.09663 
 C                     0.7392   -1.18116  -0.06022 
 C                    -0.63553  -1.23158  -0.15648 
 C                    -1.37859  -0.05057  -0.09644 
 C                    -2.78947  -0.10226  -0.1959 
 N                    -3.93168  -0.14419  -0.27541 
 C                    -0.73922   1.18114   0.06043 
 C                     0.63552   1.23156   0.1567 
 H                     1.32644  -2.08614  -0.1051 
 H                    -1.14325  -2.17672  -0.27808 
 H                    -1.32645   2.08613   0.10518 
 H                     1.14325   2.17671   0.27815 
 Ag                   -2.31072   4.30192   1.1282 
 
 ITRead=  0  0  0  0  0  0  0  0  0  0  0  0  0  0  0
 MicOpt= -1 -1 -1 -1 -1 -1 -1 -1 -1 -1 -1 -1 -1 -1 -1
 NAtoms=     15 NQM=       15 NQMF=       0 NMMI=      0 NMMIF=      0
                NMic=       0 NMicF=      0.
                    Isotopes and Nuclear Properties:
 (Nuclear quadrupole moments (NQMom) in fm**2, nuclear magnetic moments (NMagM)
  in nuclear magnetons)

  Atom         1           2           3           4           5           6           7           8           9          10
 IAtWgt=          14          12          12          12          12          12          12          14          12          12
 AtmWgt=  14.0030740  12.0000000  12.0000000  12.0000000  12.0000000  12.0000000  12.0000000  14.0030740  12.0000000  12.0000000
 NucSpn=           2           0           0           0           0           0           0           2           0           0
 AtZEff=   0.0000000   0.0000000   0.0000000   0.0000000   0.0000000   0.0000000   0.0000000   0.0000000   0.0000000   0.0000000
 NQMom=    2.0440000   0.0000000   0.0000000   0.0000000   0.0000000   0.0000000   0.0000000   2.0440000   0.0000000   0.0000000
 NMagM=    0.4037610   0.0000000   0.0000000   0.0000000   0.0000000   0.0000000   0.0000000   0.4037610   0.0000000   0.0000000
 AtZNuc=   7.0000000   6.0000000   6.0000000   6.0000000   6.0000000   6.0000000   6.0000000   7.0000000   6.0000000   6.0000000

  Atom        11          12          13          14          15
 IAtWgt=           1           1           1           1         107
 AtmWgt=   1.0078250   1.0078250   1.0078250   1.0078250 106.9050900
 NucSpn=           1           1           1           1           1
 AtZEff=   0.0000000   0.0000000   0.0000000   0.0000000   0.0000000
 NQMom=    0.0000000   0.0000000   0.0000000   0.0000000   0.0000000
 NMagM=    2.7928460   2.7928460   2.7928460   2.7928460  -0.1135700
 AtZNuc=   1.0000000   1.0000000   1.0000000   1.0000000  47.0000000
 Leave Link  101 at Sat Sep 12 02:26:42 2026, MaxMem=  6442450944 cpu:               0.0 elap:               0.2
 (Enter C:\G16W\l202.exe)
                          Input orientation:                          
 ---------------------------------------------------------------------
 Center     Atomic      Atomic             Coordinates (Angstroms)
 Number     Number       Type             X           Y           Z
 ---------------------------------------------------------------------
      1          7           0        3.931702    0.144186    0.275285
      2          6           0        2.789514    0.102334    0.195267
      3          6           0        1.378570    0.050557    0.096627
      4          6           0        0.739202   -1.181159   -0.060221
      5          6           0       -0.635531   -1.231584   -0.156484
      6          6           0       -1.378585   -0.050574   -0.096444
      7          6           0       -2.789474   -0.102260   -0.195902
      8          7           0       -3.931683   -0.144185   -0.275406
      9          6           0       -0.739218    1.181139    0.060434
     10          6           0        0.635515    1.231563    0.156697
     11          1           0        1.326442   -2.086139   -0.105102
     12          1           0       -1.143254   -2.176721   -0.278080
     13          1           0       -1.326448    2.086131    0.105176
     14          1           0        1.143247    2.176713    0.278153
     15         47           0       -2.310718    4.301919    1.128195
 ---------------------------------------------------------------------
                    Distance matrix (angstroms):
                    1          2          3          4          5
     1  N    0.000000
     2  C    1.145752   0.000000
     3  C    2.561087   1.415335   0.000000
     4  C    3.472918   2.432367   1.396609   0.000000
     5  C    4.789445   3.692425   2.400948   1.379021   0.000000
     6  C    5.326844   4.181091   2.765756   2.400949   1.396610
     7  C    6.742178   5.596426   4.181090   3.692423   2.432364
     8  N    7.887917   6.742165   5.326830   4.789445   3.472923
     9  C    4.789460   3.692418   2.400948   2.789397   2.424672
    10  C    3.472938   2.432356   1.396608   2.424671   2.789397
    11  H    3.450569   2.649569   2.146831   1.079747   2.140617
    12  H    5.607852   4.569991   3.385376   2.140618   1.079746
    13  H    5.607872   4.569979   3.385374   3.869037   3.398980
    14  H    3.450602   2.649550   2.146827   3.398978   3.869037
    15  Ag   7.548643   6.672274   5.722679   6.385804   5.922526
                    6          7          8          9         10
     6  C    0.000000
     7  C    1.415334   0.000000
     8  N    2.561074   1.145740   0.000000
     9  C    1.396609   2.432359   3.472910   0.000000
    10  C    2.400949   3.692419   4.789436   1.379021   0.000000
    11  H    3.385376   4.569987   5.607858   3.869039   3.398980
    12  H    2.146829   2.649563   3.450586   3.398979   3.869037
    13  H    2.146830   2.649556   3.450565   1.079746   2.140617
    14  H    3.385375   4.569983   5.607844   2.140618   1.079746
    15  Ag   4.616580   4.623769   4.936139   3.653628   4.364766
                   11         12         13         14         15
    11  H    0.000000
    12  H    2.477403   0.000000
    13  H    4.948725   4.283965   0.000000
    14  H    4.283965   4.948724   2.477402   0.000000
    15  Ag   7.453673   6.731520   2.631553   4.143543   0.000000
 Symmetry turned off by external request.
 Stoichiometry    C8H4AgN2(2)
 Framework group  C1[X(C8H4AgN2)]
 Deg. of freedom    39
 Full point group                 C1      NOp   1
 Rotational constants (GHZ):           0.9197224           0.2965078           0.2248199
 Leave Link  202 at Sat Sep 12 02:26:42 2026, MaxMem=  6442450944 cpu:               0.0 elap:               0.1
 (Enter C:\G16W\l301.exe)
 Standard basis: def2SVP (5D, 7F)
 Ernie: Thresh=  0.10000D-02 Tol=  0.10000D-05 Strict=F.
   191 basis functions,   343 primitive gaussians,   206 cartesian basis functions
    43 alpha electrons       42 beta electrons
       nuclear repulsion energy       538.2423805750 Hartrees.
 IExCor= 1009 DFT=T Ex+Corr=PBE1PBE ExCW=0 ScaHFX=  0.250000
 ScaDFX=  0.750000  0.750000  1.000000  1.000000 ScalE2=  1.000000  1.000000
 IRadAn=      5 IRanWt=     -1 IRanGd=            0 ICorTp=0 IEmpDi=141
 NAtoms=   15 NActive=   15 NUniq=   15 SFac= 1.00D+00 NAtFMM=   60 NAOKFM=F Big=F
 Integral buffers will be    131072 words long.
 Raffenetti 2 integral format.
 Two-electron integral symmetry is turned off.
 R6Disp:  Grimme-D3(BJ) Dispersion energy=       -0.0167593392 Hartrees.
 Nuclear repulsion after empirical dispersion term =      538.2256212357 Hartrees.
 Leave Link  301 at Sat Sep 12 02:26:42 2026, MaxMem=  6442450944 cpu:               0.0 elap:               0.1
 (Enter C:\G16W\l302.exe)
 NPDir=0 NMtPBC=     1 NCelOv=     1 NCel=       1 NClECP=     1 NCelD=      1
         NCelK=      1 NCelE2=     1 NClLst=     1 CellRange=     0.0.
 One-electron integrals computed using PRISM.
   1 Symmetry operations used in ECPInt.
 ECPInt:  NShTT=    3486 NPrTT=   12877 LenC2=    3334 LenP2D=    9386.
 LDataN:  DoStor=T MaxTD1= 7 Len=  274
 NBasis=   191 RedAO= T EigKep=  2.64D-04  NBF=   191
 NBsUse=   191 1.00D-06 EigRej= -1.00D+00 NBFU=   191
 Precomputing XC quadrature grid using
 IXCGrd= 4 IRadAn=           5 IRanWt=          -1 IRanGd=           0 AccXCQ= 0.00D+00.
 Defaulting to unpruned grid for atomic number  47.
 Generated NRdTot=       0 NPtTot=           0 NUsed=           0 NTot=          32
 NSgBfM=   205   205   205   205   205 MxSgAt=    15 MxSgA2=    15.
 Leave Link  302 at Sat Sep 12 02:26:44 2026, MaxMem=  6442450944 cpu:               1.0 elap:               1.9
 (Enter C:\G16W\l303.exe)
 DipDrv:  MaxL=1.
 Leave Link  303 at Sat Sep 12 02:26:45 2026, MaxMem=  6442450944 cpu:               1.0 elap:               0.2
 (Enter C:\G16W\l401.exe)
 Initial guess from the checkpoint file:  "pDCNB.chk"
 B after Tr=    -0.066407    0.254838    0.070866
         Rot=    0.999906   -0.000592   -0.004214    0.013020 Ang=  -1.57 deg.
 Guess basis will be translated and rotated to current coordinates.
 JPrj=2 DoOrth=T DoCkMO=T.
 Initial guess <Sx>= 0.0000 <Sy>= 0.0000 <Sz>= 0.5000 <S**2>= 0.7513 S= 0.5007
 Leave Link  401 at Sat Sep 12 02:26:50 2026, MaxMem=  6442450944 cpu:               5.0 elap:               5.4
 (Enter C:\G16W\l502.exe)
 Two-electron integral symmetry not used.
 UHF open shell SCF:
 Using DIIS extrapolation, IDIIS=  1040.
 NGot=  6442450944 LenX=  6442362448 LenY=  6442319571
 Requested convergence on RMS density matrix=1.00D-08 within 128 cycles.
 Requested convergence on MAX density matrix=1.00D-06.
 Requested convergence on             energy=1.00D-06.
 No special actions if energy rises.
 Fock matrices will be formed incrementally for  20 cycles.

 Cycle   1  Pass 1  IDiag  1:
 FoFJK:  IHMeth= 1 ICntrl=       0 DoSepK=F KAlg= 0 I1Cent=           0 FoldK=F
 IRaf= 920000000 NMat=       1 IRICut=       1 DoRegI=T DoRafI=F ISym2E= 0 IDoP0=0 IntGTp=1.
 FoFCou: FMM=F IPFlag=           0 FMFlag=      100000 FMFlg1=           0
         NFxFlg=           0 DoJE=F BraDBF=F KetDBF=F FulRan=T
         wScrn=  0.000000 ICntrl=         0 IOpCl=  1 I1Cent=           0 NGrid=           0
         NMat0=    1 NMatS0=      1 NMatT0=    0 NMatD0=    1 NMtDS0=    0 NMtDT0=    0
 Symmetry not used in FoFCou.
 Defaulting to unpruned grid for atomic number  47.
 Defaulting to unpruned grid for atomic number  47.
 Defaulting to unpruned grid for atomic number  47.
 Defaulting to unpruned grid for atomic number  47.
 Defaulting to unpruned grid for atomic number  47.
 Defaulting to unpruned grid for atomic number  47.
 Defaulting to unpruned grid for atomic number  47.
 Defaulting to unpruned grid for atomic number  47.
 E= -562.874293162373    
 DIIS: error= 5.48D-03 at cycle   1 NSaved=   1.
 NSaved= 1 IEnMin= 1 EnMin= -562.874293162373     IErMin= 1 ErrMin= 5.48D-03
 ErrMax= 5.48D-03  0.00D+00 EMaxC= 1.00D-01 BMatC= 2.25D-02 BMatP= 2.25D-02
 IDIUse=3 WtCom= 9.45D-01 WtEn= 5.48D-02
 Coeff-Com:  0.100D+01
 Coeff-En:   0.100D+01
 Coeff:      0.100D+01
 Gap=     0.111 Goal=   None    Shift=    0.000
 Gap=     0.201 Goal=   None    Shift=    0.000
 GapD=    0.111 DampG=1.000 DampE=1.000 DampFc=1.0000 IDamp=-1.
 RMSDP=5.57D-04 MaxDP=2.16D-02              OVMax= 1.98D-02

 Cycle   2  Pass 1  IDiag  1:
 RMSU=  5.57D-04    CP:  1.00D+00
 E= -562.878224704025     Delta-E=       -0.003931541652 Rises=F Damp=F
 DIIS: error= 4.29D-04 at cycle   2 NSaved=   2.
 NSaved= 2 IEnMin= 2 EnMin= -562.878224704025     IErMin= 2 ErrMin= 4.29D-04
 ErrMax= 4.29D-04  0.00D+00 EMaxC= 1.00D-01 BMatC= 1.64D-04 BMatP= 2.25D-02
 IDIUse=3 WtCom= 9.96D-01 WtEn= 4.29D-03
 Coeff-Com: -0.221D-01 0.102D+01
 Coeff-En:   0.000D+00 0.100D+01
 Coeff:     -0.220D-01 0.102D+01
 Gap=     0.111 Goal=   None    Shift=    0.000
 Gap=     0.186 Goal=   None    Shift=    0.000
 RMSDP=9.61D-05 MaxDP=2.98D-03 DE=-3.93D-03 OVMax= 6.66D-03

 Cycle   3  Pass 1  IDiag  1:
 RMSU=  9.11D-05    CP:  9.99D-01  1.05D+00
 E= -562.878256180320     Delta-E=       -0.000031476295 Rises=F Damp=F
 DIIS: error= 4.28D-04 at cycle   3 NSaved=   3.
 NSaved= 3 IEnMin= 3 EnMin= -562.878256180320     IErMin= 3 ErrMin= 4.28D-04
 ErrMax= 4.28D-04  0.00D+00 EMaxC= 1.00D-01 BMatC= 1.51D-04 BMatP= 1.64D-04
 IDIUse=3 WtCom= 9.96D-01 WtEn= 4.28D-03
 Coeff-Com: -0.167D-01 0.511D+00 0.506D+00
 Coeff-En:   0.000D+00 0.177D+00 0.823D+00
 Coeff:     -0.166D-01 0.510D+00 0.507D+00
 Gap=     0.111 Goal=   None    Shift=    0.000
 Gap=     0.186 Goal=   None    Shift=    0.000
 RMSDP=4.07D-05 MaxDP=1.26D-03 DE=-3.15D-05 OVMax= 1.87D-03

 Cycle   4  Pass 1  IDiag  1:
 RMSU=  3.32D-05    CP:  9.99D-01  1.06D+00  7.60D-01
 E= -562.878282503340     Delta-E=       -0.000026323019 Rises=F Damp=F
 DIIS: error= 2.38D-04 at cycle   4 NSaved=   4.
 NSaved= 4 IEnMin= 4 EnMin= -562.878282503340     IErMin= 4 ErrMin= 2.38D-04
 ErrMax= 2.38D-04  0.00D+00 EMaxC= 1.00D-01 BMatC= 3.16D-05 BMatP= 1.51D-04
 IDIUse=3 WtCom= 9.98D-01 WtEn= 2.38D-03
 Coeff-Com: -0.827D-02 0.213D+00 0.320D+00 0.475D+00
 Coeff-En:   0.000D+00 0.000D+00 0.161D+00 0.839D+00
 Coeff:     -0.825D-02 0.212D+00 0.320D+00 0.476D+00
 Gap=     0.111 Goal=   None    Shift=    0.000
 Gap=     0.186 Goal=   None    Shift=    0.000
 RMSDP=1.62D-05 MaxDP=6.85D-04 DE=-2.63D-05 OVMax= 1.04D-03

 Cycle   5  Pass 1  IDiag  1:
 RMSU=  1.32D-05    CP:  9.99D-01  1.07D+00  8.03D-01  7.45D-01
 E= -562.878288769761     Delta-E=       -0.000006266421 Rises=F Damp=F
 DIIS: error= 9.90D-05 at cycle   5 NSaved=   5.
 NSaved= 5 IEnMin= 5 EnMin= -562.878288769761     IErMin= 5 ErrMin= 9.90D-05
 ErrMax= 9.90D-05  0.00D+00 EMaxC= 1.00D-01 BMatC= 5.56D-06 BMatP= 3.16D-05
 IDIUse=1 WtCom= 1.00D+00 WtEn= 0.00D+00
 Coeff-Com: -0.290D-03-0.209D-01 0.447D-01 0.312D+00 0.664D+00
 Coeff:     -0.290D-03-0.209D-01 0.447D-01 0.312D+00 0.664D+00
 Gap=     0.111 Goal=   None    Shift=    0.000
 Gap=     0.186 Goal=   None    Shift=    0.000
 RMSDP=7.40D-06 MaxDP=2.26D-04 DE=-6.27D-06 OVMax= 3.94D-04

 Cycle   6  Pass 1  IDiag  1:
 RMSU=  5.82D-06    CP:  9.99D-01  1.07D+00  8.35D-01  8.09D-01  8.02D-01
 E= -562.878290002036     Delta-E=       -0.000001232275 Rises=F Damp=F
 DIIS: error= 2.93D-05 at cycle   6 NSaved=   6.
 NSaved= 6 IEnMin= 6 EnMin= -562.878290002036     IErMin= 6 ErrMin= 2.93D-05
 ErrMax= 2.93D-05  0.00D+00 EMaxC= 1.00D-01 BMatC= 5.61D-07 BMatP= 5.56D-06
 IDIUse=1 WtCom= 1.00D+00 WtEn= 0.00D+00
 Coeff-Com:  0.431D-03-0.259D-01-0.348D-02 0.127D+00 0.360D+00 0.542D+00
 Coeff:      0.431D-03-0.259D-01-0.348D-02 0.127D+00 0.360D+00 0.542D+00
 Gap=     0.111 Goal=   None    Shift=    0.000
 Gap=     0.186 Goal=   None    Shift=    0.000
 RMSDP=2.82D-06 MaxDP=9.64D-05 DE=-1.23D-06 OVMax= 2.08D-04

 Cycle   7  Pass 1  IDiag  1:
 RMSU=  2.02D-06    CP:  9.99D-01  1.07D+00  8.40D-01  8.46D-01  8.38D-01
                    CP:  7.62D-01
 E= -562.878290152223     Delta-E=       -0.000000150187 Rises=F Damp=F
 DIIS: error= 5.97D-06 at cycle   7 NSaved=   7.
 NSaved= 7 IEnMin= 7 EnMin= -562.878290152223     IErMin= 7 ErrMin= 5.97D-06
 ErrMax= 5.97D-06  0.00D+00 EMaxC= 1.00D-01 BMatC= 2.62D-08 BMatP= 5.61D-07
 IDIUse=1 WtCom= 1.00D+00 WtEn= 0.00D+00
 Coeff-Com:  0.146D-03-0.450D-02-0.853D-02-0.440D-02 0.205D-01 0.144D+00
 Coeff-Com:  0.852D+00
 Coeff:      0.146D-03-0.450D-02-0.853D-02-0.440D-02 0.205D-01 0.144D+00
 Coeff:      0.852D+00
 Gap=     0.111 Goal=   None    Shift=    0.000
 Gap=     0.186 Goal=   None    Shift=    0.000
 RMSDP=1.16D-06 MaxDP=4.30D-05 DE=-1.50D-07 OVMax= 8.18D-05

 Cycle   8  Pass 1  IDiag  1:
 RMSU=  8.43D-07    CP:  9.99D-01  1.07D+00  8.41D-01  8.56D-01  8.64D-01
                    CP:  8.50D-01  1.17D+00
 E= -562.878290162467     Delta-E=       -0.000000010244 Rises=F Damp=F
 DIIS: error= 5.44D-06 at cycle   8 NSaved=   8.
 NSaved= 8 IEnMin= 8 EnMin= -562.878290162467     IErMin= 8 ErrMin= 5.44D-06
 ErrMax= 5.44D-06  0.00D+00 EMaxC= 1.00D-01 BMatC= 1.62D-08 BMatP= 2.62D-08
 IDIUse=1 WtCom= 1.00D+00 WtEn= 0.00D+00
 Coeff-Com: -0.114D-04 0.363D-02-0.551D-02-0.357D-01-0.740D-01-0.267D-01
 Coeff-Com:  0.551D+00 0.588D+00
 Coeff:     -0.114D-04 0.363D-02-0.551D-02-0.357D-01-0.740D-01-0.267D-01
 Coeff:      0.551D+00 0.588D+00
 Gap=     0.111 Goal=   None    Shift=    0.000
 Gap=     0.186 Goal=   None    Shift=    0.000
 RMSDP=6.29D-07 MaxDP=2.14D-05 DE=-1.02D-08 OVMax= 4.10D-05

 Cycle   9  Pass 1  IDiag  1:
 RMSU=  3.46D-07    CP:  9.99D-01  1.07D+00  8.43D-01  8.59D-01  8.69D-01
                    CP:  8.79D-01  1.37D+00  7.72D-01
 E= -562.878290168527     Delta-E=       -0.000000006060 Rises=F Damp=F
 DIIS: error= 2.48D-06 at cycle   9 NSaved=   9.
 NSaved= 9 IEnMin= 9 EnMin= -562.878290168527     IErMin= 9 ErrMin= 2.48D-06
 ErrMax= 2.48D-06  0.00D+00 EMaxC= 1.00D-01 BMatC= 2.19D-09 BMatP= 1.62D-08
 IDIUse=1 WtCom= 1.00D+00 WtEn= 0.00D+00
 Coeff-Com: -0.290D-04 0.258D-02-0.157D-02-0.172D-01-0.382D-01-0.294D-01
 Coeff-Com:  0.128D+00 0.300D+00 0.656D+00
 Coeff:     -0.290D-04 0.258D-02-0.157D-02-0.172D-01-0.382D-01-0.294D-01
 Coeff:      0.128D+00 0.300D+00 0.656D+00
 Gap=     0.111 Goal=   None    Shift=    0.000
 Gap=     0.186 Goal=   None    Shift=    0.000
 RMSDP=2.49D-07 MaxDP=9.60D-06 DE=-6.06D-09 OVMax= 1.92D-05

 Cycle  10  Pass 1  IDiag  1:
 RMSU=  1.87D-07    CP:  9.99D-01  1.07D+00  8.43D-01  8.59D-01  8.72D-01
                    CP:  8.97D-01  1.40D+00  8.85D-01  1.06D+00
 E= -562.878290169662     Delta-E=       -0.000000001135 Rises=F Damp=F
 DIIS: error= 1.77D-06 at cycle  10 NSaved=  10.
 NSaved=10 IEnMin=10 EnMin= -562.878290169662     IErMin=10 ErrMin= 1.77D-06
 ErrMax= 1.77D-06  0.00D+00 EMaxC= 1.00D-01 BMatC= 8.84D-10 BMatP= 2.19D-09
 IDIUse=1 WtCom= 1.00D+00 WtEn= 0.00D+00
 Coeff-Com: -0.156D-04 0.730D-03 0.414D-03-0.191D-02-0.553D-02-0.113D-01
 Coeff-Com: -0.600D-01 0.404D-01 0.418D+00 0.619D+00
 Coeff:     -0.156D-04 0.730D-03 0.414D-03-0.191D-02-0.553D-02-0.113D-01
 Coeff:     -0.600D-01 0.404D-01 0.418D+00 0.619D+00
 Gap=     0.111 Goal=   None    Shift=    0.000
 Gap=     0.186 Goal=   None    Shift=    0.000
 RMSDP=1.63D-07 MaxDP=7.22D-06 DE=-1.13D-09 OVMax= 1.55D-05

 Cycle  11  Pass 1  IDiag  1:
 RMSU=  1.07D-07    CP:  9.99D-01  1.07D+00  8.43D-01  8.59D-01  8.75D-01
                    CP:  9.04D-01  1.41D+00  9.53D-01  1.30D+00  1.17D+00
 E= -562.878290170229     Delta-E=       -0.000000000566 Rises=F Damp=F
 DIIS: error= 1.21D-06 at cycle  11 NSaved=  11.
 NSaved=11 IEnMin=11 EnMin= -562.878290170229     IErMin=11 ErrMin= 1.21D-06
 ErrMax= 1.21D-06  0.00D+00 EMaxC= 1.00D-01 BMatC= 3.84D-10 BMatP= 8.84D-10
 IDIUse=1 WtCom= 1.00D+00 WtEn= 0.00D+00
 Coeff-Com:  0.311D-06-0.530D-03 0.990D-03 0.557D-02 0.108D-01 0.202D-02
 Coeff-Com: -0.893D-01-0.960D-01 0.105D-01 0.436D+00 0.720D+00
 Coeff:      0.311D-06-0.530D-03 0.990D-03 0.557D-02 0.108D-01 0.202D-02
 Coeff:     -0.893D-01-0.960D-01 0.105D-01 0.436D+00 0.720D+00
 Gap=     0.111 Goal=   None    Shift=    0.000
 Gap=     0.186 Goal=   None    Shift=    0.000
 RMSDP=1.45D-07 MaxDP=6.33D-06 DE=-5.66D-10 OVMax= 1.44D-05

 Cycle  12  Pass 1  IDiag  1:
 RMSU=  7.13D-08    CP:  9.99D-01  1.07D+00  8.43D-01  8.60D-01  8.75D-01
                    CP:  9.05D-01  1.42D+00  9.84D-01  1.56D+00  1.57D+00
                    CP:  1.20D+00
 E= -562.878290170626     Delta-E=       -0.000000000397 Rises=F Damp=F
 DIIS: error= 7.55D-07 at cycle  12 NSaved=  12.
 NSaved=12 IEnMin=12 EnMin= -562.878290170626     IErMin=12 ErrMin= 7.55D-07
 ErrMax= 7.55D-07  0.00D+00 EMaxC= 1.00D-01 BMatC= 1.31D-10 BMatP= 3.84D-10
 IDIUse=1 WtCom= 1.00D+00 WtEn= 0.00D+00
 Coeff-Com:  0.909D-05-0.743D-03 0.465D-03 0.448D-02 0.910D-02 0.522D-02
 Coeff-Com: -0.199D-01-0.809D-01-0.223D+00-0.788D-01 0.403D+00 0.981D+00
 Coeff:      0.909D-05-0.743D-03 0.465D-03 0.448D-02 0.910D-02 0.522D-02
 Coeff:     -0.199D-01-0.809D-01-0.223D+00-0.788D-01 0.403D+00 0.981D+00
 Gap=     0.111 Goal=   None    Shift=    0.000
 Gap=     0.186 Goal=   None    Shift=    0.000
 RMSDP=1.53D-07 MaxDP=6.23D-06 DE=-3.97D-10 OVMax= 1.61D-05

 Cycle  13  Pass 1  IDiag  1:
 RMSU=  3.86D-08    CP:  9.99D-01  1.07D+00  8.43D-01  8.60D-01  8.75D-01
                    CP:  9.05D-01  1.43D+00  1.03D+00  1.77D+00  2.06D+00
                    CP:  1.86D+00  1.52D+00
 E= -562.878290170904     Delta-E=       -0.000000000278 Rises=F Damp=F
 DIIS: error= 3.60D-07 at cycle  13 NSaved=  13.
 NSaved=13 IEnMin=13 EnMin= -562.878290170904     IErMin=13 ErrMin= 3.60D-07
 ErrMax= 3.60D-07  0.00D+00 EMaxC= 1.00D-01 BMatC= 2.71D-11 BMatP= 1.31D-10
 IDIUse=1 WtCom= 1.00D+00 WtEn= 0.00D+00
 Coeff-Com:  0.155D-05 0.120D-03-0.330D-03-0.156D-02-0.297D-02 0.286D-03
 Coeff-Com:  0.357D-01 0.329D-01-0.340D-01-0.216D+00-0.283D+00 0.111D+00
 Coeff-Com:  0.136D+01
 Coeff:      0.155D-05 0.120D-03-0.330D-03-0.156D-02-0.297D-02 0.286D-03
 Coeff:      0.357D-01 0.329D-01-0.340D-01-0.216D+00-0.283D+00 0.111D+00
 Coeff:      0.136D+01
 Gap=     0.111 Goal=   None    Shift=    0.000
 Gap=     0.186 Goal=   None    Shift=    0.000
 RMSDP=1.26D-07 MaxDP=4.88D-06 DE=-2.78D-10 OVMax= 1.40D-05

 Cycle  14  Pass 1  IDiag  1:
 RMSU=  2.03D-08    CP:  9.99D-01  1.07D+00  8.43D-01  8.60D-01  8.75D-01
                    CP:  9.06D-01  1.43D+00  1.05D+00  1.94D+00  2.42D+00
                    CP:  2.42D+00  2.30D+00  1.56D+00
 E= -562.878290170989     Delta-E=       -0.000000000085 Rises=F Damp=F
 DIIS: error= 1.14D-07 at cycle  14 NSaved=  14.
 NSaved=14 IEnMin=14 EnMin= -562.878290170989     IErMin=14 ErrMin= 1.14D-07
 ErrMax= 1.14D-07  0.00D+00 EMaxC= 1.00D-01 BMatC= 4.40D-12 BMatP= 2.71D-11
 IDIUse=1 WtCom= 1.00D+00 WtEn= 0.00D+00
 Coeff-Com: -0.865D-06 0.139D-03-0.197D-03-0.116D-02-0.210D-02-0.342D-03
 Coeff-Com:  0.121D-01 0.210D-01 0.226D-01-0.518D-01-0.139D+00-0.106D+00
 Coeff-Com:  0.431D+00 0.814D+00
 Coeff:     -0.865D-06 0.139D-03-0.197D-03-0.116D-02-0.210D-02-0.342D-03
 Coeff:      0.121D-01 0.210D-01 0.226D-01-0.518D-01-0.139D+00-0.106D+00
 Coeff:      0.431D+00 0.814D+00
 Gap=     0.111 Goal=   None    Shift=    0.000
 Gap=     0.186 Goal=   None    Shift=    0.000
 RMSDP=2.25D-08 MaxDP=1.00D-06 DE=-8.55D-11 OVMax= 2.60D-06

 Cycle  15  Pass 1  IDiag  1:
 RMSU=  8.35D-09    CP:  9.99D-01  1.07D+00  8.43D-01  8.60D-01  8.75D-01
                    CP:  9.06D-01  1.43D+00  1.05D+00  1.97D+00  2.47D+00
                    CP:  2.51D+00  2.42D+00  1.78D+00  1.17D+00
 E= -562.878290170998     Delta-E=       -0.000000000008 Rises=F Damp=F
 DIIS: error= 5.47D-08 at cycle  15 NSaved=  15.
 NSaved=15 IEnMin=15 EnMin= -562.878290170998     IErMin=15 ErrMin= 5.47D-08
 ErrMax= 5.47D-08  0.00D+00 EMaxC= 1.00D-01 BMatC= 1.18D-12 BMatP= 4.40D-12
 IDIUse=1 WtCom= 1.00D+00 WtEn= 0.00D+00
 Coeff-Com: -0.730D-06 0.263D-04-0.115D-04-0.102D-03-0.103D-03-0.668D-04
 Coeff-Com: -0.402D-02 0.868D-05 0.172D-01 0.324D-01 0.142D-01-0.683D-01
 Coeff-Com: -0.153D+00 0.291D+00 0.871D+00
 Coeff:     -0.730D-06 0.263D-04-0.115D-04-0.102D-03-0.103D-03-0.668D-04
 Coeff:     -0.402D-02 0.868D-05 0.172D-01 0.324D-01 0.142D-01-0.683D-01
 Coeff:     -0.153D+00 0.291D+00 0.871D+00
 Gap=     0.111 Goal=   None    Shift=    0.000
 Gap=     0.186 Goal=   None    Shift=    0.000
 RMSDP=8.95D-09 MaxDP=3.95D-07 DE=-8.19D-12 OVMax= 1.04D-06

 SCF Done:  E(UPBE1PBE) =  -562.878290171     A.U. after   15 cycles
            NFock= 15  Conv=0.90D-08     -V/T= 2.2013
 <Sx>= 0.0000 <Sy>= 0.0000 <Sz>= 0.5000 <S**2>= 0.7513 S= 0.5006
 <L.S>= 0.000000000000E+00
 KE= 4.685690380845D+02 PE=-2.358077762507D+03 EE= 7.884048130162D+02
 Annihilation of the first spin contaminant:
 S**2 before annihilation     0.7513,   after     0.7500
 Leave Link  502 at Sat Sep 12 02:28:04 2026, MaxMem=  6442450944 cpu:              74.0 elap:              73.7
 (Enter C:\G16W\l508.exe)
 QCSCF skips out because SCF is already converged.
 Leave Link  508 at Sat Sep 12 02:28:05 2026, MaxMem=  6442450944 cpu:               1.0 elap:               0.5
 (Enter C:\G16W\l601.exe)
 Copying SCF densities to generalized density rwf, IOpCl= 1 IROHF=0.

 **********************************************************************

            Population analysis using the SCF Density.

 **********************************************************************

 Alpha  occ. eigenvalues --  -14.40817 -14.40767 -10.31333 -10.31328 -10.29219
 Alpha  occ. eigenvalues --  -10.29187 -10.29167 -10.29121 -10.28956 -10.28907
 Alpha  occ. eigenvalues --   -3.77586  -2.35615  -2.35533  -2.35531  -0.95898
 Alpha  occ. eigenvalues --   -0.94888  -0.92882  -0.84778  -0.82204  -0.72930
 Alpha  occ. eigenvalues --   -0.68186  -0.61577  -0.59714  -0.54135  -0.50367
 Alpha  occ. eigenvalues --   -0.49139  -0.46254  -0.45143  -0.42331  -0.41776
 Alpha  occ. eigenvalues --   -0.39178  -0.38912  -0.37206  -0.37194  -0.37124
 Alpha  occ. eigenvalues --   -0.35173  -0.35165  -0.35087  -0.35074  -0.35074
 Alpha  occ. eigenvalues --   -0.32195  -0.30182  -0.20618
 Alpha virt. eigenvalues --   -0.09505  -0.05313  -0.02156  -0.02017  -0.01585
 Alpha virt. eigenvalues --    0.02233   0.02891   0.03511   0.05713   0.08143
 Alpha virt. eigenvalues --    0.10171   0.11038   0.12646   0.15535   0.15876
 Alpha virt. eigenvalues --    0.16187   0.19096   0.21323   0.24802   0.25192
 Alpha virt. eigenvalues --    0.26959   0.28649   0.31163   0.31798   0.33597
 Alpha virt. eigenvalues --    0.34754   0.36315   0.37858   0.39795   0.41398
 Alpha virt. eigenvalues --    0.42895   0.43351   0.43873   0.44342   0.45189
 Alpha virt. eigenvalues --    0.46934   0.47544   0.49952   0.51848   0.53081
 Alpha virt. eigenvalues --    0.53748   0.56686   0.58313   0.58476   0.59720
 Alpha virt. eigenvalues --    0.63037   0.63538   0.64648   0.64913   0.65409
 Alpha virt. eigenvalues --    0.66498   0.67514   0.68086   0.68929   0.69568
 Alpha virt. eigenvalues --    0.71667   0.72122   0.79293   0.82224   0.82517
 Alpha virt. eigenvalues --    0.85694   0.86057   0.87812   0.89695   0.90149
 Alpha virt. eigenvalues --    0.92346   0.95282   1.01321   1.02013   1.07611
 Alpha virt. eigenvalues --    1.09202   1.12526   1.13835   1.18479   1.20026
 Alpha virt. eigenvalues --    1.20496   1.25115   1.25931   1.28424   1.30314
 Alpha virt. eigenvalues --    1.33486   1.39183   1.49823   1.56464   1.57273
 Alpha virt. eigenvalues --    1.59312   1.60079   1.64242   1.64971   1.70595
 Alpha virt. eigenvalues --    1.71364   1.72211   1.73322   1.76890   1.78683
 Alpha virt. eigenvalues --    1.80393   1.85303   1.86095   1.90384   1.91711
 Alpha virt. eigenvalues --    1.92189   1.94789   1.96067   1.96303   2.02089
 Alpha virt. eigenvalues --    2.05099   2.09942   2.11042   2.14307   2.21013
 Alpha virt. eigenvalues --    2.24540   2.25599   2.26390   2.27189   2.27867
 Alpha virt. eigenvalues --    2.29396   2.31163   2.31449   2.33508   2.34978
 Alpha virt. eigenvalues --    2.47069   2.59536   2.59798   2.59819   2.59820
 Alpha virt. eigenvalues --    2.59849   2.59860   2.59860   2.60295   2.61619
 Alpha virt. eigenvalues --    2.62256   2.62419   2.73825   2.83612   2.84536
 Alpha virt. eigenvalues --    2.86037   2.86850   2.97968   3.02142   3.03587
 Alpha virt. eigenvalues --    3.05981   3.15582   3.19761   3.37247   3.41743
 Alpha virt. eigenvalues --    3.54187   3.73862  53.78287
  Beta  occ. eigenvalues --  -14.40816 -14.40767 -10.31333 -10.31327 -10.29218
  Beta  occ. eigenvalues --  -10.29183 -10.29166 -10.29071 -10.28955 -10.28907
  Beta  occ. eigenvalues --   -3.77466  -2.35578  -2.35505  -2.35504  -0.95889
  Beta  occ. eigenvalues --   -0.94885  -0.92870  -0.84767  -0.82172  -0.72921
  Beta  occ. eigenvalues --   -0.68147  -0.61522  -0.59697  -0.54121  -0.50295
  Beta  occ. eigenvalues --   -0.49075  -0.46246  -0.45111  -0.42278  -0.41774
  Beta  occ. eigenvalues --   -0.39177  -0.38909  -0.37201  -0.37185  -0.37104
  Beta  occ. eigenvalues --   -0.34505  -0.34497  -0.34446  -0.34399  -0.34398
  Beta  occ. eigenvalues --   -0.32173  -0.30177
  Beta virt. eigenvalues --   -0.11588  -0.09481  -0.05246   0.00643   0.00926
  Beta virt. eigenvalues --    0.01226   0.02294   0.02921   0.03516   0.05976
  Beta virt. eigenvalues --    0.09453   0.11003   0.11058   0.13108   0.15672
  Beta virt. eigenvalues --    0.16158   0.16979   0.19540   0.21604   0.24919
  Beta virt. eigenvalues --    0.25299   0.27198   0.28730   0.33605   0.34179
  Beta virt. eigenvalues --    0.34858   0.35438   0.36694   0.38321   0.40976
  Beta virt. eigenvalues --    0.42104   0.43648   0.44207   0.45073   0.46212
  Beta virt. eigenvalues --    0.46693   0.47253   0.47842   0.50758   0.52300
  Beta virt. eigenvalues --    0.53124   0.53907   0.57323   0.58336   0.58555
  Beta virt. eigenvalues --    0.60372   0.63053   0.63550   0.64668   0.65069
  Beta virt. eigenvalues --    0.65457   0.66645   0.67526   0.68105   0.68980
  Beta virt. eigenvalues --    0.69663   0.71713   0.72307   0.79392   0.82257
  Beta virt. eigenvalues --    0.82575   0.85708   0.86065   0.87889   0.89698
  Beta virt. eigenvalues --    0.90258   0.92430   0.95414   1.01325   1.02032
  Beta virt. eigenvalues --    1.07611   1.09235   1.12530   1.13851   1.18489
  Beta virt. eigenvalues --    1.20032   1.20547   1.25140   1.25939   1.28470
  Beta virt. eigenvalues --    1.30324   1.33492   1.39191   1.49849   1.56468
  Beta virt. eigenvalues --    1.57278   1.59313   1.60080   1.64248   1.64986
  Beta virt. eigenvalues --    1.70624   1.71380   1.72217   1.73331   1.76908
  Beta virt. eigenvalues --    1.78717   1.80399   1.85324   1.86113   1.90427
  Beta virt. eigenvalues --    1.91753   1.92201   1.94885   1.96080   1.96325
  Beta virt. eigenvalues --    2.03144   2.05223   2.09956   2.11056   2.14330
  Beta virt. eigenvalues --    2.21019   2.24554   2.25603   2.26409   2.27191
  Beta virt. eigenvalues --    2.27879   2.29405   2.31181   2.31453   2.33543
  Beta virt. eigenvalues --    2.35004   2.47095   2.59563   2.59834   2.59858
  Beta virt. eigenvalues --    2.59859   2.59885   2.59907   2.59907   2.60316
  Beta virt. eigenvalues --    2.61645   2.62272   2.62431   2.73873   2.83620
  Beta virt. eigenvalues --    2.84563   2.86079   2.86894   2.97976   3.02143
  Beta virt. eigenvalues --    3.03589   3.05993   3.15632   3.19767   3.37262
  Beta virt. eigenvalues --    3.41756   3.54189   3.73885  53.78452
          Condensed to atoms (all electrons):
               1          2          3          4          5          6
     1  N    6.080671   0.927475  -0.031165  -0.001774   0.000019   0.000029
     2  C    0.927475   5.003399   0.314745  -0.084856   0.014072   0.002353
     3  C   -0.031165   0.314745   5.341703   0.284206   0.089648  -0.158722
     4  C   -0.001774  -0.084856   0.284206   4.976041   0.323344   0.091911
     5  C    0.000019   0.014072   0.089648   0.323344   4.982541   0.283560
     6  C    0.000029   0.002353  -0.158722   0.091911   0.283560   5.323061
     7  C    0.000000   0.000198   0.001939   0.014892  -0.090497   0.327841
     8  N    0.000000   0.000000   0.000028   0.000021  -0.001742  -0.028218
     9  C    0.000016   0.013908   0.091855  -0.141146   0.085772   0.286615
    10  C   -0.001856  -0.086084   0.287494   0.084953  -0.138096   0.089906
    11  H   -0.000177  -0.019560  -0.059697   0.460841  -0.063626   0.014343
    12  H   -0.000002  -0.000421   0.014537  -0.064460   0.461650  -0.059707
    13  H   -0.000002  -0.000392   0.015425  -0.002202   0.013526  -0.061068
    14  H   -0.000114  -0.018737  -0.061691   0.012623  -0.001748   0.015091
    15  Ag   0.000003   0.000051  -0.000272   0.000122  -0.000482   0.000585
               7          8          9         10         11         12
     1  N    0.000000   0.000000   0.000016  -0.001856  -0.000177  -0.000002
     2  C    0.000198   0.000000   0.013908  -0.086084  -0.019560  -0.000421
     3  C    0.001939   0.000028   0.091855   0.287494  -0.059697   0.014537
     4  C    0.014892   0.000021  -0.141146   0.084953   0.460841  -0.064460
     5  C   -0.090497  -0.001742   0.085772  -0.138096  -0.063626   0.461650
     6  C    0.327841  -0.028218   0.286615   0.089906   0.014343  -0.059707
     7  C    5.019668   0.903558  -0.091811   0.015486  -0.000426  -0.020359
     8  N    0.903558   6.103773  -0.001981   0.000025  -0.000002  -0.000261
     9  C   -0.091811  -0.001981   5.002542   0.320299  -0.001449   0.013070
    10  C    0.015486   0.000025   0.320299   4.978275   0.012564  -0.001606
    11  H   -0.000426  -0.000002  -0.001449   0.012564   0.627593  -0.010367
    12  H   -0.020359  -0.000261   0.013070  -0.001606  -0.010367   0.628626
    13  H   -0.024852  -0.000756   0.452524  -0.071978   0.000031  -0.000085
    14  H   -0.000329  -0.000002  -0.065361   0.462156  -0.000150   0.000027
    15  Ag   0.003573   0.002795  -0.022348   0.001823  -0.000002  -0.000027
              13         14         15
     1  N   -0.000002  -0.000114   0.000003
     2  C   -0.000392  -0.018737   0.000051
     3  C    0.015425  -0.061691  -0.000272
     4  C   -0.002202   0.012623   0.000122
     5  C    0.013526  -0.001748  -0.000482
     6  C   -0.061068   0.015091   0.000585
     7  C   -0.024852  -0.000329   0.003573
     8  N   -0.000756  -0.000002   0.002795
     9  C    0.452524  -0.065361  -0.022348
    10  C   -0.071978   0.462156   0.001823
    11  H    0.000031  -0.000150  -0.000002
    12  H   -0.000085   0.000027  -0.000027
    13  H    0.651664  -0.012464   0.024533
    14  H   -0.012464   0.626368   0.003094
    15  Ag   0.024533   0.003094  18.982019
          Atomic-Atomic Spin Densities.
               1          2          3          4          5          6
     1  N    0.000321   0.000019  -0.000114  -0.000003  -0.000001   0.000001
     2  C    0.000019   0.001057  -0.001133  -0.000105  -0.000132   0.000155
     3  C   -0.000114  -0.001133   0.002184  -0.000235   0.000424  -0.000492
     4  C   -0.000003  -0.000105  -0.000235  -0.000020   0.000028  -0.000028
     5  C   -0.000001  -0.000132   0.000424   0.000028   0.005658  -0.002676
     6  C    0.000001   0.000155  -0.000492  -0.000028  -0.002676   0.003476
     7  C    0.000000   0.000005  -0.000040  -0.000011  -0.002263  -0.000127
     8  N    0.000000   0.000000   0.000000   0.000000  -0.000039  -0.000090
     9  C   -0.000002  -0.000147   0.000948   0.000032   0.001854  -0.003073
    10  C   -0.000015  -0.000102   0.000209   0.000172  -0.000959   0.001791
    11  H   -0.000001  -0.000010   0.000028   0.000003   0.000019  -0.000018
    12  H    0.000000   0.000006  -0.000005  -0.000030  -0.000468   0.000148
    13  H    0.000000   0.000016  -0.000056  -0.000032  -0.000108   0.000524
    14  H    0.000022   0.000233  -0.000592  -0.000007  -0.000089   0.000241
    15  Ag   0.000007   0.000109  -0.000366  -0.000023  -0.000583   0.000559
               7          8          9         10         11         12
     1  N    0.000000   0.000000  -0.000002  -0.000015  -0.000001   0.000000
     2  C    0.000005   0.000000  -0.000147  -0.000102  -0.000010   0.000006
     3  C   -0.000040   0.000000   0.000948   0.000209   0.000028  -0.000005
     4  C   -0.000011   0.000000   0.000032   0.000172   0.000003  -0.000030
     5  C   -0.002263  -0.000039   0.001854  -0.000959   0.000019  -0.000468
     6  C   -0.000127  -0.000090  -0.003073   0.001791  -0.000018   0.000148
     7  C    0.004099  -0.000395  -0.003145   0.000340  -0.000001   0.000233
     8  N   -0.000395   0.001041  -0.000009   0.000000   0.000000   0.000006
     9  C   -0.003145  -0.000009   0.043798  -0.003132   0.000003  -0.000061
    10  C    0.000340   0.000000  -0.003132   0.000424  -0.000009   0.000022
    11  H   -0.000001   0.000000   0.000003  -0.000009  -0.000022  -0.000002
    12  H    0.000233   0.000006  -0.000061   0.000022  -0.000002   0.000325
    13  H   -0.000013  -0.000009  -0.002350  -0.000171   0.000000   0.000006
    14  H    0.000026   0.000000  -0.001636  -0.000210   0.000000   0.000002
    15  Ag   0.001552   0.000007  -0.023332   0.000482   0.000000   0.000030
              13         14         15
     1  N    0.000000   0.000022   0.000007
     2  C    0.000016   0.000233   0.000109
     3  C   -0.000056  -0.000592  -0.000366
     4  C   -0.000032  -0.000007  -0.000023
     5  C   -0.000108  -0.000089  -0.000583
     6  C    0.000524   0.000241   0.000559
     7  C   -0.000013   0.000026   0.001552
     8  N   -0.000009   0.000000   0.000007
     9  C   -0.002350  -0.001636  -0.023332
    10  C   -0.000171  -0.000210   0.000482
    11  H    0.000000   0.000000   0.000000
    12  H    0.000006   0.000002   0.000030
    13  H   -0.001580   0.000066   0.009771
    14  H    0.000066   0.001363   0.002174
    15  Ag   0.009771   0.002174   0.990632
 Mulliken charges and spin densities:
               1          2
     1  N    0.026876   0.000235
     2  C   -0.066151  -0.000028
     3  C   -0.130033   0.000761
     4  C    0.045485  -0.000259
     5  C    0.042058   0.000664
     6  C   -0.127579   0.000390
     7  C   -0.058881   0.000259
     8  N    0.022760   0.000512
     9  C    0.057494   0.009749
    10  C    0.046640  -0.001158
    11  H    0.040083  -0.000009
    12  H    0.039384   0.000212
    13  H    0.016096   0.006063
    14  H    0.041235   0.001591
    15  Ag   0.004534   0.981018
 Sum of Mulliken charges =   0.00000   1.00000
 Mulliken charges and spin densities with hydrogens summed into heavy atoms:
               1          2
     1  N    0.026876   0.000235
     2  C   -0.066151  -0.000028
     3  C   -0.130033   0.000761
     4  C    0.085569  -0.000268
     5  C    0.081442   0.000876
     6  C   -0.127579   0.000390
     7  C   -0.058881   0.000259
     8  N    0.022760   0.000512
     9  C    0.073589   0.015811
    10  C    0.087875   0.000433
    15  Ag   0.004534   0.981018
 Electronic spatial extent (au):  <R**2>=           3341.4209
 Charge=              0.0000 electrons
 Dipole moment (field-independent basis, Debye):
    X=             -0.2063    Y=              0.0844    Z=              0.0936  Tot=              0.2418
 Quadrupole moment (field-independent basis, Debye-Ang):
   XX=           -108.9271   YY=            -66.2352   ZZ=            -77.4242
   XY=             -2.7654   XZ=             -2.7660   YZ=              1.3854
 Traceless Quadrupole moment (field-independent basis, Debye-Ang):
   XX=            -24.7316   YY=             17.9604   ZZ=              6.7713
   XY=             -2.7654   XZ=             -2.7660   YZ=              1.3854
 Octapole moment (field-independent basis, Debye-Ang**2):
  XXX=            134.7341  YYY=           -252.8566  ZZZ=            -67.1543  XYY=             40.0938
  XXY=            -81.3001  XXZ=            -20.9194  XZZ=             45.2651  YZZ=            -85.0474
  YYZ=            -19.9325  XYZ=             -2.2172
 Hexadecapole moment (field-independent basis, Debye-Ang**3):
 XXXX=          -3223.9138 YYYY=          -2481.2949 ZZZZ=           -248.4456 XXXY=            520.3528
 XXXZ=             35.3778 YYYX=            537.7490 YYYZ=           -286.0710 ZZZX=             93.6889
 ZZZY=           -302.9908 XXYY=           -794.8260 XXZZ=           -451.9394 YYZZ=           -466.1379
 XXYZ=            -94.3030 YYXZ=             22.9146 ZZXY=            185.9076
 N-N= 5.382256212357D+02 E-N=-2.358077761659D+03  KE= 4.685690380845D+02
                          Isotropic Fermi Contact Couplings
        Atom                 a.u.       MegaHertz       Gauss      10(-4) cm-1
     1  N(14)              0.00007       0.02113       0.00754       0.00705
     2  C(13)              0.00019       0.21748       0.07760       0.07254
     3  C(13)              0.00049       0.54820       0.19561       0.18286
     4  C(13)              0.00012       0.13921       0.04968       0.04644
     5  C(13)              0.00107       1.20692       0.43066       0.40258
     6  C(13)             -0.00057      -0.63991      -0.22834      -0.21345
     7  C(13)              0.00028       0.30947       0.11043       0.10323
     8  N(14)              0.00054       0.17521       0.06252       0.05844
     9  C(13)              0.02693      30.27504      10.80289      10.09867
    10  C(13)             -0.00095      -1.07285      -0.38282      -0.35786
    11  H(1)               0.00000      -0.01437      -0.00513      -0.00479
    12  H(1)               0.00006       0.25632       0.09146       0.08550
    13  H(1)              -0.00065      -2.91784      -1.04116      -0.97329
    14  H(1)               0.00007       0.30741       0.10969       0.10254
    15  Ag(107             0.00034      -0.06247      -0.02229      -0.02084
 --------------------------------------------------------
       Center         ----  Spin Dipole Couplings  ----
                      3XX-RR        3YY-RR        3ZZ-RR
 --------------------------------------------------------
     1   Atom        0.000202     -0.000016     -0.000186
     2   Atom        0.000625      0.000001     -0.000626
     3   Atom        0.000104      0.000442     -0.000546
     4   Atom       -0.000085      0.000957     -0.000872
     5   Atom       -0.000811      0.001620     -0.000809
     6   Atom       -0.001120      0.003925     -0.002806
     7   Atom       -0.001071      0.002272     -0.001202
     8   Atom       -0.000951      0.003077     -0.002126
     9   Atom       -0.004570      0.017245     -0.012675
    10   Atom        0.002185      0.000553     -0.002737
    11   Atom       -0.000091      0.000466     -0.000375
    12   Atom       -0.000482      0.000989     -0.000507
    13   Atom       -0.004672      0.012864     -0.008192
    14   Atom        0.002307     -0.000313     -0.001994
    15   Atom       -0.000771      0.001320     -0.000549
 --------------------------------------------------------
                        XY            XZ            YZ
 --------------------------------------------------------
     1   Atom       -0.000362     -0.000014      0.000230
     2   Atom       -0.000653     -0.000096      0.000112
     3   Atom       -0.001386     -0.000461      0.000590
     4   Atom       -0.000811     -0.000131      0.000121
     5   Atom       -0.001133     -0.000109      0.000268
     6   Atom        0.000719     -0.000712      0.000035
     7   Atom        0.000364     -0.000058      0.001378
     8   Atom        0.001633      0.000380      0.000449
     9   Atom       -0.019150     -0.001896      0.002960
    10   Atom       -0.001937      0.000496      0.001575
    11   Atom       -0.000477     -0.000074      0.000129
    12   Atom       -0.000180     -0.000027      0.000307
    13   Atom       -0.012284     -0.003506      0.007473
    14   Atom       -0.002517     -0.000975      0.000649
    15   Atom       -0.002582     -0.001734      0.002835
 --------------------------------------------------------


 ---------------------------------------------------------------------------------
              Anisotropic Spin Dipole Couplings in Principal Axis System
 ---------------------------------------------------------------------------------

       Atom             a.u.   MegaHertz   Gauss  10(-4) cm-1        Axes

              Baa    -0.0004    -0.016    -0.006    -0.006  0.3772  0.6816 -0.6270
     1 N(14)  Bbb    -0.0001    -0.003    -0.001    -0.001  0.5410  0.3873  0.7465
              Bcc     0.0005     0.019     0.007     0.006  0.7517 -0.6209 -0.2226
 
              Baa    -0.0006    -0.087    -0.031    -0.029 -0.0273 -0.1977  0.9799
     2 C(13)  Bbb    -0.0004    -0.054    -0.019    -0.018  0.5394  0.8224  0.1810
              Bcc     0.0010     0.141     0.050     0.047  0.8416 -0.5335 -0.0842
 
              Baa    -0.0011    -0.151    -0.054    -0.051  0.7223  0.6815 -0.1175
     3 C(13)  Bbb    -0.0008    -0.103    -0.037    -0.034  0.2837 -0.1371  0.9491
              Bcc     0.0019     0.255     0.091     0.085 -0.6307  0.7189  0.2924
 
              Baa    -0.0009    -0.120    -0.043    -0.040  0.1697  0.0101  0.9854
     4 C(13)  Bbb    -0.0005    -0.070    -0.025    -0.023  0.8607  0.4855 -0.1532
              Bcc     0.0014     0.190     0.068     0.063 -0.4799  0.8742  0.0737
 
              Baa    -0.0013    -0.169    -0.060    -0.056  0.9306  0.3659  0.0079
     5 C(13)  Bbb    -0.0008    -0.112    -0.040    -0.038  0.0289 -0.0950  0.9951
              Bcc     0.0021     0.281     0.100     0.094 -0.3648  0.9258  0.0990
 
              Baa    -0.0031    -0.413    -0.147    -0.138  0.3549 -0.0411  0.9340
     6 C(13)  Bbb    -0.0009    -0.127    -0.045    -0.042  0.9244 -0.1338 -0.3572
              Bcc     0.0040     0.540     0.193     0.180  0.1396  0.9902 -0.0094
 
              Baa    -0.0017    -0.232    -0.083    -0.077  0.2652 -0.3353  0.9040
     7 C(13)  Bbb    -0.0010    -0.141    -0.050    -0.047  0.9605  0.0100 -0.2780
              Bcc     0.0028     0.373     0.133     0.124  0.0842  0.9421  0.3247
 
              Baa    -0.0022    -0.086    -0.031    -0.029 -0.2941  0.0097  0.9557
     8 N(14)  Bbb    -0.0015    -0.057    -0.020    -0.019  0.8947 -0.3489  0.2789
              Bcc     0.0037     0.143     0.051     0.048  0.3361  0.9371  0.0940
 
              Baa    -0.0157    -2.108    -0.752    -0.703  0.8654  0.4980  0.0550
     9 C(13)  Bbb    -0.0130    -1.740    -0.621    -0.580 -0.0052 -0.1008  0.9949
              Bcc     0.0287     3.848     1.373     1.284 -0.5010  0.8613  0.0846
 
              Baa    -0.0036    -0.488    -0.174    -0.163 -0.2180 -0.4303  0.8760
    10 C(13)  Bbb     0.0001     0.017     0.006     0.006  0.5394  0.6949  0.4756
              Bcc     0.0035     0.471     0.168     0.157  0.8134 -0.5761 -0.0807
 
              Baa    -0.0004    -0.211    -0.075    -0.070  0.0538 -0.1192  0.9914
    11 H(1)   Bbb    -0.0004    -0.195    -0.069    -0.065  0.8679  0.4965  0.0126
              Bcc     0.0008     0.405     0.145     0.135 -0.4937  0.8598  0.1302
 
              Baa    -0.0006    -0.303    -0.108    -0.101 -0.1191 -0.2051  0.9715
    12 H(1)   Bbb    -0.0005    -0.268    -0.096    -0.089  0.9860  0.0904  0.1400
              Bcc     0.0011     0.571     0.204     0.191 -0.1165  0.9745  0.1915
 
              Baa    -0.0111    -5.938    -2.119    -1.981  0.7600  0.5133 -0.3986
    13 H(1)   Bbb    -0.0104    -5.524    -1.971    -1.842  0.4794 -0.0287  0.8771
              Bcc     0.0215    11.461     4.090     3.823 -0.4388  0.8577  0.2679
 
              Baa    -0.0022    -1.188    -0.424    -0.396  0.0969 -0.2030  0.9744
    14 H(1)   Bbb    -0.0018    -0.979    -0.349    -0.326  0.5361  0.8355  0.1208
              Bcc     0.0041     2.167     0.773     0.723  0.8386 -0.5107 -0.1898
 
              Baa    -0.0026     0.057     0.020     0.019  0.3693  0.6877 -0.6251
    15 Ag(107 Bbb    -0.0024     0.052     0.019     0.017  0.8005  0.1063  0.5898
              Bcc     0.0050    -0.109    -0.039    -0.036 -0.4720  0.7182  0.5113
 

 ---------------------------------------------------------------------------------

 No NMR shielding tensors so no spin-rotation constants.
 Leave Link  601 at Sat Sep 12 02:28:06 2026, MaxMem=  6442450944 cpu:               1.0 elap:               1.3
 (Enter C:\G16W\l9999.exe)
 Unable to Open any file for archive entry.
 1|1|UNPC-DESKTOP-2JKEGCA|SP|UPBE1PBE|def2SVP|C8H4Ag1N2(2)|JHKIM|12-Sep
 -2026|0||#P PBE1PBE/Def2SVP EmpiricalDispersion=GD3BJ SP SCF=(XQC,MaxC
 ycle=128) NoSymm Guess=Read||pDCNB t=0.833 dz=+0.40 class=site2site||0
 ,2|N,0,3.931702,0.144186,0.275285|C,0,2.789514,0.102334,0.195267|C,0,1
 .37857,0.050557,0.096627|C,0,0.739202,-1.181159,-0.060221|C,0,-0.63553
 1,-1.231584,-0.156484|C,0,-1.378585,-0.050574,-0.096444|C,0,-2.789474,
 -0.10226,-0.195902|N,0,-3.931683,-0.144185,-0.275406|C,0,-0.739218,1.1
 81139,0.060434|C,0,0.635515,1.231563,0.156697|H,0,1.326442,-2.086139,-
 0.105102|H,0,-1.143254,-2.176721,-0.27808|H,0,-1.326448,2.086131,0.105
 176|H,0,1.143247,2.176713,0.278153|Ag,0,-2.31071775,4.30191943,1.12819
 502||Version=EM64W-G16RevC.01|HF=-562.8782902|S2=0.75127|S2-1=0.|S2A=0
 .750001|RMSD=8.951e-009|Dipole=-0.0811831,0.033218,0.0368438|Quadrupol
 e=-18.3873614,13.3530821,5.0342793,-2.0560276,-2.0564259,1.0300293|PG=
 C01 [X(C8H4Ag1N2)]||@
 The archive entry for this job was punched.


 Everywhere is walking distance if you have the time.
                                    -- Steven Wright
 Job cpu time:       0 days  0 hours  1 minutes 25.0 seconds.
 Elapsed time:       0 days  0 hours  1 minutes 24.0 seconds.
 File lengths (MBytes):  RWF=     40 Int=      0 D2E=      0 Chk=      4 Scr=      1
 Normal termination of Gaussian 16 at Sat Sep 12 02:28:06 2026.
