 Entering Gaussian System, Link 0=C:\G16W\g16.exe
 Input=pDCNB_t6_z0.gjf
 Output=pDCNB_t6_z0.out
 Initial command:
 C:\G16W\l1.exe ".\Gau-133948.inp" "pDCNB_t6_z0.out" /scrdir=".\"
 Entering Link 1 = C:\G16W\l1.exe PID=    100572.
  
 Copyright (c) 1988-2019, Gaussian, Inc.  All Rights Reserved.
  
 This is part of the Gaussian(R) 16 program.  It is based on
 the Gaussian(R) 09 system (copyright 2009, Gaussian, Inc.),
 the Gaussian(R) 03 system (copyright 2003, Gaussian, Inc.),
 the Gaussian(R) 98 system (copyright 1998, Gaussian, Inc.),
 the Gaussian(R) 94 system (copyright 1995, Gaussian, Inc.),
 the Gaussian 92(TM) system (copyright 1992, Gaussian, Inc.),
 the Gaussian 90(TM) system (copyright 1990, Gaussian, Inc.),
 the Gaussian 88(TM) system (copyright 1988, Gaussian, Inc.),
 the Gaussian 86(TM) system (copyright 1986, Carnegie Mellon
 University), and the Gaussian 82(TM) system (copyright 1983,
 Carnegie Mellon University). Gaussian is a federally registered
 trademark of Gaussian, Inc.
  
 This software contains proprietary and confidential information,
 including trade secrets, belonging to Gaussian, Inc.
  
 This software is provided under written license and may be
 used, copied, transmitted, or stored only in accord with that
 written license.
  
 The following legend is applicable only to US Government
 contracts under FAR:
  
                    RESTRICTED RIGHTS LEGEND
  
 Use, reproduction and disclosure by the US Government is
 subject to restrictions as set forth in subparagraphs (a)
 and (c) of the Commercial Computer Software - Restricted
 Rights clause in FAR 52.227-19.
  
 Gaussian, Inc.
 340 Quinnipiac St., Bldg. 40, Wallingford CT 06492
  
  
 ---------------------------------------------------------------
 Warning -- This program may not be used in any manner that
 competes with the business of Gaussian, Inc. or will provide
 assistance to any competitor of Gaussian, Inc.  The licensee
 of this program is prohibited from giving any competitor of
 Gaussian, Inc. access to this program.  By using this program,
 the user acknowledges that Gaussian, Inc. is engaged in the
 business of creating and licensing software in the field of
 computational chemistry and represents and warrants to the
 licensee that it is not a competitor of Gaussian, Inc. and that
 it will not use this program in any manner prohibited above.
 ---------------------------------------------------------------
  

 Cite this work as:
 Gaussian 16, Revision C.01,
 M. J. Frisch, G. W. Trucks, H. B. Schlegel, G. E. Scuseria, 
 M. A. Robb, J. R. Cheeseman, G. Scalmani, V. Barone, 
 G. A. Petersson, H. Nakatsuji, X. Li, M. Caricato, A. V. Marenich, 
 J. Bloino, B. G. Janesko, R. Gomperts, B. Mennucci, H. P. Hratchian, 
 J. V. Ortiz, A. F. Izmaylov, J. L. Sonnenberg, D. Williams-Young, 
 F. Ding, F. Lipparini, F. Egidi, J. Goings, B. Peng, A. Petrone, 
 T. Henderson, D. Ranasinghe, V. G. Zakrzewski, J. Gao, N. Rega, 
 G. Zheng, W. Liang, M. Hada, M. Ehara, K. Toyota, R. Fukuda, 
 J. Hasegawa, M. Ishida, T. Nakajima, Y. Honda, O. Kitao, H. Nakai, 
 T. Vreven, K. Throssell, J. A. Montgomery, Jr., J. E. Peralta, 
 F. Ogliaro, M. J. Bearpark, J. J. Heyd, E. N. Brothers, K. N. Kudin, 
 V. N. Staroverov, T. A. Keith, R. Kobayashi, J. Normand, 
 K. Raghavachari, A. P. Rendell, J. C. Burant, S. S. Iyengar, 
 J. Tomasi, M. Cossi, J. M. Millam, M. Klene, C. Adamo, R. Cammi, 
 J. W. Ochterski, R. L. Martin, K. Morokuma, O. Farkas, 
 J. B. Foresman, and D. J. Fox, Gaussian, Inc., Wallingford CT, 2019.
 
 ******************************************
 Gaussian 16:  EM64W-G16RevC.01 30-May-2019
                12-Sep-2026 
 ******************************************
 %Chk=pDCNB.chk
 %NProcShared=8
 Will use up to    8 processors via shared memory.
 %Mem=48GB
 ----------------------------------------------------------------------
 #P PBE1PBE/Def2SVP EmpiricalDispersion=GD3BJ SP SCF=(XQC,MaxCycle=128)
  NoSymm Guess=Read
 ----------------------------------------------------------------------
 1/38=1,172=1/1;
 2/12=2,15=1,17=6,18=5,40=1/2;
 3/5=43,7=101,11=2,25=1,30=1,74=-13,116=-2,124=41/1,2,3;
 4/5=1/1;
 5/5=2,7=128,8=3,13=1,38=6/2,8;
 6/7=2,8=2,9=2,10=2,28=1/1;
 99/5=1,9=1/99;
 Leave Link    1 at Sat Sep 12 02:28:07 2026, MaxMem=  6442450944 cpu:               0.0 elap:               0.2
 (Enter C:\G16W\l101.exe)
 --------------------------------------
 pDCNB t=1.000 dz=+0.00 class=site2site
 --------------------------------------
 Symbolic Z-matrix:
 Charge =  0 Multiplicity = 2
 N                     3.9317    0.14419   0.27529 
 C                     2.78951   0.10233   0.19527 
 C                     1.37857   0.05056   0.09663 
 C                     0.7392   -1.18116  -0.06022 
 C                    -0.63553  -1.23158  -0.15648 
 C                    -1.37859  -0.05057  -0.09644 
 C                    -2.78947  -0.10226  -0.1959 
 N                    -3.93168  -0.14419  -0.27541 
 C                    -0.73922   1.18114   0.06043 
 C                     0.63552   1.23156   0.1567 
 H                     1.32644  -2.08614  -0.1051 
 H                    -1.14325  -2.17672  -0.27808 
 H                    -1.32645   2.08613   0.10518 
 H                     1.14325   2.17671   0.27815 
 Ag                   -4.23435   2.04798   0.35134 
 
 ITRead=  0  0  0  0  0  0  0  0  0  0  0  0  0  0  0
 MicOpt= -1 -1 -1 -1 -1 -1 -1 -1 -1 -1 -1 -1 -1 -1 -1
 NAtoms=     15 NQM=       15 NQMF=       0 NMMI=      0 NMMIF=      0
                NMic=       0 NMicF=      0.
                    Isotopes and Nuclear Properties:
 (Nuclear quadrupole moments (NQMom) in fm**2, nuclear magnetic moments (NMagM)
  in nuclear magnetons)

  Atom         1           2           3           4           5           6           7           8           9          10
 IAtWgt=          14          12          12          12          12          12          12          14          12          12
 AtmWgt=  14.0030740  12.0000000  12.0000000  12.0000000  12.0000000  12.0000000  12.0000000  14.0030740  12.0000000  12.0000000
 NucSpn=           2           0           0           0           0           0           0           2           0           0
 AtZEff=   0.0000000   0.0000000   0.0000000   0.0000000   0.0000000   0.0000000   0.0000000   0.0000000   0.0000000   0.0000000
 NQMom=    2.0440000   0.0000000   0.0000000   0.0000000   0.0000000   0.0000000   0.0000000   2.0440000   0.0000000   0.0000000
 NMagM=    0.4037610   0.0000000   0.0000000   0.0000000   0.0000000   0.0000000   0.0000000   0.4037610   0.0000000   0.0000000
 AtZNuc=   7.0000000   6.0000000   6.0000000   6.0000000   6.0000000   6.0000000   6.0000000   7.0000000   6.0000000   6.0000000

  Atom        11          12          13          14          15
 IAtWgt=           1           1           1           1         107
 AtmWgt=   1.0078250   1.0078250   1.0078250   1.0078250 106.9050900
 NucSpn=           1           1           1           1           1
 AtZEff=   0.0000000   0.0000000   0.0000000   0.0000000   0.0000000
 NQMom=    0.0000000   0.0000000   0.0000000   0.0000000   0.0000000
 NMagM=    2.7928460   2.7928460   2.7928460   2.7928460  -0.1135700
 AtZNuc=   1.0000000   1.0000000   1.0000000   1.0000000  47.0000000
 Leave Link  101 at Sat Sep 12 02:28:07 2026, MaxMem=  6442450944 cpu:               0.0 elap:               0.2
 (Enter C:\G16W\l202.exe)
                          Input orientation:                          
 ---------------------------------------------------------------------
 Center     Atomic      Atomic             Coordinates (Angstroms)
 Number     Number       Type             X           Y           Z
 ---------------------------------------------------------------------
      1          7           0        3.931702    0.144186    0.275285
      2          6           0        2.789514    0.102334    0.195267
      3          6           0        1.378570    0.050557    0.096627
      4          6           0        0.739202   -1.181159   -0.060221
      5          6           0       -0.635531   -1.231584   -0.156484
      6          6           0       -1.378585   -0.050574   -0.096444
      7          6           0       -2.789474   -0.102260   -0.195902
      8          7           0       -3.931683   -0.144185   -0.275406
      9          6           0       -0.739218    1.181139    0.060434
     10          6           0        0.635515    1.231563    0.156697
     11          1           0        1.326442   -2.086139   -0.105102
     12          1           0       -1.143254   -2.176721   -0.278080
     13          1           0       -1.326448    2.086131    0.105176
     14          1           0        1.143247    2.176713    0.278153
     15         47           0       -4.234350    2.047977    0.351344
 ---------------------------------------------------------------------
                    Distance matrix (angstroms):
                    1          2          3          4          5
     1  N    0.000000
     2  C    1.145752   0.000000
     3  C    2.561087   1.415335   0.000000
     4  C    3.472918   2.432367   1.396609   0.000000
     5  C    4.789445   3.692425   2.400948   1.379021   0.000000
     6  C    5.326844   4.181091   2.765756   2.400949   1.396610
     7  C    6.742178   5.596426   4.181090   3.692423   2.432364
     8  N    7.887917   6.742165   5.326830   4.789445   3.472923
     9  C    4.789460   3.692418   2.400948   2.789397   2.424672
    10  C    3.472938   2.432356   1.396608   2.424671   2.789397
    11  H    3.450569   2.649569   2.146831   1.079747   2.140617
    12  H    5.607852   4.569991   3.385376   2.140618   1.079746
    13  H    5.607872   4.569979   3.385374   3.869037   3.398980
    14  H    3.450602   2.649550   2.146827   3.398978   3.869037
    15  Ag   8.385380   7.290031   5.963173   5.944150   4.895397
                    6          7          8          9         10
     6  C    0.000000
     7  C    1.415334   0.000000
     8  N    2.561074   1.145740   0.000000
     9  C    1.396609   2.432359   3.472910   0.000000
    10  C    2.400949   3.692419   4.789436   1.379021   0.000000
    11  H    3.385376   4.569987   5.607858   3.869039   3.398980
    12  H    2.146829   2.649563   3.450586   3.398979   3.869037
    13  H    2.146830   2.649556   3.450565   1.079746   2.140617
    14  H    3.385375   4.569983   5.607844   2.140618   1.079746
    15  Ag   3.572090   2.647766   2.300000   3.612753   4.941660
                   11         12         13         14         15
    11  H    0.000000
    12  H    2.477403   0.000000
    13  H    4.948725   4.283965   0.000000
    14  H    4.283965   4.948724   2.477402   0.000000
    15  Ag   6.944182   5.272487   2.918552   5.379635   0.000000
 Symmetry turned off by external request.
 Stoichiometry    C8H4AgN2(2)
 Framework group  C1[X(C8H4AgN2)]
 Deg. of freedom    39
 Full point group                 C1      NOp   1
 Rotational constants (GHZ):           2.6181713           0.2670346           0.2427733
 Leave Link  202 at Sat Sep 12 02:28:07 2026, MaxMem=  6442450944 cpu:               0.0 elap:               0.1
 (Enter C:\G16W\l301.exe)
 Standard basis: def2SVP (5D, 7F)
 Ernie: Thresh=  0.10000D-02 Tol=  0.10000D-05 Strict=F.
   191 basis functions,   343 primitive gaussians,   206 cartesian basis functions
    43 alpha electrons       42 beta electrons
       nuclear repulsion energy       567.0119190425 Hartrees.
 IExCor= 1009 DFT=T Ex+Corr=PBE1PBE ExCW=0 ScaHFX=  0.250000
 ScaDFX=  0.750000  0.750000  1.000000  1.000000 ScalE2=  1.000000  1.000000
 IRadAn=      5 IRanWt=     -1 IRanGd=            0 ICorTp=0 IEmpDi=141
 NAtoms=   15 NActive=   15 NUniq=   15 SFac= 1.00D+00 NAtFMM=   60 NAOKFM=F Big=F
 Integral buffers will be    131072 words long.
 Raffenetti 2 integral format.
 Two-electron integral symmetry is turned off.
 R6Disp:  Grimme-D3(BJ) Dispersion energy=       -0.0174354306 Hartrees.
 Nuclear repulsion after empirical dispersion term =      566.9944836119 Hartrees.
 Leave Link  301 at Sat Sep 12 02:28:07 2026, MaxMem=  6442450944 cpu:               0.0 elap:               0.1
 (Enter C:\G16W\l302.exe)
 NPDir=0 NMtPBC=     1 NCelOv=     1 NCel=       1 NClECP=     1 NCelD=      1
         NCelK=      1 NCelE2=     1 NClLst=     1 CellRange=     0.0.
 One-electron integrals computed using PRISM.
   1 Symmetry operations used in ECPInt.
 ECPInt:  NShTT=    3486 NPrTT=   12877 LenC2=    3346 LenP2D=    9526.
 LDataN:  DoStor=T MaxTD1= 7 Len=  274
 NBasis=   191 RedAO= T EigKep=  2.65D-04  NBF=   191
 NBsUse=   191 1.00D-06 EigRej= -1.00D+00 NBFU=   191
 Precomputing XC quadrature grid using
 IXCGrd= 4 IRadAn=           5 IRanWt=          -1 IRanGd=           0 AccXCQ= 0.00D+00.
 Defaulting to unpruned grid for atomic number  47.
 Generated NRdTot=       0 NPtTot=           0 NUsed=           0 NTot=          32
 NSgBfM=   205   205   205   205   205 MxSgAt=    15 MxSgA2=    15.
 Leave Link  302 at Sat Sep 12 02:28:09 2026, MaxMem=  6442450944 cpu:               2.0 elap:               1.4
 (Enter C:\G16W\l303.exe)
 DipDrv:  MaxL=1.
 Leave Link  303 at Sat Sep 12 02:28:09 2026, MaxMem=  6442450944 cpu:               0.0 elap:               0.2
 (Enter C:\G16W\l401.exe)
 Initial guess from the checkpoint file:  "pDCNB.chk"
 B after Tr=    -0.307199   -0.857582   -0.275440
         Rot=    0.980458    0.006046    0.060624   -0.187058 Ang=  22.69 deg.
 Guess basis will be translated and rotated to current coordinates.
 JPrj=2 DoOrth=T DoCkMO=T.
 Initial guess <Sx>= 0.0000 <Sy>= 0.0000 <Sz>= 0.5000 <S**2>= 0.7512 S= 0.5006
 Leave Link  401 at Sat Sep 12 02:28:13 2026, MaxMem=  6442450944 cpu:               4.0 elap:               3.9
 (Enter C:\G16W\l502.exe)
 Two-electron integral symmetry not used.
 UHF open shell SCF:
 Using DIIS extrapolation, IDIIS=  1040.
 NGot=  6442450944 LenX=  6442362448 LenY=  6442319571
 Requested convergence on RMS density matrix=1.00D-08 within 128 cycles.
 Requested convergence on MAX density matrix=1.00D-06.
 Requested convergence on             energy=1.00D-06.
 No special actions if energy rises.
 Fock matrices will be formed incrementally for  20 cycles.

 Cycle   1  Pass 1  IDiag  1:
 FoFJK:  IHMeth= 1 ICntrl=       0 DoSepK=F KAlg= 0 I1Cent=           0 FoldK=F
 IRaf= 920000000 NMat=       1 IRICut=       1 DoRegI=T DoRafI=F ISym2E= 0 IDoP0=0 IntGTp=1.
 FoFCou: FMM=F IPFlag=           0 FMFlag=      100000 FMFlg1=           0
         NFxFlg=           0 DoJE=F BraDBF=F KetDBF=F FulRan=T
         wScrn=  0.000000 ICntrl=         0 IOpCl=  1 I1Cent=           0 NGrid=           0
         NMat0=    1 NMatS0=      1 NMatT0=    0 NMatD0=    1 NMtDS0=    0 NMtDT0=    0
 Symmetry not used in FoFCou.
 Defaulting to unpruned grid for atomic number  47.
 Defaulting to unpruned grid for atomic number  47.
 Defaulting to unpruned grid for atomic number  47.
 Defaulting to unpruned grid for atomic number  47.
 Defaulting to unpruned grid for atomic number  47.
 Defaulting to unpruned grid for atomic number  47.
 Defaulting to unpruned grid for atomic number  47.
 Defaulting to unpruned grid for atomic number  47.
 E= -562.209838172728    
 DIIS: error= 9.10D-02 at cycle   1 NSaved=   1.
 NSaved= 1 IEnMin= 1 EnMin= -562.209838172728     IErMin= 1 ErrMin= 9.10D-02
 ErrMax= 9.10D-02  0.00D+00 EMaxC= 1.00D-01 BMatC= 2.75D+00 BMatP= 2.75D+00
 IDIUse=3 WtCom= 9.02D-02 WtEn= 9.10D-01
 Coeff-Com:  0.100D+01
 Coeff-En:   0.100D+01
 Coeff:      0.100D+01
 Gap=     0.129 Goal=   None    Shift=    0.000
 Gap=     0.301 Goal=   None    Shift=    0.000
 GapD=    0.129 DampG=1.000 DampE=0.250 DampFc=0.2500 IDamp=-1.
 Damping current iteration by 2.50D-01
 RMSDP=5.54D-03 MaxDP=1.19D-01              OVMax= 1.72D-01

 Cycle   2  Pass 1  IDiag  1:
 RMSU=  1.36D-03    CP:  9.92D-01
 E= -562.363885890204     Delta-E=       -0.154047717476 Rises=F Damp=T
 DIIS: error= 6.85D-02 at cycle   2 NSaved=   2.
 NSaved= 2 IEnMin= 2 EnMin= -562.363885890204     IErMin= 2 ErrMin= 6.85D-02
 ErrMax= 6.85D-02  0.00D+00 EMaxC= 1.00D-01 BMatC= 1.60D+00 BMatP= 2.75D+00
 IDIUse=3 WtCom= 3.15D-01 WtEn= 6.85D-01
 Coeff-Com: -0.315D+01 0.415D+01
 Coeff-En:   0.000D+00 0.100D+01
 Coeff:     -0.994D+00 0.199D+01
 Gap=     0.061 Goal=   None    Shift=    0.000
 Gap=     0.205 Goal=   None    Shift=    0.000
 RMSDP=4.34D-03 MaxDP=9.59D-02 DE=-1.54D-01 OVMax= 1.64D-02

 Cycle   3  Pass 1  IDiag  1:
 RMSU=  1.59D-03    CP:  9.67D-01  3.00D+00
 E= -562.870249252329     Delta-E=       -0.506363362125 Rises=F Damp=F
 DIIS: error= 2.15D-03 at cycle   3 NSaved=   3.
 NSaved= 3 IEnMin= 3 EnMin= -562.870249252329     IErMin= 3 ErrMin= 2.15D-03
 ErrMax= 2.15D-03  0.00D+00 EMaxC= 1.00D-01 BMatC= 5.55D-03 BMatP= 1.60D+00
 IDIUse=3 WtCom= 9.78D-01 WtEn= 2.15D-02
 Coeff-Com: -0.846D-01 0.791D-01 0.101D+01
 Coeff-En:   0.000D+00 0.000D+00 0.100D+01
 Coeff:     -0.828D-01 0.774D-01 0.101D+01
 Gap=     0.053 Goal=   None    Shift=    0.000
 Gap=     0.198 Goal=   None    Shift=    0.000
 RMSDP=4.96D-04 MaxDP=3.72D-02 DE=-5.06D-01 OVMax= 3.22D-02

 Cycle   4  Pass 1  IDiag  1:
 RMSU=  3.97D-04    CP:  9.64D-01  3.00D+00  1.18D+00
 E= -562.871780288257     Delta-E=       -0.001531035928 Rises=F Damp=F
 DIIS: error= 3.52D-03 at cycle   4 NSaved=   4.
 NSaved= 4 IEnMin= 4 EnMin= -562.871780288257     IErMin= 3 ErrMin= 2.15D-03
 ErrMax= 3.52D-03  0.00D+00 EMaxC= 1.00D-01 BMatC= 6.12D-03 BMatP= 5.55D-03
 IDIUse=3 WtCom= 1.44D-01 WtEn= 8.56D-01
 Coeff-Com:  0.569D+00-0.771D+00 0.689D+00 0.513D+00
 Coeff-En:   0.000D+00 0.000D+00 0.240D-01 0.976D+00
 Coeff:      0.820D-01-0.111D+00 0.120D+00 0.909D+00
 Gap=     0.058 Goal=   None    Shift=    0.000
 Gap=     0.204 Goal=   None    Shift=    0.000
 RMSDP=4.69D-04 MaxDP=2.06D-02 DE=-1.53D-03 OVMax= 3.39D-02

 Cycle   5  Pass 1  IDiag  1:
 RMSU=  3.91D-04    CP:  9.64D-01  3.00D+00  1.22D+00  3.63D-01
 E= -562.867643792596     Delta-E=        0.004136495661 Rises=F Damp=F
 DIIS: error= 7.13D-03 at cycle   5 NSaved=   5.
 NSaved= 5 IEnMin= 4 EnMin= -562.871780288257     IErMin= 3 ErrMin= 2.15D-03
 ErrMax= 7.13D-03  0.00D+00 EMaxC= 1.00D-01 BMatC= 2.49D-02 BMatP= 5.55D-03
 IDIUse=3 WtCom= 1.06D-01 WtEn= 8.94D-01
 Coeff-Com:  0.753D-01-0.101D+00 0.350D-01 0.674D+00 0.318D+00
 Coeff-En:   0.000D+00 0.000D+00 0.000D+00 0.736D+00 0.264D+00
 Coeff:      0.797D-02-0.107D-01 0.371D-02 0.729D+00 0.270D+00
 Gap=     0.056 Goal=   None    Shift=    0.000
 Gap=     0.201 Goal=   None    Shift=    0.000
 RMSDP=2.44D-04 MaxDP=1.11D-02 DE= 4.14D-03 OVMax= 1.84D-02

 Cycle   6  Pass 1  IDiag  1:
 RMSU=  5.53D-05    CP:  9.64D-01  3.00D+00  1.21D+00  7.47D-01  5.36D-01
 E= -562.872975147203     Delta-E=       -0.005331354607 Rises=F Damp=F
 DIIS: error= 1.45D-03 at cycle   6 NSaved=   6.
 NSaved= 6 IEnMin= 6 EnMin= -562.872975147203     IErMin= 6 ErrMin= 1.45D-03
 ErrMax= 1.45D-03  0.00D+00 EMaxC= 1.00D-01 BMatC= 1.10D-03 BMatP= 5.55D-03
 IDIUse=3 WtCom= 9.86D-01 WtEn= 1.45D-02
 Coeff-Com: -0.756D-01 0.101D+00-0.861D-01 0.254D+00-0.216D-01 0.828D+00
 Coeff-En:   0.000D+00 0.000D+00 0.000D+00 0.190D+00 0.000D+00 0.810D+00
 Coeff:     -0.745D-01 0.999D-01-0.849D-01 0.253D+00-0.213D-01 0.827D+00
 Gap=     0.055 Goal=   None    Shift=    0.000
 Gap=     0.199 Goal=   None    Shift=    0.000
 RMSDP=7.77D-05 MaxDP=3.88D-03 DE=-5.33D-03 OVMax= 5.21D-03

 Cycle   7  Pass 1  IDiag  1:
 RMSU=  2.64D-05    CP:  9.64D-01  3.00D+00  1.22D+00  9.04D-01  4.40D-01
                    CP:  1.12D+00
 E= -562.873230745294     Delta-E=       -0.000255598091 Rises=F Damp=F
 DIIS: error= 7.22D-05 at cycle   7 NSaved=   7.
 NSaved= 7 IEnMin= 7 EnMin= -562.873230745294     IErMin= 7 ErrMin= 7.22D-05
 ErrMax= 7.22D-05  0.00D+00 EMaxC= 1.00D-01 BMatC= 3.78D-06 BMatP= 1.10D-03
 IDIUse=1 WtCom= 1.00D+00 WtEn= 0.00D+00
 Coeff-Com: -0.241D-01 0.324D-01-0.272D-01 0.275D-01-0.374D-01 0.290D+00
 Coeff-Com:  0.739D+00
 Coeff:     -0.241D-01 0.324D-01-0.272D-01 0.275D-01-0.374D-01 0.290D+00
 Coeff:      0.739D+00
 Gap=     0.055 Goal=   None    Shift=    0.000
 Gap=     0.199 Goal=   None    Shift=    0.000
 RMSDP=1.74D-05 MaxDP=7.43D-04 DE=-2.56D-04 OVMax= 2.28D-03

 Cycle   8  Pass 1  IDiag  1:
 RMSU=  1.16D-05    CP:  9.64D-01  3.00D+00  1.22D+00  9.17D-01  4.56D-01
                    CP:  1.29D+00  1.16D+00
 E= -562.873232715533     Delta-E=       -0.000001970239 Rises=F Damp=F
 DIIS: error= 5.91D-05 at cycle   8 NSaved=   8.
 NSaved= 8 IEnMin= 8 EnMin= -562.873232715533     IErMin= 8 ErrMin= 5.91D-05
 ErrMax= 5.91D-05  0.00D+00 EMaxC= 1.00D-01 BMatC= 2.20D-06 BMatP= 3.78D-06
 IDIUse=1 WtCom= 1.00D+00 WtEn= 0.00D+00
 Coeff-Com:  0.393D-02-0.518D-02 0.365D-02-0.420D-01-0.207D-01-0.101D-02
 Coeff-Com:  0.482D+00 0.580D+00
 Coeff:      0.393D-02-0.518D-02 0.365D-02-0.420D-01-0.207D-01-0.101D-02
 Coeff:      0.482D+00 0.580D+00
 Gap=     0.055 Goal=   None    Shift=    0.000
 Gap=     0.199 Goal=   None    Shift=    0.000
 RMSDP=1.10D-05 MaxDP=4.16D-04 DE=-1.97D-06 OVMax= 1.52D-03

 Cycle   9  Pass 1  IDiag  1:
 RMSU=  5.81D-06    CP:  9.64D-01  3.00D+00  1.22D+00  9.24D-01  4.62D-01
                    CP:  1.38D+00  1.41D+00  9.28D-01
 E= -562.873233792319     Delta-E=       -0.000001076786 Rises=F Damp=F
 DIIS: error= 2.33D-05 at cycle   9 NSaved=   9.
 NSaved= 9 IEnMin= 9 EnMin= -562.873233792319     IErMin= 9 ErrMin= 2.33D-05
 ErrMax= 2.33D-05  0.00D+00 EMaxC= 1.00D-01 BMatC= 4.30D-07 BMatP= 2.20D-06
 IDIUse=1 WtCom= 1.00D+00 WtEn= 0.00D+00
 Coeff-Com:  0.874D-02-0.117D-01 0.942D-02-0.325D-01-0.297D-02-0.745D-01
 Coeff-Com:  0.842D-01 0.329D+00 0.690D+00
 Coeff:      0.874D-02-0.117D-01 0.942D-02-0.325D-01-0.297D-02-0.745D-01
 Coeff:      0.842D-01 0.329D+00 0.690D+00
 Gap=     0.055 Goal=   None    Shift=    0.000
 Gap=     0.199 Goal=   None    Shift=    0.000
 RMSDP=7.13D-06 MaxDP=2.70D-04 DE=-1.08D-06 OVMax= 1.15D-03

 Cycle  10  Pass 1  IDiag  1:
 RMSU=  2.64D-06    CP:  9.64D-01  3.00D+00  1.22D+00  9.28D-01  4.66D-01
                    CP:  1.44D+00  1.57D+00  1.18D+00  1.23D+00
 E= -562.873234091205     Delta-E=       -0.000000298887 Rises=F Damp=F
 DIIS: error= 1.69D-05 at cycle  10 NSaved=  10.
 NSaved=10 IEnMin=10 EnMin= -562.873234091205     IErMin=10 ErrMin= 1.69D-05
 ErrMax= 1.69D-05  0.00D+00 EMaxC= 1.00D-01 BMatC= 1.86D-07 BMatP= 4.30D-07
 IDIUse=1 WtCom= 1.00D+00 WtEn= 0.00D+00
 Coeff-Com:  0.470D-02-0.631D-02 0.545D-02-0.123D-01 0.260D-02-0.487D-01
 Coeff-Com: -0.606D-01 0.810D-01 0.461D+00 0.573D+00
 Coeff:      0.470D-02-0.631D-02 0.545D-02-0.123D-01 0.260D-02-0.487D-01
 Coeff:     -0.606D-01 0.810D-01 0.461D+00 0.573D+00
 Gap=     0.055 Goal=   None    Shift=    0.000
 Gap=     0.199 Goal=   None    Shift=    0.000
 RMSDP=4.08D-06 MaxDP=1.60D-04 DE=-2.99D-07 OVMax= 6.78D-04

 Cycle  11  Pass 1  IDiag  1:
 RMSU=  1.52D-06    CP:  9.64D-01  3.00D+00  1.22D+00  9.31D-01  4.68D-01
                    CP:  1.47D+00  1.65D+00  1.34D+00  1.49D+00  1.06D+00
 E= -562.873234203569     Delta-E=       -0.000000112364 Rises=F Damp=F
 DIIS: error= 9.34D-06 at cycle  11 NSaved=  11.
 NSaved=11 IEnMin=11 EnMin= -562.873234203569     IErMin=11 ErrMin= 9.34D-06
 ErrMax= 9.34D-06  0.00D+00 EMaxC= 1.00D-01 BMatC= 4.88D-08 BMatP= 1.86D-07
 IDIUse=1 WtCom= 1.00D+00 WtEn= 0.00D+00
 Coeff-Com: -0.198D-02 0.264D-02-0.163D-02 0.758D-02 0.237D-02 0.895D-02
 Coeff-Com: -0.725D-01-0.107D+00-0.699D-01 0.351D+00 0.880D+00
 Coeff:     -0.198D-02 0.264D-02-0.163D-02 0.758D-02 0.237D-02 0.895D-02
 Coeff:     -0.725D-01-0.107D+00-0.699D-01 0.351D+00 0.880D+00
 Gap=     0.055 Goal=   None    Shift=    0.000
 Gap=     0.199 Goal=   None    Shift=    0.000
 RMSDP=3.73D-06 MaxDP=1.52D-04 DE=-1.12D-07 OVMax= 6.33D-04

 Cycle  12  Pass 1  IDiag  1:
 RMSU=  8.26D-07    CP:  9.64D-01  3.00D+00  1.22D+00  9.32D-01  4.70D-01
                    CP:  1.49D+00  1.72D+00  1.47D+00  1.81D+00  1.47D+00
                    CP:  1.19D+00
 E= -562.873234257574     Delta-E=       -0.000000054005 Rises=F Damp=F
 DIIS: error= 3.50D-06 at cycle  12 NSaved=  12.
 NSaved=12 IEnMin=12 EnMin= -562.873234257574     IErMin=12 ErrMin= 3.50D-06
 ErrMax= 3.50D-06  0.00D+00 EMaxC= 1.00D-01 BMatC= 8.26D-09 BMatP= 4.88D-08
 IDIUse=1 WtCom= 1.00D+00 WtEn= 0.00D+00
 Coeff-Com: -0.198D-02 0.264D-02-0.194D-02 0.582D-02 0.326D-03 0.147D-01
 Coeff-Com: -0.158D-01-0.604D-01-0.129D+00 0.527D-02 0.335D+00 0.846D+00
 Coeff:     -0.198D-02 0.264D-02-0.194D-02 0.582D-02 0.326D-03 0.147D-01
 Coeff:     -0.158D-01-0.604D-01-0.129D+00 0.527D-02 0.335D+00 0.846D+00
 Gap=     0.055 Goal=   None    Shift=    0.000
 Gap=     0.199 Goal=   None    Shift=    0.000
 RMSDP=1.59D-06 MaxDP=6.07D-05 DE=-5.40D-08 OVMax= 2.60D-04

 Cycle  13  Pass 1  IDiag  1:
 RMSU=  4.00D-07    CP:  9.64D-01  3.00D+00  1.22D+00  9.33D-01  4.70D-01
                    CP:  1.50D+00  1.75D+00  1.52D+00  1.93D+00  1.67D+00
                    CP:  1.55D+00  1.19D+00
 E= -562.873234268310     Delta-E=       -0.000000010737 Rises=F Damp=F
 DIIS: error= 2.55D-06 at cycle  13 NSaved=  13.
 NSaved=13 IEnMin=13 EnMin= -562.873234268310     IErMin=13 ErrMin= 2.55D-06
 ErrMax= 2.55D-06  0.00D+00 EMaxC= 1.00D-01 BMatC= 2.96D-09 BMatP= 8.26D-09
 IDIUse=1 WtCom= 1.00D+00 WtEn= 0.00D+00
 Coeff-Com: -0.289D-03 0.392D-03-0.375D-03 0.401D-03-0.533D-03 0.384D-02
 Coeff-Com:  0.166D-01 0.737D-02-0.377D-01-0.114D+00-0.131D+00 0.409D+00
 Coeff-Com:  0.846D+00
 Coeff:     -0.289D-03 0.392D-03-0.375D-03 0.401D-03-0.533D-03 0.384D-02
 Coeff:      0.166D-01 0.737D-02-0.377D-01-0.114D+00-0.131D+00 0.409D+00
 Coeff:      0.846D+00
 Gap=     0.055 Goal=   None    Shift=    0.000
 Gap=     0.199 Goal=   None    Shift=    0.000
 RMSDP=7.21D-07 MaxDP=2.34D-05 DE=-1.07D-08 OVMax= 1.01D-04

 Cycle  14  Pass 1  IDiag  1:
 RMSU=  2.00D-07    CP:  9.64D-01  3.00D+00  1.22D+00  9.33D-01  4.70D-01
                    CP:  1.50D+00  1.76D+00  1.55D+00  1.99D+00  1.77D+00
                    CP:  1.69D+00  1.59D+00  1.18D+00
 E= -562.873234271342     Delta-E=       -0.000000003032 Rises=F Damp=F
 DIIS: error= 1.77D-06 at cycle  14 NSaved=  14.
 NSaved=14 IEnMin=14 EnMin= -562.873234271342     IErMin=14 ErrMin= 1.77D-06
 ErrMax= 1.77D-06  0.00D+00 EMaxC= 1.00D-01 BMatC= 6.53D-10 BMatP= 2.96D-09
 IDIUse=1 WtCom= 1.00D+00 WtEn= 0.00D+00
 Coeff-Com:  0.342D-03-0.456D-03 0.292D-03-0.117D-02-0.233D-03-0.210D-02
 Coeff-Com:  0.106D-01 0.181D-01 0.154D-01-0.512D-01-0.135D+00-0.182D-01
 Coeff-Com:  0.356D+00 0.808D+00
 Coeff:      0.342D-03-0.456D-03 0.292D-03-0.117D-02-0.233D-03-0.210D-02
 Coeff:      0.106D-01 0.181D-01 0.154D-01-0.512D-01-0.135D+00-0.182D-01
 Coeff:      0.356D+00 0.808D+00
 Gap=     0.055 Goal=   None    Shift=    0.000
 Gap=     0.199 Goal=   None    Shift=    0.000
 RMSDP=2.42D-07 MaxDP=9.69D-06 DE=-3.03D-09 OVMax= 1.92D-05

 Cycle  15  Pass 1  IDiag  1:
 RMSU=  1.43D-07    CP:  9.64D-01  3.00D+00  1.22D+00  9.33D-01  4.70D-01
                    CP:  1.50D+00  1.76D+00  1.55D+00  2.00D+00  1.79D+00
                    CP:  1.75D+00  1.70D+00  1.42D+00  1.22D+00
 E= -562.873234272088     Delta-E=       -0.000000000746 Rises=F Damp=F
 DIIS: error= 1.36D-06 at cycle  15 NSaved=  15.
 NSaved=15 IEnMin=15 EnMin= -562.873234272088     IErMin=15 ErrMin= 1.36D-06
 ErrMax= 1.36D-06  0.00D+00 EMaxC= 1.00D-01 BMatC= 2.59D-10 BMatP= 6.53D-10
 IDIUse=1 WtCom= 1.00D+00 WtEn= 0.00D+00
 Coeff-Com:  0.248D-03-0.332D-03 0.243D-03-0.686D-03 0.488D-04-0.217D-02
 Coeff-Com:  0.650D-03 0.689D-02 0.172D-01 0.592D-02-0.304D-01-0.117D+00
 Coeff-Com: -0.364D-01 0.407D+00 0.748D+00
 Coeff:      0.248D-03-0.332D-03 0.243D-03-0.686D-03 0.488D-04-0.217D-02
 Coeff:      0.650D-03 0.689D-02 0.172D-01 0.592D-02-0.304D-01-0.117D+00
 Coeff:     -0.364D-01 0.407D+00 0.748D+00
 Gap=     0.055 Goal=   None    Shift=    0.000
 Gap=     0.199 Goal=   None    Shift=    0.000
 RMSDP=1.36D-07 MaxDP=5.11D-06 DE=-7.46D-10 OVMax= 1.44D-05

 Cycle  16  Pass 1  IDiag  1:
 RMSU=  6.50D-08    CP:  9.64D-01  3.00D+00  1.22D+00  9.33D-01  4.70D-01
                    CP:  1.50D+00  1.76D+00  1.55D+00  2.00D+00  1.79D+00
                    CP:  1.76D+00  1.74D+00  1.53D+00  1.64D+00  1.31D+00
 E= -562.873234272397     Delta-E=       -0.000000000309 Rises=F Damp=F
 DIIS: error= 8.29D-07 at cycle  16 NSaved=  16.
 NSaved=16 IEnMin=16 EnMin= -562.873234272397     IErMin=16 ErrMin= 8.29D-07
 ErrMax= 8.29D-07  0.00D+00 EMaxC= 1.00D-01 BMatC= 9.16D-11 BMatP= 2.59D-10
 IDIUse=1 WtCom= 1.00D+00 WtEn= 0.00D+00
 Coeff-Com: -0.116D-03 0.154D-03-0.809D-04 0.407D-03 0.137D-03 0.473D-03
 Coeff-Com: -0.598D-02-0.794D-02-0.166D-02 0.321D-01 0.644D-01-0.365D-01
 Coeff-Com: -0.204D+00-0.300D+00 0.258D+00 0.120D+01
 Coeff:     -0.116D-03 0.154D-03-0.809D-04 0.407D-03 0.137D-03 0.473D-03
 Coeff:     -0.598D-02-0.794D-02-0.166D-02 0.321D-01 0.644D-01-0.365D-01
 Coeff:     -0.204D+00-0.300D+00 0.258D+00 0.120D+01
 Gap=     0.055 Goal=   None    Shift=    0.000
 Gap=     0.199 Goal=   None    Shift=    0.000
 RMSDP=1.77D-07 MaxDP=5.68D-06 DE=-3.09D-10 OVMax= 1.92D-05

 Cycle  17  Pass 1  IDiag  1:
 RMSU=  4.87D-08    CP:  9.64D-01  3.00D+00  1.22D+00  9.33D-01  4.70D-01
                    CP:  1.50D+00  1.76D+00  1.54D+00  1.99D+00  1.78D+00
                    CP:  1.75D+00  1.76D+00  1.67D+00  2.08D+00  1.99D+00
                    CP:  1.46D+00
 E= -562.873234272619     Delta-E=       -0.000000000222 Rises=F Damp=F
 DIIS: error= 4.19D-07 at cycle  17 NSaved=  17.
 NSaved=17 IEnMin=17 EnMin= -562.873234272619     IErMin=17 ErrMin= 4.19D-07
 ErrMax= 4.19D-07  0.00D+00 EMaxC= 1.00D-01 BMatC= 3.12D-11 BMatP= 9.16D-11
 IDIUse=1 WtCom= 1.00D+00 WtEn= 0.00D+00
 Coeff-Com: -0.140D-03 0.186D-03-0.125D-03 0.473D-03 0.477D-04 0.108D-02
 Coeff-Com: -0.328D-02-0.671D-02-0.756D-02 0.144D-01 0.444D-01 0.190D-01
 Coeff-Com: -0.956D-01-0.296D+00-0.125D+00 0.621D+00 0.833D+00
 Coeff:     -0.140D-03 0.186D-03-0.125D-03 0.473D-03 0.477D-04 0.108D-02
 Coeff:     -0.328D-02-0.671D-02-0.756D-02 0.144D-01 0.444D-01 0.190D-01
 Coeff:     -0.956D-01-0.296D+00-0.125D+00 0.621D+00 0.833D+00
 Gap=     0.055 Goal=   None    Shift=    0.000
 Gap=     0.199 Goal=   None    Shift=    0.000
 RMSDP=9.02D-08 MaxDP=3.14D-06 DE=-2.22D-10 OVMax= 8.04D-06

 Cycle  18  Pass 1  IDiag  1:
 RMSU=  1.88D-08    CP:  9.64D-01  3.00D+00  1.22D+00  9.33D-01  4.70D-01
                    CP:  1.50D+00  1.76D+00  1.54D+00  1.99D+00  1.78D+00
                    CP:  1.75D+00  1.78D+00  1.72D+00  2.30D+00  2.33D+00
                    CP:  2.02D+00  1.28D+00
 E= -562.873234272666     Delta-E=       -0.000000000048 Rises=F Damp=F
 DIIS: error= 1.44D-07 at cycle  18 NSaved=  18.
 NSaved=18 IEnMin=18 EnMin= -562.873234272666     IErMin=18 ErrMin= 1.44D-07
 ErrMax= 1.44D-07  0.00D+00 EMaxC= 1.00D-01 BMatC= 4.35D-12 BMatP= 3.12D-11
 IDIUse=1 WtCom= 1.00D+00 WtEn= 0.00D+00
 Coeff-Com: -0.786D-05 0.106D-04-0.136D-04 0.454D-04-0.191D-04 0.198D-03
 Coeff-Com:  0.359D-03-0.220D-03-0.165D-02-0.260D-02 0.375D-03 0.117D-01
 Coeff-Com:  0.125D-01-0.223D-01-0.744D-01-0.806D-01 0.189D+00 0.968D+00
 Coeff:     -0.786D-05 0.106D-04-0.136D-04 0.454D-04-0.191D-04 0.198D-03
 Coeff:      0.359D-03-0.220D-03-0.165D-02-0.260D-02 0.375D-03 0.117D-01
 Coeff:      0.125D-01-0.223D-01-0.744D-01-0.806D-01 0.189D+00 0.968D+00
 Gap=     0.055 Goal=   None    Shift=    0.000
 Gap=     0.199 Goal=   None    Shift=    0.000
 RMSDP=3.07D-08 MaxDP=1.17D-06 DE=-4.80D-11 OVMax= 2.43D-06

 Cycle  19  Pass 1  IDiag  1:
 RMSU=  9.78D-09    CP:  9.64D-01  3.00D+00  1.22D+00  9.33D-01  4.70D-01
                    CP:  1.50D+00  1.76D+00  1.54D+00  1.99D+00  1.78D+00
                    CP:  1.75D+00  1.78D+00  1.75D+00  2.38D+00  2.43D+00
                    CP:  2.18D+00  1.56D+00  1.17D+00
 E= -562.873234272682     Delta-E=       -0.000000000016 Rises=F Damp=F
 DIIS: error= 5.11D-08 at cycle  19 NSaved=  19.
 NSaved=19 IEnMin=19 EnMin= -562.873234272682     IErMin=19 ErrMin= 5.11D-08
 ErrMax= 5.11D-08  0.00D+00 EMaxC= 1.00D-01 BMatC= 1.20D-12 BMatP= 4.35D-12
 IDIUse=1 WtCom= 1.00D+00 WtEn= 0.00D+00
 Coeff-Com:  0.255D-04-0.340D-04 0.208D-04-0.783D-04-0.133D-04-0.159D-03
 Coeff-Com:  0.719D-03 0.116D-02 0.842D-03-0.354D-02-0.796D-02 0.114D-02
 Coeff-Com:  0.217D-01 0.466D-01 0.159D-02-0.140D+00-0.116D+00 0.316D+00
 Coeff-Com:  0.878D+00
 Coeff:      0.255D-04-0.340D-04 0.208D-04-0.783D-04-0.133D-04-0.159D-03
 Coeff:      0.719D-03 0.116D-02 0.842D-03-0.354D-02-0.796D-02 0.114D-02
 Coeff:      0.217D-01 0.466D-01 0.159D-02-0.140D+00-0.116D+00 0.316D+00
 Coeff:      0.878D+00
 Gap=     0.055 Goal=   None    Shift=    0.000
 Gap=     0.199 Goal=   None    Shift=    0.000
 RMSDP=1.22D-08 MaxDP=4.37D-07 DE=-1.59D-11 OVMax= 9.74D-07

 Cycle  20  Pass 1  IDiag  1:
 RMSU=  5.60D-09    CP:  9.64D-01  3.00D+00  1.22D+00  9.33D-01  4.70D-01
                    CP:  1.50D+00  1.76D+00  1.54D+00  1.99D+00  1.78D+00
                    CP:  1.75D+00  1.78D+00  1.75D+00  2.39D+00  2.47D+00
                    CP:  2.23D+00  1.64D+00  1.40D+00  1.25D+00
 E= -562.873234272676     Delta-E=        0.000000000006 Rises=F Damp=F
 DIIS: error= 2.77D-08 at cycle  20 NSaved=  20.
 NSaved=20 IEnMin=19 EnMin= -562.873234272682     IErMin=20 ErrMin= 2.77D-08
 ErrMax= 2.77D-08  0.00D+00 EMaxC= 1.00D-01 BMatC= 2.91D-13 BMatP= 1.20D-12
 IDIUse=1 WtCom= 1.00D+00 WtEn= 0.00D+00
 Coeff-Com:  0.515D-05-0.690D-05 0.665D-05-0.281D-04 0.425D-05-0.880D-04
 Coeff-Com:  0.305D-04 0.305D-03 0.695D-03 0.257D-03-0.178D-02-0.386D-02
 Coeff-Com: -0.138D-02 0.162D-01 0.289D-01 0.711D-02-0.999D-01-0.274D+00
 Coeff-Com:  0.184D+00 0.114D+01
 Coeff:      0.515D-05-0.690D-05 0.665D-05-0.281D-04 0.425D-05-0.880D-04
 Coeff:      0.305D-04 0.305D-03 0.695D-03 0.257D-03-0.178D-02-0.386D-02
 Coeff:     -0.138D-02 0.162D-01 0.289D-01 0.711D-02-0.999D-01-0.274D+00
 Coeff:      0.184D+00 0.114D+01
 Gap=     0.055 Goal=   None    Shift=    0.000
 Gap=     0.199 Goal=   None    Shift=    0.000
 RMSDP=1.12D-08 MaxDP=4.17D-07 DE= 5.91D-12 OVMax= 1.68D-06

 Cycle  21  Pass 1  IDiag  1:
 Restarting incremental Fock formation.
 E= -562.873234272684     Delta-E=       -0.000000000008 Rises=F Damp=F
 DIIS: error= 7.38D-09 at cycle  21 NSaved=  20.
 NSaved=20 IEnMin=20 EnMin= -562.873234272684     IErMin=20 ErrMin= 7.38D-09
 ErrMax= 7.38D-09  0.00D+00 EMaxC= 1.00D-01 BMatC= 4.74D-14 BMatP= 2.91D-13
 IDIUse=1 WtCom= 1.00D+00 WtEn= 0.00D+00
 Coeff-Com: -0.231D-07 0.128D-05-0.547D-05 0.272D-05-0.237D-04-0.620D-04
 Coeff-Com:  0.232D-04 0.218D-03 0.460D-03-0.409D-05-0.165D-02-0.261D-02
 Coeff-Com:  0.130D-02 0.100D-01 0.170D-01-0.205D-01-0.132D+00-0.574D-01
 Coeff-Com:  0.391D+00 0.794D+00
 Coeff:     -0.231D-07 0.128D-05-0.547D-05 0.272D-05-0.237D-04-0.620D-04
 Coeff:      0.232D-04 0.218D-03 0.460D-03-0.409D-05-0.165D-02-0.261D-02
 Coeff:      0.130D-02 0.100D-01 0.170D-01-0.205D-01-0.132D+00-0.574D-01
 Coeff:      0.391D+00 0.794D+00
 Gap=     0.055 Goal=   None    Shift=    0.000
 Gap=     0.199 Goal=   None    Shift=    0.000
 RMSDP=3.64D-09 MaxDP=1.43D-07 DE=-7.73D-12 OVMax= 5.99D-07

 SCF Done:  E(UPBE1PBE) =  -562.873234273     A.U. after   21 cycles
            NFock= 21  Conv=0.36D-08     -V/T= 2.2013
 <Sx>= 0.0000 <Sy>= 0.0000 <Sz>= 0.5000 <S**2>= 0.7518 S= 0.5009
 <L.S>= 0.000000000000E+00
 KE= 4.685640911825D+02 PE=-2.415058109012D+03 EE= 8.166262999451D+02
 Annihilation of the first spin contaminant:
 S**2 before annihilation     0.7518,   after     0.7500
 Leave Link  502 at Sat Sep 12 02:30:08 2026, MaxMem=  6442450944 cpu:             115.0 elap:             114.5
 (Enter C:\G16W\l508.exe)
 QCSCF skips out because SCF is already converged.
 Leave Link  508 at Sat Sep 12 02:30:08 2026, MaxMem=  6442450944 cpu:               0.0 elap:               0.1
 (Enter C:\G16W\l601.exe)
 Copying SCF densities to generalized density rwf, IOpCl= 1 IROHF=0.

 **********************************************************************

            Population analysis using the SCF Density.

 **********************************************************************

 Alpha  occ. eigenvalues --  -14.44266 -14.41436 -10.32419 -10.32367 -10.32199
 Alpha  occ. eigenvalues --  -10.30253 -10.29981 -10.29971 -10.29872 -10.29521
 Alpha  occ. eigenvalues --   -3.75839  -2.33886  -2.33791  -2.33681  -0.98987
 Alpha  occ. eigenvalues --   -0.96175  -0.94062  -0.85955  -0.83015  -0.74164
 Alpha  occ. eigenvalues --   -0.69068  -0.62422  -0.60930  -0.55205  -0.51085
 Alpha  occ. eigenvalues --   -0.49839  -0.47533  -0.46630  -0.45128  -0.43717
 Alpha  occ. eigenvalues --   -0.43281  -0.41538  -0.39609  -0.39019  -0.37743
 Alpha  occ. eigenvalues --   -0.33211  -0.33199  -0.33130  -0.32905  -0.32820
 Alpha  occ. eigenvalues --   -0.31679  -0.31018  -0.16256
 Alpha virt. eigenvalues --   -0.10763  -0.06071  -0.02218  -0.00382   0.01071
 Alpha virt. eigenvalues --    0.01624   0.02364   0.03735   0.05459   0.08569
 Alpha virt. eigenvalues --    0.09394   0.09802   0.11807   0.14988   0.15117
 Alpha virt. eigenvalues --    0.16332   0.18907   0.21802   0.23821   0.24224
 Alpha virt. eigenvalues --    0.26466   0.28442   0.32167   0.32800   0.33363
 Alpha virt. eigenvalues --    0.34779   0.35344   0.38174   0.40206   0.41286
 Alpha virt. eigenvalues --    0.42137   0.43744   0.44730   0.45387   0.47025
 Alpha virt. eigenvalues --    0.48322   0.49711   0.51074   0.53968   0.54509
 Alpha virt. eigenvalues --    0.56334   0.57689   0.58034   0.59832   0.61605
 Alpha virt. eigenvalues --    0.62246   0.62843   0.63977   0.64224   0.64685
 Alpha virt. eigenvalues --    0.66624   0.67345   0.68639   0.69900   0.70844
 Alpha virt. eigenvalues --    0.72267   0.75923   0.78512   0.81108   0.84082
 Alpha virt. eigenvalues --    0.84693   0.85945   0.86313   0.89462   0.91616
 Alpha virt. eigenvalues --    0.92541   0.98057   1.01108   1.05254   1.06950
 Alpha virt. eigenvalues --    1.09516   1.11888   1.17614   1.18384   1.19406
 Alpha virt. eigenvalues --    1.19612   1.24201   1.25351   1.26144   1.29313
 Alpha virt. eigenvalues --    1.32383   1.38767   1.48747   1.56063   1.57719
 Alpha virt. eigenvalues --    1.59112   1.61321   1.63425   1.63970   1.69641
 Alpha virt. eigenvalues --    1.70892   1.71649   1.72304   1.76315   1.76803
 Alpha virt. eigenvalues --    1.79210   1.84276   1.85653   1.89735   1.90575
 Alpha virt. eigenvalues --    1.91626   1.94299   1.95031   1.95083   2.03206
 Alpha virt. eigenvalues --    2.07037   2.09310   2.10104   2.14387   2.20156
 Alpha virt. eigenvalues --    2.23223   2.24302   2.25530   2.26914   2.27757
 Alpha virt. eigenvalues --    2.30052   2.30601   2.32357   2.32974   2.35005
 Alpha virt. eigenvalues --    2.45886   2.58625   2.60042   2.60755   2.61342
 Alpha virt. eigenvalues --    2.61754   2.61815   2.61908   2.61964   2.62079
 Alpha virt. eigenvalues --    2.63367   2.66895   2.72513   2.82673   2.83311
 Alpha virt. eigenvalues --    2.85087   2.86140   2.97432   2.99836   3.02445
 Alpha virt. eigenvalues --    3.05280   3.14553   3.18700   3.36248   3.41035
 Alpha virt. eigenvalues --    3.53245   3.72663  53.82608
  Beta  occ. eigenvalues --  -14.44200 -14.41434 -10.32403 -10.32281 -10.32193
  Beta  occ. eigenvalues --  -10.30246 -10.29972 -10.29952 -10.29874 -10.29521
  Beta  occ. eigenvalues --   -3.75690  -2.33826  -2.33709  -2.33593  -0.98824
  Beta  occ. eigenvalues --   -0.96161  -0.94040  -0.85919  -0.82989  -0.74105
  Beta  occ. eigenvalues --   -0.69036  -0.62368  -0.60870  -0.55146  -0.51042
  Beta  occ. eigenvalues --   -0.49794  -0.47474  -0.46448  -0.44830  -0.43650
  Beta  occ. eigenvalues --   -0.43167  -0.41392  -0.39604  -0.38969  -0.37737
  Beta  occ. eigenvalues --   -0.32989  -0.32738  -0.32604  -0.32565  -0.32227
  Beta  occ. eigenvalues --   -0.31123  -0.30659
  Beta virt. eigenvalues --   -0.10727  -0.07417  -0.06021  -0.01215   0.01038
  Beta virt. eigenvalues --    0.02326   0.02736   0.03075   0.04998   0.06279
  Beta virt. eigenvalues --    0.08799   0.09502   0.11546   0.12332   0.15115
  Beta virt. eigenvalues --    0.15288   0.16971   0.19230   0.22107   0.24162
  Beta virt. eigenvalues --    0.24432   0.26585   0.28731   0.33173   0.33976
  Beta virt. eigenvalues --    0.35278   0.35524   0.37177   0.38515   0.40933
  Beta virt. eigenvalues --    0.41948   0.42312   0.44113   0.44814   0.46702
  Beta virt. eigenvalues --    0.48038   0.48918   0.51273   0.51298   0.54234
  Beta virt. eigenvalues --    0.54818   0.56864   0.58054   0.58512   0.60330
  Beta virt. eigenvalues --    0.62149   0.62529   0.63385   0.64120   0.64375
  Beta virt. eigenvalues --    0.64762   0.66749   0.67375   0.68819   0.70088
  Beta virt. eigenvalues --    0.70918   0.72582   0.76276   0.78650   0.81221
  Beta virt. eigenvalues --    0.84150   0.84804   0.86033   0.86389   0.89554
  Beta virt. eigenvalues --    0.91759   0.92621   0.98173   1.01196   1.05327
  Beta virt. eigenvalues --    1.06998   1.09697   1.11894   1.17635   1.18616
  Beta virt. eigenvalues --    1.19485   1.19671   1.24226   1.25379   1.26195
  Beta virt. eigenvalues --    1.29356   1.32412   1.38813   1.48794   1.56072
  Beta virt. eigenvalues --    1.58023   1.59120   1.61654   1.63447   1.64000
  Beta virt. eigenvalues --    1.69695   1.70937   1.71685   1.72324   1.76376
  Beta virt. eigenvalues --    1.76895   1.79289   1.84348   1.85705   1.89785
  Beta virt. eigenvalues --    1.90613   1.91700   1.94320   1.95074   1.95125
  Beta virt. eigenvalues --    2.03407   2.07761   2.09457   2.10160   2.14448
  Beta virt. eigenvalues --    2.20188   2.23257   2.24342   2.25545   2.26924
  Beta virt. eigenvalues --    2.27793   2.30100   2.30649   2.32383   2.33128
  Beta virt. eigenvalues --    2.35059   2.45915   2.58656   2.60078   2.60813
  Beta virt. eigenvalues --    2.61364   2.61793   2.61827   2.61917   2.62060
  Beta virt. eigenvalues --    2.62117   2.63486   2.67065   2.72554   2.82736
  Beta virt. eigenvalues --    2.83350   2.85140   2.86163   2.97498   2.99925
  Beta virt. eigenvalues --    3.02459   3.05339   3.14588   3.18781   3.36307
  Beta virt. eigenvalues --    3.41082   3.53303   3.72704  53.82764
          Condensed to atoms (all electrons):
               1          2          3          4          5          6
     1  N    6.076008   0.925588  -0.030704  -0.001790   0.000020   0.000028
     2  C    0.925588   5.003600   0.314831  -0.086336   0.014137   0.002242
     3  C   -0.030704   0.314831   5.343416   0.289165   0.086965  -0.157125
     4  C   -0.001790  -0.086336   0.289165   4.962435   0.331133   0.087396
     5  C    0.000020   0.014137   0.086965   0.331133   4.983216   0.278072
     6  C    0.000028   0.002242  -0.157125   0.087396   0.278072   5.333758
     7  C    0.000000   0.000197   0.002724   0.014852  -0.085544   0.353028
     8  N    0.000000   0.000000   0.000034   0.000020  -0.000806  -0.022425
     9  C    0.000024   0.014643   0.086734  -0.135935   0.074570   0.278928
    10  C   -0.001862  -0.085920   0.285264   0.081877  -0.133769   0.084158
    11  H   -0.000155  -0.019073  -0.059372   0.461060  -0.063176   0.014421
    12  H   -0.000002  -0.000386   0.014225  -0.061299   0.459565  -0.061809
    13  H   -0.000002  -0.000333   0.013604  -0.001699   0.011749  -0.064232
    14  H   -0.000189  -0.019161  -0.062367   0.012418  -0.001504   0.014786
    15  Ag   0.000000   0.000021  -0.000435   0.000254   0.000111  -0.025266
               7          8          9         10         11         12
     1  N    0.000000   0.000000   0.000024  -0.001862  -0.000155  -0.000002
     2  C    0.000197   0.000000   0.014643  -0.085920  -0.019073  -0.000386
     3  C    0.002724   0.000034   0.086734   0.285264  -0.059372   0.014225
     4  C    0.014852   0.000020  -0.135935   0.081877   0.461060  -0.061299
     5  C   -0.085544  -0.000806   0.074570  -0.133769  -0.063176   0.459565
     6  C    0.353028  -0.022425   0.278928   0.084158   0.014421  -0.061809
     7  C    5.110058   0.664878  -0.084605   0.014253  -0.000460  -0.018599
     8  N    0.664878   6.356403  -0.003824   0.000012  -0.000002  -0.000552
     9  C   -0.084605  -0.003824   5.000306   0.338707  -0.001418   0.012721
    10  C    0.014253   0.000012   0.338707   4.951246   0.012391  -0.001411
    11  H   -0.000460  -0.000002  -0.001418   0.012391   0.622902  -0.010277
    12  H   -0.018599  -0.000552   0.012721  -0.001411  -0.010277   0.625973
    13  H   -0.019657  -0.000748   0.451597  -0.055750   0.000024  -0.000081
    14  H   -0.000403  -0.000002  -0.062199   0.462697  -0.000146   0.000026
    15  Ag  -0.029710   0.063272  -0.013039   0.002140  -0.000024   0.000085
              13         14         15
     1  N   -0.000002  -0.000189   0.000000
     2  C   -0.000333  -0.019161   0.000021
     3  C    0.013604  -0.062367  -0.000435
     4  C   -0.001699   0.012418   0.000254
     5  C    0.011749  -0.001504   0.000111
     6  C   -0.064232   0.014786  -0.025266
     7  C   -0.019657  -0.000403  -0.029710
     8  N   -0.000748  -0.000002   0.063272
     9  C    0.451597  -0.062199  -0.013039
    10  C   -0.055750   0.462697   0.002140
    11  H    0.000024  -0.000146  -0.000024
    12  H   -0.000081   0.000026   0.000085
    13  H    0.602480  -0.010644   0.023361
    14  H   -0.010644   0.622108   0.000638
    15  Ag   0.023361   0.000638  19.087247
          Atomic-Atomic Spin Densities.
               1          2          3          4          5          6
     1  N    0.001212  -0.000053  -0.000091   0.000009   0.000000   0.000000
     2  C   -0.000053   0.000328  -0.001456  -0.000159  -0.000071   0.000019
     3  C   -0.000091  -0.001456   0.009401  -0.000623   0.000274   0.000355
     4  C    0.000009  -0.000159  -0.000623   0.000454  -0.000222  -0.000536
     5  C    0.000000  -0.000071   0.000274  -0.000222   0.005471   0.004117
     6  C    0.000000   0.000019   0.000355  -0.000536   0.004117   0.017745
     7  C    0.000000   0.000005  -0.000092   0.000328  -0.003822  -0.008951
     8  N    0.000000   0.000000   0.000002  -0.000002   0.000078   0.003625
     9  C    0.000000  -0.000044   0.000339   0.000188  -0.000852   0.000708
    10  C    0.000005   0.000629  -0.002848   0.000025  -0.000420  -0.000653
    11  H    0.000001  -0.000021   0.000008   0.000003   0.000083   0.000011
    12  H    0.000000   0.000012  -0.000069   0.000322  -0.001671  -0.001455
    13  H    0.000000   0.000018  -0.000340   0.000021  -0.000143  -0.001552
    14  H    0.000004   0.000214  -0.001204   0.000001  -0.000035  -0.000037
    15  Ag   0.000000   0.000046  -0.000626   0.000123  -0.000883  -0.017865
               7          8          9         10         11         12
     1  N    0.000000   0.000000   0.000000   0.000005   0.000001   0.000000
     2  C    0.000005   0.000000  -0.000044   0.000629  -0.000021   0.000012
     3  C   -0.000092   0.000002   0.000339  -0.002848   0.000008  -0.000069
     4  C    0.000328  -0.000002   0.000188   0.000025   0.000003   0.000322
     5  C   -0.003822   0.000078  -0.000852  -0.000420   0.000083  -0.001671
     6  C   -0.008951   0.003625   0.000708  -0.000653   0.000011  -0.001455
     7  C    0.074053   0.007068   0.001055   0.000132  -0.000011   0.001963
     8  N    0.007068   0.042486   0.000095  -0.000008   0.000000  -0.000065
     9  C    0.001055   0.000095   0.025772  -0.000488  -0.000005   0.000176
    10  C    0.000132  -0.000008  -0.000488  -0.001931  -0.000028   0.000098
    11  H   -0.000011   0.000000  -0.000005  -0.000028  -0.000019  -0.000041
    12  H    0.001963  -0.000065   0.000176   0.000098  -0.000041   0.001271
    13  H   -0.001070  -0.000363  -0.005016   0.000771  -0.000001   0.000032
    14  H    0.000000  -0.000001  -0.001354   0.000772  -0.000002   0.000004
    15  Ag  -0.028818  -0.066519  -0.012787   0.001228  -0.000006   0.000398
              13         14         15
     1  N    0.000000   0.000004   0.000000
     2  C    0.000018   0.000214   0.000046
     3  C   -0.000340  -0.001204  -0.000626
     4  C    0.000021   0.000001   0.000123
     5  C   -0.000143  -0.000035  -0.000883
     6  C   -0.001552  -0.000037  -0.017865
     7  C   -0.001070   0.000000  -0.028818
     8  N   -0.000363  -0.000001  -0.066519
     9  C   -0.005016  -0.001354  -0.012787
    10  C    0.000771   0.000772   0.001228
    11  H   -0.000001  -0.000002  -0.000006
    12  H    0.000032   0.000004   0.000398
    13  H    0.001506   0.000313   0.014238
    14  H    0.000313   0.001968   0.000581
    15  Ag   0.014238   0.000581   1.066041
 Mulliken charges and spin densities:
               1          2
     1  N    0.033034   0.001087
     2  C   -0.064051  -0.000532
     3  C   -0.126959   0.003030
     4  C    0.046448  -0.000067
     5  C    0.045263   0.001905
     6  C   -0.115960  -0.004470
     7  C    0.078989   0.041840
     8  N   -0.056260  -0.013605
     9  C    0.042789   0.007790
    10  C    0.045967  -0.002716
    11  H    0.043304  -0.000027
    12  H    0.041821   0.000976
    13  H    0.050331   0.008414
    14  H    0.043940   0.001226
    15  Ag  -0.108655   0.955152
 Sum of Mulliken charges =   0.00000   1.00000
 Mulliken charges and spin densities with hydrogens summed into heavy atoms:
               1          2
     1  N    0.033034   0.001087
     2  C   -0.064051  -0.000532
     3  C   -0.126959   0.003030
     4  C    0.089752  -0.000095
     5  C    0.087083   0.002880
     6  C   -0.115960  -0.004470
     7  C    0.078989   0.041840
     8  N   -0.056260  -0.013605
     9  C    0.093120   0.016204
    10  C    0.089907  -0.001491
    15  Ag  -0.108655   0.955152
 Electronic spatial extent (au):  <R**2>=           3156.6660
 Charge=              0.0000 electrons
 Dipole moment (field-independent basis, Debye):
    X=              0.7803    Y=             -2.2249    Z=             -0.5995  Tot=              2.4328
 Quadrupole moment (field-independent basis, Debye-Ang):
   XX=           -111.8212   YY=            -75.4987   ZZ=            -78.8097
   XY=              7.4741   XZ=              0.2441   YZ=             -0.8845
 Traceless Quadrupole moment (field-independent basis, Debye-Ang):
   XX=            -23.1113   YY=             13.2112   ZZ=              9.9001
   XY=              7.4741   XZ=              0.2441   YZ=             -0.8845
 Octapole moment (field-independent basis, Debye-Ang**2):
  XXX=            271.1317  YYY=           -158.1875  ZZZ=            -23.9851  XYY=            120.7267
  XXY=            -79.8549  XXZ=            -17.7170  XZZ=             90.1229  YZZ=            -45.8393
  YYZ=            -12.9774  XYZ=              7.2798
 Hexadecapole moment (field-independent basis, Debye-Ang**3):
 XXXX=          -4825.7281 YYYY=           -937.0335 ZZZZ=           -120.3077 XXXY=            645.0779
 XXXZ=             25.7444 YYYX=            638.6747 YYYZ=            -72.6426 ZZZX=             40.9088
 ZZZY=            -65.9786 XXYY=           -940.8929 XXZZ=           -706.8663 YYZZ=           -178.7226
 XXYZ=            -51.5243 YYXZ=             35.7131 ZZXY=            184.8305
 N-N= 5.669944836119D+02 E-N=-2.415058109200D+03  KE= 4.685640911825D+02
                          Isotropic Fermi Contact Couplings
        Atom                 a.u.       MegaHertz       Gauss      10(-4) cm-1
     1  N(14)              0.00027       0.08844       0.03156       0.02950
     2  C(13)             -0.00006      -0.06430      -0.02294      -0.02145
     3  C(13)              0.00185       2.07830       0.74159       0.69325
     4  C(13)             -0.00019      -0.21533      -0.07683      -0.07183
     5  C(13)              0.00451       5.06481       1.80725       1.68944
     6  C(13)              0.00478       5.37125       1.91659       1.79165
     7  C(13)              0.00801       9.01029       3.21509       3.00551
     8  N(14)              0.12254      39.59394      14.12810      13.20712
     9  C(13)              0.00759       8.52972       3.04361       2.84521
    10  C(13)             -0.00139      -1.55703      -0.55559      -0.51937
    11  H(1)              -0.00001      -0.03671      -0.01310      -0.01225
    12  H(1)              -0.00003      -0.13809      -0.04927      -0.04606
    13  H(1)              -0.00049      -2.17336      -0.77551      -0.72496
    14  H(1)               0.00032       1.40861       0.50263       0.46986
    15  Ag(107             0.00029      -0.05288      -0.01887      -0.01764
 --------------------------------------------------------
       Center         ----  Spin Dipole Couplings  ----
                      3XX-RR        3YY-RR        3ZZ-RR
 --------------------------------------------------------
     1   Atom       -0.000747     -0.001202      0.001949
     2   Atom        0.001161     -0.000355     -0.000807
     3   Atom       -0.000104     -0.001742      0.001845
     4   Atom        0.000879     -0.000093     -0.000786
     5   Atom        0.001435     -0.000387     -0.001047
     6   Atom        0.006753     -0.001595     -0.005158
     7   Atom       -0.034878      0.059392     -0.024514
     8   Atom        0.010009      0.001260     -0.011268
     9   Atom       -0.004604      0.014101     -0.009497
    10   Atom        0.003369     -0.000264     -0.003105
    11   Atom        0.000403      0.000087     -0.000490
    12   Atom        0.000055      0.001311     -0.001366
    13   Atom        0.009923     -0.003194     -0.006728
    14   Atom        0.002068     -0.001006     -0.001062
    15   Atom        0.018796     -0.033606      0.014810
 --------------------------------------------------------
                        XY            XZ            YZ
 --------------------------------------------------------
     1   Atom       -0.000178      0.000263      0.000446
     2   Atom       -0.000232      0.000293      0.000018
     3   Atom       -0.001046     -0.001356      0.001391
     4   Atom       -0.000882     -0.000670      0.000071
     5   Atom       -0.002939      0.001112     -0.000688
     6   Atom       -0.001371     -0.005989     -0.001190
     7   Atom       -0.009120     -0.002263      0.037110
     8   Atom       -0.011574      0.006754     -0.014469
     9   Atom       -0.008342      0.001352     -0.007287
    10   Atom       -0.000848     -0.000048      0.000423
    11   Atom       -0.000668     -0.000057      0.000038
    12   Atom       -0.001522     -0.000136      0.000166
    13   Atom       -0.006065     -0.002996      0.001482
    14   Atom       -0.000118     -0.000070      0.000022
    15   Atom        0.013466      0.002177     -0.016822
 --------------------------------------------------------


 ---------------------------------------------------------------------------------
              Anisotropic Spin Dipole Couplings in Principal Axis System
 ---------------------------------------------------------------------------------

       Atom             a.u.   MegaHertz   Gauss  10(-4) cm-1        Axes

              Baa    -0.0013    -0.052    -0.018    -0.017  0.3453  0.9259 -0.1532
     1 N(14)  Bbb    -0.0007    -0.027    -0.009    -0.009  0.9346 -0.3540 -0.0333
              Bcc     0.0020     0.078     0.028     0.026  0.0851  0.1317  0.9876
 
              Baa    -0.0009    -0.115    -0.041    -0.038 -0.1551 -0.1070  0.9821
     2 C(13)  Bbb    -0.0004    -0.051    -0.018    -0.017  0.1242  0.9841  0.1268
              Bcc     0.0012     0.166     0.059     0.055  0.9801 -0.1417  0.1393
 
              Baa    -0.0024    -0.321    -0.115    -0.107  0.3012  0.9304 -0.2089
     3 C(13)  Bbb    -0.0008    -0.101    -0.036    -0.034  0.8394 -0.1547  0.5210
              Bcc     0.0031     0.422     0.151     0.141 -0.4524  0.3323  0.8276
 
              Baa    -0.0011    -0.147    -0.053    -0.049  0.4275  0.3150  0.8474
     4 C(13)  Bbb    -0.0005    -0.062    -0.022    -0.021  0.3119  0.8284 -0.4653
              Bcc     0.0016     0.210     0.075     0.070  0.8485 -0.4632 -0.2559
 
              Baa    -0.0026    -0.344    -0.123    -0.115  0.6055  0.7913 -0.0850
     5 C(13)  Bbb    -0.0014    -0.185    -0.066    -0.062 -0.1515  0.2195  0.9638
              Bcc     0.0039     0.529     0.189     0.176  0.7813 -0.5707  0.2528
 
              Baa    -0.0081    -1.082    -0.386    -0.361  0.3828  0.2452  0.8907
     6 C(13)  Bbb    -0.0012    -0.167    -0.060    -0.056 -0.0254  0.9666 -0.2551
              Bcc     0.0093     1.249     0.446     0.416  0.9235 -0.0751 -0.3762
 
              Baa    -0.0389    -5.226    -1.865    -1.743 -0.3201 -0.3603  0.8762
     7 C(13)  Bbb    -0.0353    -4.737    -1.690    -1.580  0.9435 -0.0381  0.3291
              Bcc     0.0742     9.963     3.555     3.323 -0.0852  0.9320  0.3522
 
              Baa    -0.0208    -0.802    -0.286    -0.267  0.0282  0.5587  0.8289
     8 N(14)  Bbb    -0.0030    -0.115    -0.041    -0.038  0.7163  0.5671 -0.4066
              Bcc     0.0238     0.917     0.327     0.306  0.6972 -0.6052  0.3842
 
              Baa    -0.0118    -1.580    -0.564    -0.527  0.2055  0.3261  0.9227
     9 C(13)  Bbb    -0.0074    -0.989    -0.353    -0.330  0.9200  0.2570 -0.2958
              Bcc     0.0191     2.569     0.917     0.857 -0.3336  0.9097 -0.2472
 
              Baa    -0.0032    -0.425    -0.152    -0.142 -0.0119 -0.1475  0.9890
    10 C(13)  Bbb    -0.0004    -0.053    -0.019    -0.018  0.2194  0.9646  0.1465
              Bcc     0.0036     0.478     0.170     0.159  0.9756 -0.2187 -0.0208
 
              Baa    -0.0005    -0.263    -0.094    -0.088  0.1061  0.0573  0.9927
    11 H(1)   Bbb    -0.0004    -0.235    -0.084    -0.078  0.6124  0.7828 -0.1106
              Bcc     0.0009     0.498     0.178     0.166  0.7834 -0.6196 -0.0480
 
              Baa    -0.0014    -0.736    -0.263    -0.245  0.0739 -0.0195  0.9971
    12 H(1)   Bbb    -0.0010    -0.514    -0.183    -0.171  0.8282  0.5582 -0.0505
              Bcc     0.0023     1.250     0.446     0.417 -0.5555  0.8295  0.0574
 
              Baa    -0.0073    -3.916    -1.397    -1.306  0.0959 -0.2077  0.9735
    13 H(1)   Bbb    -0.0055    -2.947    -1.052    -0.983  0.3871  0.9088  0.1558
              Bcc     0.0129     6.863     2.449     2.289  0.9170 -0.3619 -0.1676
 
              Baa    -0.0011    -0.571    -0.204    -0.190  0.0097 -0.3067  0.9518
    14 H(1)   Bbb    -0.0010    -0.536    -0.191    -0.179  0.0434  0.9510  0.3060
              Bcc     0.0021     1.107     0.395     0.369  0.9990 -0.0383 -0.0225
 
              Baa    -0.0419     0.909     0.324     0.303 -0.2174  0.9335  0.2853
    15 Ag(107 Bbb     0.0189    -0.409    -0.146    -0.136  0.5283 -0.1333  0.8385
              Bcc     0.0230    -0.500    -0.178    -0.167  0.8208  0.3330 -0.4642
 

 ---------------------------------------------------------------------------------

 No NMR shielding tensors so no spin-rotation constants.
 Leave Link  601 at Sat Sep 12 02:30:09 2026, MaxMem=  6442450944 cpu:               1.0 elap:               1.3
 (Enter C:\G16W\l9999.exe)
 Unable to Open any file for archive entry.
 1|1|UNPC-DESKTOP-2JKEGCA|SP|UPBE1PBE|def2SVP|C8H4Ag1N2(2)|JHKIM|12-Sep
 -2026|0||#P PBE1PBE/Def2SVP EmpiricalDispersion=GD3BJ SP SCF=(XQC,MaxC
 ycle=128) NoSymm Guess=Read||pDCNB t=1.000 dz=+0.00 class=site2site||0
 ,2|N,0,3.931702,0.144186,0.275285|C,0,2.789514,0.102334,0.195267|C,0,1
 .37857,0.050557,0.096627|C,0,0.739202,-1.181159,-0.060221|C,0,-0.63553
 1,-1.231584,-0.156484|C,0,-1.378585,-0.050574,-0.096444|C,0,-2.789474,
 -0.10226,-0.195902|N,0,-3.931683,-0.144185,-0.275406|C,0,-0.739218,1.1
 81139,0.060434|C,0,0.635515,1.231563,0.156697|H,0,1.326442,-2.086139,-
 0.105102|H,0,-1.143254,-2.176721,-0.27808|H,0,-1.326448,2.086131,0.105
 176|H,0,1.143247,2.176713,0.278153|Ag,0,-4.23434962,2.04797741,0.35134
 391||Version=EM64W-G16RevC.01|HF=-562.8732343|S2=0.75181|S2-1=0.|S2A=0
 .750003|RMSD=3.639e-009|Dipole=0.3069945,-0.8753393,-0.235849|Quadrupo
 le=-17.1826963,9.8221811,7.3605152,5.5567892,0.1814903,-0.6576233|PG=C
 01 [X(C8H4Ag1N2)]||@
 The archive entry for this job was punched.


 Money is a good servant but a bad master.
                        -- French Proverb
 Job cpu time:       0 days  0 hours  2 minutes  3.0 seconds.
 Elapsed time:       0 days  0 hours  2 minutes  2.3 seconds.
 File lengths (MBytes):  RWF=     40 Int=      0 D2E=      0 Chk=      4 Scr=      1
 Normal termination of Gaussian 16 at Sat Sep 12 02:30:10 2026.
