 Entering Gaussian System, Link 0=C:\G16W\g16.exe
 Input=Ph3PO_t2_z0.gjf
 Output=Ph3PO_t2_z0.out
 Initial command:
 C:\G16W\l1.exe ".\Gau-88452.inp" "Ph3PO_t2_z0.out" /scrdir=".\"
 Entering Link 1 = C:\G16W\l1.exe PID=     49452.
  
 Copyright (c) 1988-2019, Gaussian, Inc.  All Rights Reserved.
  
 This is part of the Gaussian(R) 16 program.  It is based on
 the Gaussian(R) 09 system (copyright 2009, Gaussian, Inc.),
 the Gaussian(R) 03 system (copyright 2003, Gaussian, Inc.),
 the Gaussian(R) 98 system (copyright 1998, Gaussian, Inc.),
 the Gaussian(R) 94 system (copyright 1995, Gaussian, Inc.),
 the Gaussian 92(TM) system (copyright 1992, Gaussian, Inc.),
 the Gaussian 90(TM) system (copyright 1990, Gaussian, Inc.),
 the Gaussian 88(TM) system (copyright 1988, Gaussian, Inc.),
 the Gaussian 86(TM) system (copyright 1986, Carnegie Mellon
 University), and the Gaussian 82(TM) system (copyright 1983,
 Carnegie Mellon University). Gaussian is a federally registered
 trademark of Gaussian, Inc.
  
 This software contains proprietary and confidential information,
 including trade secrets, belonging to Gaussian, Inc.
  
 This software is provided under written license and may be
 used, copied, transmitted, or stored only in accord with that
 written license.
  
 The following legend is applicable only to US Government
 contracts under FAR:
  
                    RESTRICTED RIGHTS LEGEND
  
 Use, reproduction and disclosure by the US Government is
 subject to restrictions as set forth in subparagraphs (a)
 and (c) of the Commercial Computer Software - Restricted
 Rights clause in FAR 52.227-19.
  
 Gaussian, Inc.
 340 Quinnipiac St., Bldg. 40, Wallingford CT 06492
  
  
 ---------------------------------------------------------------
 Warning -- This program may not be used in any manner that
 competes with the business of Gaussian, Inc. or will provide
 assistance to any competitor of Gaussian, Inc.  The licensee
 of this program is prohibited from giving any competitor of
 Gaussian, Inc. access to this program.  By using this program,
 the user acknowledges that Gaussian, Inc. is engaged in the
 business of creating and licensing software in the field of
 computational chemistry and represents and warrants to the
 licensee that it is not a competitor of Gaussian, Inc. and that
 it will not use this program in any manner prohibited above.
 ---------------------------------------------------------------
  

 Cite this work as:
 Gaussian 16, Revision C.01,
 M. J. Frisch, G. W. Trucks, H. B. Schlegel, G. E. Scuseria, 
 M. A. Robb, J. R. Cheeseman, G. Scalmani, V. Barone, 
 G. A. Petersson, H. Nakatsuji, X. Li, M. Caricato, A. V. Marenich, 
 J. Bloino, B. G. Janesko, R. Gomperts, B. Mennucci, H. P. Hratchian, 
 J. V. Ortiz, A. F. Izmaylov, J. L. Sonnenberg, D. Williams-Young, 
 F. Ding, F. Lipparini, F. Egidi, J. Goings, B. Peng, A. Petrone, 
 T. Henderson, D. Ranasinghe, V. G. Zakrzewski, J. Gao, N. Rega, 
 G. Zheng, W. Liang, M. Hada, M. Ehara, K. Toyota, R. Fukuda, 
 J. Hasegawa, M. Ishida, T. Nakajima, Y. Honda, O. Kitao, H. Nakai, 
 T. Vreven, K. Throssell, J. A. Montgomery, Jr., J. E. Peralta, 
 F. Ogliaro, M. J. Bearpark, J. J. Heyd, E. N. Brothers, K. N. Kudin, 
 V. N. Staroverov, T. A. Keith, R. Kobayashi, J. Normand, 
 K. Raghavachari, A. P. Rendell, J. C. Burant, S. S. Iyengar, 
 J. Tomasi, M. Cossi, J. M. Millam, M. Klene, C. Adamo, R. Cammi, 
 J. W. Ochterski, R. L. Martin, K. Morokuma, O. Farkas, 
 J. B. Foresman, and D. J. Fox, Gaussian, Inc., Wallingford CT, 2019.
 
 ******************************************
 Gaussian 16:  EM64W-G16RevC.01 30-May-2019
                12-Sep-2026 
 ******************************************
 %Chk=Ph3PO.chk
 %NProcShared=8
 Will use up to    8 processors via shared memory.
 %Mem=48GB
 ----------------------------------------------------------------------
 #P PBE1PBE/Def2SVP EmpiricalDispersion=GD3BJ SP SCF=(XQC,MaxCycle=128)
  NoSymm Guess=Read
 ----------------------------------------------------------------------
 1/38=1,172=1/1;
 2/12=2,15=1,17=6,18=5,40=1/2;
 3/5=43,7=101,11=2,25=1,30=1,74=-13,116=-2,124=41/1,2,3;
 4/5=1/1;
 5/5=2,7=128,8=3,13=1,38=6/2,8;
 6/7=2,8=2,9=2,10=2,28=1/1;
 99/5=1,9=1/99;
 Leave Link    1 at Sat Sep 12 00:20:25 2026, MaxMem=  6442450944 cpu:               1.0 elap:               0.2
 (Enter C:\G16W\l101.exe)
 ------------------------------------
 Ph3P=O t=0.500 dz=+0.00 class=toface
 ------------------------------------
 Symbolic Z-matrix:
 Charge =  0 Multiplicity = 2
 O                     0.1572   -0.10049   2.62699 
 P                     0.06961  -0.04449   1.1633 
 C                     1.16679  -1.23653   0.32725 
 C                     1.69196  -1.03474  -0.94188 
 C                     2.50639  -1.99995  -1.50715 
 C                     2.79567  -3.16255  -0.8106 
 C                     2.27647  -3.36137   0.45855 
 C                     1.46345  -2.3978    1.02711 
 C                    -1.60108  -0.39815   0.52498 
 C                    -1.84253  -0.94713  -0.72703 
 C                    -3.14505  -1.1699   -1.13723 
 C                    -4.20325  -0.84586  -0.30313 
 C                    -3.96221  -0.30354   0.94892 
 C                    -2.66138  -0.08119   1.36263 
 C                     0.51364   1.58394   0.47425 
 C                     0.00745   2.07344  -0.72214 
 C                     0.40989   3.31619  -1.17829 
 C                     1.31431   4.06805  -0.44533 
 C                     1.81499   3.5822    0.7518 
 C                     1.41344   2.34112   1.2114 
 H                     1.47377  -0.12193  -1.47862 
 H                     2.91946  -1.84434  -2.49342 
 H                     3.43236  -3.91232  -1.25707 
 H                     2.50747  -4.26537   1.00274 
 H                     1.05567  -2.52175   2.02023 
 H                    -1.01486  -1.2093   -1.37136 
 H                    -3.33617  -1.60023  -2.10978 
 H                    -5.21795  -1.02243  -0.62882 
 H                    -4.78771  -0.05689   1.6004 
 H                    -2.44481   0.32877   2.33883 
 H                    -0.70646   1.48969  -1.28648 
 H                     0.01512   3.70145  -2.10744 
 H                     1.62449   5.0377   -0.80647 
 H                     2.51535   4.17178   1.32504 
 H                     1.77854   1.94391   2.14781 
 Ag                    2.26642   0.29483   3.56426 
 
 ITRead=  0  0  0  0  0  0  0  0  0  0  0  0  0  0  0  0  0  0  0  0
 ITRead=  0  0  0  0  0  0  0  0  0  0  0  0  0  0  0  0
 MicOpt= -1 -1 -1 -1 -1 -1 -1 -1 -1 -1 -1 -1 -1 -1 -1 -1 -1 -1 -1 -1
 MicOpt= -1 -1 -1 -1 -1 -1 -1 -1 -1 -1 -1 -1 -1 -1 -1 -1
 NAtoms=     36 NQM=       36 NQMF=       0 NMMI=      0 NMMIF=      0
                NMic=       0 NMicF=      0.
                    Isotopes and Nuclear Properties:
 (Nuclear quadrupole moments (NQMom) in fm**2, nuclear magnetic moments (NMagM)
  in nuclear magnetons)

  Atom         1           2           3           4           5           6           7           8           9          10
 IAtWgt=          16          31          12          12          12          12          12          12          12          12
 AtmWgt=  15.9949146  30.9737634  12.0000000  12.0000000  12.0000000  12.0000000  12.0000000  12.0000000  12.0000000  12.0000000
 NucSpn=           0           1           0           0           0           0           0           0           0           0
 AtZEff=   0.0000000   0.0000000   0.0000000   0.0000000   0.0000000   0.0000000   0.0000000   0.0000000   0.0000000   0.0000000
 NQMom=    0.0000000   0.0000000   0.0000000   0.0000000   0.0000000   0.0000000   0.0000000   0.0000000   0.0000000   0.0000000
 NMagM=    0.0000000   1.1316000   0.0000000   0.0000000   0.0000000   0.0000000   0.0000000   0.0000000   0.0000000   0.0000000
 AtZNuc=   8.0000000  15.0000000   6.0000000   6.0000000   6.0000000   6.0000000   6.0000000   6.0000000   6.0000000   6.0000000

  Atom        11          12          13          14          15          16          17          18          19          20
 IAtWgt=          12          12          12          12          12          12          12          12          12          12
 AtmWgt=  12.0000000  12.0000000  12.0000000  12.0000000  12.0000000  12.0000000  12.0000000  12.0000000  12.0000000  12.0000000
 NucSpn=           0           0           0           0           0           0           0           0           0           0
 AtZEff=   0.0000000   0.0000000   0.0000000   0.0000000   0.0000000   0.0000000   0.0000000   0.0000000   0.0000000   0.0000000
 NQMom=    0.0000000   0.0000000   0.0000000   0.0000000   0.0000000   0.0000000   0.0000000   0.0000000   0.0000000   0.0000000
 NMagM=    0.0000000   0.0000000   0.0000000   0.0000000   0.0000000   0.0000000   0.0000000   0.0000000   0.0000000   0.0000000
 AtZNuc=   6.0000000   6.0000000   6.0000000   6.0000000   6.0000000   6.0000000   6.0000000   6.0000000   6.0000000   6.0000000

  Atom        21          22          23          24          25          26          27          28          29          30
 IAtWgt=           1           1           1           1           1           1           1           1           1           1
 AtmWgt=   1.0078250   1.0078250   1.0078250   1.0078250   1.0078250   1.0078250   1.0078250   1.0078250   1.0078250   1.0078250
 NucSpn=           1           1           1           1           1           1           1           1           1           1
 AtZEff=   0.0000000   0.0000000   0.0000000   0.0000000   0.0000000   0.0000000   0.0000000   0.0000000   0.0000000   0.0000000
 NQMom=    0.0000000   0.0000000   0.0000000   0.0000000   0.0000000   0.0000000   0.0000000   0.0000000   0.0000000   0.0000000
 NMagM=    2.7928460   2.7928460   2.7928460   2.7928460   2.7928460   2.7928460   2.7928460   2.7928460   2.7928460   2.7928460
 AtZNuc=   1.0000000   1.0000000   1.0000000   1.0000000   1.0000000   1.0000000   1.0000000   1.0000000   1.0000000   1.0000000

  Atom        31          32          33          34          35          36
 IAtWgt=           1           1           1           1           1         107
 AtmWgt=   1.0078250   1.0078250   1.0078250   1.0078250   1.0078250 106.9050900
 NucSpn=           1           1           1           1           1           1
 AtZEff=   0.0000000   0.0000000   0.0000000   0.0000000   0.0000000   0.0000000
 NQMom=    0.0000000   0.0000000   0.0000000   0.0000000   0.0000000   0.0000000
 NMagM=    2.7928460   2.7928460   2.7928460   2.7928460   2.7928460  -0.1135700
 AtZNuc=   1.0000000   1.0000000   1.0000000   1.0000000   1.0000000  47.0000000
 Leave Link  101 at Sat Sep 12 00:20:25 2026, MaxMem=  6442450944 cpu:               0.0 elap:               0.2
 (Enter C:\G16W\l202.exe)
                          Input orientation:                          
 ---------------------------------------------------------------------
 Center     Atomic      Atomic             Coordinates (Angstroms)
 Number     Number       Type             X           Y           Z
 ---------------------------------------------------------------------
      1          8           0        0.157203   -0.100492    2.626991
      2         15           0        0.069607   -0.044493    1.163304
      3          6           0        1.166792   -1.236526    0.327247
      4          6           0        1.691956   -1.034741   -0.941876
      5          6           0        2.506392   -1.999945   -1.507150
      6          6           0        2.795669   -3.162547   -0.810599
      7          6           0        2.276474   -3.361367    0.458551
      8          6           0        1.463446   -2.397796    1.027112
      9          6           0       -1.601084   -0.398148    0.524976
     10          6           0       -1.842527   -0.947129   -0.727028
     11          6           0       -3.145051   -1.169900   -1.137226
     12          6           0       -4.203253   -0.845855   -0.303131
     13          6           0       -3.962206   -0.303544    0.948922
     14          6           0       -2.661381   -0.081191    1.362634
     15          6           0        0.513641    1.583938    0.474247
     16          6           0        0.007445    2.073442   -0.722137
     17          6           0        0.409889    3.316190   -1.178293
     18          6           0        1.314314    4.068046   -0.445332
     19          6           0        1.814986    3.582200    0.751795
     20          6           0        1.413441    2.341123    1.211398
     21          1           0        1.473765   -0.121933   -1.478618
     22          1           0        2.919456   -1.844342   -2.493424
     23          1           0        3.432355   -3.912319   -1.257069
     24          1           0        2.507467   -4.265374    1.002736
     25          1           0        1.055670   -2.521752    2.020234
     26          1           0       -1.014865   -1.209302   -1.371357
     27          1           0       -3.336170   -1.600225   -2.109779
     28          1           0       -5.217949   -1.022428   -0.628822
     29          1           0       -4.787714   -0.056885    1.600396
     30          1           0       -2.444807    0.328765    2.338833
     31          1           0       -0.706462    1.489685   -1.286482
     32          1           0        0.015119    3.701451   -2.107435
     33          1           0        1.624492    5.037702   -0.806466
     34          1           0        2.515351    4.171781    1.325042
     35          1           0        1.778541    1.943911    2.147808
     36         47           0        2.266418    0.294830    3.564265
 ---------------------------------------------------------------------
                    Distance matrix (angstroms):
                    1          2          3          4          5
     1  O    0.000000
     2  P    1.467375   0.000000
     3  C    2.756568   1.823115   0.000000
     4  C    3.995635   2.836263   1.388232   0.000000
     5  C    5.120325   4.110114   2.396320   1.383640   0.000000
     6  C    5.306101   4.588024   2.767217   2.400620   1.385824
     7  C    4.452724   4.045812   2.400747   2.777777   2.402147
     8  C    3.089254   2.738498   1.387935   2.405629   2.769207
     9  C    2.756563   1.823114   2.898812   3.660740   4.854549
    10  C    3.995642   2.836259   3.201757   3.542091   4.542038
    11  C    5.120336   4.110110   4.554241   4.842837   5.724039
    12  C    5.306106   4.588022   5.421013   5.932720   6.913821
    13  C    4.452716   4.045811   5.250101   6.006606   7.124102
    14  C    3.089237   2.738499   4.130585   5.017127   6.214753
    15  C    2.756567   1.823116   2.898833   3.201767   4.554252
    16  C    3.995632   2.836265   3.660762   3.542127   4.842878
    17  C    5.120327   4.110117   4.854562   4.542047   5.724051
    18  C    5.306108   4.588026   5.362567   5.140779   6.274474
    19  C    4.452732   4.045811   4.880627   4.919329   6.061453
    20  C    3.089259   2.738497   3.693526   4.013803   5.237358
    21  H    4.311591   2.992893   2.144224   1.081165   2.143376
    22  H    6.073690   4.973204   3.376012   2.137642   1.080542
    23  H    6.351580   5.668012   3.847428   3.377690   2.139421
    24  H    5.050563   4.876964   3.380476   3.857922   3.381079
    25  H    2.652904   2.800618   2.128464   3.374931   3.849586
    26  H    4.311611   2.992886   2.765072   2.746235   3.611483
    27  H    6.073701   4.973197   5.133034   5.192862   5.887144
    28  H    6.351578   5.668009   6.459475   6.917004   7.835333
    29  H    5.050545   4.876963   6.202306   7.028903   8.163106
    30  H    2.652876   2.800619   4.420437   5.452982   6.687963
    31  H    4.311595   2.992898   3.680411   3.499127   4.748541
    32  H    6.073693   4.973208   5.624735   5.157696   6.250816
    33  H    6.351583   5.668013   6.392240   6.074327   7.127214
    34  H    5.050569   4.876965   5.662507   5.738011   6.790552
    35  H    2.652911   2.800617   3.715354   4.292553   5.426093
    36  Ag   2.341698   3.271962   3.746000   4.733188   5.571609
                    6          7          8          9         10
     6  C    0.000000
     7  C    1.385581   0.000000
     8  C    2.395171   1.383020   0.000000
     9  C    5.362565   4.880629   3.693518   0.000000
    10  C    5.140810   4.919381   4.013838   1.388232   0.000000
    11  C    6.274510   6.061515   5.237397   2.396320   1.383639
    12  C    7.389824   6.992483   6.024080   2.767216   2.400619
    13  C    7.545773   6.965047   5.816331   2.400745   2.777778
    14  C    6.633030   5.996610   4.742724   1.387935   2.405630
    15  C    5.421033   5.250130   4.130617   2.898845   3.660723
    16  C    5.932756   6.006635   5.017149   3.201783   3.542071
    17  C    6.913840   7.124126   6.214775   4.554278   4.842820
    18  C    7.389811   7.545789   6.633057   5.421064   5.932704
    19  C    6.992455   6.965062   5.996643   5.250157   6.006591
    20  C    6.024069   5.816356   4.742765   4.130635   5.017113
    21  H    3.382161   3.858873   3.385017   3.680405   3.499090
    22  H    2.141235   3.380673   3.849734   5.624722   5.157677
    23  H    1.080214   2.140785   3.374591   6.392229   6.074346
    24  H    2.141838   1.080150   2.139725   5.662498   5.738056
    25  H    3.384055   2.152712   1.080712   3.715351   4.292602
    26  H    4.318540   4.337379   3.647903   2.144225   1.081166
    27  H    6.459734   6.418700   5.789000   3.376010   2.137640
    28  H    8.296459   7.925869   7.019601   3.847426   3.377690
    29  H    8.541998   7.882015   6.699666   3.380473   3.857922
    30  H    7.040651   6.280369   4.942589   2.128461   3.374930
    31  H    5.842487   5.956153   5.017343   2.765075   2.746215
    32  H    7.518491   7.847382   7.008841   5.133070   5.192848
    33  H    8.283463   8.518786   7.659933   6.459531   6.916989
    34  H    7.644077   7.586579   6.659926   6.202370   7.028893
    35  H    5.988542   5.589946   4.495071   4.420485   5.452974
    36  Ag   5.601160   4.797222   3.785782   4.967401   6.069686
                   11         12         13         14         15
    11  C    0.000000
    12  C    1.385825   0.000000
    13  C    2.402151   1.385583   0.000000
    14  C    2.769210   2.395173   1.383020   0.000000
    15  C    4.854534   5.362583   4.880688   3.693596   0.000000
    16  C    4.542004   5.140801   4.919414   4.013894   1.388230
    17  C    5.724010   6.274520   6.061578   5.237481   2.396320
    18  C    6.913807   7.389871   6.992597   6.024206   2.767218
    19  C    7.124101   7.545843   6.965186   5.816478   2.400746
    20  C    6.214754   6.633090   5.996727   4.742853   1.387934
    21  H    4.748499   5.842462   5.956149   5.017350   2.765053
    22  H    6.250791   7.518467   7.847361   7.008825   5.133042
    23  H    7.127236   8.283460   8.518755   7.659896   6.459504
    24  H    6.790608   7.644093   7.586545   6.659873   6.202346
    25  H    5.426151   5.988566   5.589923   4.495024   4.420471
    26  H    2.143376   3.382162   3.858874   3.385019   3.680323
    27  H    1.080539   2.141234   3.380674   3.849735   5.624689
    28  H    2.139423   1.080213   2.140785   3.374591   6.392263
    29  H    3.381082   2.141841   1.080149   2.139723   5.662586
    30  H    3.849588   3.384056   2.152712   1.080709   3.715448
    31  H    3.611424   4.318480   4.337346   3.647900   2.144225
    32  H    5.887108   6.459734   6.418755   5.789077   3.376014
    33  H    7.835322   8.296517   7.926001   7.019741   3.847428
    34  H    8.163116   8.542087   7.882179   6.699831   3.380477
    35  H    6.687976   7.040721   6.280490   4.942716   2.128464
    36  Ag   7.316656   7.623290   6.781875   5.410340   3.779185
                   16         17         18         19         20
    16  C    0.000000
    17  C    1.383641   0.000000
    18  C    2.400619   1.385822   0.000000
    19  C    2.777774   2.402145   1.385580   0.000000
    20  C    2.405626   2.769205   2.395171   1.383020   0.000000
    21  H    2.746276   3.611470   4.318452   4.337254   3.647803
    22  H    5.192908   5.887154   6.459682   6.418618   5.788947
    23  H    6.917044   7.835359   8.296459   7.925858   7.019607
    24  H    7.028932   8.163139   8.542037   7.882063   6.699719
    25  H    5.452998   6.687987   7.040692   6.280424   4.942648
    26  H    3.499002   4.748397   5.842345   5.956032   5.017251
    27  H    5.157629   6.250741   7.518423   7.847327   7.008798
    28  H    6.074361   7.127278   8.283541   8.518854   7.659975
    29  H    5.738118   6.790716   7.644266   7.586746   6.660036
    30  H    4.292665   5.426248   5.988722   5.590113   4.495194
    31  H    1.081166   2.143377   3.382161   3.858872   3.385017
    32  H    2.137644   1.080543   2.141235   3.380671   3.849734
    33  H    3.377690   2.139420   1.080213   2.140783   3.374590
    34  H    3.857922   3.381079   2.141839   1.080152   2.139726
    35  H    3.374929   3.849585   3.384055   2.152713   1.080712
    36  Ag   5.161362   5.921754   5.587533   4.349779   3.232780
                   21         22         23         24         25
    21  H    0.000000
    22  H    2.467093   0.000000
    23  H    4.272258   2.463365   0.000000
    24  H    4.939004   4.272501   2.467141   0.000000
    25  H    4.263320   4.930080   4.280540   2.486611   0.000000
    26  H    2.717932   4.140192   5.205490   5.232850   4.184797
    27  H    5.071409   6.272131   7.203181   7.137147   6.098728
    28  H    6.805298   8.388662   9.141877   8.535850   6.973074
    29  H    6.977871   8.908133   9.518351   8.443237   6.355861
    30  H    5.489196   7.539789   8.090633   6.885948   4.525516
    31  H    2.718017   5.071462   6.805315   6.977862   5.489181
    32  H    4.140208   6.272159   8.388690   8.908157   7.539805
    33  H    5.205415   7.203144   9.141897   9.518407   8.090682
    34  H    5.232723   7.137067   8.535858   8.443313   6.886025
    35  H    4.184682   6.098654   6.973071   6.355922   4.525590
    36  Ag   5.121783   6.457407   6.504212   5.235933   3.432649
                   26         27         28         29         30
    26  H    0.000000
    27  H    2.467092   0.000000
    28  H    4.272259   2.463367   0.000000
    29  H    4.939005   4.272502   2.467142   0.000000
    30  H    4.263320   4.930079   4.280539   2.486610   0.000000
    31  H    2.717875   4.140136   5.205453   5.232835   4.184792
    32  H    5.071309   6.272074   7.203217   7.137248   6.098815
    33  H    6.805172   8.388615   9.141976   8.536052   6.973248
    34  H    6.977754   8.908106   9.518473   8.443471   6.356077
    35  H    5.489116   7.539776   8.090718   6.886113   4.525688
    36  Ag   6.114703   8.196036   8.679453   7.330843   4.868108
                   31         32         33         34         35
    31  H    0.000000
    32  H    2.467094   0.000000
    33  H    4.272258   2.463365   0.000000
    34  H    4.939006   4.272501   2.467139   0.000000
    35  H    4.263321   4.930081   4.280538   2.486612   0.000000
    36  Ag   5.813385   6.988676   6.481527   4.484065   2.227968
                   36
    36  Ag   0.000000
 Symmetry turned off by external request.
 Stoichiometry    C18H15AgOP(2)
 Framework group  C1[X(C18H15AgOP)]
 Deg. of freedom   102
 Full point group                 C1      NOp   1
 Rotational constants (GHZ):           0.2513381           0.1811732           0.1602097
 Leave Link  202 at Sat Sep 12 00:20:25 2026, MaxMem=  6442450944 cpu:               0.0 elap:               0.1
 (Enter C:\G16W\l301.exe)
 Standard basis: def2SVP (5D, 7F)
 Ernie: Thresh=  0.10000D-02 Tol=  0.10000D-05 Strict=F.
   390 basis functions,   682 primitive gaussians,   415 cartesian basis functions
    83 alpha electrons       82 beta electrons
       nuclear repulsion energy      1914.8661549106 Hartrees.
 IExCor= 1009 DFT=T Ex+Corr=PBE1PBE ExCW=0 ScaHFX=  0.250000
 ScaDFX=  0.750000  0.750000  1.000000  1.000000 ScalE2=  1.000000  1.000000
 IRadAn=      5 IRanWt=     -1 IRanGd=            0 ICorTp=0 IEmpDi=141
 NAtoms=   36 NActive=   36 NUniq=   36 SFac= 1.00D+00 NAtFMM=   60 NAOKFM=F Big=F
 Integral buffers will be    131072 words long.
 Raffenetti 2 integral format.
 Two-electron integral symmetry is turned off.
 R6Disp:  Grimme-D3(BJ) Dispersion energy=       -0.0530521093 Hartrees.
 Nuclear repulsion after empirical dispersion term =     1914.8131028013 Hartrees.
 Leave Link  301 at Sat Sep 12 00:20:26 2026, MaxMem=  6442450944 cpu:               1.0 elap:               0.6
 (Enter C:\G16W\l302.exe)
 NPDir=0 NMtPBC=     1 NCelOv=     1 NCel=       1 NClECP=     1 NCelD=      1
         NCelK=      1 NCelE2=     1 NClLst=     1 CellRange=     0.0.
 One-electron integrals computed using PRISM.
   1 Symmetry operations used in ECPInt.
 ECPInt:  NShTT=   15931 NPrTT=   58300 LenC2=   14760 LenP2D=   37600.
 LDataN:  DoStor=T MaxTD1= 7 Len=  274
 NBasis=   390 RedAO= T EigKep=  2.57D-04  NBF=   390
 NBsUse=   390 1.00D-06 EigRej= -1.00D+00 NBFU=   390
 Precomputing XC quadrature grid using
 IXCGrd= 4 IRadAn=           5 IRanWt=          -1 IRanGd=           0 AccXCQ= 0.00D+00.
 Defaulting to unpruned grid for atomic number  47.
 Generated NRdTot=       0 NPtTot=           0 NUsed=           0 NTot=          32
 NSgBfM=   412   412   412   412   412 MxSgAt=    36 MxSgA2=    36.
 Leave Link  302 at Sat Sep 12 00:20:36 2026, MaxMem=  6442450944 cpu:              10.0 elap:              10.1
 (Enter C:\G16W\l303.exe)
 DipDrv:  MaxL=1.
 Leave Link  303 at Sat Sep 12 00:20:37 2026, MaxMem=  6442450944 cpu:               1.0 elap:               1.1
 (Enter C:\G16W\l401.exe)
 Initial guess from the checkpoint file:  "Ph3PO.chk"
 B after Tr=     0.071374    0.042234   -0.535997
         Rot=    0.996923    0.016091   -0.076618   -0.003894 Ang=   8.99 deg.
 Guess basis will be translated and rotated to current coordinates.
 JPrj=2 DoOrth=T DoCkMO=T.
 Initial guess <Sx>= 0.0000 <Sy>= 0.0000 <Sz>= 0.5000 <S**2>= 0.7516 S= 0.5008
 Leave Link  401 at Sat Sep 12 00:21:00 2026, MaxMem=  6442450944 cpu:              22.0 elap:              22.9
 (Enter C:\G16W\l502.exe)
 Two-electron integral symmetry not used.
 UHF open shell SCF:
 Using DIIS extrapolation, IDIIS=  1040.
 NGot=  6442450944 LenX=  6442098989 LenY=  6441926323
 Requested convergence on RMS density matrix=1.00D-08 within 128 cycles.
 Requested convergence on MAX density matrix=1.00D-06.
 Requested convergence on             energy=1.00D-06.
 No special actions if energy rises.
 Fock matrices will be formed incrementally for  20 cycles.

 Cycle   1  Pass 1  IDiag  1:
 FoFJK:  IHMeth= 1 ICntrl=       0 DoSepK=F KAlg= 0 I1Cent=           0 FoldK=F
 IRaf= 860000000 NMat=       1 IRICut=       1 DoRegI=T DoRafI=F ISym2E= 0 IDoP0=0 IntGTp=1.
 FoFCou: FMM=F IPFlag=           0 FMFlag=      100000 FMFlg1=           0
         NFxFlg=           0 DoJE=F BraDBF=F KetDBF=F FulRan=T
         wScrn=  0.000000 ICntrl=         0 IOpCl=  1 I1Cent=           0 NGrid=           0
         NMat0=    1 NMatS0=      1 NMatT0=    0 NMatD0=    1 NMtDS0=    0 NMtDT0=    0
 Symmetry not used in FoFCou.
 Defaulting to unpruned grid for atomic number  47.
 Defaulting to unpruned grid for atomic number  47.
 Defaulting to unpruned grid for atomic number  47.
 Defaulting to unpruned grid for atomic number  47.
 Defaulting to unpruned grid for atomic number  47.
 Defaulting to unpruned grid for atomic number  47.
 Defaulting to unpruned grid for atomic number  47.
 Defaulting to unpruned grid for atomic number  47.
 E= -1256.67669220163    
 DIIS: error= 1.35D-02 at cycle   1 NSaved=   1.
 NSaved= 1 IEnMin= 1 EnMin= -1256.67669220163     IErMin= 1 ErrMin= 1.35D-02
 ErrMax= 1.35D-02  0.00D+00 EMaxC= 1.00D-01 BMatC= 5.04D-01 BMatP= 5.04D-01
 IDIUse=3 WtCom= 8.65D-01 WtEn= 1.35D-01
 Coeff-Com:  0.100D+01
 Coeff-En:   0.100D+01
 Coeff:      0.100D+01
 Gap=     0.141 Goal=   None    Shift=    0.000
 Gap=     0.262 Goal=   None    Shift=    0.000
 GapD=    0.141 DampG=1.000 DampE=0.250 DampFc=0.2500 IDamp=-1.
 Damping current iteration by 2.50D-01
 RMSDP=1.56D-03 MaxDP=4.55D-02              OVMax= 1.14D-01

 Cycle   2  Pass 1  IDiag  1:
 RMSU=  3.89D-04    CP:  9.99D-01
 E= -1256.71568200314     Delta-E=       -0.038989801511 Rises=F Damp=T
 DIIS: error= 1.05D-02 at cycle   2 NSaved=   2.
 NSaved= 2 IEnMin= 2 EnMin= -1256.71568200314     IErMin= 2 ErrMin= 1.05D-02
 ErrMax= 1.05D-02  0.00D+00 EMaxC= 1.00D-01 BMatC= 2.93D-01 BMatP= 5.04D-01
 IDIUse=3 WtCom= 8.95D-01 WtEn= 1.05D-01
 Coeff-Com: -0.305D+01 0.405D+01
 Coeff-En:   0.000D+00 0.100D+01
 Coeff:     -0.274D+01 0.374D+01
 Gap=     0.100 Goal=   None    Shift=    0.000
 Gap=     0.224 Goal=   None    Shift=    0.000
 RMSDP=1.31D-03 MaxDP=3.77D-02 DE=-3.90D-02 OVMax= 2.52D-02

 Cycle   3  Pass 1  IDiag  1:
 RMSU=  6.46D-04    CP:  9.92D-01  3.00D+00
 E= -1256.84090657905     Delta-E=       -0.125224575917 Rises=F Damp=F
 DIIS: error= 3.54D-03 at cycle   3 NSaved=   3.
 NSaved= 3 IEnMin= 3 EnMin= -1256.84090657905     IErMin= 3 ErrMin= 3.54D-03
 ErrMax= 3.54D-03  0.00D+00 EMaxC= 1.00D-01 BMatC= 2.75D-02 BMatP= 2.93D-01
 IDIUse=3 WtCom= 9.65D-01 WtEn= 3.54D-02
 Coeff-Com: -0.182D+01 0.238D+01 0.442D+00
 Coeff-En:   0.000D+00 0.000D+00 0.100D+01
 Coeff:     -0.176D+01 0.230D+01 0.462D+00
 Gap=     0.094 Goal=   None    Shift=    0.000
 Gap=     0.216 Goal=   None    Shift=    0.000
 RMSDP=3.06D-04 MaxDP=1.83D-02 DE=-1.25D-01 OVMax= 2.20D-02

 Cycle   4  Pass 1  IDiag  1:
 RMSU=  2.68D-04    CP:  9.93D-01  3.00D+00  7.74D-01
 E= -1256.84598332053     Delta-E=       -0.005076741479 Rises=F Damp=F
 DIIS: error= 9.77D-04 at cycle   4 NSaved=   4.
 NSaved= 4 IEnMin= 4 EnMin= -1256.84598332053     IErMin= 4 ErrMin= 9.77D-04
 ErrMax= 9.77D-04  0.00D+00 EMaxC= 1.00D-01 BMatC= 2.04D-03 BMatP= 2.75D-02
 IDIUse=3 WtCom= 9.90D-01 WtEn= 9.77D-03
 Coeff-Com: -0.660D+00 0.857D+00 0.261D+00 0.542D+00
 Coeff-En:   0.000D+00 0.000D+00 0.327D-01 0.967D+00
 Coeff:     -0.654D+00 0.849D+00 0.259D+00 0.546D+00
 Gap=     0.095 Goal=   None    Shift=    0.000
 Gap=     0.215 Goal=   None    Shift=    0.000
 RMSDP=8.96D-05 MaxDP=3.61D-03 DE=-5.08D-03 OVMax= 6.09D-03

 Cycle   5  Pass 1  IDiag  1:
 RMSU=  6.36D-05    CP:  9.93D-01  3.00D+00  8.33D-01  8.17D-01
 E= -1256.84640076686     Delta-E=       -0.000417446329 Rises=F Damp=F
 DIIS: error= 2.96D-04 at cycle   5 NSaved=   5.
 NSaved= 5 IEnMin= 5 EnMin= -1256.84640076686     IErMin= 5 ErrMin= 2.96D-04
 ErrMax= 2.96D-04  0.00D+00 EMaxC= 1.00D-01 BMatC= 1.76D-04 BMatP= 2.04D-03
 IDIUse=3 WtCom= 9.97D-01 WtEn= 2.96D-03
 Coeff-Com: -0.261D-01 0.314D-01 0.573D-01 0.281D+00 0.657D+00
 Coeff-En:   0.000D+00 0.000D+00 0.000D+00 0.291D-01 0.971D+00
 Coeff:     -0.260D-01 0.313D-01 0.572D-01 0.280D+00 0.658D+00
 Gap=     0.095 Goal=   None    Shift=    0.000
 Gap=     0.216 Goal=   None    Shift=    0.000
 RMSDP=3.51D-05 MaxDP=1.68D-03 DE=-4.17D-04 OVMax= 2.51D-03

 Cycle   6  Pass 1  IDiag  1:
 RMSU=  2.75D-05    CP:  9.93D-01  3.00D+00  8.39D-01  8.59D-01  7.14D-01
 E= -1256.84643915209     Delta-E=       -0.000038385226 Rises=F Damp=F
 DIIS: error= 1.99D-04 at cycle   6 NSaved=   6.
 NSaved= 6 IEnMin= 6 EnMin= -1256.84643915209     IErMin= 6 ErrMin= 1.99D-04
 ErrMax= 1.99D-04  0.00D+00 EMaxC= 1.00D-01 BMatC= 5.79D-05 BMatP= 1.76D-04
 IDIUse=3 WtCom= 9.98D-01 WtEn= 1.99D-03
 Coeff-Com:  0.835D-01-0.110D+00 0.177D-02 0.113D+00 0.439D+00 0.472D+00
 Coeff-En:   0.000D+00 0.000D+00 0.000D+00 0.000D+00 0.201D+00 0.799D+00
 Coeff:      0.833D-01-0.110D+00 0.177D-02 0.113D+00 0.439D+00 0.473D+00
 Gap=     0.095 Goal=   None    Shift=    0.000
 Gap=     0.216 Goal=   None    Shift=    0.000
 RMSDP=1.49D-05 MaxDP=8.34D-04 DE=-3.84D-05 OVMax= 1.32D-03

 Cycle   7  Pass 1  IDiag  1:
 RMSU=  1.06D-05    CP:  9.93D-01  3.00D+00  8.41D-01  8.57D-01  8.24D-01
                    CP:  7.23D-01
 E= -1256.84645571051     Delta-E=       -0.000016558420 Rises=F Damp=F
 DIIS: error= 2.41D-05 at cycle   7 NSaved=   7.
 NSaved= 7 IEnMin= 7 EnMin= -1256.84645571051     IErMin= 7 ErrMin= 2.41D-05
 ErrMax= 2.41D-05  0.00D+00 EMaxC= 1.00D-01 BMatC= 1.54D-06 BMatP= 5.79D-05
 IDIUse=1 WtCom= 1.00D+00 WtEn= 0.00D+00
 Coeff-Com:  0.312D-01-0.409D-01-0.217D-02 0.193D-01 0.808D-01 0.139D+00
 Coeff-Com:  0.772D+00
 Coeff:      0.312D-01-0.409D-01-0.217D-02 0.193D-01 0.808D-01 0.139D+00
 Coeff:      0.772D+00
 Gap=     0.095 Goal=   None    Shift=    0.000
 Gap=     0.216 Goal=   None    Shift=    0.000
 RMSDP=4.95D-06 MaxDP=5.88D-04 DE=-1.66D-05 OVMax= 7.38D-04

 Cycle   8  Pass 1  IDiag  1:
 RMSU=  3.27D-06    CP:  9.93D-01  3.00D+00  8.43D-01  8.61D-01  8.32D-01
                    CP:  8.35D-01  1.12D+00
 E= -1256.84645651043     Delta-E=       -0.000000799922 Rises=F Damp=F
 DIIS: error= 2.54D-05 at cycle   8 NSaved=   8.
 NSaved= 8 IEnMin= 8 EnMin= -1256.84645651043     IErMin= 7 ErrMin= 2.41D-05
 ErrMax= 2.54D-05  0.00D+00 EMaxC= 1.00D-01 BMatC= 6.54D-07 BMatP= 1.54D-06
 IDIUse=1 WtCom= 1.00D+00 WtEn= 0.00D+00
 Coeff-Com: -0.393D-02 0.532D-02-0.943D-03-0.178D-01-0.778D-01-0.623D-01
 Coeff-Com:  0.412D+00 0.745D+00
 Coeff:     -0.393D-02 0.532D-02-0.943D-03-0.178D-01-0.778D-01-0.623D-01
 Coeff:      0.412D+00 0.745D+00
 Gap=     0.095 Goal=   None    Shift=    0.000
 Gap=     0.216 Goal=   None    Shift=    0.000
 RMSDP=2.97D-06 MaxDP=4.07D-04 DE=-8.00D-07 OVMax= 5.15D-04

 Cycle   9  Pass 1  IDiag  1:
 RMSU=  1.38D-06    CP:  9.93D-01  3.00D+00  8.44D-01  8.61D-01  8.42D-01
                    CP:  8.77D-01  1.33D+00  9.32D-01
 E= -1256.84645681976     Delta-E=       -0.000000309328 Rises=F Damp=F
 DIIS: error= 5.73D-06 at cycle   9 NSaved=   9.
 NSaved= 9 IEnMin= 9 EnMin= -1256.84645681976     IErMin= 9 ErrMin= 5.73D-06
 ErrMax= 5.73D-06  0.00D+00 EMaxC= 1.00D-01 BMatC= 7.52D-08 BMatP= 6.54D-07
 IDIUse=1 WtCom= 1.00D+00 WtEn= 0.00D+00
 Coeff-Com: -0.536D-02 0.710D-02-0.406D-04-0.101D-01-0.460D-01-0.456D-01
 Coeff-Com:  0.961D-01 0.336D+00 0.668D+00
 Coeff:     -0.536D-02 0.710D-02-0.406D-04-0.101D-01-0.460D-01-0.456D-01
 Coeff:      0.961D-01 0.336D+00 0.668D+00
 Gap=     0.095 Goal=   None    Shift=    0.000
 Gap=     0.216 Goal=   None    Shift=    0.000
 RMSDP=1.03D-06 MaxDP=1.22D-04 DE=-3.09D-07 OVMax= 1.50D-04

 Cycle  10  Pass 1  IDiag  1:
 RMSU=  7.02D-07    CP:  9.93D-01  3.00D+00  8.45D-01  8.61D-01  8.46D-01
                    CP:  8.92D-01  1.37D+00  1.00D+00  8.57D-01
 E= -1256.84645684868     Delta-E=       -0.000000028922 Rises=F Damp=F
 DIIS: error= 3.70D-06 at cycle  10 NSaved=  10.
 NSaved=10 IEnMin=10 EnMin= -1256.84645684868     IErMin=10 ErrMin= 3.70D-06
 ErrMax= 3.70D-06  0.00D+00 EMaxC= 1.00D-01 BMatC= 2.81D-08 BMatP= 7.52D-08
 IDIUse=1 WtCom= 1.00D+00 WtEn= 0.00D+00
 Coeff-Com: -0.276D-02 0.363D-02 0.238D-03-0.266D-02-0.137D-01-0.163D-01
 Coeff-Com: -0.221D-01 0.564D-01 0.421D+00 0.576D+00
 Coeff:     -0.276D-02 0.363D-02 0.238D-03-0.266D-02-0.137D-01-0.163D-01
 Coeff:     -0.221D-01 0.564D-01 0.421D+00 0.576D+00
 Gap=     0.095 Goal=   None    Shift=    0.000
 Gap=     0.216 Goal=   None    Shift=    0.000
 RMSDP=4.09D-07 MaxDP=4.64D-05 DE=-2.89D-08 OVMax= 5.92D-05

 Cycle  11  Pass 1  IDiag  1:
 RMSU=  2.20D-07    CP:  9.93D-01  3.00D+00  8.45D-01  8.62D-01  8.46D-01
                    CP:  8.97D-01  1.38D+00  1.02D+00  1.01D+00  8.24D-01
 E= -1256.84645685867     Delta-E=       -0.000000009994 Rises=F Damp=F
 DIIS: error= 8.25D-07 at cycle  11 NSaved=  11.
 NSaved=11 IEnMin=11 EnMin= -1256.84645685867     IErMin=11 ErrMin= 8.25D-07
 ErrMax= 8.25D-07  0.00D+00 EMaxC= 1.00D-01 BMatC= 1.79D-09 BMatP= 2.81D-08
 IDIUse=1 WtCom= 1.00D+00 WtEn= 0.00D+00
 Coeff-Com: -0.138D-03 0.175D-03 0.108D-03 0.675D-03 0.208D-02 0.851D-03
 Coeff-Com: -0.240D-01-0.328D-01 0.626D-01 0.220D+00 0.770D+00
 Coeff:     -0.138D-03 0.175D-03 0.108D-03 0.675D-03 0.208D-02 0.851D-03
 Coeff:     -0.240D-01-0.328D-01 0.626D-01 0.220D+00 0.770D+00
 Gap=     0.095 Goal=   None    Shift=    0.000
 Gap=     0.216 Goal=   None    Shift=    0.000
 RMSDP=1.41D-07 MaxDP=1.39D-05 DE=-9.99D-09 OVMax= 1.59D-05

 Cycle  12  Pass 1  IDiag  1:
 RMSU=  9.65D-08    CP:  9.93D-01  3.00D+00  8.45D-01  8.62D-01  8.47D-01
                    CP:  8.99D-01  1.38D+00  1.04D+00  1.05D+00  9.08D-01
                    CP:  8.99D-01
 E= -1256.84645685973     Delta-E=       -0.000000001058 Rises=F Damp=F
 DIIS: error= 5.67D-07 at cycle  12 NSaved=  12.
 NSaved=12 IEnMin=12 EnMin= -1256.84645685973     IErMin=12 ErrMin= 5.67D-07
 ErrMax= 5.67D-07  0.00D+00 EMaxC= 1.00D-01 BMatC= 3.98D-10 BMatP= 1.79D-09
 IDIUse=1 WtCom= 1.00D+00 WtEn= 0.00D+00
 Coeff-Com:  0.316D-03-0.419D-03 0.177D-04 0.636D-03 0.263D-02 0.238D-02
 Coeff-Com: -0.614D-02-0.198D-01-0.330D-01 0.349D-02 0.309D+00 0.741D+00
 Coeff:      0.316D-03-0.419D-03 0.177D-04 0.636D-03 0.263D-02 0.238D-02
 Coeff:     -0.614D-02-0.198D-01-0.330D-01 0.349D-02 0.309D+00 0.741D+00
 Gap=     0.095 Goal=   None    Shift=    0.000
 Gap=     0.216 Goal=   None    Shift=    0.000
 RMSDP=6.59D-08 MaxDP=3.80D-06 DE=-1.06D-09 OVMax= 8.12D-06

 Cycle  13  Pass 1  IDiag  1:
 RMSU=  4.68D-08    CP:  9.93D-01  3.00D+00  8.45D-01  8.62D-01  8.46D-01
                    CP:  8.99D-01  1.39D+00  1.04D+00  1.06D+00  9.27D-01
                    CP:  1.03D+00  1.23D+00
 E= -1256.84645686003     Delta-E=       -0.000000000298 Rises=F Damp=F
 DIIS: error= 4.35D-07 at cycle  13 NSaved=  13.
 NSaved=13 IEnMin=13 EnMin= -1256.84645686003     IErMin=13 ErrMin= 4.35D-07
 ErrMax= 4.35D-07  0.00D+00 EMaxC= 1.00D-01 BMatC= 1.43D-10 BMatP= 3.98D-10
 IDIUse=1 WtCom= 1.00D+00 WtEn= 0.00D+00
 Coeff-Com:  0.133D-03-0.174D-03-0.281D-04-0.145D-04 0.212D-03 0.515D-03
 Coeff-Com:  0.481D-02 0.372D-02-0.274D-01-0.616D-01-0.125D+00 0.230D+00
 Coeff-Com:  0.975D+00
 Coeff:      0.133D-03-0.174D-03-0.281D-04-0.145D-04 0.212D-03 0.515D-03
 Coeff:      0.481D-02 0.372D-02-0.274D-01-0.616D-01-0.125D+00 0.230D+00
 Coeff:      0.975D+00
 Gap=     0.095 Goal=   None    Shift=    0.000
 Gap=     0.216 Goal=   None    Shift=    0.000
 RMSDP=5.91D-08 MaxDP=3.35D-06 DE=-2.98D-10 OVMax= 9.23D-06

 Cycle  14  Pass 1  IDiag  1:
 RMSU=  3.10D-08    CP:  9.93D-01  3.00D+00  8.45D-01  8.62D-01  8.46D-01
                    CP:  8.99D-01  1.39D+00  1.04D+00  1.06D+00  9.43D-01
                    CP:  1.13D+00  1.65D+00  1.35D+00
 E= -1256.84645686024     Delta-E=       -0.000000000212 Rises=F Damp=F
 DIIS: error= 3.23D-07 at cycle  14 NSaved=  14.
 NSaved=14 IEnMin=14 EnMin= -1256.84645686024     IErMin=14 ErrMin= 3.23D-07
 ErrMax= 3.23D-07  0.00D+00 EMaxC= 1.00D-01 BMatC= 8.83D-11 BMatP= 1.43D-10
 IDIUse=1 WtCom= 1.00D+00 WtEn= 0.00D+00
 Coeff-Com: -0.103D-03 0.138D-03-0.378D-04-0.427D-03-0.150D-02-0.106D-02
 Coeff-Com:  0.750D-02 0.150D-01-0.124D-02-0.490D-01-0.286D+00-0.285D+00
 Coeff-Com:  0.700D+00 0.901D+00
 Coeff:     -0.103D-03 0.138D-03-0.378D-04-0.427D-03-0.150D-02-0.106D-02
 Coeff:      0.750D-02 0.150D-01-0.124D-02-0.490D-01-0.286D+00-0.285D+00
 Coeff:      0.700D+00 0.901D+00
 Gap=     0.095 Goal=   None    Shift=    0.000
 Gap=     0.216 Goal=   None    Shift=    0.000
 RMSDP=5.99D-08 MaxDP=3.59D-06 DE=-2.12D-10 OVMax= 9.24D-06

 Cycle  15  Pass 1  IDiag  1:
 RMSU=  2.22D-08    CP:  9.93D-01  3.00D+00  8.45D-01  8.62D-01  8.46D-01
                    CP:  8.99D-01  1.39D+00  1.04D+00  1.07D+00  9.55D-01
                    CP:  1.21D+00  2.04D+00  2.06D+00  1.32D+00
 E= -1256.84645686035     Delta-E=       -0.000000000111 Rises=F Damp=F
 DIIS: error= 1.42D-07 at cycle  15 NSaved=  15.
 NSaved=15 IEnMin=15 EnMin= -1256.84645686035     IErMin=15 ErrMin= 1.42D-07
 ErrMax= 1.42D-07  0.00D+00 EMaxC= 1.00D-01 BMatC= 2.21D-11 BMatP= 8.83D-11
 IDIUse=1 WtCom= 1.00D+00 WtEn= 0.00D+00
 Coeff-Com: -0.948D-04 0.126D-03-0.130D-04-0.217D-03-0.830D-03-0.686D-03
 Coeff-Com:  0.240D-02 0.654D-02 0.879D-02-0.526D-02-0.116D+00-0.230D+00
 Coeff-Com:  0.881D-01 0.498D+00 0.749D+00
 Coeff:     -0.948D-04 0.126D-03-0.130D-04-0.217D-03-0.830D-03-0.686D-03
 Coeff:      0.240D-02 0.654D-02 0.879D-02-0.526D-02-0.116D+00-0.230D+00
 Coeff:      0.881D-01 0.498D+00 0.749D+00
 Gap=     0.095 Goal=   None    Shift=    0.000
 Gap=     0.216 Goal=   None    Shift=    0.000
 RMSDP=2.59D-08 MaxDP=1.54D-06 DE=-1.11D-10 OVMax= 4.13D-06

 Cycle  16  Pass 1  IDiag  1:
 RMSU=  9.49D-09    CP:  9.93D-01  3.00D+00  8.45D-01  8.62D-01  8.46D-01
                    CP:  8.99D-01  1.39D+00  1.04D+00  1.07D+00  9.58D-01
                    CP:  1.24D+00  2.20D+00  2.31D+00  1.68D+00  1.09D+00
 E= -1256.84645686053     Delta-E=       -0.000000000176 Rises=F Damp=F
 DIIS: error= 4.48D-08 at cycle  16 NSaved=  16.
 NSaved=16 IEnMin=16 EnMin= -1256.84645686053     IErMin=16 ErrMin= 4.48D-08
 ErrMax= 4.48D-08  0.00D+00 EMaxC= 1.00D-01 BMatC= 3.26D-12 BMatP= 2.21D-11
 IDIUse=1 WtCom= 1.00D+00 WtEn= 0.00D+00
 Coeff-Com: -0.168D-04 0.219D-04 0.525D-05 0.136D-04 0.207D-05-0.605D-04
 Coeff-Com: -0.689D-03-0.854D-03 0.335D-02 0.866D-02 0.212D-01-0.182D-01
 Coeff-Com: -0.126D+00-0.278D-01 0.283D+00 0.858D+00
 Coeff:     -0.168D-04 0.219D-04 0.525D-05 0.136D-04 0.207D-05-0.605D-04
 Coeff:     -0.689D-03-0.854D-03 0.335D-02 0.866D-02 0.212D-01-0.182D-01
 Coeff:     -0.126D+00-0.278D-01 0.283D+00 0.858D+00
 Gap=     0.095 Goal=   None    Shift=    0.000
 Gap=     0.216 Goal=   None    Shift=    0.000
 RMSDP=1.00D-08 MaxDP=6.60D-07 DE=-1.76D-10 OVMax= 1.32D-06

 Cycle  17  Pass 1  IDiag  1:
 RMSU=  3.93D-09    CP:  9.93D-01  3.00D+00  8.45D-01  8.62D-01  8.46D-01
                    CP:  8.99D-01  1.39D+00  1.04D+00  1.07D+00  9.58D-01
                    CP:  1.25D+00  2.24D+00  2.42D+00  1.83D+00  1.30D+00
                    CP:  1.07D+00
 E= -1256.84645686054     Delta-E=       -0.000000000014 Rises=F Damp=F
 DIIS: error= 1.43D-08 at cycle  17 NSaved=  17.
 NSaved=17 IEnMin=17 EnMin= -1256.84645686054     IErMin=17 ErrMin= 1.43D-08
 ErrMax= 1.43D-08  0.00D+00 EMaxC= 1.00D-01 BMatC= 6.28D-13 BMatP= 3.26D-12
 IDIUse=1 WtCom= 1.00D+00 WtEn= 0.00D+00
 Coeff-Com:  0.167D-04-0.223D-04 0.515D-05 0.551D-04 0.187D-03 0.128D-03
 Coeff-Com: -0.863D-03-0.182D-02-0.548D-03 0.487D-02 0.340D-01 0.415D-01
 Coeff-Com: -0.709D-01-0.116D+00-0.410D-01 0.326D+00 0.825D+00
 Coeff:      0.167D-04-0.223D-04 0.515D-05 0.551D-04 0.187D-03 0.128D-03
 Coeff:     -0.863D-03-0.182D-02-0.548D-03 0.487D-02 0.340D-01 0.415D-01
 Coeff:     -0.709D-01-0.116D+00-0.410D-01 0.326D+00 0.825D+00
 Gap=     0.095 Goal=   None    Shift=    0.000
 Gap=     0.216 Goal=   None    Shift=    0.000
 RMSDP=3.59D-09 MaxDP=1.59D-07 DE=-1.36D-11 OVMax= 4.67D-07

 SCF Done:  E(UPBE1PBE) =  -1256.84645686     A.U. after   17 cycles
            NFock= 17  Conv=0.36D-08     -V/T= 2.0853
 <Sx>= 0.0000 <Sy>= 0.0000 <Sz>= 0.5000 <S**2>= 0.7518 S= 0.5009
 <L.S>= 0.000000000000E+00
 KE= 1.158044693086D+03 PE=-6.740495925484D+03 EE= 2.410791672737D+03
 Annihilation of the first spin contaminant:
 S**2 before annihilation     0.7518,   after     0.7500
 Leave Link  502 at Sat Sep 12 00:28:15 2026, MaxMem=  6442450944 cpu:             434.0 elap:             434.3
 (Enter C:\G16W\l508.exe)
 QCSCF skips out because SCF is already converged.
 Leave Link  508 at Sat Sep 12 00:28:16 2026, MaxMem=  6442450944 cpu:               1.0 elap:               0.8
 (Enter C:\G16W\l601.exe)
 Copying SCF densities to generalized density rwf, IOpCl= 1 IROHF=0.

 **********************************************************************

            Population analysis using the SCF Density.

 **********************************************************************

 Alpha  occ. eigenvalues --  -77.29014 -19.18451 -10.25969 -10.25821 -10.25748
 Alpha  occ. eigenvalues --  -10.25730 -10.25606 -10.25543 -10.25541 -10.25507
 Alpha  occ. eigenvalues --  -10.25434 -10.25321 -10.25284 -10.25264 -10.25243
 Alpha  occ. eigenvalues --  -10.25185 -10.25166 -10.25097 -10.24994 -10.24908
 Alpha  occ. eigenvalues --   -6.69065  -4.83147  -4.83050  -4.83040  -3.72282
 Alpha  occ. eigenvalues --   -2.30405  -2.30269  -2.30041  -1.01859  -0.90245
 Alpha  occ. eigenvalues --   -0.89724  -0.89578  -0.80641  -0.78502  -0.78344
 Alpha  occ. eigenvalues --   -0.78278  -0.78013  -0.77903  -0.68063  -0.64338
 Alpha  occ. eigenvalues --   -0.64139  -0.64042  -0.62979  -0.62830  -0.59033
 Alpha  occ. eigenvalues --   -0.55844  -0.55698  -0.52939  -0.49440  -0.49205
 Alpha  occ. eigenvalues --   -0.49175  -0.47852  -0.47764  -0.47217  -0.45792
 Alpha  occ. eigenvalues --   -0.45633  -0.45456  -0.45219  -0.45104  -0.43243
 Alpha  occ. eigenvalues --   -0.40749  -0.40596  -0.40129  -0.38878  -0.38286
 Alpha  occ. eigenvalues --   -0.37781  -0.37470  -0.37310  -0.37172  -0.33144
 Alpha  occ. eigenvalues --   -0.32074  -0.29981  -0.29734  -0.29430  -0.29349
 Alpha  occ. eigenvalues --   -0.29117  -0.28732  -0.28503  -0.28371  -0.28311
 Alpha  occ. eigenvalues --   -0.28060  -0.27233  -0.13573
 Alpha virt. eigenvalues --   -0.04044  -0.03913  -0.02827  -0.02533  -0.01649
 Alpha virt. eigenvalues --   -0.01638   0.02278   0.02625   0.05026   0.06533
 Alpha virt. eigenvalues --    0.07148   0.07717   0.09404   0.10339   0.10832
 Alpha virt. eigenvalues --    0.11062   0.11323   0.11833   0.12115   0.13194
 Alpha virt. eigenvalues --    0.13474   0.14335   0.14574   0.16127   0.16195
 Alpha virt. eigenvalues --    0.16454   0.16940   0.17455   0.17952   0.18603
 Alpha virt. eigenvalues --    0.19468   0.21019   0.25457   0.27506   0.27724
 Alpha virt. eigenvalues --    0.28068   0.28983   0.29180   0.29745   0.30033
 Alpha virt. eigenvalues --    0.30341   0.31089   0.31207   0.31587   0.34111
 Alpha virt. eigenvalues --    0.35637   0.36335   0.37022   0.37449   0.38618
 Alpha virt. eigenvalues --    0.39053   0.40106   0.40949   0.41405   0.42492
 Alpha virt. eigenvalues --    0.43513   0.43628   0.44057   0.44688   0.44893
 Alpha virt. eigenvalues --    0.45567   0.45895   0.46065   0.47332   0.47566
 Alpha virt. eigenvalues --    0.47973   0.48632   0.48883   0.49388   0.49630
 Alpha virt. eigenvalues --    0.49997   0.50558   0.51251   0.51737   0.52312
 Alpha virt. eigenvalues --    0.52955   0.54213   0.54677   0.56017   0.56200
 Alpha virt. eigenvalues --    0.56760   0.58537   0.59650   0.59754   0.60749
 Alpha virt. eigenvalues --    0.61410   0.62138   0.63180   0.63801   0.64924
 Alpha virt. eigenvalues --    0.65751   0.66218   0.66556   0.66803   0.67410
 Alpha virt. eigenvalues --    0.67968   0.68102   0.68272   0.69057   0.69448
 Alpha virt. eigenvalues --    0.69613   0.70260   0.71057   0.71311   0.71910
 Alpha virt. eigenvalues --    0.72494   0.72795   0.73173   0.73467   0.74555
 Alpha virt. eigenvalues --    0.74885   0.75567   0.76002   0.76525   0.76923
 Alpha virt. eigenvalues --    0.77090   0.79191   0.79872   0.80559   0.81874
 Alpha virt. eigenvalues --    0.82293   0.83561   0.83846   0.85799   0.85921
 Alpha virt. eigenvalues --    0.88140   0.89683   0.90345   0.91751   0.93277
 Alpha virt. eigenvalues --    0.94659   0.94784   0.97206   0.98993   1.00175
 Alpha virt. eigenvalues --    1.00708   1.02358   1.04437   1.06999   1.09117
 Alpha virt. eigenvalues --    1.11676   1.12812   1.14203   1.15158   1.17301
 Alpha virt. eigenvalues --    1.18324   1.19964   1.20534   1.21905   1.22783
 Alpha virt. eigenvalues --    1.23745   1.24180   1.24384   1.24595   1.25057
 Alpha virt. eigenvalues --    1.25789   1.26907   1.27885   1.28650   1.29861
 Alpha virt. eigenvalues --    1.30565   1.31508   1.31809   1.32767   1.33327
 Alpha virt. eigenvalues --    1.34667   1.37309   1.37673   1.41364   1.45216
 Alpha virt. eigenvalues --    1.52032   1.55787   1.57027   1.59806   1.60519
 Alpha virt. eigenvalues --    1.65499   1.67526   1.67584   1.67916   1.69426
 Alpha virt. eigenvalues --    1.69841   1.70857   1.71292   1.71423   1.71741
 Alpha virt. eigenvalues --    1.74444   1.74769   1.74873   1.75482   1.75678
 Alpha virt. eigenvalues --    1.75841   1.77030   1.77082   1.77453   1.77728
 Alpha virt. eigenvalues --    1.77998   1.78621   1.80566   1.80651   1.81080
 Alpha virt. eigenvalues --    1.82601   1.84692   1.85353   1.86283   1.86562
 Alpha virt. eigenvalues --    1.86574   1.90909   1.91232   1.94747   1.95335
 Alpha virt. eigenvalues --    1.95560   1.96003   1.97153   1.97862   1.98226
 Alpha virt. eigenvalues --    1.98835   1.99043   1.99208   2.00464   2.00543
 Alpha virt. eigenvalues --    2.01944   2.06173   2.08371   2.08665   2.10830
 Alpha virt. eigenvalues --    2.11120   2.11839   2.13871   2.14841   2.15532
 Alpha virt. eigenvalues --    2.15754   2.17691   2.17773   2.19368   2.21407
 Alpha virt. eigenvalues --    2.24891   2.25549   2.29688   2.29800   2.29947
 Alpha virt. eigenvalues --    2.30171   2.30768   2.30980   2.31216   2.31382
 Alpha virt. eigenvalues --    2.31869   2.35215   2.35406   2.35859   2.36233
 Alpha virt. eigenvalues --    2.36691   2.37153   2.38940   2.41604   2.42165
 Alpha virt. eigenvalues --    2.54679   2.55028   2.55265   2.62326   2.62626
 Alpha virt. eigenvalues --    2.63304   2.64032   2.64133   2.64307   2.65183
 Alpha virt. eigenvalues --    2.65320   2.65348   2.65557   2.65571   2.65885
 Alpha virt. eigenvalues --    2.66075   2.66127   2.66235   2.67459   2.69287
 Alpha virt. eigenvalues --    2.74586   2.75326   2.75606   2.75991   2.76104
 Alpha virt. eigenvalues --    2.76248   2.78144   2.81664   2.82131   2.85092
 Alpha virt. eigenvalues --    2.88682   2.89638   2.90408   2.90777   2.90931
 Alpha virt. eigenvalues --    2.91556   2.92145   2.92745   3.05298   3.06529
 Alpha virt. eigenvalues --    3.06955   3.15457   3.15715   3.16312   3.24253
 Alpha virt. eigenvalues --    3.24484   3.24606   3.43581   3.65453   3.65775
 Alpha virt. eigenvalues --    3.66092  53.88738
  Beta  occ. eigenvalues --  -77.29010 -19.18303 -10.25967 -10.25812 -10.25747
  Beta  occ. eigenvalues --  -10.25727 -10.25607 -10.25546 -10.25541 -10.25506
  Beta  occ. eigenvalues --  -10.25434 -10.25315 -10.25283 -10.25264 -10.25240
  Beta  occ. eigenvalues --  -10.25185 -10.25166 -10.25024 -10.24991 -10.24908
  Beta  occ. eigenvalues --   -6.69060  -4.83140  -4.83047  -4.83036  -3.72145
  Beta  occ. eigenvalues --   -2.30324  -2.30191  -2.30002  -1.01631  -0.90228
  Beta  occ. eigenvalues --   -0.89715  -0.89562  -0.80617  -0.78497  -0.78312
  Beta  occ. eigenvalues --   -0.78261  -0.77994  -0.77896  -0.68023  -0.64326
  Beta  occ. eigenvalues --   -0.64108  -0.64031  -0.62958  -0.62811  -0.59001
  Beta  occ. eigenvalues --   -0.55817  -0.55668  -0.52883  -0.49414  -0.49191
  Beta  occ. eigenvalues --   -0.49155  -0.47831  -0.47730  -0.47188  -0.45698
  Beta  occ. eigenvalues --   -0.45614  -0.45430  -0.45179  -0.45088  -0.43032
  Beta  occ. eigenvalues --   -0.40741  -0.40580  -0.40109  -0.38815  -0.38158
  Beta  occ. eigenvalues --   -0.37721  -0.37432  -0.37268  -0.37155  -0.32843
  Beta  occ. eigenvalues --   -0.31887  -0.29524  -0.29313  -0.29265  -0.29114
  Beta  occ. eigenvalues --   -0.28707  -0.28645  -0.28335  -0.28265  -0.28147
  Beta  occ. eigenvalues --   -0.27987  -0.26554
  Beta virt. eigenvalues --   -0.04959  -0.03997  -0.03890  -0.02677  -0.02445
  Beta virt. eigenvalues --   -0.01619  -0.01507   0.04432   0.04906   0.05830
  Beta virt. eigenvalues --    0.07179   0.07301   0.07890   0.09677   0.10780
  Beta virt. eigenvalues --    0.10923   0.11335   0.11809   0.12188   0.12338
  Beta virt. eigenvalues --    0.13299   0.13761   0.14438   0.14692   0.16157
  Beta virt. eigenvalues --    0.16327   0.16479   0.17076   0.17559   0.18215
  Beta virt. eigenvalues --    0.18741   0.19709   0.22456   0.25762   0.27574
  Beta virt. eigenvalues --    0.27774   0.28206   0.29019   0.29226   0.29947
  Beta virt. eigenvalues --    0.30062   0.30417   0.31171   0.31242   0.31765
  Beta virt. eigenvalues --    0.35017   0.35936   0.36534   0.37519   0.38321
  Beta virt. eigenvalues --    0.39130   0.40078   0.40481   0.41136   0.41631
  Beta virt. eigenvalues --    0.42853   0.43714   0.43870   0.44404   0.44807
  Beta virt. eigenvalues --    0.45115   0.45773   0.46256   0.46432   0.47535
  Beta virt. eigenvalues --    0.47671   0.48135   0.49033   0.49215   0.49521
  Beta virt. eigenvalues --    0.49730   0.50189   0.50739   0.51495   0.51903
  Beta virt. eigenvalues --    0.52800   0.53496   0.54629   0.55380   0.56147
  Beta virt. eigenvalues --    0.56321   0.56808   0.58706   0.59695   0.60116
  Beta virt. eigenvalues --    0.60923   0.61791   0.62506   0.63594   0.63922
  Beta virt. eigenvalues --    0.65160   0.65780   0.66342   0.66690   0.66850
  Beta virt. eigenvalues --    0.67491   0.68076   0.68157   0.68308   0.69201
  Beta virt. eigenvalues --    0.69507   0.69725   0.70360   0.71142   0.71373
  Beta virt. eigenvalues --    0.72058   0.72560   0.72874   0.73450   0.73653
  Beta virt. eigenvalues --    0.74630   0.74965   0.75756   0.76077   0.76589
  Beta virt. eigenvalues --    0.76960   0.77120   0.79235   0.79935   0.80817
  Beta virt. eigenvalues --    0.82018   0.82478   0.83671   0.84003   0.85897
  Beta virt. eigenvalues --    0.85941   0.88194   0.89740   0.90489   0.91874
  Beta virt. eigenvalues --    0.93360   0.94684   0.94820   0.97274   0.99034
  Beta virt. eigenvalues --    1.00200   1.00770   1.02437   1.04586   1.07081
  Beta virt. eigenvalues --    1.09140   1.11695   1.12847   1.14277   1.15196
  Beta virt. eigenvalues --    1.17328   1.18359   1.19984   1.20553   1.21936
  Beta virt. eigenvalues --    1.22828   1.23758   1.24191   1.24415   1.24612
  Beta virt. eigenvalues --    1.25080   1.25845   1.26935   1.27899   1.28668
  Beta virt. eigenvalues --    1.29894   1.30595   1.31538   1.31841   1.32781
  Beta virt. eigenvalues --    1.33349   1.34715   1.37324   1.37698   1.41518
  Beta virt. eigenvalues --    1.45517   1.52043   1.55805   1.57078   1.59824
  Beta virt. eigenvalues --    1.60544   1.65566   1.67533   1.67592   1.67931
  Beta virt. eigenvalues --    1.69430   1.69853   1.70868   1.71301   1.71429
  Beta virt. eigenvalues --    1.71755   1.74450   1.74775   1.74888   1.75496
  Beta virt. eigenvalues --    1.75689   1.75860   1.77039   1.77088   1.77463
  Beta virt. eigenvalues --    1.77734   1.78011   1.78670   1.80573   1.80670
  Beta virt. eigenvalues --    1.81091   1.82625   1.84702   1.85379   1.86298
  Beta virt. eigenvalues --    1.86573   1.86589   1.90974   1.91249   1.94756
  Beta virt. eigenvalues --    1.95341   1.95564   1.96019   1.97178   1.97881
  Beta virt. eigenvalues --    1.98245   1.98870   1.99055   1.99227   2.00482
  Beta virt. eigenvalues --    2.00563   2.01973   2.06190   2.08378   2.08674
  Beta virt. eigenvalues --    2.10834   2.11126   2.11857   2.14280   2.14880
  Beta virt. eigenvalues --    2.15548   2.16041   2.17740   2.17785   2.19487
  Beta virt. eigenvalues --    2.21472   2.24906   2.25629   2.29697   2.29806
  Beta virt. eigenvalues --    2.29962   2.30185   2.30790   2.30993   2.31228
  Beta virt. eigenvalues --    2.31401   2.31891   2.35226   2.35413   2.35878
  Beta virt. eigenvalues --    2.36245   2.36725   2.37188   2.38954   2.41615
  Beta virt. eigenvalues --    2.42198   2.54685   2.55039   2.55291   2.62344
  Beta virt. eigenvalues --    2.62654   2.63322   2.64040   2.64149   2.64327
  Beta virt. eigenvalues --    2.65171   2.65319   2.65390   2.65612   2.65672
  Beta virt. eigenvalues --    2.65896   2.66101   2.66151   2.66302   2.67617
  Beta virt. eigenvalues --    2.69504   2.74809   2.75330   2.75615   2.76004
  Beta virt. eigenvalues --    2.76108   2.76265   2.78259   2.81787   2.82207
  Beta virt. eigenvalues --    2.85105   2.88696   2.89692   2.90468   2.90813
  Beta virt. eigenvalues --    2.91028   2.91568   2.92158   2.92790   3.05311
  Beta virt. eigenvalues --    3.06536   3.06990   3.15463   3.15720   3.16370
  Beta virt. eigenvalues --    3.24258   3.24489   3.24637   3.43752   3.65461
  Beta virt. eigenvalues --    3.65780   3.66128  53.88888
          Condensed to atoms (all electrons):
               1          2          3          4          5          6
     1  O    7.978329   0.547903  -0.049186   0.000960  -0.000028  -0.000011
     2  P    0.547903  13.082445   0.294997  -0.055562   0.003796   0.000558
     3  C   -0.049186   0.294997   5.723210   0.263618   0.087973  -0.170957
     4  C    0.000960  -0.055562   0.263618   5.081780   0.320369   0.089491
     5  C   -0.000028   0.003796   0.087973   0.320369   5.030599   0.274784
     6  C   -0.000011   0.000558  -0.170957   0.089491   0.274784   5.114764
     7  C    0.000753   0.007753   0.081343  -0.141983   0.084887   0.266834
     8  C    0.009672  -0.034963   0.213930   0.057152  -0.139301   0.092729
     9  C   -0.044758   0.270848  -0.053668  -0.004192  -0.000169  -0.000009
    10  C    0.000782  -0.054018  -0.008717  -0.000422  -0.000465   0.000004
    11  C   -0.000022   0.003210  -0.000213   0.000427  -0.000018   0.000000
    12  C   -0.000007   0.000519  -0.000063  -0.000008   0.000000   0.000000
    13  C    0.000627   0.007848  -0.000020  -0.000002   0.000000   0.000000
    14  C    0.009480  -0.032684   0.006636  -0.000397   0.000014   0.000001
    15  C   -0.047702   0.296697  -0.070092  -0.008390  -0.000285  -0.000070
    16  C    0.000843  -0.050810  -0.005818   0.000060   0.000352  -0.000008
    17  C   -0.000024   0.003154  -0.000150  -0.000468  -0.000018   0.000000
    18  C   -0.000012   0.000483  -0.000008   0.000005   0.000000   0.000000
    19  C    0.000666   0.007503  -0.000091  -0.000023  -0.000014   0.000001
    20  C    0.012333  -0.036496  -0.001216   0.001982  -0.000052  -0.000001
    21  H    0.000062  -0.013525  -0.073822   0.448925  -0.059485   0.013699
    22  H    0.000000  -0.000255   0.017193  -0.071674   0.454980  -0.073751
    23  H    0.000000   0.000031  -0.001528   0.014663  -0.068050   0.449532
    24  H   -0.000002  -0.000315   0.016583  -0.001760   0.014337  -0.072254
    25  H    0.009097  -0.006368  -0.082270   0.013354  -0.001791   0.013176
    26  H    0.000046  -0.012398   0.003951   0.003203   0.001496  -0.000156
    27  H    0.000000  -0.000239   0.000015   0.000014   0.000000   0.000000
    28  H    0.000000   0.000030   0.000000   0.000000   0.000000   0.000000
    29  H   -0.000004  -0.000296   0.000002   0.000000   0.000000   0.000000
    30  H    0.010522  -0.005358   0.000739  -0.000013   0.000001   0.000000
    31  H    0.000044  -0.012288   0.000234   0.000187   0.000092   0.000003
    32  H    0.000000  -0.000250   0.000011  -0.000009   0.000001   0.000000
    33  H    0.000000   0.000031   0.000000   0.000000   0.000000   0.000000
    34  H    0.000000  -0.000253   0.000006   0.000000   0.000000   0.000000
    35  H   -0.000374  -0.011698  -0.000127   0.000262   0.000009   0.000000
    36  Ag   0.048306  -0.008733   0.004345  -0.002116  -0.000146  -0.000151
               7          8          9         10         11         12
     1  O    0.000753   0.009672  -0.044758   0.000782  -0.000022  -0.000007
     2  P    0.007753  -0.034963   0.270848  -0.054018   0.003210   0.000519
     3  C    0.081343   0.213930  -0.053668  -0.008717  -0.000213  -0.000063
     4  C   -0.141983   0.057152  -0.004192  -0.000422   0.000427  -0.000008
     5  C    0.084887  -0.139301  -0.000169  -0.000465  -0.000018   0.000000
     6  C    0.266834   0.092729  -0.000009   0.000004   0.000000   0.000000
     7  C    5.060512   0.293684  -0.000034  -0.000037  -0.000014   0.000001
     8  C    0.293684   5.072943  -0.002121   0.001845  -0.000081   0.000000
     9  C   -0.000034  -0.002121   5.723735   0.265195   0.087611  -0.168739
    10  C   -0.000037   0.001845   0.265195   5.082784   0.321073   0.089654
    11  C   -0.000014  -0.000081   0.087611   0.321073   5.030881   0.275355
    12  C    0.000001   0.000000  -0.168739   0.089654   0.275355   5.112958
    13  C    0.000000  -0.000038   0.080944  -0.143436   0.085506   0.267205
    14  C   -0.000002  -0.000179   0.219031   0.056024  -0.139346   0.090762
    15  C   -0.000009   0.007671  -0.056691  -0.004928  -0.000197  -0.000001
    16  C   -0.000004  -0.000324  -0.004908  -0.000653  -0.000409   0.000012
    17  C    0.000000   0.000014  -0.000158   0.000373  -0.000017   0.000000
    18  C    0.000000   0.000001  -0.000072  -0.000008   0.000000   0.000000
    19  C    0.000000  -0.000005  -0.000001  -0.000003   0.000000   0.000000
    20  C   -0.000031  -0.000292   0.005730  -0.000339   0.000014   0.000000
    21  H   -0.001425   0.013631   0.000175   0.000198   0.000102   0.000002
    22  H    0.014404  -0.001830   0.000010  -0.000009   0.000001   0.000000
    23  H   -0.068478   0.014386   0.000000   0.000000   0.000000   0.000000
    24  H    0.458344  -0.073948   0.000010   0.000001   0.000000   0.000000
    25  H   -0.056896   0.454088   0.000463   0.000333   0.000003   0.000000
    26  H    0.000140  -0.000416  -0.074120   0.448389  -0.059734   0.013656
    27  H   -0.000001   0.000005   0.017103  -0.071786   0.455172  -0.073698
    28  H    0.000000   0.000000  -0.001539   0.014671  -0.067905   0.449586
    29  H    0.000000   0.000000   0.016256  -0.001751   0.014293  -0.071753
    30  H   -0.000001  -0.000029  -0.081648   0.013414  -0.001847   0.013216
    31  H   -0.000003  -0.000085   0.003847   0.003021   0.001418  -0.000151
    32  H    0.000000   0.000000   0.000015   0.000016   0.000000   0.000000
    33  H    0.000000   0.000000   0.000000   0.000000   0.000000   0.000000
    34  H    0.000000   0.000000   0.000003   0.000000   0.000000   0.000000
    35  H   -0.000007  -0.000213   0.000292  -0.000004   0.000000   0.000000
    36  Ag   0.000185   0.000882  -0.000061  -0.000700   0.000000   0.000017
              13         14         15         16         17         18
     1  O    0.000627   0.009480  -0.047702   0.000843  -0.000024  -0.000012
     2  P    0.007848  -0.032684   0.296697  -0.050810   0.003154   0.000483
     3  C   -0.000020   0.006636  -0.070092  -0.005818  -0.000150  -0.000008
     4  C   -0.000002  -0.000397  -0.008390   0.000060  -0.000468   0.000005
     5  C    0.000000   0.000014  -0.000285   0.000352  -0.000018   0.000000
     6  C    0.000000   0.000001  -0.000070  -0.000008   0.000000   0.000000
     7  C    0.000000  -0.000002  -0.000009  -0.000004   0.000000   0.000000
     8  C   -0.000038  -0.000179   0.007671  -0.000324   0.000014   0.000001
     9  C    0.080944   0.219031  -0.056691  -0.004908  -0.000158  -0.000072
    10  C   -0.143436   0.056024  -0.004928  -0.000653   0.000373  -0.000008
    11  C    0.085506  -0.139346  -0.000197  -0.000409  -0.000017   0.000000
    12  C    0.267205   0.090762  -0.000001   0.000012   0.000000   0.000000
    13  C    5.070567   0.292113  -0.000167  -0.000045  -0.000015   0.000001
    14  C    0.292113   5.067981  -0.001774   0.001611  -0.000065  -0.000001
    15  C   -0.000167  -0.001774   5.710891   0.259894   0.087067  -0.173761
    16  C   -0.000045   0.001611   0.259894   5.076144   0.323466   0.089730
    17  C   -0.000015  -0.000065   0.087067   0.323466   5.031841   0.273342
    18  C    0.000001  -0.000001  -0.173761   0.089730   0.273342   5.123102
    19  C    0.000000  -0.000033   0.078681  -0.139103   0.084761   0.266195
    20  C   -0.000001  -0.000165   0.209953   0.064440  -0.139944   0.095208
    21  H   -0.000002  -0.000089   0.003623   0.003804   0.001486  -0.000131
    22  H    0.000000   0.000000   0.000017   0.000015   0.000000   0.000000
    23  H    0.000000   0.000000   0.000000   0.000000   0.000000   0.000000
    24  H    0.000000  -0.000001   0.000002   0.000000   0.000000   0.000000
    25  H   -0.000014  -0.000199   0.000923  -0.000001   0.000001   0.000000
    26  H   -0.001465   0.013630   0.000281   0.000047   0.000101   0.000002
    27  H    0.014377  -0.001814   0.000011  -0.000011   0.000001   0.000000
    28  H   -0.068578   0.014272   0.000000   0.000000   0.000000   0.000000
    29  H    0.457643  -0.073655   0.000009   0.000000   0.000000   0.000000
    30  H   -0.059129   0.455389   0.000680   0.000185   0.000004   0.000000
    31  H    0.000146  -0.000419  -0.074064   0.447892  -0.059739   0.013762
    32  H   -0.000001   0.000005   0.017337  -0.072446   0.455238  -0.073854
    33  H    0.000000   0.000000  -0.001414   0.014697  -0.069608   0.449087
    34  H    0.000000   0.000000   0.017888  -0.002059   0.014321  -0.077504
    35  H    0.000000  -0.000043  -0.075421   0.014484  -0.002010   0.014863
    36  Ag   0.000163   0.001020  -0.003180  -0.000826  -0.000255  -0.000971
              19         20         21         22         23         24
     1  O    0.000666   0.012333   0.000062   0.000000   0.000000  -0.000002
     2  P    0.007503  -0.036496  -0.013525  -0.000255   0.000031  -0.000315
     3  C   -0.000091  -0.001216  -0.073822   0.017193  -0.001528   0.016583
     4  C   -0.000023   0.001982   0.448925  -0.071674   0.014663  -0.001760
     5  C   -0.000014  -0.000052  -0.059485   0.454980  -0.068050   0.014337
     6  C    0.000001  -0.000001   0.013699  -0.073751   0.449532  -0.072254
     7  C    0.000000  -0.000031  -0.001425   0.014404  -0.068478   0.458344
     8  C   -0.000005  -0.000292   0.013631  -0.001830   0.014386  -0.073948
     9  C   -0.000001   0.005730   0.000175   0.000010   0.000000   0.000010
    10  C   -0.000003  -0.000339   0.000198  -0.000009   0.000000   0.000001
    11  C    0.000000   0.000014   0.000102   0.000001   0.000000   0.000000
    12  C    0.000000   0.000000   0.000002   0.000000   0.000000   0.000000
    13  C    0.000000  -0.000001  -0.000002   0.000000   0.000000   0.000000
    14  C   -0.000033  -0.000165  -0.000089   0.000000   0.000000  -0.000001
    15  C    0.078681   0.209953   0.003623   0.000017   0.000000   0.000002
    16  C   -0.139103   0.064440   0.003804   0.000015   0.000000   0.000000
    17  C    0.084761  -0.139944   0.001486   0.000000   0.000000   0.000000
    18  C    0.266195   0.095208  -0.000131   0.000000   0.000000   0.000000
    19  C    5.029391   0.321340   0.000114  -0.000001   0.000000   0.000000
    20  C    0.321340   5.096931  -0.000616   0.000005   0.000000   0.000000
    21  H    0.000114  -0.000616   0.653209  -0.012532  -0.000266   0.000032
    22  H   -0.000001   0.000005  -0.012532   0.666140  -0.012320  -0.000258
    23  H    0.000000   0.000000  -0.000266  -0.012320   0.660367  -0.012137
    24  H    0.000000   0.000000   0.000032  -0.000258  -0.012137   0.656700
    25  H   -0.000001  -0.000074  -0.000177   0.000038  -0.000239  -0.011286
    26  H   -0.000002  -0.000087   0.000638   0.000049  -0.000004  -0.000003
    27  H    0.000000   0.000000  -0.000003   0.000000   0.000000   0.000000
    28  H    0.000000   0.000000   0.000000   0.000000   0.000000   0.000000
    29  H    0.000000   0.000000   0.000000   0.000000   0.000000   0.000000
    30  H   -0.000013  -0.000221  -0.000003   0.000000   0.000000   0.000000
    31  H   -0.001491   0.013693   0.000719  -0.000003   0.000000   0.000000
    32  H    0.014458  -0.001862   0.000052   0.000000   0.000000   0.000000
    33  H   -0.068217   0.014587  -0.000004   0.000000   0.000000   0.000000
    34  H    0.459617  -0.071136  -0.000002   0.000000   0.000000   0.000000
    35  H   -0.057399   0.432462  -0.000073   0.000000   0.000000   0.000000
    36  Ag  -0.000284  -0.034837   0.000001  -0.000011  -0.000014   0.000298
              25         26         27         28         29         30
     1  O    0.009097   0.000046   0.000000   0.000000  -0.000004   0.010522
     2  P   -0.006368  -0.012398  -0.000239   0.000030  -0.000296  -0.005358
     3  C   -0.082270   0.003951   0.000015   0.000000   0.000002   0.000739
     4  C    0.013354   0.003203   0.000014   0.000000   0.000000  -0.000013
     5  C   -0.001791   0.001496   0.000000   0.000000   0.000000   0.000001
     6  C    0.013176  -0.000156   0.000000   0.000000   0.000000   0.000000
     7  C   -0.056896   0.000140  -0.000001   0.000000   0.000000  -0.000001
     8  C    0.454088  -0.000416   0.000005   0.000000   0.000000  -0.000029
     9  C    0.000463  -0.074120   0.017103  -0.001539   0.016256  -0.081648
    10  C    0.000333   0.448389  -0.071786   0.014671  -0.001751   0.013414
    11  C    0.000003  -0.059734   0.455172  -0.067905   0.014293  -0.001847
    12  C    0.000000   0.013656  -0.073698   0.449586  -0.071753   0.013216
    13  C   -0.000014  -0.001465   0.014377  -0.068578   0.457643  -0.059129
    14  C   -0.000199   0.013630  -0.001814   0.014272  -0.073655   0.455389
    15  C    0.000923   0.000281   0.000011   0.000000   0.000009   0.000680
    16  C   -0.000001   0.000047  -0.000011   0.000000   0.000000   0.000185
    17  C    0.000001   0.000101   0.000001   0.000000   0.000000   0.000004
    18  C    0.000000   0.000002   0.000000   0.000000   0.000000   0.000000
    19  C   -0.000001  -0.000002   0.000000   0.000000   0.000000  -0.000013
    20  C   -0.000074  -0.000087   0.000000   0.000000   0.000000  -0.000221
    21  H   -0.000177   0.000638  -0.000003   0.000000   0.000000  -0.000003
    22  H    0.000038   0.000049   0.000000   0.000000   0.000000   0.000000
    23  H   -0.000239  -0.000004   0.000000   0.000000   0.000000   0.000000
    24  H   -0.011286  -0.000003   0.000000   0.000000   0.000000   0.000000
    25  H    0.624458  -0.000055   0.000000   0.000000   0.000000  -0.000041
    26  H   -0.000055   0.652296  -0.012445  -0.000263   0.000033  -0.000173
    27  H    0.000000  -0.012445   0.665496  -0.012299  -0.000259   0.000037
    28  H    0.000000  -0.000263  -0.012299   0.660286  -0.012150  -0.000239
    29  H    0.000000   0.000033  -0.000259  -0.012150   0.656965  -0.010862
    30  H   -0.000041  -0.000173   0.000037  -0.000239  -0.010862   0.628216
    31  H   -0.000003   0.000667   0.000049  -0.000004  -0.000003  -0.000046
    32  H    0.000000  -0.000003   0.000000   0.000000   0.000000   0.000000
    33  H    0.000000   0.000000   0.000000   0.000000   0.000000   0.000000
    34  H    0.000000   0.000000   0.000000   0.000000   0.000000   0.000000
    35  H    0.000014  -0.000002   0.000000   0.000000   0.000000  -0.000045
    36  Ag   0.003292   0.000026  -0.000003  -0.000001  -0.000002   0.000652
              31         32         33         34         35         36
     1  O    0.000044   0.000000   0.000000   0.000000  -0.000374   0.048306
     2  P   -0.012288  -0.000250   0.000031  -0.000253  -0.011698  -0.008733
     3  C    0.000234   0.000011   0.000000   0.000006  -0.000127   0.004345
     4  C    0.000187  -0.000009   0.000000   0.000000   0.000262  -0.002116
     5  C    0.000092   0.000001   0.000000   0.000000   0.000009  -0.000146
     6  C    0.000003   0.000000   0.000000   0.000000   0.000000  -0.000151
     7  C   -0.000003   0.000000   0.000000   0.000000  -0.000007   0.000185
     8  C   -0.000085   0.000000   0.000000   0.000000  -0.000213   0.000882
     9  C    0.003847   0.000015   0.000000   0.000003   0.000292  -0.000061
    10  C    0.003021   0.000016   0.000000   0.000000  -0.000004  -0.000700
    11  C    0.001418   0.000000   0.000000   0.000000   0.000000   0.000000
    12  C   -0.000151   0.000000   0.000000   0.000000   0.000000   0.000017
    13  C    0.000146  -0.000001   0.000000   0.000000   0.000000   0.000163
    14  C   -0.000419   0.000005   0.000000   0.000000  -0.000043   0.001020
    15  C   -0.074064   0.017337  -0.001414   0.017888  -0.075421  -0.003180
    16  C    0.447892  -0.072446   0.014697  -0.002059   0.014484  -0.000826
    17  C   -0.059739   0.455238  -0.069608   0.014321  -0.002010  -0.000255
    18  C    0.013762  -0.073854   0.449087  -0.077504   0.014863  -0.000971
    19  C   -0.001491   0.014458  -0.068217   0.459617  -0.057399  -0.000284
    20  C    0.013693  -0.001862   0.014587  -0.071136   0.432462  -0.034837
    21  H    0.000719   0.000052  -0.000004  -0.000002  -0.000073   0.000001
    22  H   -0.000003   0.000000   0.000000   0.000000   0.000000  -0.000011
    23  H    0.000000   0.000000   0.000000   0.000000   0.000000  -0.000014
    24  H    0.000000   0.000000   0.000000   0.000000   0.000000   0.000298
    25  H   -0.000003   0.000000   0.000000   0.000000   0.000014   0.003292
    26  H    0.000667  -0.000003   0.000000   0.000000  -0.000002   0.000026
    27  H    0.000049   0.000000   0.000000   0.000000   0.000000  -0.000003
    28  H   -0.000004   0.000000   0.000000   0.000000   0.000000  -0.000001
    29  H   -0.000003   0.000000   0.000000   0.000000   0.000000  -0.000002
    30  H   -0.000046   0.000000   0.000000   0.000000  -0.000045   0.000652
    31  H    0.655591  -0.012562  -0.000261   0.000034  -0.000131   0.000053
    32  H   -0.012562   0.667429  -0.012288  -0.000253   0.000041   0.000000
    33  H   -0.000261  -0.012288   0.661798  -0.011556  -0.000272   0.000050
    34  H    0.000034  -0.000253  -0.011556   0.657637  -0.015781   0.003285
    35  H   -0.000131   0.000041  -0.000272  -0.015781   0.641770   0.033343
    36  Ag   0.000053   0.000000   0.000050   0.003285   0.033343  19.096966
          Atomic-Atomic Spin Densities.
               1          2          3          4          5          6
     1  O    0.077510  -0.004008  -0.000836   0.000050   0.000001   0.000001
     2  P   -0.004008   0.009392  -0.000777   0.000713   0.000070   0.000030
     3  C   -0.000836  -0.000777  -0.000990   0.000031  -0.000287  -0.000044
     4  C    0.000050   0.000713   0.000031   0.002829  -0.000680  -0.000099
     5  C    0.000001   0.000070  -0.000287  -0.000680   0.001049   0.000456
     6  C    0.000001   0.000030  -0.000044  -0.000099   0.000456   0.001428
     7  C    0.000005  -0.000008   0.000119   0.000068  -0.000121  -0.000823
     8  C    0.000605   0.000397  -0.000523   0.000198  -0.000049  -0.000174
     9  C    0.000374  -0.000631  -0.000980   0.000015   0.000018   0.000003
    10  C    0.000023   0.000011   0.000176  -0.000020   0.000005   0.000001
    11  C   -0.000002   0.000028  -0.000045  -0.000009   0.000002   0.000000
    12  C    0.000000   0.000001  -0.000001   0.000000   0.000000   0.000000
    13  C    0.000008   0.000085   0.000005   0.000000   0.000000   0.000000
    14  C   -0.000119  -0.000388  -0.000015   0.000002   0.000000   0.000000
    15  C   -0.002082   0.002268   0.000470  -0.000241  -0.000003   0.000000
    16  C    0.000025   0.000464  -0.000153   0.000018   0.000001   0.000000
    17  C    0.000001   0.000033  -0.000001   0.000001   0.000000   0.000000
    18  C    0.000002   0.000035  -0.000004   0.000003   0.000000   0.000000
    19  C    0.000008  -0.000118   0.000004   0.000004   0.000000   0.000000
    20  C    0.003804   0.000121  -0.000642   0.000239   0.000002   0.000000
    21  H   -0.000002  -0.000065   0.000079  -0.000003  -0.000015  -0.000003
    22  H    0.000000  -0.000002   0.000006  -0.000006   0.000010  -0.000007
    23  H    0.000000   0.000000   0.000000   0.000004  -0.000020   0.000009
    24  H    0.000000  -0.000002   0.000003  -0.000002  -0.000001  -0.000038
    25  H   -0.000392  -0.000027   0.000522  -0.000034  -0.000002  -0.000036
    26  H    0.000000  -0.000211   0.000268   0.000109  -0.000050  -0.000010
    27  H    0.000000  -0.000002   0.000002   0.000001   0.000000   0.000000
    28  H    0.000000   0.000000   0.000000   0.000000   0.000000   0.000000
    29  H    0.000000   0.000000   0.000000   0.000000   0.000000   0.000000
    30  H   -0.000064   0.000789   0.000033  -0.000001   0.000000   0.000000
    31  H   -0.000004  -0.000167   0.000069  -0.000010  -0.000004   0.000000
    32  H    0.000000  -0.000003   0.000000   0.000000   0.000000   0.000000
    33  H    0.000000  -0.000002   0.000000   0.000000   0.000000   0.000000
    34  H   -0.000005  -0.000012   0.000001  -0.000001   0.000000   0.000000
    35  H   -0.000537  -0.000051   0.000056  -0.000014   0.000001   0.000000
    36  Ag  -0.055087  -0.002503   0.003764  -0.001208   0.000013  -0.000047
               7          8          9         10         11         12
     1  O    0.000005   0.000605   0.000374   0.000023  -0.000002   0.000000
     2  P   -0.000008   0.000397  -0.000631   0.000011   0.000028   0.000001
     3  C    0.000119  -0.000523  -0.000980   0.000176  -0.000045  -0.000001
     4  C    0.000068   0.000198   0.000015  -0.000020  -0.000009   0.000000
     5  C   -0.000121  -0.000049   0.000018   0.000005   0.000002   0.000000
     6  C   -0.000823  -0.000174   0.000003   0.000001   0.000000   0.000000
     7  C    0.002621   0.000831  -0.000003  -0.000001   0.000000   0.000000
     8  C    0.000831   0.003026   0.000151  -0.000012   0.000001   0.000000
     9  C   -0.000003   0.000151   0.006404  -0.002647   0.000657   0.000099
    10  C   -0.000001  -0.000012  -0.002647   0.003798  -0.001693  -0.000353
    11  C    0.000000   0.000001   0.000657  -0.001693   0.001676   0.000254
    12  C    0.000000   0.000000   0.000099  -0.000353   0.000254   0.000577
    13  C    0.000000   0.000000  -0.000319   0.000481  -0.000204  -0.000151
    14  C    0.000000  -0.000002   0.001069  -0.000254   0.000139   0.000068
    15  C   -0.000003  -0.000107  -0.000504   0.000085  -0.000004  -0.000001
    16  C    0.000000   0.000004   0.000476  -0.000092   0.000013   0.000002
    17  C    0.000000   0.000000   0.000017  -0.000003   0.000000   0.000000
    18  C    0.000000   0.000000   0.000002   0.000000   0.000000   0.000000
    19  C    0.000000   0.000000  -0.000008   0.000000   0.000000   0.000000
    20  C    0.000002   0.000084   0.000391  -0.000028   0.000002   0.000000
    21  H   -0.000001   0.000000  -0.000023   0.000002  -0.000002   0.000000
    22  H    0.000002   0.000002   0.000000   0.000000   0.000000   0.000000
    23  H    0.000005   0.000003   0.000000   0.000000   0.000000   0.000000
    24  H    0.000046  -0.000039   0.000000   0.000000   0.000000   0.000000
    25  H   -0.000099  -0.000093  -0.000060   0.000004  -0.000001   0.000000
    26  H    0.000009  -0.000002  -0.000566   0.000420  -0.000449  -0.000028
    27  H    0.000000   0.000000  -0.000042   0.000195  -0.000321  -0.000086
    28  H    0.000000   0.000000  -0.000002   0.000017  -0.000008  -0.000029
    29  H    0.000000   0.000000   0.000001   0.000003  -0.000001  -0.000007
    30  H    0.000000  -0.000008  -0.000647   0.000245  -0.000057  -0.000023
    31  H    0.000000  -0.000002  -0.000353   0.000200  -0.000061  -0.000008
    32  H    0.000000   0.000000  -0.000002   0.000001   0.000000   0.000000
    33  H    0.000000   0.000000   0.000000   0.000000   0.000000   0.000000
    34  H    0.000000   0.000000  -0.000001   0.000000   0.000000   0.000000
    35  H   -0.000001  -0.000022  -0.000023   0.000001   0.000000   0.000000
    36  Ag  -0.000861  -0.004683  -0.000856   0.000036  -0.000004   0.000000
              13         14         15         16         17         18
     1  O    0.000008  -0.000119  -0.002082   0.000025   0.000001   0.000002
     2  P    0.000085  -0.000388   0.002268   0.000464   0.000033   0.000035
     3  C    0.000005  -0.000015   0.000470  -0.000153  -0.000001  -0.000004
     4  C    0.000000   0.000002  -0.000241   0.000018   0.000001   0.000003
     5  C    0.000000   0.000000  -0.000003   0.000001   0.000000   0.000000
     6  C    0.000000   0.000000   0.000000   0.000000   0.000000   0.000000
     7  C    0.000000   0.000000  -0.000003   0.000000   0.000000   0.000000
     8  C    0.000000  -0.000002  -0.000107   0.000004   0.000000   0.000000
     9  C   -0.000319   0.001069  -0.000504   0.000476   0.000017   0.000002
    10  C    0.000481  -0.000254   0.000085  -0.000092  -0.000003   0.000000
    11  C   -0.000204   0.000139  -0.000004   0.000013   0.000000   0.000000
    12  C   -0.000151   0.000068  -0.000001   0.000002   0.000000   0.000000
    13  C    0.000364  -0.000950   0.000011  -0.000007   0.000000   0.000000
    14  C   -0.000950   0.002462  -0.000059  -0.000007   0.000000   0.000000
    15  C    0.000011  -0.000059   0.006742  -0.001888  -0.000467  -0.000998
    16  C   -0.000007  -0.000007  -0.001888   0.000960   0.000212   0.000110
    17  C    0.000000   0.000000  -0.000467   0.000212   0.001044  -0.000046
    18  C    0.000000   0.000000  -0.000998   0.000110  -0.000046   0.004604
    19  C    0.000000   0.000000   0.001547  -0.000157  -0.000427  -0.000005
    20  C   -0.000002   0.000006  -0.017137   0.001557   0.000010   0.000428
    21  H    0.000000   0.000000   0.000032   0.000000   0.000000   0.000000
    22  H    0.000000   0.000000   0.000000   0.000000   0.000000   0.000000
    23  H    0.000000   0.000000   0.000000   0.000000   0.000000   0.000000
    24  H    0.000000   0.000000   0.000000   0.000000   0.000000   0.000000
    25  H    0.000001  -0.000001   0.000005   0.000000   0.000000   0.000000
    26  H    0.000022  -0.000004   0.000018  -0.000027  -0.000001   0.000000
    27  H    0.000016  -0.000006   0.000000  -0.000001   0.000000   0.000000
    28  H    0.000015  -0.000013   0.000000   0.000000   0.000000   0.000000
    29  H    0.000025  -0.000032   0.000000   0.000000   0.000000   0.000000
    30  H    0.000434  -0.001498   0.000160  -0.000021  -0.000002   0.000000
    31  H    0.000011   0.000004   0.000340  -0.000377  -0.000180   0.000019
    32  H    0.000000   0.000000   0.000001   0.000003  -0.000124   0.000065
    33  H    0.000000   0.000000   0.000086  -0.000013  -0.000424  -0.000709
    34  H    0.000000   0.000000   0.000447  -0.000039  -0.000097  -0.001220
    35  H    0.000000   0.000000  -0.000028   0.000016  -0.000036   0.000008
    36  Ag   0.000003  -0.000004   0.011423  -0.000321  -0.000147  -0.000732
              19         20         21         22         23         24
     1  O    0.000008   0.003804  -0.000002   0.000000   0.000000   0.000000
     2  P   -0.000118   0.000121  -0.000065  -0.000002   0.000000  -0.000002
     3  C    0.000004  -0.000642   0.000079   0.000006   0.000000   0.000003
     4  C    0.000004   0.000239  -0.000003  -0.000006   0.000004  -0.000002
     5  C    0.000000   0.000002  -0.000015   0.000010  -0.000020  -0.000001
     6  C    0.000000   0.000000  -0.000003  -0.000007   0.000009  -0.000038
     7  C    0.000000   0.000002  -0.000001   0.000002   0.000005   0.000046
     8  C    0.000000   0.000084   0.000000   0.000002   0.000003  -0.000039
     9  C   -0.000008   0.000391  -0.000023   0.000000   0.000000   0.000000
    10  C    0.000000  -0.000028   0.000002   0.000000   0.000000   0.000000
    11  C    0.000000   0.000002  -0.000002   0.000000   0.000000   0.000000
    12  C    0.000000   0.000000   0.000000   0.000000   0.000000   0.000000
    13  C    0.000000  -0.000002   0.000000   0.000000   0.000000   0.000000
    14  C    0.000000   0.000006   0.000000   0.000000   0.000000   0.000000
    15  C    0.001547  -0.017137   0.000032   0.000000   0.000000   0.000000
    16  C   -0.000157   0.001557   0.000000   0.000000   0.000000   0.000000
    17  C   -0.000427   0.000010   0.000000   0.000000   0.000000   0.000000
    18  C   -0.000005   0.000428   0.000000   0.000000   0.000000   0.000000
    19  C   -0.001939   0.002173  -0.000001   0.000000   0.000000   0.000000
    20  C    0.002173   0.063074  -0.000020   0.000000   0.000000   0.000000
    21  H   -0.000001  -0.000020  -0.000153   0.000003   0.000000   0.000000
    22  H    0.000000   0.000000   0.000003  -0.000061   0.000004   0.000000
    23  H    0.000000   0.000000   0.000000   0.000004  -0.000058   0.000003
    24  H    0.000000   0.000000   0.000000   0.000000   0.000003  -0.000097
    25  H    0.000000  -0.000011   0.000000   0.000000   0.000001   0.000014
    26  H    0.000000  -0.000012   0.000013   0.000001   0.000000   0.000000
    27  H    0.000000   0.000000   0.000000   0.000000   0.000000   0.000000
    28  H    0.000000   0.000000   0.000000   0.000000   0.000000   0.000000
    29  H    0.000000   0.000000   0.000000   0.000000   0.000000   0.000000
    30  H    0.000001  -0.000101   0.000000   0.000000   0.000000   0.000000
    31  H    0.000030  -0.000165   0.000012   0.000000   0.000000   0.000000
    32  H    0.000010   0.000007   0.000000   0.000000   0.000000   0.000000
    33  H    0.000203   0.000034   0.000000   0.000000   0.000000   0.000000
    34  H   -0.000695  -0.001055   0.000000   0.000000   0.000000   0.000000
    35  H   -0.000406  -0.000156  -0.000001   0.000000   0.000000   0.000000
    36  Ag  -0.002195  -0.040344   0.000037   0.000010   0.000007   0.000066
              25         26         27         28         29         30
     1  O   -0.000392   0.000000   0.000000   0.000000   0.000000  -0.000064
     2  P   -0.000027  -0.000211  -0.000002   0.000000   0.000000   0.000789
     3  C    0.000522   0.000268   0.000002   0.000000   0.000000   0.000033
     4  C   -0.000034   0.000109   0.000001   0.000000   0.000000  -0.000001
     5  C   -0.000002  -0.000050   0.000000   0.000000   0.000000   0.000000
     6  C   -0.000036  -0.000010   0.000000   0.000000   0.000000   0.000000
     7  C   -0.000099   0.000009   0.000000   0.000000   0.000000   0.000000
     8  C   -0.000093  -0.000002   0.000000   0.000000   0.000000  -0.000008
     9  C   -0.000060  -0.000566  -0.000042  -0.000002   0.000001  -0.000647
    10  C    0.000004   0.000420   0.000195   0.000017   0.000003   0.000245
    11  C   -0.000001  -0.000449  -0.000321  -0.000008  -0.000001  -0.000057
    12  C    0.000000  -0.000028  -0.000086  -0.000029  -0.000007  -0.000023
    13  C    0.000001   0.000022   0.000016   0.000015   0.000025   0.000434
    14  C   -0.000001  -0.000004  -0.000006  -0.000013  -0.000032  -0.001498
    15  C    0.000005   0.000018   0.000000   0.000000   0.000000   0.000160
    16  C    0.000000  -0.000027  -0.000001   0.000000   0.000000  -0.000021
    17  C    0.000000  -0.000001   0.000000   0.000000   0.000000  -0.000002
    18  C    0.000000   0.000000   0.000000   0.000000   0.000000   0.000000
    19  C    0.000000   0.000000   0.000000   0.000000   0.000000   0.000001
    20  C   -0.000011  -0.000012   0.000000   0.000000   0.000000  -0.000101
    21  H    0.000000   0.000013   0.000000   0.000000   0.000000   0.000000
    22  H    0.000000   0.000001   0.000000   0.000000   0.000000   0.000000
    23  H    0.000001   0.000000   0.000000   0.000000   0.000000   0.000000
    24  H    0.000014   0.000000   0.000000   0.000000   0.000000   0.000000
    25  H   -0.000582   0.000004   0.000000   0.000000   0.000000   0.000006
    26  H    0.000004   0.000511   0.000071   0.000001   0.000000   0.000013
    27  H    0.000000   0.000071   0.000313   0.000013   0.000000   0.000002
    28  H    0.000000   0.000001   0.000013  -0.000007   0.000002   0.000002
    29  H    0.000000   0.000000   0.000000   0.000002   0.000008   0.000008
    30  H    0.000006   0.000013   0.000002   0.000002   0.000008   0.001212
    31  H    0.000000   0.000086   0.000005   0.000000   0.000000   0.000015
    32  H    0.000000   0.000000   0.000000   0.000000   0.000000   0.000000
    33  H    0.000000   0.000000   0.000000   0.000000   0.000000   0.000000
    34  H    0.000000   0.000000   0.000000   0.000000   0.000000   0.000000
    35  H    0.000002   0.000000   0.000000   0.000000   0.000000   0.000008
    36  Ag   0.001233   0.000036   0.000000   0.000000   0.000000   0.000390
              31         32         33         34         35         36
     1  O   -0.000004   0.000000   0.000000  -0.000005  -0.000537  -0.055087
     2  P   -0.000167  -0.000003  -0.000002  -0.000012  -0.000051  -0.002503
     3  C    0.000069   0.000000   0.000000   0.000001   0.000056   0.003764
     4  C   -0.000010   0.000000   0.000000  -0.000001  -0.000014  -0.001208
     5  C   -0.000004   0.000000   0.000000   0.000000   0.000001   0.000013
     6  C    0.000000   0.000000   0.000000   0.000000   0.000000  -0.000047
     7  C    0.000000   0.000000   0.000000   0.000000  -0.000001  -0.000861
     8  C   -0.000002   0.000000   0.000000   0.000000  -0.000022  -0.004683
     9  C   -0.000353  -0.000002   0.000000  -0.000001  -0.000023  -0.000856
    10  C    0.000200   0.000001   0.000000   0.000000   0.000001   0.000036
    11  C   -0.000061   0.000000   0.000000   0.000000   0.000000  -0.000004
    12  C   -0.000008   0.000000   0.000000   0.000000   0.000000   0.000000
    13  C    0.000011   0.000000   0.000000   0.000000   0.000000   0.000003
    14  C    0.000004   0.000000   0.000000   0.000000   0.000000  -0.000004
    15  C    0.000340   0.000001   0.000086   0.000447  -0.000028   0.011423
    16  C   -0.000377   0.000003  -0.000013  -0.000039   0.000016  -0.000321
    17  C   -0.000180  -0.000124  -0.000424  -0.000097  -0.000036  -0.000147
    18  C    0.000019   0.000065  -0.000709  -0.001220   0.000008  -0.000732
    19  C    0.000030   0.000010   0.000203  -0.000695  -0.000406  -0.002195
    20  C   -0.000165   0.000007   0.000034  -0.001055  -0.000156  -0.040344
    21  H    0.000012   0.000000   0.000000   0.000000  -0.000001   0.000037
    22  H    0.000000   0.000000   0.000000   0.000000   0.000000   0.000010
    23  H    0.000000   0.000000   0.000000   0.000000   0.000000   0.000007
    24  H    0.000000   0.000000   0.000000   0.000000   0.000000   0.000066
    25  H    0.000000   0.000000   0.000000   0.000000   0.000002   0.001233
    26  H    0.000086   0.000000   0.000000   0.000000   0.000000   0.000036
    27  H    0.000005   0.000000   0.000000   0.000000   0.000000   0.000000
    28  H    0.000000   0.000000   0.000000   0.000000   0.000000   0.000000
    29  H    0.000000   0.000000   0.000000   0.000000   0.000000   0.000000
    30  H    0.000015   0.000000   0.000000   0.000000   0.000008   0.000390
    31  H    0.000704   0.000029   0.000007   0.000003   0.000004   0.000074
    32  H    0.000029  -0.000024   0.000034   0.000002   0.000001   0.000006
    33  H    0.000007   0.000034   0.000819   0.000217   0.000004   0.000075
    34  H    0.000003   0.000002   0.000217   0.002200  -0.000094   0.001872
    35  H    0.000004   0.000001   0.000004  -0.000094  -0.002183   0.006060
    36  Ag   0.000074   0.000006   0.000075   0.001872   0.006060   1.033049
 Mulliken charges and spin densities:
               1          2
     1  O   -0.488297   0.019278
     2  P    0.808700   0.005461
     3  C   -0.196840   0.000314
     4  C   -0.009433   0.001957
     5  C   -0.003870   0.000395
     6  C    0.001793   0.000646
     7  C    0.000084   0.001786
     8  C    0.021190  -0.000413
     9  C   -0.198379   0.002011
    10  C   -0.010500   0.000599
    11  C   -0.005262  -0.000090
    12  C    0.001475   0.000314
    13  C   -0.004228  -0.000154
    14  C    0.022893   0.000399
    15  C   -0.173479   0.000112
    16  C   -0.020255   0.000757
    17  C   -0.002698  -0.000638
    18  C    0.000543   0.001561
    19  C    0.003952  -0.001971
    20  C    0.018693   0.012260
    21  H    0.021684  -0.000109
    22  H    0.019789  -0.000038
    23  H    0.024056  -0.000041
    24  H    0.025655  -0.000047
    25  H    0.040178   0.000454
    26  H    0.022676   0.000223
    27  H    0.020277   0.000161
    28  H    0.024132  -0.000008
    29  H    0.025534   0.000007
    30  H    0.036612   0.000897
    31  H    0.019803   0.000282
    32  H    0.018924   0.000007
    33  H    0.023370   0.000332
    34  H    0.025756   0.001526
    35  H    0.026058   0.002610
    36  Ag  -0.140590   0.949162
 Sum of Mulliken charges =   0.00000   1.00000
 Mulliken charges and spin densities with hydrogens summed into heavy atoms:
               1          2
     1  O   -0.488297   0.019278
     2  P    0.808700   0.005461
     3  C   -0.196840   0.000314
     4  C    0.012251   0.001848
     5  C    0.015920   0.000356
     6  C    0.025849   0.000605
     7  C    0.025739   0.001738
     8  C    0.061368   0.000042
     9  C   -0.198379   0.002011
    10  C    0.012176   0.000822
    11  C    0.015015   0.000071
    12  C    0.025607   0.000306
    13  C    0.021306  -0.000147
    14  C    0.059504   0.001296
    15  C   -0.173479   0.000112
    16  C   -0.000451   0.001039
    17  C    0.016227  -0.000631
    18  C    0.023913   0.001893
    19  C    0.029708  -0.000446
    20  C    0.044752   0.014870
    36  Ag  -0.140590   0.949162
 Electronic spatial extent (au):  <R**2>=           6894.6825
 Charge=              0.0000 electrons
 Dipole moment (field-independent basis, Debye):
    X=             -2.9593    Y=             -0.3380    Z=             -6.0218  Tot=              6.7182
 Quadrupole moment (field-independent basis, Debye-Ang):
   XX=           -140.2282   YY=           -129.5574   ZZ=           -156.7978
   XY=             -1.5196   XZ=            -12.9196   YZ=             -1.2351
 Traceless Quadrupole moment (field-independent basis, Debye-Ang):
   XX=              1.9663   YY=             12.6370   ZZ=            -14.6033
   XY=             -1.5196   XZ=            -12.9196   YZ=             -1.2351
 Octapole moment (field-independent basis, Debye-Ang**2):
  XXX=           -240.0737  YYY=             -0.6806  ZZZ=           -384.2864  XYY=              1.2073
  XXY=            -26.5664  XXZ=           -140.8401  XZZ=           -102.5265  YZZ=            -12.5742
  YYZ=           -103.1756  XYZ=             -3.3618
 Hexadecapole moment (field-independent basis, Debye-Ang**3):
 XXXX=          -3914.5699 YYYY=          -3090.0814 ZZZZ=          -3046.1597 XXXY=            -51.8257
 XXXZ=           -644.9685 YYYX=            -55.3410 YYYZ=           -179.2074 ZZZX=           -688.0890
 ZZZY=           -136.1306 XXYY=          -1151.4976 XXZZ=          -1242.6054 YYZZ=           -980.4280
 XXYZ=             13.6282 YYXZ=           -133.5288 ZZXY=            -47.5366
 N-N= 1.914813102801D+03 E-N=-6.740495926740D+03  KE= 1.158044693086D+03
                          Isotropic Fermi Contact Couplings
        Atom                 a.u.       MegaHertz       Gauss      10(-4) cm-1
     1  O(17)              0.14689     -89.04135     -31.77217     -29.70100
     2  P(31)              0.00991      17.94298       6.40250       5.98513
     3  C(13)             -0.00029      -0.33051      -0.11794      -0.11025
     4  C(13)              0.00027       0.29894       0.10667       0.09972
     5  C(13)              0.00006       0.06939       0.02476       0.02315
     6  C(13)              0.00010       0.11238       0.04010       0.03749
     7  C(13)              0.00024       0.26707       0.09530       0.08909
     8  C(13)              0.00432       4.85859       1.73367       1.62065
     9  C(13)              0.00465       5.22723       1.86521       1.74362
    10  C(13)              0.00063       0.70423       0.25129       0.23491
    11  C(13)              0.00040       0.45267       0.16152       0.15099
    12  C(13)              0.00016       0.17961       0.06409       0.05991
    13  C(13)             -0.00008      -0.08850      -0.03158      -0.02952
    14  C(13)              0.00093       1.04770       0.37384       0.34947
    15  C(13)             -0.00182      -2.05143      -0.73200      -0.68428
    16  C(13)              0.00028       0.30970       0.11051       0.10330
    17  C(13)              0.00025       0.28212       0.10067       0.09410
    18  C(13)              0.00112       1.25528       0.44792       0.41872
    19  C(13)             -0.00088      -0.99298      -0.35432      -0.33122
    20  C(13)              0.04057      45.61214      16.27555      15.21457
    21  H(1)              -0.00004      -0.16624      -0.05932      -0.05545
    22  H(1)              -0.00001      -0.06171      -0.02202      -0.02058
    23  H(1)              -0.00001      -0.05865      -0.02093      -0.01956
    24  H(1)              -0.00003      -0.14761      -0.05267      -0.04924
    25  H(1)               0.00013       0.56274       0.20080       0.18771
    26  H(1)               0.00001       0.05331       0.01902       0.01778
    27  H(1)               0.00004       0.18024       0.06432       0.06012
    28  H(1)              -0.00001      -0.02257      -0.00805      -0.00753
    29  H(1)               0.00000       0.00600       0.00214       0.00200
    30  H(1)              -0.00002      -0.07617      -0.02718      -0.02541
    31  H(1)               0.00008       0.35064       0.12512       0.11696
    32  H(1)              -0.00001      -0.02986      -0.01066      -0.00996
    33  H(1)               0.00008       0.33533       0.11965       0.11185
    34  H(1)               0.00011       0.49026       0.17494       0.16353
    35  H(1)              -0.00125      -5.59516      -1.99649      -1.86634
    36  Ag(107             0.00028      -0.05123      -0.01828      -0.01709
 --------------------------------------------------------
       Center         ----  Spin Dipole Couplings  ----
                      3XX-RR        3YY-RR        3ZZ-RR
 --------------------------------------------------------
     1   Atom        0.102279     -0.049438     -0.052841
     2   Atom       -0.004071     -0.007412      0.011484
     3   Atom       -0.001306     -0.001201      0.002507
     4   Atom        0.000331     -0.001411      0.001080
     5   Atom       -0.000213     -0.000576      0.000789
     6   Atom       -0.000167     -0.000111      0.000278
     7   Atom        0.000663     -0.000206     -0.000457
     8   Atom       -0.002449      0.000219      0.002230
     9   Atom        0.003405     -0.002349     -0.001056
    10   Atom       -0.000502     -0.000044      0.000545
    11   Atom        0.000561     -0.000546     -0.000015
    12   Atom        0.000258     -0.000037     -0.000221
    13   Atom        0.000734     -0.000511     -0.000223
    14   Atom        0.001376     -0.001108     -0.000268
    15   Atom       -0.001330     -0.000989      0.002319
    16   Atom       -0.000452     -0.000963      0.001415
    17   Atom       -0.000577     -0.000361      0.000938
    18   Atom        0.000257      0.000066     -0.000323
    19   Atom       -0.001575      0.001802     -0.000227
    20   Atom       -0.014624     -0.011307      0.025932
    21   Atom       -0.000788     -0.000754      0.001542
    22   Atom       -0.000482     -0.000371      0.000852
    23   Atom       -0.000449      0.000158      0.000292
    24   Atom       -0.000930      0.001206     -0.000276
    25   Atom       -0.001073      0.001421     -0.000348
    26   Atom       -0.000036     -0.000484      0.000520
    27   Atom        0.000120     -0.000224      0.000104
    28   Atom        0.000285     -0.000193     -0.000093
    29   Atom        0.000603     -0.000339     -0.000264
    30   Atom        0.002047     -0.001160     -0.000887
    31   Atom       -0.000120     -0.000544      0.000665
    32   Atom       -0.000274     -0.000142      0.000417
    33   Atom       -0.000498      0.000349      0.000149
    34   Atom       -0.001526      0.001805     -0.000278
    35   Atom       -0.005806     -0.002252      0.008058
    36   Atom       -0.031942      0.022050      0.009892
 --------------------------------------------------------
                        XY            XZ            YZ
 --------------------------------------------------------
     1   Atom        0.044583      0.034111      0.010768
     2   Atom       -0.003653     -0.009134      0.006144
     3   Atom        0.001179      0.002289      0.001798
     4   Atom        0.001365      0.001871      0.001471
     5   Atom        0.000322      0.000287      0.000878
     6   Atom        0.000488      0.000208      0.001171
     7   Atom        0.001115      0.001324      0.002002
     8   Atom        0.001383      0.001833      0.003938
     9   Atom        0.002176      0.003196      0.001062
    10   Atom        0.000413      0.000916      0.001379
    11   Atom        0.000174      0.000615      0.000223
    12   Atom        0.000199      0.000357     -0.000067
    13   Atom        0.000118      0.000381      0.000113
    14   Atom        0.000019      0.001143     -0.000227
    15   Atom        0.000115      0.002935      0.000027
    16   Atom       -0.000332      0.000649     -0.000436
    17   Atom        0.000021      0.000754     -0.000951
    18   Atom       -0.001464      0.000794     -0.001347
    19   Atom        0.002025      0.000418     -0.003788
    20   Atom       -0.005230      0.009089     -0.016358
    21   Atom        0.000059      0.000586      0.000161
    22   Atom       -0.000001     -0.000083      0.000429
    23   Atom       -0.000153     -0.000146      0.000763
    24   Atom        0.000043      0.000124      0.001076
    25   Atom        0.002378      0.001098      0.002501
    26   Atom        0.000193      0.000644      0.000421
    27   Atom        0.000129      0.000357      0.000137
    28   Atom        0.000096      0.000256      0.000044
    29   Atom        0.000052      0.000237      0.000014
    30   Atom       -0.000057      0.000621      0.000123
    31   Atom       -0.000090      0.000827     -0.000324
    32   Atom       -0.000147      0.000337     -0.000447
    33   Atom       -0.000126      0.000144     -0.000864
    34   Atom        0.000082      0.000153     -0.002085
    35   Atom       -0.008367      0.011589     -0.014062
    36   Atom       -0.007512     -0.023218     -0.004326
 --------------------------------------------------------


 ---------------------------------------------------------------------------------
              Anisotropic Spin Dipole Couplings in Principal Axis System
 ---------------------------------------------------------------------------------

       Atom             a.u.   MegaHertz   Gauss  10(-4) cm-1        Axes

              Baa    -0.0624     4.518     1.612     1.507 -0.1231  0.8486 -0.5146
     1 O(17)  Bbb    -0.0593     4.290     1.531     1.431 -0.3034  0.4615  0.8336
              Bcc     0.1217    -8.808    -3.143    -2.938  0.9449  0.2587  0.2006
 
              Baa    -0.0098    -2.112    -0.753    -0.704  0.4960  0.8675 -0.0376
     2 P(31)  Bbb    -0.0079    -1.718    -0.613    -0.573  0.7651 -0.4162  0.4912
              Bcc     0.0177     3.830     1.367     1.278 -0.4105  0.2724  0.8702
 
              Baa    -0.0025    -0.340    -0.121    -0.113  0.8621 -0.4514 -0.2304
     3 C(13)  Bbb    -0.0019    -0.249    -0.089    -0.083  0.2967  0.8181 -0.4927
              Bcc     0.0044     0.589     0.210     0.197  0.4109  0.3564  0.8391
 
              Baa    -0.0023    -0.302    -0.108    -0.101 -0.3234  0.9193 -0.2244
     4 C(13)  Bbb    -0.0012    -0.160    -0.057    -0.053  0.7368  0.0959 -0.6692
              Bcc     0.0034     0.462     0.165     0.154  0.5937  0.3818  0.7084
 
              Baa    -0.0010    -0.140    -0.050    -0.047 -0.2104  0.8939 -0.3957
     5 C(13)  Bbb    -0.0003    -0.038    -0.014    -0.013  0.9442  0.0810 -0.3192
              Bcc     0.0013     0.178     0.063     0.059  0.2533  0.4408  0.8611
 
              Baa    -0.0012    -0.156    -0.056    -0.052 -0.2528  0.7690 -0.5872
     6 C(13)  Bbb    -0.0002    -0.033    -0.012    -0.011  0.9227  0.0091 -0.3854
              Bcc     0.0014     0.190     0.068     0.063  0.2910  0.6392  0.7118
 
              Baa    -0.0024    -0.316    -0.113    -0.105 -0.0879 -0.6542  0.7512
     7 C(13)  Bbb    -0.0006    -0.082    -0.029    -0.027  0.7954 -0.5001 -0.3424
              Bcc     0.0030     0.398     0.142     0.133  0.5997  0.5674  0.5643
 
              Baa    -0.0031    -0.414    -0.148    -0.138  0.9567 -0.0614 -0.2846
     8 C(13)  Bbb    -0.0028    -0.381    -0.136    -0.127 -0.1214  0.8045 -0.5814
              Bcc     0.0059     0.794     0.283     0.265  0.2646  0.5908  0.7622
 
              Baa    -0.0031    -0.413    -0.147    -0.138 -0.3279  0.9445  0.0223
     9 C(13)  Bbb    -0.0027    -0.364    -0.130    -0.121 -0.4104 -0.1636  0.8971
              Bcc     0.0058     0.777     0.277     0.259  0.8509  0.2850  0.4413
 
              Baa    -0.0013    -0.174    -0.062    -0.058 -0.4675 -0.5801  0.6670
    10 C(13)  Bbb    -0.0007    -0.099    -0.035    -0.033  0.8074 -0.5875  0.0549
              Bcc     0.0020     0.273     0.097     0.091  0.3600  0.5642  0.7431
 
              Baa    -0.0006    -0.085    -0.030    -0.028  0.0777  0.9101 -0.4070
    11 C(13)  Bbb    -0.0004    -0.049    -0.018    -0.016 -0.5595  0.3777  0.7378
              Bcc     0.0010     0.134     0.048     0.045  0.8252  0.1704  0.5385
 
              Baa    -0.0005    -0.063    -0.022    -0.021 -0.4884  0.3493  0.7997
    12 C(13)  Bbb     0.0000    -0.003    -0.001    -0.001 -0.0785  0.8951 -0.4389
              Bcc     0.0005     0.066     0.023     0.022  0.8691  0.2772  0.4098
 
              Baa    -0.0006    -0.074    -0.026    -0.025  0.0147  0.9398 -0.3415
    13 C(13)  Bbb    -0.0003    -0.045    -0.016    -0.015 -0.3501  0.3247  0.8786
              Bcc     0.0009     0.118     0.042     0.040  0.9366  0.1067  0.3338
 
              Baa    -0.0012    -0.165    -0.059    -0.055 -0.2025  0.8715  0.4466
    14 C(13)  Bbb    -0.0007    -0.099    -0.035    -0.033 -0.4117 -0.4896  0.7686
              Bcc     0.0020     0.264     0.094     0.088  0.8885 -0.0283  0.4579
 
              Baa    -0.0030    -0.398    -0.142    -0.133  0.8734 -0.0439 -0.4849
    15 C(13)  Bbb    -0.0010    -0.132    -0.047    -0.044  0.0305  0.9989 -0.0354
              Bcc     0.0040     0.530     0.189     0.177  0.4860  0.0161  0.8738
 
              Baa    -0.0011    -0.152    -0.054    -0.051  0.3935  0.9176  0.0566
    16 C(13)  Bbb    -0.0006    -0.079    -0.028    -0.026  0.8662 -0.3495 -0.3571
              Bcc     0.0017     0.231     0.082     0.077  0.3079 -0.1896  0.9324
 
              Baa    -0.0012    -0.158    -0.056    -0.053  0.6394 -0.5900 -0.4930
    17 C(13)  Bbb    -0.0005    -0.062    -0.022    -0.021  0.7119  0.6966  0.0895
              Bcc     0.0016     0.220     0.078     0.073  0.2906 -0.4082  0.8654
 
              Baa    -0.0016    -0.218    -0.078    -0.073  0.3446  0.7492  0.5656
    18 C(13)  Bbb    -0.0008    -0.112    -0.040    -0.037  0.7222  0.1734 -0.6696
              Bcc     0.0025     0.329     0.118     0.110 -0.5998  0.6392 -0.4814
 
              Baa    -0.0042    -0.558    -0.199    -0.186 -0.5473  0.5732  0.6099
    19 C(13)  Bbb    -0.0008    -0.112    -0.040    -0.038  0.8101  0.1795  0.5582
              Bcc     0.0050     0.671     0.239     0.224  0.2105  0.7995 -0.5626
 
              Baa    -0.0188    -2.527    -0.902    -0.843  0.6213  0.7682  0.1546
    20 C(13)  Bbb    -0.0155    -2.075    -0.740    -0.692  0.7557 -0.5352 -0.3775
              Bcc     0.0343     4.601     1.642     1.535  0.2072 -0.3513  0.9130
 
              Baa    -0.0009    -0.496    -0.177    -0.165  0.9677 -0.1198 -0.2216
    21 H(1)   Bbb    -0.0008    -0.407    -0.145    -0.136  0.1009  0.9904 -0.0948
              Bcc     0.0017     0.903     0.322     0.301  0.2308  0.0694  0.9705
 
              Baa    -0.0005    -0.278    -0.099    -0.093 -0.5571  0.7826 -0.2779
    22 H(1)   Bbb    -0.0005    -0.251    -0.089    -0.084  0.8287  0.5457 -0.1246
              Bcc     0.0010     0.529     0.189     0.177 -0.0542  0.2997  0.9525
 
              Baa    -0.0005    -0.290    -0.104    -0.097  0.2082  0.7402 -0.6393
    23 H(1)   Bbb    -0.0005    -0.254    -0.091    -0.085  0.9677 -0.0609  0.2447
              Bcc     0.0010     0.545     0.194     0.182 -0.1422  0.6696  0.7290
 
              Baa    -0.0010    -0.527    -0.188    -0.176  0.8532  0.2160 -0.4748
    24 H(1)   Bbb    -0.0008    -0.420    -0.150    -0.140  0.5204 -0.4145  0.7465
              Bcc     0.0018     0.947     0.338     0.316  0.0356  0.8840  0.4661
 
              Baa    -0.0026    -1.410    -0.503    -0.470  0.7043 -0.6224  0.3415
    25 H(1)   Bbb    -0.0018    -0.942    -0.336    -0.314 -0.5669 -0.2035  0.7983
              Bcc     0.0044     2.352     0.839     0.785  0.4273  0.7558  0.4962
 
              Baa    -0.0006    -0.343    -0.122    -0.114  0.1444  0.9021 -0.4067
    26 H(1)   Bbb    -0.0004    -0.232    -0.083    -0.077  0.8442 -0.3267 -0.4250
              Bcc     0.0011     0.575     0.205     0.192  0.5163  0.2820  0.8087
 
              Baa    -0.0003    -0.146    -0.052    -0.049  0.0110  0.9366 -0.3501
    27 H(1)   Bbb    -0.0002    -0.129    -0.046    -0.043  0.7225 -0.2495 -0.6448
              Bcc     0.0005     0.275     0.098     0.092  0.6913  0.2459  0.6794
 
              Baa    -0.0002    -0.119    -0.043    -0.040 -0.4735  0.2691  0.8387
    28 H(1)   Bbb    -0.0002    -0.112    -0.040    -0.037 -0.0204  0.9486 -0.3159
              Bcc     0.0004     0.231     0.082     0.077  0.8806  0.1667  0.4436
 
              Baa    -0.0003    -0.182    -0.065    -0.061 -0.0380  0.9971 -0.0661
    29 H(1)   Bbb    -0.0003    -0.173    -0.062    -0.058 -0.2501  0.0545  0.9667
              Bcc     0.0007     0.356     0.127     0.119  0.9675  0.0532  0.2473
 
              Baa    -0.0012    -0.661    -0.236    -0.220  0.1085  0.8621 -0.4951
    30 H(1)   Bbb    -0.0009    -0.499    -0.178    -0.167 -0.1666  0.5067  0.8459
              Bcc     0.0022     1.160     0.414     0.387  0.9800 -0.0093  0.1986
 
              Baa    -0.0007    -0.385    -0.137    -0.128 -0.6021  0.6189  0.5044
    31 H(1)   Bbb    -0.0005    -0.280    -0.100    -0.093  0.6074  0.7651 -0.2138
              Bcc     0.0012     0.665     0.237     0.222  0.5182 -0.1776  0.8366
 
              Baa    -0.0004    -0.228    -0.081    -0.076  0.7216 -0.4501 -0.5260
    32 H(1)   Bbb    -0.0004    -0.193    -0.069    -0.064  0.6109  0.7714  0.1779
              Bcc     0.0008     0.422     0.150     0.141  0.3257 -0.4498  0.8316
 
              Baa    -0.0006    -0.334    -0.119    -0.111 -0.2142  0.6323  0.7445
    33 H(1)   Bbb    -0.0005    -0.275    -0.098    -0.092  0.9700  0.2276  0.0858
              Bcc     0.0011     0.609     0.217     0.203 -0.1152  0.7405 -0.6621
 
              Baa    -0.0017    -0.919    -0.328    -0.306  0.6647 -0.3916 -0.6362
    34 H(1)   Bbb    -0.0014    -0.732    -0.261    -0.244  0.7471  0.3510  0.5645
              Bcc     0.0031     1.651     0.589     0.551 -0.0023  0.8505 -0.5259
 
              Baa    -0.0126    -6.724    -2.399    -2.243  0.8455  0.5202 -0.1203
    35 H(1)   Bbb    -0.0120    -6.401    -2.284    -2.135 -0.3226  0.6772  0.6613
              Bcc     0.0246    13.125     4.683     4.378  0.4254 -0.5203  0.7404
 
              Baa    -0.0434     0.942     0.336     0.314  0.9050  0.1306  0.4048
    36 Ag(107 Bbb     0.0200    -0.433    -0.155    -0.145 -0.4253  0.2649  0.8654
              Bcc     0.0234    -0.508    -0.181    -0.170 -0.0058  0.9554 -0.2953
 

 ---------------------------------------------------------------------------------

 No NMR shielding tensors so no spin-rotation constants.
 Leave Link  601 at Sat Sep 12 00:28:20 2026, MaxMem=  6442450944 cpu:               4.0 elap:               3.5
 (Enter C:\G16W\l9999.exe)
 Unable to Open any file for archive entry.
 1|1|UNPC-DESKTOP-2JKEGCA|SP|UPBE1PBE|def2SVP|C18H15Ag1O1P1(2)|JHKIM|12
 -Sep-2026|0||#P PBE1PBE/Def2SVP EmpiricalDispersion=GD3BJ SP SCF=(XQC,
 MaxCycle=128) NoSymm Guess=Read||Ph3P=O t=0.500 dz=+0.00 class=toface|
 |0,2|O,0,0.157203,-0.100492,2.626991|P,0,0.069607,-0.044493,1.163304|C
 ,0,1.166792,-1.236526,0.327247|C,0,1.691956,-1.034741,-0.941876|C,0,2.
 506392,-1.999945,-1.50715|C,0,2.795669,-3.162547,-0.810599|C,0,2.27647
 4,-3.361367,0.458551|C,0,1.463446,-2.397796,1.027112|C,0,-1.601084,-0.
 398148,0.524976|C,0,-1.842527,-0.947129,-0.727028|C,0,-3.145051,-1.169
 9,-1.137226|C,0,-4.203253,-0.845855,-0.303131|C,0,-3.962206,-0.303544,
 0.948922|C,0,-2.661381,-0.081191,1.362634|C,0,0.513641,1.583938,0.4742
 47|C,0,0.007445,2.073442,-0.722137|C,0,0.409889,3.31619,-1.178293|C,0,
 1.314314,4.068046,-0.445332|C,0,1.814986,3.5822,0.751795|C,0,1.413441,
 2.341123,1.211398|H,0,1.473765,-0.121933,-1.478618|H,0,2.919456,-1.844
 342,-2.493424|H,0,3.432355,-3.912319,-1.257069|H,0,2.507467,-4.265374,
 1.002736|H,0,1.05567,-2.521752,2.020234|H,0,-1.014865,-1.209302,-1.371
 357|H,0,-3.33617,-1.600225,-2.109779|H,0,-5.217949,-1.022428,-0.628822
 |H,0,-4.787714,-0.056885,1.600396|H,0,-2.444807,0.328765,2.338833|H,0,
 -0.706462,1.489685,-1.286482|H,0,0.015119,3.701451,-2.107435|H,0,1.624
 492,5.037702,-0.806466|H,0,2.515351,4.171781,1.325042|H,0,1.778541,1.9
 43911,2.147808|Ag,0,2.26641806,0.29483012,3.5642649||Version=EM64W-G16
 RevC.01|HF=-1256.8464569|S2=0.751801|S2-1=0.|S2A=0.750003|RMSD=3.592e-
 009|Dipole=-1.1642687,-0.1329835,-2.3691778|Quadrupole=1.4618844,9.395
 3247,-10.8572091,-1.1297759,-9.6054347,-0.9182831|PG=C01 [X(C18H15Ag1O
 1P1)]||@
 The archive entry for this job was punched.


 EDUCATION DOESN'T COST 
           ... IT PAYS!

 -- POSTMARK, UNIV. OF MISSISSIPPI, DEC 78
 Job cpu time:       0 days  0 hours  7 minutes 56.0 seconds.
 Elapsed time:       0 days  0 hours  7 minutes 54.2 seconds.
 File lengths (MBytes):  RWF=    145 Int=      0 D2E=      0 Chk=     12 Scr=      1
 Normal termination of Gaussian 16 at Sat Sep 12 00:28:20 2026.
