 Entering Gaussian System, Link 0=C:\G16W\g16.exe
 Input=Ph3PO_t1_z0.gjf
 Output=Ph3PO_t1_z0.out
 Initial command:
 C:\G16W\l1.exe ".\Gau-97184.inp" "Ph3PO_t1_z0.out" /scrdir=".\"
 Entering Link 1 = C:\G16W\l1.exe PID=    134164.
  
 Copyright (c) 1988-2019, Gaussian, Inc.  All Rights Reserved.
  
 This is part of the Gaussian(R) 16 program.  It is based on
 the Gaussian(R) 09 system (copyright 2009, Gaussian, Inc.),
 the Gaussian(R) 03 system (copyright 2003, Gaussian, Inc.),
 the Gaussian(R) 98 system (copyright 1998, Gaussian, Inc.),
 the Gaussian(R) 94 system (copyright 1995, Gaussian, Inc.),
 the Gaussian 92(TM) system (copyright 1992, Gaussian, Inc.),
 the Gaussian 90(TM) system (copyright 1990, Gaussian, Inc.),
 the Gaussian 88(TM) system (copyright 1988, Gaussian, Inc.),
 the Gaussian 86(TM) system (copyright 1986, Carnegie Mellon
 University), and the Gaussian 82(TM) system (copyright 1983,
 Carnegie Mellon University). Gaussian is a federally registered
 trademark of Gaussian, Inc.
  
 This software contains proprietary and confidential information,
 including trade secrets, belonging to Gaussian, Inc.
  
 This software is provided under written license and may be
 used, copied, transmitted, or stored only in accord with that
 written license.
  
 The following legend is applicable only to US Government
 contracts under FAR:
  
                    RESTRICTED RIGHTS LEGEND
  
 Use, reproduction and disclosure by the US Government is
 subject to restrictions as set forth in subparagraphs (a)
 and (c) of the Commercial Computer Software - Restricted
 Rights clause in FAR 52.227-19.
  
 Gaussian, Inc.
 340 Quinnipiac St., Bldg. 40, Wallingford CT 06492
  
  
 ---------------------------------------------------------------
 Warning -- This program may not be used in any manner that
 competes with the business of Gaussian, Inc. or will provide
 assistance to any competitor of Gaussian, Inc.  The licensee
 of this program is prohibited from giving any competitor of
 Gaussian, Inc. access to this program.  By using this program,
 the user acknowledges that Gaussian, Inc. is engaged in the
 business of creating and licensing software in the field of
 computational chemistry and represents and warrants to the
 licensee that it is not a competitor of Gaussian, Inc. and that
 it will not use this program in any manner prohibited above.
 ---------------------------------------------------------------
  

 Cite this work as:
 Gaussian 16, Revision C.01,
 M. J. Frisch, G. W. Trucks, H. B. Schlegel, G. E. Scuseria, 
 M. A. Robb, J. R. Cheeseman, G. Scalmani, V. Barone, 
 G. A. Petersson, H. Nakatsuji, X. Li, M. Caricato, A. V. Marenich, 
 J. Bloino, B. G. Janesko, R. Gomperts, B. Mennucci, H. P. Hratchian, 
 J. V. Ortiz, A. F. Izmaylov, J. L. Sonnenberg, D. Williams-Young, 
 F. Ding, F. Lipparini, F. Egidi, J. Goings, B. Peng, A. Petrone, 
 T. Henderson, D. Ranasinghe, V. G. Zakrzewski, J. Gao, N. Rega, 
 G. Zheng, W. Liang, M. Hada, M. Ehara, K. Toyota, R. Fukuda, 
 J. Hasegawa, M. Ishida, T. Nakajima, Y. Honda, O. Kitao, H. Nakai, 
 T. Vreven, K. Throssell, J. A. Montgomery, Jr., J. E. Peralta, 
 F. Ogliaro, M. J. Bearpark, J. J. Heyd, E. N. Brothers, K. N. Kudin, 
 V. N. Staroverov, T. A. Keith, R. Kobayashi, J. Normand, 
 K. Raghavachari, A. P. Rendell, J. C. Burant, S. S. Iyengar, 
 J. Tomasi, M. Cossi, J. M. Millam, M. Klene, C. Adamo, R. Cammi, 
 J. W. Ochterski, R. L. Martin, K. Morokuma, O. Farkas, 
 J. B. Foresman, and D. J. Fox, Gaussian, Inc., Wallingford CT, 2019.
 
 ******************************************
 Gaussian 16:  EM64W-G16RevC.01 30-May-2019
                12-Sep-2026 
 ******************************************
 %Chk=Ph3PO.chk
 %NProcShared=8
 Will use up to    8 processors via shared memory.
 %Mem=48GB
 ----------------------------------------------------------------------
 #P PBE1PBE/Def2SVP EmpiricalDispersion=GD3BJ SP SCF=(XQC,MaxCycle=128)
  NoSymm Guess=Read
 ----------------------------------------------------------------------
 1/38=1,172=1/1;
 2/12=2,15=1,17=6,18=5,40=1/2;
 3/5=43,7=101,11=2,25=1,30=1,74=-13,116=-2,124=41/1,2,3;
 4/5=1/1;
 5/5=2,7=128,8=3,13=1,38=6/2,8;
 6/7=2,8=2,9=2,10=2,28=1/1;
 99/5=1,9=1/99;
 Leave Link    1 at Sat Sep 12 00:06:06 2026, MaxMem=  6442450944 cpu:               0.0 elap:               0.3
 (Enter C:\G16W\l101.exe)
 ------------------------------------
 Ph3P=O t=0.250 dz=+0.00 class=toface
 ------------------------------------
 Symbolic Z-matrix:
 Charge =  0 Multiplicity = 2
 O                     0.1572   -0.10049   2.62699 
 P                     0.06961  -0.04449   1.1633 
 C                     1.16679  -1.23653   0.32725 
 C                     1.69196  -1.03474  -0.94188 
 C                     2.50639  -1.99995  -1.50715 
 C                     2.79567  -3.16255  -0.8106 
 C                     2.27647  -3.36137   0.45855 
 C                     1.46345  -2.3978    1.02711 
 C                    -1.60108  -0.39815   0.52498 
 C                    -1.84253  -0.94713  -0.72703 
 C                    -3.14505  -1.1699   -1.13723 
 C                    -4.20325  -0.84586  -0.30313 
 C                    -3.96221  -0.30354   0.94892 
 C                    -2.66138  -0.08119   1.36263 
 C                     0.51364   1.58394   0.47425 
 C                     0.00745   2.07344  -0.72214 
 C                     0.40989   3.31619  -1.17829 
 C                     1.31431   4.06805  -0.44533 
 C                     1.81499   3.5822    0.7518 
 C                     1.41344   2.34112   1.2114 
 H                     1.47377  -0.12193  -1.47862 
 H                     2.91946  -1.84434  -2.49342 
 H                     3.43236  -3.91232  -1.25707 
 H                     2.50747  -4.26537   1.00274 
 H                     1.05567  -2.52175   2.02023 
 H                    -1.01486  -1.2093   -1.37136 
 H                    -3.33617  -1.60023  -2.10978 
 H                    -5.21795  -1.02243  -0.62882 
 H                    -4.78771  -0.05689   1.6004 
 H                    -2.44481   0.32877   2.33883 
 H                    -0.70646   1.48969  -1.28648 
 H                     0.01512   3.70145  -2.10744 
 H                     1.62449   5.0377   -0.80647 
 H                     2.51535   4.17178   1.32504 
 H                     1.77854   1.94391   2.14781 
 Ag                    1.11953   0.00013   4.62352 
 
 ITRead=  0  0  0  0  0  0  0  0  0  0  0  0  0  0  0  0  0  0  0  0
 ITRead=  0  0  0  0  0  0  0  0  0  0  0  0  0  0  0  0
 MicOpt= -1 -1 -1 -1 -1 -1 -1 -1 -1 -1 -1 -1 -1 -1 -1 -1 -1 -1 -1 -1
 MicOpt= -1 -1 -1 -1 -1 -1 -1 -1 -1 -1 -1 -1 -1 -1 -1 -1
 NAtoms=     36 NQM=       36 NQMF=       0 NMMI=      0 NMMIF=      0
                NMic=       0 NMicF=      0.
                    Isotopes and Nuclear Properties:
 (Nuclear quadrupole moments (NQMom) in fm**2, nuclear magnetic moments (NMagM)
  in nuclear magnetons)

  Atom         1           2           3           4           5           6           7           8           9          10
 IAtWgt=          16          31          12          12          12          12          12          12          12          12
 AtmWgt=  15.9949146  30.9737634  12.0000000  12.0000000  12.0000000  12.0000000  12.0000000  12.0000000  12.0000000  12.0000000
 NucSpn=           0           1           0           0           0           0           0           0           0           0
 AtZEff=   0.0000000   0.0000000   0.0000000   0.0000000   0.0000000   0.0000000   0.0000000   0.0000000   0.0000000   0.0000000
 NQMom=    0.0000000   0.0000000   0.0000000   0.0000000   0.0000000   0.0000000   0.0000000   0.0000000   0.0000000   0.0000000
 NMagM=    0.0000000   1.1316000   0.0000000   0.0000000   0.0000000   0.0000000   0.0000000   0.0000000   0.0000000   0.0000000
 AtZNuc=   8.0000000  15.0000000   6.0000000   6.0000000   6.0000000   6.0000000   6.0000000   6.0000000   6.0000000   6.0000000

  Atom        11          12          13          14          15          16          17          18          19          20
 IAtWgt=          12          12          12          12          12          12          12          12          12          12
 AtmWgt=  12.0000000  12.0000000  12.0000000  12.0000000  12.0000000  12.0000000  12.0000000  12.0000000  12.0000000  12.0000000
 NucSpn=           0           0           0           0           0           0           0           0           0           0
 AtZEff=   0.0000000   0.0000000   0.0000000   0.0000000   0.0000000   0.0000000   0.0000000   0.0000000   0.0000000   0.0000000
 NQMom=    0.0000000   0.0000000   0.0000000   0.0000000   0.0000000   0.0000000   0.0000000   0.0000000   0.0000000   0.0000000
 NMagM=    0.0000000   0.0000000   0.0000000   0.0000000   0.0000000   0.0000000   0.0000000   0.0000000   0.0000000   0.0000000
 AtZNuc=   6.0000000   6.0000000   6.0000000   6.0000000   6.0000000   6.0000000   6.0000000   6.0000000   6.0000000   6.0000000

  Atom        21          22          23          24          25          26          27          28          29          30
 IAtWgt=           1           1           1           1           1           1           1           1           1           1
 AtmWgt=   1.0078250   1.0078250   1.0078250   1.0078250   1.0078250   1.0078250   1.0078250   1.0078250   1.0078250   1.0078250
 NucSpn=           1           1           1           1           1           1           1           1           1           1
 AtZEff=   0.0000000   0.0000000   0.0000000   0.0000000   0.0000000   0.0000000   0.0000000   0.0000000   0.0000000   0.0000000
 NQMom=    0.0000000   0.0000000   0.0000000   0.0000000   0.0000000   0.0000000   0.0000000   0.0000000   0.0000000   0.0000000
 NMagM=    2.7928460   2.7928460   2.7928460   2.7928460   2.7928460   2.7928460   2.7928460   2.7928460   2.7928460   2.7928460
 AtZNuc=   1.0000000   1.0000000   1.0000000   1.0000000   1.0000000   1.0000000   1.0000000   1.0000000   1.0000000   1.0000000

  Atom        31          32          33          34          35          36
 IAtWgt=           1           1           1           1           1         107
 AtmWgt=   1.0078250   1.0078250   1.0078250   1.0078250   1.0078250 106.9050900
 NucSpn=           1           1           1           1           1           1
 AtZEff=   0.0000000   0.0000000   0.0000000   0.0000000   0.0000000   0.0000000
 NQMom=    0.0000000   0.0000000   0.0000000   0.0000000   0.0000000   0.0000000
 NMagM=    2.7928460   2.7928460   2.7928460   2.7928460   2.7928460  -0.1135700
 AtZNuc=   1.0000000   1.0000000   1.0000000   1.0000000   1.0000000  47.0000000
 Leave Link  101 at Sat Sep 12 00:06:07 2026, MaxMem=  6442450944 cpu:               1.0 elap:               0.3
 (Enter C:\G16W\l202.exe)
                          Input orientation:                          
 ---------------------------------------------------------------------
 Center     Atomic      Atomic             Coordinates (Angstroms)
 Number     Number       Type             X           Y           Z
 ---------------------------------------------------------------------
      1          8           0        0.157203   -0.100492    2.626991
      2         15           0        0.069607   -0.044493    1.163304
      3          6           0        1.166792   -1.236526    0.327247
      4          6           0        1.691956   -1.034741   -0.941876
      5          6           0        2.506392   -1.999945   -1.507150
      6          6           0        2.795669   -3.162547   -0.810599
      7          6           0        2.276474   -3.361367    0.458551
      8          6           0        1.463446   -2.397796    1.027112
      9          6           0       -1.601084   -0.398148    0.524976
     10          6           0       -1.842527   -0.947129   -0.727028
     11          6           0       -3.145051   -1.169900   -1.137226
     12          6           0       -4.203253   -0.845855   -0.303131
     13          6           0       -3.962206   -0.303544    0.948922
     14          6           0       -2.661381   -0.081191    1.362634
     15          6           0        0.513641    1.583938    0.474247
     16          6           0        0.007445    2.073442   -0.722137
     17          6           0        0.409889    3.316190   -1.178293
     18          6           0        1.314314    4.068046   -0.445332
     19          6           0        1.814986    3.582200    0.751795
     20          6           0        1.413441    2.341123    1.211398
     21          1           0        1.473765   -0.121933   -1.478618
     22          1           0        2.919456   -1.844342   -2.493424
     23          1           0        3.432355   -3.912319   -1.257069
     24          1           0        2.507467   -4.265374    1.002736
     25          1           0        1.055670   -2.521752    2.020234
     26          1           0       -1.014865   -1.209302   -1.371357
     27          1           0       -3.336170   -1.600225   -2.109779
     28          1           0       -5.217949   -1.022428   -0.628822
     29          1           0       -4.787714   -0.056885    1.600396
     30          1           0       -2.444807    0.328765    2.338833
     31          1           0       -0.706462    1.489685   -1.286482
     32          1           0        0.015119    3.701451   -2.107435
     33          1           0        1.624492    5.037702   -0.806466
     34          1           0        2.515351    4.171781    1.325042
     35          1           0        1.778541    1.943911    2.147808
     36         47           0        1.119526    0.000127    4.623522
 ---------------------------------------------------------------------
                    Distance matrix (angstroms):
                    1          2          3          4          5
     1  O    0.000000
     2  P    1.467375   0.000000
     3  C    2.756568   1.823115   0.000000
     4  C    3.995635   2.836263   1.388232   0.000000
     5  C    5.120325   4.110114   2.396320   1.383640   0.000000
     6  C    5.306101   4.588024   2.767217   2.400620   1.385824
     7  C    4.452724   4.045812   2.400747   2.777777   2.402147
     8  C    3.089254   2.738498   1.387935   2.405629   2.769207
     9  C    2.756563   1.823114   2.898812   3.660740   4.854549
    10  C    3.995642   2.836259   3.201757   3.542091   4.542038
    11  C    5.120336   4.110110   4.554241   4.842837   5.724039
    12  C    5.306106   4.588022   5.421013   5.932720   6.913821
    13  C    4.452716   4.045811   5.250101   6.006606   7.124102
    14  C    3.089237   2.738499   4.130585   5.017127   6.214753
    15  C    2.756567   1.823116   2.898833   3.201767   4.554252
    16  C    3.995632   2.836265   3.660762   3.542127   4.842878
    17  C    5.120327   4.110117   4.854562   4.542047   5.724051
    18  C    5.306108   4.588026   5.362567   5.140779   6.274474
    19  C    4.452732   4.045811   4.880627   4.919329   6.061453
    20  C    3.089259   2.738497   3.693526   4.013803   5.237358
    21  H    4.311591   2.992893   2.144224   1.081165   2.143376
    22  H    6.073690   4.973204   3.376012   2.137642   1.080542
    23  H    6.351580   5.668012   3.847428   3.377690   2.139421
    24  H    5.050563   4.876964   3.380476   3.857922   3.381079
    25  H    2.652904   2.800618   2.128464   3.374931   3.849586
    26  H    4.311611   2.992886   2.765072   2.746235   3.611483
    27  H    6.073701   4.973197   5.133034   5.192862   5.887144
    28  H    6.351578   5.668009   6.459475   6.917004   7.835333
    29  H    5.050545   4.876963   6.202306   7.028903   8.163106
    30  H    2.652876   2.800619   4.420437   5.452982   6.687963
    31  H    4.311595   2.992898   3.680411   3.499127   4.748541
    32  H    6.073693   4.973208   5.624735   5.157696   6.250816
    33  H    6.351583   5.668013   6.392240   6.074327   7.127214
    34  H    5.050569   4.876965   5.662507   5.738011   6.790552
    35  H    2.652911   2.800617   3.715354   4.292553   5.426093
    36  Ag   2.218631   3.616272   4.470964   5.689664   6.596122
                    6          7          8          9         10
     6  C    0.000000
     7  C    1.385581   0.000000
     8  C    2.395171   1.383020   0.000000
     9  C    5.362565   4.880629   3.693518   0.000000
    10  C    5.140810   4.919381   4.013838   1.388232   0.000000
    11  C    6.274510   6.061515   5.237397   2.396320   1.383639
    12  C    7.389824   6.992483   6.024080   2.767216   2.400619
    13  C    7.545773   6.965047   5.816331   2.400745   2.777778
    14  C    6.633030   5.996610   4.742724   1.387935   2.405630
    15  C    5.421033   5.250130   4.130617   2.898845   3.660723
    16  C    5.932756   6.006635   5.017149   3.201783   3.542071
    17  C    6.913840   7.124126   6.214775   4.554278   4.842820
    18  C    7.389811   7.545789   6.633057   5.421064   5.932704
    19  C    6.992455   6.965062   5.996643   5.250157   6.006591
    20  C    6.024069   5.816356   4.742765   4.130635   5.017113
    21  H    3.382161   3.858873   3.385017   3.680405   3.499090
    22  H    2.141235   3.380673   3.849734   5.624722   5.157677
    23  H    1.080214   2.140785   3.374591   6.392229   6.074346
    24  H    2.141838   1.080150   2.139725   5.662498   5.738056
    25  H    3.384055   2.152712   1.080712   3.715351   4.292602
    26  H    4.318540   4.337379   3.647903   2.144225   1.081166
    27  H    6.459734   6.418700   5.789000   3.376010   2.137640
    28  H    8.296459   7.925869   7.019601   3.847426   3.377690
    29  H    8.541998   7.882015   6.699666   3.380473   3.857922
    30  H    7.040651   6.280369   4.942589   2.128461   3.374930
    31  H    5.842487   5.956153   5.017343   2.765075   2.746215
    32  H    7.518491   7.847382   7.008841   5.133070   5.192848
    33  H    8.283463   8.518786   7.659933   6.459531   6.916989
    34  H    7.644077   7.586579   6.659926   6.202370   7.028893
    35  H    5.988542   5.589946   4.495071   4.420485   5.452974
    36  Ag   6.507045   5.475870   4.336183   4.935424   6.188653
                   11         12         13         14         15
    11  C    0.000000
    12  C    1.385825   0.000000
    13  C    2.402151   1.385583   0.000000
    14  C    2.769210   2.395173   1.383020   0.000000
    15  C    4.854534   5.362583   4.880688   3.693596   0.000000
    16  C    4.542004   5.140801   4.919414   4.013894   1.388230
    17  C    5.724010   6.274520   6.061578   5.237481   2.396320
    18  C    6.913807   7.389871   6.992597   6.024206   2.767218
    19  C    7.124101   7.545843   6.965186   5.816478   2.400746
    20  C    6.214754   6.633090   5.996727   4.742853   1.387934
    21  H    4.748499   5.842462   5.956149   5.017350   2.765053
    22  H    6.250791   7.518467   7.847361   7.008825   5.133042
    23  H    7.127236   8.283460   8.518755   7.659896   6.459504
    24  H    6.790608   7.644093   7.586545   6.659873   6.202346
    25  H    5.426151   5.988566   5.589923   4.495024   4.420471
    26  H    2.143376   3.382162   3.858874   3.385019   3.680323
    27  H    1.080539   2.141234   3.380674   3.849735   5.624689
    28  H    2.139423   1.080213   2.140785   3.374591   6.392263
    29  H    3.381082   2.141841   1.080149   2.139723   5.662586
    30  H    3.849588   3.384056   2.152712   1.080709   3.715448
    31  H    3.611424   4.318480   4.337346   3.647900   2.144225
    32  H    5.887108   6.459734   6.418755   5.789077   3.376014
    33  H    7.835322   8.296517   7.926001   7.019741   3.847428
    34  H    8.163116   8.542087   7.882179   6.699831   3.380477
    35  H    6.687976   7.040721   6.280490   4.942716   2.128464
    36  Ag   7.262354   7.302025   6.278447   4.993521   4.482414
                   16         17         18         19         20
    16  C    0.000000
    17  C    1.383641   0.000000
    18  C    2.400619   1.385822   0.000000
    19  C    2.777774   2.402145   1.385580   0.000000
    20  C    2.405626   2.769205   2.395171   1.383020   0.000000
    21  H    2.746276   3.611470   4.318452   4.337254   3.647803
    22  H    5.192908   5.887154   6.459682   6.418618   5.788947
    23  H    6.917044   7.835359   8.296459   7.925858   7.019607
    24  H    7.028932   8.163139   8.542037   7.882063   6.699719
    25  H    5.452998   6.687987   7.040692   6.280424   4.942648
    26  H    3.499002   4.748397   5.842345   5.956032   5.017251
    27  H    5.157629   6.250741   7.518423   7.847327   7.008798
    28  H    6.074361   7.127278   8.283541   8.518854   7.659975
    29  H    5.738118   6.790716   7.644266   7.586746   6.660036
    30  H    4.292665   5.426248   5.988722   5.590113   4.495194
    31  H    1.081166   2.143377   3.382161   3.858872   3.385017
    32  H    2.137644   1.080543   2.141235   3.380671   3.849734
    33  H    3.377690   2.139420   1.080213   2.140783   3.374590
    34  H    3.857922   3.381079   2.141839   1.080152   2.139726
    35  H    3.374929   3.849585   3.384055   2.152713   1.080712
    36  Ag   5.840498   6.720187   6.502244   5.320261   4.148401
                   21         22         23         24         25
    21  H    0.000000
    22  H    2.467093   0.000000
    23  H    4.272258   2.463365   0.000000
    24  H    4.939004   4.272501   2.467141   0.000000
    25  H    4.263320   4.930080   4.280540   2.486611   0.000000
    26  H    2.717932   4.140192   5.205490   5.232850   4.184797
    27  H    5.071409   6.272131   7.203181   7.137147   6.098728
    28  H    6.805298   8.388662   9.141877   8.535850   6.973074
    29  H    6.977871   8.908133   9.518351   8.443237   6.355861
    30  H    5.489196   7.539789   8.090633   6.885948   4.525516
    31  H    2.718017   5.071462   6.805315   6.977862   5.489181
    32  H    4.140208   6.272159   8.388690   8.908157   7.539805
    33  H    5.205415   7.203144   9.141897   9.518407   8.090682
    34  H    5.232723   7.137067   8.535858   8.443313   6.886025
    35  H    4.184682   6.098654   6.973071   6.355922   4.525590
    36  Ag   6.113632   7.569196   7.432211   5.764631   3.625060
                   26         27         28         29         30
    26  H    0.000000
    27  H    2.467092   0.000000
    28  H    4.272259   2.463367   0.000000
    29  H    4.939005   4.272502   2.467142   0.000000
    30  H    4.263320   4.930079   4.280539   2.486610   0.000000
    31  H    2.717875   4.140136   5.205453   5.232835   4.184792
    32  H    5.071309   6.272074   7.203217   7.137248   6.098815
    33  H    6.805172   8.388615   9.141976   8.536052   6.973248
    34  H    6.977754   8.908106   9.518473   8.443471   6.356077
    35  H    5.489116   7.539776   8.090718   6.886113   4.525688
    36  Ag   6.477415   8.231141   8.294354   6.636115   4.246442
                   31         32         33         34         35
    31  H    0.000000
    32  H    2.467094   0.000000
    33  H    4.272258   2.463365   0.000000
    34  H    4.939006   4.272501   2.467139   0.000000
    35  H    4.263321   4.930081   4.280538   2.486612   0.000000
    36  Ag   6.362480   7.760495   7.424077   5.498271   3.215860
                   36
    36  Ag   0.000000
 Symmetry turned off by external request.
 Stoichiometry    C18H15AgOP(2)
 Framework group  C1[X(C18H15AgOP)]
 Deg. of freedom   102
 Full point group                 C1      NOp   1
 Rotational constants (GHZ):           0.2182241           0.1622137           0.1591545
 Leave Link  202 at Sat Sep 12 00:06:07 2026, MaxMem=  6442450944 cpu:               0.0 elap:               0.1
 (Enter C:\G16W\l301.exe)
 Standard basis: def2SVP (5D, 7F)
 Ernie: Thresh=  0.10000D-02 Tol=  0.10000D-05 Strict=F.
   390 basis functions,   682 primitive gaussians,   415 cartesian basis functions
    83 alpha electrons       82 beta electrons
       nuclear repulsion energy      1886.6083992839 Hartrees.
 IExCor= 1009 DFT=T Ex+Corr=PBE1PBE ExCW=0 ScaHFX=  0.250000
 ScaDFX=  0.750000  0.750000  1.000000  1.000000 ScalE2=  1.000000  1.000000
 IRadAn=      5 IRanWt=     -1 IRanGd=            0 ICorTp=0 IEmpDi=141
 NAtoms=   36 NActive=   36 NUniq=   36 SFac= 1.00D+00 NAtFMM=   60 NAOKFM=F Big=F
 Integral buffers will be    131072 words long.
 Raffenetti 2 integral format.
 Two-electron integral symmetry is turned off.
 R6Disp:  Grimme-D3(BJ) Dispersion energy=       -0.0513230090 Hartrees.
 Nuclear repulsion after empirical dispersion term =     1886.5570762749 Hartrees.
 Leave Link  301 at Sat Sep 12 00:06:07 2026, MaxMem=  6442450944 cpu:               0.0 elap:               0.2
 (Enter C:\G16W\l302.exe)
 NPDir=0 NMtPBC=     1 NCelOv=     1 NCel=       1 NClECP=     1 NCelD=      1
         NCelK=      1 NCelE2=     1 NClLst=     1 CellRange=     0.0.
 One-electron integrals computed using PRISM.
   1 Symmetry operations used in ECPInt.
 ECPInt:  NShTT=   15931 NPrTT=   58300 LenC2=   14708 LenP2D=   37334.
 LDataN:  DoStor=T MaxTD1= 7 Len=  274
 NBasis=   390 RedAO= T EigKep=  2.59D-04  NBF=   390
 NBsUse=   390 1.00D-06 EigRej= -1.00D+00 NBFU=   390
 Precomputing XC quadrature grid using
 IXCGrd= 4 IRadAn=           5 IRanWt=          -1 IRanGd=           0 AccXCQ= 0.00D+00.
 Defaulting to unpruned grid for atomic number  47.
 Generated NRdTot=       0 NPtTot=           0 NUsed=           0 NTot=          32
 NSgBfM=   411   411   411   411   411 MxSgAt=    36 MxSgA2=    36.
 Leave Link  302 at Sat Sep 12 00:06:19 2026, MaxMem=  6442450944 cpu:              11.0 elap:              11.6
 (Enter C:\G16W\l303.exe)
 DipDrv:  MaxL=1.
 Leave Link  303 at Sat Sep 12 00:06:21 2026, MaxMem=  6442450944 cpu:               1.0 elap:               1.0
 (Enter C:\G16W\l401.exe)
 Initial guess from the checkpoint file:  "Ph3PO.chk"
 B after Tr=     0.115861    0.039342   -0.295303
         Rot=    0.998892    0.009658   -0.045990   -0.002337 Ang=   5.39 deg.
 Guess basis will be translated and rotated to current coordinates.
 JPrj=2 DoOrth=T DoCkMO=T.
 Initial guess <Sx>= 0.0000 <Sy>= 0.0000 <Sz>= 0.5000 <S**2>= 0.7515 S= 0.5008
 Leave Link  401 at Sat Sep 12 00:06:47 2026, MaxMem=  6442450944 cpu:              26.0 elap:              26.0
 (Enter C:\G16W\l502.exe)
 Two-electron integral symmetry not used.
 UHF open shell SCF:
 Using DIIS extrapolation, IDIIS=  1040.
 NGot=  6442450944 LenX=  6442098989 LenY=  6441926323
 Requested convergence on RMS density matrix=1.00D-08 within 128 cycles.
 Requested convergence on MAX density matrix=1.00D-06.
 Requested convergence on             energy=1.00D-06.
 No special actions if energy rises.
 Fock matrices will be formed incrementally for  20 cycles.

 Cycle   1  Pass 1  IDiag  1:
 FoFJK:  IHMeth= 1 ICntrl=       0 DoSepK=F KAlg= 0 I1Cent=           0 FoldK=F
 IRaf= 860000000 NMat=       1 IRICut=       1 DoRegI=T DoRafI=F ISym2E= 0 IDoP0=0 IntGTp=1.
 FoFCou: FMM=F IPFlag=           0 FMFlag=      100000 FMFlg1=           0
         NFxFlg=           0 DoJE=F BraDBF=F KetDBF=F FulRan=T
         wScrn=  0.000000 ICntrl=         0 IOpCl=  1 I1Cent=           0 NGrid=           0
         NMat0=    1 NMatS0=      1 NMatT0=    0 NMatD0=    1 NMtDS0=    0 NMtDT0=    0
 Symmetry not used in FoFCou.
 Defaulting to unpruned grid for atomic number  47.
 Defaulting to unpruned grid for atomic number  47.
 Defaulting to unpruned grid for atomic number  47.
 Defaulting to unpruned grid for atomic number  47.
 Defaulting to unpruned grid for atomic number  47.
 Defaulting to unpruned grid for atomic number  47.
 Defaulting to unpruned grid for atomic number  47.
 Defaulting to unpruned grid for atomic number  47.
 E= -1256.78251536856    
 DIIS: error= 8.86D-03 at cycle   1 NSaved=   1.
 NSaved= 1 IEnMin= 1 EnMin= -1256.78251536856     IErMin= 1 ErrMin= 8.86D-03
 ErrMax= 8.86D-03  0.00D+00 EMaxC= 1.00D-01 BMatC= 2.05D-01 BMatP= 2.05D-01
 IDIUse=3 WtCom= 9.11D-01 WtEn= 8.86D-02
 Coeff-Com:  0.100D+01
 Coeff-En:   0.100D+01
 Coeff:      0.100D+01
 Gap=     0.114 Goal=   None    Shift=    0.000
 Gap=     0.262 Goal=   None    Shift=    0.000
 GapD=    0.114 DampG=1.000 DampE=1.000 DampFc=1.0000 IDamp=-1.
 RMSDP=9.88D-04 MaxDP=8.19D-02              OVMax= 8.87D-02

 Cycle   2  Pass 1  IDiag  1:
 RMSU=  9.85D-04    CP:  9.96D-01
 E= -1256.84589474580     Delta-E=       -0.063379377240 Rises=F Damp=F
 DIIS: error= 2.29D-03 at cycle   2 NSaved=   2.
 NSaved= 2 IEnMin= 2 EnMin= -1256.84589474580     IErMin= 2 ErrMin= 2.29D-03
 ErrMax= 2.29D-03  0.00D+00 EMaxC= 1.00D-01 BMatC= 3.74D-03 BMatP= 2.05D-01
 IDIUse=3 WtCom= 9.77D-01 WtEn= 2.29D-02
 Coeff-Com: -0.343D-01 0.103D+01
 Coeff-En:   0.000D+00 0.100D+01
 Coeff:     -0.335D-01 0.103D+01
 Gap=     0.090 Goal=   None    Shift=    0.000
 Gap=     0.224 Goal=   None    Shift=    0.000
 RMSDP=1.91D-04 MaxDP=1.33D-02 DE=-6.34D-02 OVMax= 1.80D-02

 Cycle   3  Pass 1  IDiag  1:
 RMSU=  1.72D-04    CP:  9.97D-01  1.08D+00
 E= -1256.84680676627     Delta-E=       -0.000912020474 Rises=F Damp=F
 DIIS: error= 2.56D-03 at cycle   3 NSaved=   3.
 NSaved= 3 IEnMin= 3 EnMin= -1256.84680676627     IErMin= 2 ErrMin= 2.29D-03
 ErrMax= 2.56D-03  0.00D+00 EMaxC= 1.00D-01 BMatC= 2.89D-03 BMatP= 3.74D-03
 IDIUse=3 WtCom= 9.74D-01 WtEn= 2.56D-02
 Coeff-Com: -0.293D-01 0.497D+00 0.533D+00
 Coeff-En:   0.000D+00 0.141D-01 0.986D+00
 Coeff:     -0.285D-01 0.484D+00 0.544D+00
 Gap=     0.087 Goal=   None    Shift=    0.000
 Gap=     0.214 Goal=   None    Shift=    0.000
 RMSDP=9.91D-05 MaxDP=2.01D-02 DE=-9.12D-04 OVMax= 1.20D-02

 Cycle   4  Pass 1  IDiag  1:
 RMSU=  6.94D-05    CP:  9.96D-01  1.12D+00  6.43D-01
 E= -1256.84745776744     Delta-E=       -0.000651001164 Rises=F Damp=F
 DIIS: error= 5.92D-04 at cycle   4 NSaved=   4.
 NSaved= 4 IEnMin= 4 EnMin= -1256.84745776744     IErMin= 4 ErrMin= 5.92D-04
 ErrMax= 5.92D-04  0.00D+00 EMaxC= 1.00D-01 BMatC= 1.31D-04 BMatP= 2.89D-03
 IDIUse=3 WtCom= 9.94D-01 WtEn= 5.92D-03
 Coeff-Com: -0.390D-02 0.240D-01 0.172D+00 0.808D+00
 Coeff-En:   0.000D+00 0.000D+00 0.000D+00 0.100D+01
 Coeff:     -0.388D-02 0.239D-01 0.171D+00 0.809D+00
 Gap=     0.088 Goal=   None    Shift=    0.000
 Gap=     0.216 Goal=   None    Shift=    0.000
 RMSDP=2.78D-05 MaxDP=3.35D-03 DE=-6.51D-04 OVMax= 4.12D-03

 Cycle   5  Pass 1  IDiag  1:
 RMSU=  2.11D-05    CP:  9.96D-01  1.12D+00  7.44D-01  1.01D+00
 E= -1256.84749602155     Delta-E=       -0.000038254109 Rises=F Damp=F
 DIIS: error= 2.27D-04 at cycle   5 NSaved=   5.
 NSaved= 5 IEnMin= 5 EnMin= -1256.84749602155     IErMin= 5 ErrMin= 2.27D-04
 ErrMax= 2.27D-04  0.00D+00 EMaxC= 1.00D-01 BMatC= 2.89D-05 BMatP= 1.31D-04
 IDIUse=3 WtCom= 9.98D-01 WtEn= 2.27D-03
 Coeff-Com:  0.120D-02-0.440D-01 0.393D-01 0.429D+00 0.575D+00
 Coeff-En:   0.000D+00 0.000D+00 0.000D+00 0.000D+00 0.100D+01
 Coeff:      0.120D-02-0.439D-01 0.392D-01 0.428D+00 0.576D+00
 Gap=     0.088 Goal=   None    Shift=    0.000
 Gap=     0.216 Goal=   None    Shift=    0.000
 RMSDP=1.31D-05 MaxDP=1.41D-03 DE=-3.83D-05 OVMax= 1.85D-03

 Cycle   6  Pass 1  IDiag  1:
 RMSU=  1.04D-05    CP:  9.96D-01  1.12D+00  7.62D-01  1.10D+00  8.77D-01
 E= -1256.84750361712     Delta-E=       -0.000007595573 Rises=F Damp=F
 DIIS: error= 5.62D-05 at cycle   6 NSaved=   6.
 NSaved= 6 IEnMin= 6 EnMin= -1256.84750361712     IErMin= 6 ErrMin= 5.62D-05
 ErrMax= 5.62D-05  0.00D+00 EMaxC= 1.00D-01 BMatC= 5.96D-06 BMatP= 2.89D-05
 IDIUse=1 WtCom= 1.00D+00 WtEn= 0.00D+00
 Coeff-Com:  0.120D-02-0.293D-01 0.661D-02 0.158D+00 0.338D+00 0.525D+00
 Coeff:      0.120D-02-0.293D-01 0.661D-02 0.158D+00 0.338D+00 0.525D+00
 Gap=     0.088 Goal=   None    Shift=    0.000
 Gap=     0.216 Goal=   None    Shift=    0.000
 RMSDP=6.19D-06 MaxDP=6.86D-04 DE=-7.60D-06 OVMax= 9.43D-04

 Cycle   7  Pass 1  IDiag  1:
 RMSU=  3.71D-06    CP:  9.96D-01  1.12D+00  7.71D-01  1.13D+00  1.02D+00
                    CP:  7.16D-01
 E= -1256.84750567275     Delta-E=       -0.000002055630 Rises=F Damp=F
 DIIS: error= 3.20D-05 at cycle   7 NSaved=   7.
 NSaved= 7 IEnMin= 7 EnMin= -1256.84750567275     IErMin= 7 ErrMin= 3.20D-05
 ErrMax= 3.20D-05  0.00D+00 EMaxC= 1.00D-01 BMatC= 8.63D-07 BMatP= 5.96D-06
 IDIUse=1 WtCom= 1.00D+00 WtEn= 0.00D+00
 Coeff-Com:  0.183D-03 0.594D-03-0.675D-02-0.719D-01-0.648D-01 0.237D+00
 Coeff-Com:  0.906D+00
 Coeff:      0.183D-03 0.594D-03-0.675D-02-0.719D-01-0.648D-01 0.237D+00
 Coeff:      0.906D+00
 Gap=     0.088 Goal=   None    Shift=    0.000
 Gap=     0.216 Goal=   None    Shift=    0.000
 RMSDP=4.41D-06 MaxDP=7.60D-04 DE=-2.06D-06 OVMax= 9.64D-04

 Cycle   8  Pass 1  IDiag  1:
 RMSU=  1.90D-06    CP:  9.96D-01  1.12D+00  7.80D-01  1.16D+00  1.11D+00
                    CP:  9.53D-01  1.04D+00
 E= -1256.84750614861     Delta-E=       -0.000000475856 Rises=F Damp=F
 DIIS: error= 1.28D-05 at cycle   8 NSaved=   8.
 NSaved= 8 IEnMin= 8 EnMin= -1256.84750614861     IErMin= 8 ErrMin= 1.28D-05
 ErrMax= 1.28D-05  0.00D+00 EMaxC= 1.00D-01 BMatC= 2.91D-07 BMatP= 8.63D-07
 IDIUse=1 WtCom= 1.00D+00 WtEn= 0.00D+00
 Coeff-Com: -0.103D-04 0.356D-02-0.454D-02-0.630D-01-0.795D-01 0.929D-01
 Coeff-Com:  0.567D+00 0.484D+00
 Coeff:     -0.103D-04 0.356D-02-0.454D-02-0.630D-01-0.795D-01 0.929D-01
 Coeff:      0.567D+00 0.484D+00
 Gap=     0.088 Goal=   None    Shift=    0.000
 Gap=     0.216 Goal=   None    Shift=    0.000
 RMSDP=1.33D-06 MaxDP=1.58D-04 DE=-4.76D-07 OVMax= 2.02D-04

 Cycle   9  Pass 1  IDiag  1:
 RMSU=  6.10D-07    CP:  9.96D-01  1.12D+00  7.82D-01  1.16D+00  1.13D+00
                    CP:  9.91D-01  1.21D+00  6.14D-01
 E= -1256.84750624109     Delta-E=       -0.000000092485 Rises=F Damp=F
 DIIS: error= 3.60D-06 at cycle   9 NSaved=   9.
 NSaved= 9 IEnMin= 9 EnMin= -1256.84750624109     IErMin= 9 ErrMin= 3.60D-06
 ErrMax= 3.60D-06  0.00D+00 EMaxC= 1.00D-01 BMatC= 2.71D-08 BMatP= 2.91D-07
 IDIUse=1 WtCom= 1.00D+00 WtEn= 0.00D+00
 Coeff-Com: -0.552D-04 0.198D-02-0.720D-03-0.185D-01-0.287D-01-0.627D-02
 Coeff-Com:  0.821D-01 0.251D+00 0.719D+00
 Coeff:     -0.552D-04 0.198D-02-0.720D-03-0.185D-01-0.287D-01-0.627D-02
 Coeff:      0.821D-01 0.251D+00 0.719D+00
 Gap=     0.088 Goal=   None    Shift=    0.000
 Gap=     0.216 Goal=   None    Shift=    0.000
 RMSDP=5.06D-07 MaxDP=8.59D-05 DE=-9.25D-08 OVMax= 1.11D-04

 Cycle  10  Pass 1  IDiag  1:
 RMSU=  2.07D-07    CP:  9.96D-01  1.12D+00  7.82D-01  1.16D+00  1.14D+00
                    CP:  1.01D+00  1.25D+00  7.32D-01  9.02D-01
 E= -1256.84750625143     Delta-E=       -0.000000010338 Rises=F Damp=F
 DIIS: error= 1.01D-06 at cycle  10 NSaved=  10.
 NSaved=10 IEnMin=10 EnMin= -1256.84750625143     IErMin=10 ErrMin= 1.01D-06
 ErrMax= 1.01D-06  0.00D+00 EMaxC= 1.00D-01 BMatC= 1.88D-09 BMatP= 2.71D-08
 IDIUse=1 WtCom= 1.00D+00 WtEn= 0.00D+00
 Coeff-Com: -0.195D-04 0.463D-03 0.984D-04-0.211D-02-0.400D-02-0.944D-02
 Coeff-Com: -0.155D-01 0.610D-01 0.281D+00 0.689D+00
 Coeff:     -0.195D-04 0.463D-03 0.984D-04-0.211D-02-0.400D-02-0.944D-02
 Coeff:     -0.155D-01 0.610D-01 0.281D+00 0.689D+00
 Gap=     0.088 Goal=   None    Shift=    0.000
 Gap=     0.216 Goal=   None    Shift=    0.000
 RMSDP=1.36D-07 MaxDP=1.30D-05 DE=-1.03D-08 OVMax= 1.56D-05

 Cycle  11  Pass 1  IDiag  1:
 RMSU=  1.08D-07    CP:  9.96D-01  1.12D+00  7.83D-01  1.16D+00  1.14D+00
                    CP:  1.01D+00  1.25D+00  7.39D-01  9.78D-01  8.85D-01
 E= -1256.84750625205     Delta-E=       -0.000000000618 Rises=F Damp=F
 DIIS: error= 8.66D-07 at cycle  11 NSaved=  11.
 NSaved=11 IEnMin=11 EnMin= -1256.84750625205     IErMin=11 ErrMin= 8.66D-07
 ErrMax= 8.66D-07  0.00D+00 EMaxC= 1.00D-01 BMatC= 8.98D-10 BMatP= 1.88D-09
 IDIUse=1 WtCom= 1.00D+00 WtEn= 0.00D+00
 Coeff-Com: -0.928D-06-0.117D-03 0.209D-03 0.241D-02 0.350D-02-0.406D-02
 Coeff-Com: -0.257D-01-0.129D-01 0.237D-01 0.445D+00 0.568D+00
 Coeff:     -0.928D-06-0.117D-03 0.209D-03 0.241D-02 0.350D-02-0.406D-02
 Coeff:     -0.257D-01-0.129D-01 0.237D-01 0.445D+00 0.568D+00
 Gap=     0.088 Goal=   None    Shift=    0.000
 Gap=     0.216 Goal=   None    Shift=    0.000
 RMSDP=7.03D-08 MaxDP=3.38D-06 DE=-6.18D-10 OVMax= 5.97D-06

 Cycle  12  Pass 1  IDiag  1:
 RMSU=  4.30D-08    CP:  9.96D-01  1.12D+00  7.83D-01  1.16D+00  1.14D+00
                    CP:  1.01D+00  1.26D+00  7.55D-01  1.01D+00  1.02D+00
                    CP:  7.14D-01
 E= -1256.84750625235     Delta-E=       -0.000000000305 Rises=F Damp=F
 DIIS: error= 2.70D-07 at cycle  12 NSaved=  12.
 NSaved=12 IEnMin=12 EnMin= -1256.84750625235     IErMin=12 ErrMin= 2.70D-07
 ErrMax= 2.70D-07  0.00D+00 EMaxC= 1.00D-01 BMatC= 7.81D-11 BMatP= 8.98D-10
 IDIUse=1 WtCom= 1.00D+00 WtEn= 0.00D+00
 Coeff-Com:  0.229D-05-0.108D-03 0.620D-04 0.120D-02 0.185D-02-0.365D-03
 Coeff-Com: -0.759D-02-0.127D-01-0.272D-01 0.665D-01 0.205D+00 0.774D+00
 Coeff:      0.229D-05-0.108D-03 0.620D-04 0.120D-02 0.185D-02-0.365D-03
 Coeff:     -0.759D-02-0.127D-01-0.272D-01 0.665D-01 0.205D+00 0.774D+00
 Gap=     0.088 Goal=   None    Shift=    0.000
 Gap=     0.216 Goal=   None    Shift=    0.000
 RMSDP=3.05D-08 MaxDP=1.54D-06 DE=-3.05D-10 OVMax= 3.63D-06

 Cycle  13  Pass 1  IDiag  1:
 RMSU=  1.98D-08    CP:  9.96D-01  1.12D+00  7.83D-01  1.16D+00  1.14D+00
                    CP:  1.01D+00  1.26D+00  7.54D-01  1.02D+00  1.08D+00
                    CP:  8.63D-01  1.18D+00
 E= -1256.84750625239     Delta-E=       -0.000000000044 Rises=F Damp=F
 DIIS: error= 1.76D-07 at cycle  13 NSaved=  13.
 NSaved=13 IEnMin=13 EnMin= -1256.84750625239     IErMin=13 ErrMin= 1.76D-07
 ErrMax= 1.76D-07  0.00D+00 EMaxC= 1.00D-01 BMatC= 3.24D-11 BMatP= 7.81D-11
 IDIUse=1 WtCom= 1.00D+00 WtEn= 0.00D+00
 Coeff-Com:  0.104D-05 0.175D-04-0.764D-04-0.665D-03-0.871D-03 0.170D-02
 Coeff-Com:  0.850D-02 0.107D-02-0.191D-01-0.165D+00-0.168D+00 0.268D+00
 Coeff-Com:  0.107D+01
 Coeff:      0.104D-05 0.175D-04-0.764D-04-0.665D-03-0.871D-03 0.170D-02
 Coeff:      0.850D-02 0.107D-02-0.191D-01-0.165D+00-0.168D+00 0.268D+00
 Coeff:      0.107D+01
 Gap=     0.088 Goal=   None    Shift=    0.000
 Gap=     0.216 Goal=   None    Shift=    0.000
 RMSDP=3.24D-08 MaxDP=1.63D-06 DE=-4.37D-11 OVMax= 4.75D-06

 Cycle  14  Pass 1  IDiag  1:
 RMSU=  1.41D-08    CP:  9.96D-01  1.12D+00  7.83D-01  1.16D+00  1.14D+00
                    CP:  1.01D+00  1.26D+00  7.56D-01  1.02D+00  1.12D+00
                    CP:  9.65D-01  1.68D+00  1.63D+00
 E= -1256.84750625249     Delta-E=       -0.000000000098 Rises=F Damp=F
 DIIS: error= 1.08D-07 at cycle  14 NSaved=  14.
 NSaved=14 IEnMin=14 EnMin= -1256.84750625249     IErMin=14 ErrMin= 1.08D-07
 ErrMax= 1.08D-07  0.00D+00 EMaxC= 1.00D-01 BMatC= 1.31D-11 BMatP= 3.24D-11
 IDIUse=1 WtCom= 1.00D+00 WtEn= 0.00D+00
 Coeff-Com: -0.496D-06 0.573D-04-0.670D-04-0.865D-03-0.122D-02 0.969D-03
 Coeff-Com:  0.728D-02 0.622D-02 0.373D-02-0.111D+00-0.180D+00-0.207D+00
 Coeff-Com:  0.538D+00 0.943D+00
 Coeff:     -0.496D-06 0.573D-04-0.670D-04-0.865D-03-0.122D-02 0.969D-03
 Coeff:      0.728D-02 0.622D-02 0.373D-02-0.111D+00-0.180D+00-0.207D+00
 Coeff:      0.538D+00 0.943D+00
 Gap=     0.088 Goal=   None    Shift=    0.000
 Gap=     0.216 Goal=   None    Shift=    0.000
 RMSDP=2.47D-08 MaxDP=1.21D-06 DE=-9.82D-11 OVMax= 3.48D-06

 Cycle  15  Pass 1  IDiag  1:
 RMSU=  8.02D-09    CP:  9.96D-01  1.12D+00  7.83D-01  1.16D+00  1.14D+00
                    CP:  1.01D+00  1.26D+00  7.56D-01  1.03D+00  1.14D+00
                    CP:  1.04D+00  2.04D+00  2.31D+00  1.35D+00
 E= -1256.84750625249     Delta-E=        0.000000000003 Rises=F Damp=F
 DIIS: error= 5.78D-08 at cycle  15 NSaved=  15.
 NSaved=15 IEnMin=14 EnMin= -1256.84750625249     IErMin=15 ErrMin= 5.78D-08
 ErrMax= 5.78D-08  0.00D+00 EMaxC= 1.00D-01 BMatC= 3.34D-12 BMatP= 1.31D-11
 IDIUse=1 WtCom= 1.00D+00 WtEn= 0.00D+00
 Coeff-Com: -0.492D-06 0.204D-04-0.569D-05-0.192D-03-0.299D-03-0.201D-04
 Coeff-Com:  0.929D-03 0.241D-02 0.634D-02-0.319D-02-0.331D-01-0.167D+00
 Coeff-Com: -0.687D-01 0.430D+00 0.833D+00
 Coeff:     -0.492D-06 0.204D-04-0.569D-05-0.192D-03-0.299D-03-0.201D-04
 Coeff:      0.929D-03 0.241D-02 0.634D-02-0.319D-02-0.331D-01-0.167D+00
 Coeff:     -0.687D-01 0.430D+00 0.833D+00
 Gap=     0.088 Goal=   None    Shift=    0.000
 Gap=     0.216 Goal=   None    Shift=    0.000
 RMSDP=1.13D-08 MaxDP=5.44D-07 DE= 2.73D-12 OVMax= 1.74D-06

 Cycle  16  Pass 1  IDiag  1:
 RMSU=  4.17D-09    CP:  9.96D-01  1.12D+00  7.83D-01  1.16D+00  1.14D+00
                    CP:  1.01D+00  1.26D+00  7.56D-01  1.03D+00  1.15D+00
                    CP:  1.06D+00  2.18D+00  2.65D+00  1.71D+00  1.00D+00
 E= -1256.84750625243     Delta-E=        0.000000000058 Rises=F Damp=F
 DIIS: error= 3.17D-08 at cycle  16 NSaved=  16.
 NSaved=16 IEnMin=14 EnMin= -1256.84750625249     IErMin=16 ErrMin= 3.17D-08
 ErrMax= 3.17D-08  0.00D+00 EMaxC= 1.00D-01 BMatC= 1.40D-12 BMatP= 3.34D-12
 IDIUse=1 WtCom= 1.00D+00 WtEn= 0.00D+00
 Coeff-Com: -0.163D-06-0.279D-05 0.151D-04 0.110D-03 0.114D-03-0.279D-03
 Coeff-Com: -0.125D-02-0.101D-03 0.270D-02 0.262D-01 0.272D-01-0.476D-01
 Coeff-Com: -0.184D+00 0.186D-01 0.520D+00 0.638D+00
 Coeff:     -0.163D-06-0.279D-05 0.151D-04 0.110D-03 0.114D-03-0.279D-03
 Coeff:     -0.125D-02-0.101D-03 0.270D-02 0.262D-01 0.272D-01-0.476D-01
 Coeff:     -0.184D+00 0.186D-01 0.520D+00 0.638D+00
 Gap=     0.088 Goal=   None    Shift=    0.000
 Gap=     0.216 Goal=   None    Shift=    0.000
 RMSDP=4.39D-09 MaxDP=2.11D-07 DE= 5.78D-11 OVMax= 5.92D-07

 SCF Done:  E(UPBE1PBE) =  -1256.84750625     A.U. after   16 cycles
            NFock= 16  Conv=0.44D-08     -V/T= 2.0853
 <Sx>= 0.0000 <Sy>= 0.0000 <Sz>= 0.5000 <S**2>= 0.7518 S= 0.5009
 <L.S>= 0.000000000000E+00
 KE= 1.158023206523D+03 PE=-6.683867848504D+03 EE= 2.382440059453D+03
 Annihilation of the first spin contaminant:
 S**2 before annihilation     0.7518,   after     0.7500
 Leave Link  502 at Sat Sep 12 00:13:47 2026, MaxMem=  6442450944 cpu:             420.0 elap:             420.3
 (Enter C:\G16W\l508.exe)
 QCSCF skips out because SCF is already converged.
 Leave Link  508 at Sat Sep 12 00:13:48 2026, MaxMem=  6442450944 cpu:               1.0 elap:               0.1
 (Enter C:\G16W\l601.exe)
 Copying SCF densities to generalized density rwf, IOpCl= 1 IROHF=0.

 **********************************************************************

            Population analysis using the SCF Density.

 **********************************************************************

 Alpha  occ. eigenvalues --  -77.29430 -19.18813 -10.26070 -10.25982 -10.25960
 Alpha  occ. eigenvalues --  -10.25917 -10.25820 -10.25786 -10.25613 -10.25592
 Alpha  occ. eigenvalues --  -10.25516 -10.25515 -10.25501 -10.25476 -10.25422
 Alpha  occ. eigenvalues --  -10.25411 -10.25392 -10.25331 -10.25221 -10.25159
 Alpha  occ. eigenvalues --   -6.69424  -4.83526  -4.83401  -4.83399  -3.71162
 Alpha  occ. eigenvalues --   -2.29198  -2.29174  -2.29025  -1.02096  -0.90412
 Alpha  occ. eigenvalues --   -0.89881  -0.89804  -0.80853  -0.78597  -0.78518
 Alpha  occ. eigenvalues --   -0.78483  -0.78175  -0.78126  -0.68334  -0.64467
 Alpha  occ. eigenvalues --   -0.64283  -0.64236  -0.63100  -0.63034  -0.59283
 Alpha  occ. eigenvalues --   -0.55934  -0.55859  -0.53265  -0.49625  -0.49413
 Alpha  occ. eigenvalues --   -0.49371  -0.47954  -0.47889  -0.47511  -0.45809
 Alpha  occ. eigenvalues --   -0.45728  -0.45626  -0.45308  -0.45294  -0.44955
 Alpha  occ. eigenvalues --   -0.40867  -0.40803  -0.40340  -0.39173  -0.38102
 Alpha  occ. eigenvalues --   -0.37991  -0.37532  -0.37430  -0.37364  -0.32625
 Alpha  occ. eigenvalues --   -0.32427  -0.29409  -0.29378  -0.28875  -0.28686
 Alpha  occ. eigenvalues --   -0.28676  -0.28585  -0.28528  -0.28363  -0.27772
 Alpha  occ. eigenvalues --   -0.27589  -0.26714  -0.12927
 Alpha virt. eigenvalues --   -0.04160  -0.04102  -0.02971  -0.02683  -0.01779
 Alpha virt. eigenvalues --   -0.01762   0.02009   0.02328   0.04793   0.06571
 Alpha virt. eigenvalues --    0.07072   0.07291   0.08967   0.10397   0.10861
 Alpha virt. eigenvalues --    0.11052   0.11593   0.11765   0.11994   0.13301
 Alpha virt. eigenvalues --    0.13681   0.13798   0.14640   0.16045   0.16105
 Alpha virt. eigenvalues --    0.16203   0.16782   0.17078   0.17331   0.18600
 Alpha virt. eigenvalues --    0.19380   0.21774   0.25809   0.27511   0.27549
 Alpha virt. eigenvalues --    0.28036   0.28908   0.29081   0.29699   0.29852
 Alpha virt. eigenvalues --    0.30220   0.31003   0.31076   0.31674   0.34056
 Alpha virt. eigenvalues --    0.36034   0.36086   0.37123   0.37548   0.38329
 Alpha virt. eigenvalues --    0.39349   0.39406   0.40733   0.41041   0.41603
 Alpha virt. eigenvalues --    0.43243   0.43556   0.43812   0.43985   0.44542
 Alpha virt. eigenvalues --    0.44850   0.45934   0.46481   0.46975   0.47297
 Alpha virt. eigenvalues --    0.48091   0.48282   0.48674   0.48810   0.49262
 Alpha virt. eigenvalues --    0.49450   0.49807   0.50641   0.51076   0.51201
 Alpha virt. eigenvalues --    0.51690   0.52410   0.53893   0.54776   0.56021
 Alpha virt. eigenvalues --    0.56283   0.56472   0.57653   0.58483   0.59490
 Alpha virt. eigenvalues --    0.59964   0.60116   0.63019   0.63241   0.63874
 Alpha virt. eigenvalues --    0.64456   0.65354   0.65674   0.66270   0.66720
 Alpha virt. eigenvalues --    0.66985   0.67462   0.67856   0.68026   0.68496
 Alpha virt. eigenvalues --    0.69633   0.70052   0.70304   0.71013   0.71064
 Alpha virt. eigenvalues --    0.71654   0.72031   0.72237   0.72308   0.74174
 Alpha virt. eigenvalues --    0.74488   0.74868   0.75316   0.75979   0.76681
 Alpha virt. eigenvalues --    0.77031   0.77616   0.78791   0.79186   0.80498
 Alpha virt. eigenvalues --    0.81740   0.82238   0.82869   0.84768   0.85807
 Alpha virt. eigenvalues --    0.86882   0.88662   0.90228   0.90786   0.92713
 Alpha virt. eigenvalues --    0.94141   0.94210   0.97735   0.98322   0.99253
 Alpha virt. eigenvalues --    1.00428   1.00882   1.04202   1.05165   1.08636
 Alpha virt. eigenvalues --    1.11444   1.11675   1.15040   1.15243   1.17962
 Alpha virt. eigenvalues --    1.18540   1.19081   1.20136   1.22788   1.22978
 Alpha virt. eigenvalues --    1.23630   1.23825   1.24101   1.24225   1.25227
 Alpha virt. eigenvalues --    1.25387   1.26574   1.28117   1.28255   1.29820
 Alpha virt. eigenvalues --    1.30647   1.30898   1.32427   1.32814   1.33608
 Alpha virt. eigenvalues --    1.34060   1.36842   1.36932   1.42648   1.51635
 Alpha virt. eigenvalues --    1.52563   1.55904   1.57920   1.59765   1.60515
 Alpha virt. eigenvalues --    1.64948   1.67245   1.67291   1.67596   1.69245
 Alpha virt. eigenvalues --    1.69294   1.70511   1.70986   1.71259   1.71302
 Alpha virt. eigenvalues --    1.74265   1.74558   1.74621   1.75151   1.75412
 Alpha virt. eigenvalues --    1.75560   1.76871   1.76941   1.77070   1.77520
 Alpha virt. eigenvalues --    1.77581   1.77939   1.80368   1.80413   1.80580
 Alpha virt. eigenvalues --    1.82063   1.84576   1.84711   1.86048   1.86128
 Alpha virt. eigenvalues --    1.86342   1.90648   1.91056   1.94506   1.95215
 Alpha virt. eigenvalues --    1.95303   1.95621   1.96993   1.97034   1.97841
 Alpha virt. eigenvalues --    1.98726   1.98738   1.98870   2.00300   2.00398
 Alpha virt. eigenvalues --    2.01753   2.06109   2.07705   2.08260   2.08605
 Alpha virt. eigenvalues --    2.10787   2.10960   2.11363   2.14622   2.14978
 Alpha virt. eigenvalues --    2.15013   2.17387   2.17490   2.18874   2.20961
 Alpha virt. eigenvalues --    2.24465   2.24550   2.29484   2.29548   2.29577
 Alpha virt. eigenvalues --    2.29874   2.30438   2.30475   2.31041   2.31100
 Alpha virt. eigenvalues --    2.31592   2.35156   2.35295   2.35506   2.36022
 Alpha virt. eigenvalues --    2.36112   2.37035   2.38619   2.41465   2.41700
 Alpha virt. eigenvalues --    2.54510   2.54797   2.54878   2.62154   2.62246
 Alpha virt. eigenvalues --    2.63039   2.63891   2.63959   2.64052   2.65776
 Alpha virt. eigenvalues --    2.65863   2.65934   2.66289   2.66308   2.66343
 Alpha virt. eigenvalues --    2.66390   2.66745   2.66824   2.68183   2.68514
 Alpha virt. eigenvalues --    2.72870   2.75201   2.75685   2.75757   2.76027
 Alpha virt. eigenvalues --    2.76087   2.76541   2.81222   2.82526   2.84719
 Alpha virt. eigenvalues --    2.88384   2.89258   2.89460   2.90358   2.90460
 Alpha virt. eigenvalues --    2.91374   2.91955   2.92266   3.05167   3.06364
 Alpha virt. eigenvalues --    3.06564   3.15439   3.15595   3.15962   3.24162
 Alpha virt. eigenvalues --    3.24263   3.24333   3.45792   3.65485   3.65608
 Alpha virt. eigenvalues --    3.65805  53.86073
  Beta  occ. eigenvalues --  -77.29419 -19.18663 -10.26067 -10.25981 -10.25959
  Beta  occ. eigenvalues --  -10.25911 -10.25821 -10.25788 -10.25611 -10.25590
  Beta  occ. eigenvalues --  -10.25515 -10.25515 -10.25497 -10.25475 -10.25422
  Beta  occ. eigenvalues --  -10.25401 -10.25392 -10.25331 -10.25221 -10.25159
  Beta  occ. eigenvalues --   -6.69408  -4.83500  -4.83391  -4.83388  -3.71018
  Beta  occ. eigenvalues --   -2.29101  -2.29085  -2.28971  -1.01926  -0.90401
  Beta  occ. eigenvalues --   -0.89877  -0.89801  -0.80830  -0.78592  -0.78513
  Beta  occ. eigenvalues --   -0.78476  -0.78169  -0.78124  -0.68285  -0.64458
  Beta  occ. eigenvalues --   -0.64278  -0.64230  -0.63094  -0.63029  -0.59248
  Beta  occ. eigenvalues --   -0.55925  -0.55850  -0.53196  -0.49586  -0.49406
  Beta  occ. eigenvalues --   -0.49364  -0.47950  -0.47882  -0.47461  -0.45763
  Beta  occ. eigenvalues --   -0.45715  -0.45611  -0.45287  -0.45275  -0.44689
  Beta  occ. eigenvalues --   -0.40862  -0.40799  -0.40332  -0.39143  -0.38049
  Beta  occ. eigenvalues --   -0.37947  -0.37519  -0.37419  -0.37348  -0.32448
  Beta  occ. eigenvalues --   -0.32276  -0.29373  -0.29339  -0.28867  -0.28583
  Beta  occ. eigenvalues --   -0.28534  -0.28331  -0.28185  -0.28182  -0.27242
  Beta  occ. eigenvalues --   -0.27090  -0.25962
  Beta virt. eigenvalues --   -0.04394  -0.04130  -0.04063  -0.02825  -0.02560
  Beta virt. eigenvalues --   -0.01767  -0.01734   0.04294   0.04709   0.05575
  Beta virt. eigenvalues --    0.07138   0.07253   0.07406   0.09182   0.10603
  Beta virt. eigenvalues --    0.10917   0.11114   0.11664   0.11836   0.13098
  Beta virt. eigenvalues --    0.13403   0.13847   0.14592   0.14859   0.16091
  Beta virt. eigenvalues --    0.16220   0.16388   0.16935   0.17165   0.17508
  Beta virt. eigenvalues --    0.18767   0.19911   0.22249   0.26055   0.27534
  Beta virt. eigenvalues --    0.27597   0.28066   0.28918   0.29097   0.29769
  Beta virt. eigenvalues --    0.29876   0.30316   0.31035   0.31092   0.31771
  Beta virt. eigenvalues --    0.34445   0.36247   0.36311   0.38062   0.38748
  Beta virt. eigenvalues --    0.39210   0.39477   0.39668   0.41111   0.41495
  Beta virt. eigenvalues --    0.42362   0.43610   0.43635   0.44080   0.44287
  Beta virt. eigenvalues --    0.44687   0.45090   0.46137   0.46862   0.47181
  Beta virt. eigenvalues --    0.47461   0.48269   0.48545   0.48822   0.49080
  Beta virt. eigenvalues --    0.49519   0.49618   0.50164   0.51070   0.51278
  Beta virt. eigenvalues --    0.51909   0.52593   0.53086   0.54220   0.54881
  Beta virt. eigenvalues --    0.56225   0.56330   0.56830   0.58389   0.59003
  Beta virt. eigenvalues --    0.59545   0.59983   0.60163   0.63075   0.63692
  Beta virt. eigenvalues --    0.63988   0.64934   0.65368   0.65719   0.66478
  Beta virt. eigenvalues --    0.66772   0.67021   0.67658   0.67884   0.68081
  Beta virt. eigenvalues --    0.68632   0.69706   0.70117   0.70347   0.71080
  Beta virt. eigenvalues --    0.71215   0.71716   0.72053   0.72320   0.72334
  Beta virt. eigenvalues --    0.74214   0.74496   0.75000   0.75335   0.76049
  Beta virt. eigenvalues --    0.76737   0.77103   0.77694   0.78820   0.79212
  Beta virt. eigenvalues --    0.80522   0.81779   0.82261   0.82991   0.84826
  Beta virt. eigenvalues --    0.85823   0.86975   0.88675   0.90290   0.90863
  Beta virt. eigenvalues --    0.92745   0.94150   0.94226   0.97766   0.98357
  Beta virt. eigenvalues --    0.99296   1.00454   1.00914   1.04282   1.05235
  Beta virt. eigenvalues --    1.08649   1.11458   1.11687   1.15067   1.15278
  Beta virt. eigenvalues --    1.18009   1.18568   1.19106   1.20147   1.22831
  Beta virt. eigenvalues --    1.23011   1.23640   1.23837   1.24109   1.24233
  Beta virt. eigenvalues --    1.25269   1.25431   1.26594   1.28124   1.28270
  Beta virt. eigenvalues --    1.29842   1.30679   1.30918   1.32441   1.32833
  Beta virt. eigenvalues --    1.33652   1.34104   1.36848   1.36940   1.42684
  Beta virt. eigenvalues --    1.51715   1.52798   1.55921   1.58042   1.59781
  Beta virt. eigenvalues --    1.60616   1.64975   1.67248   1.67297   1.67600
  Beta virt. eigenvalues --    1.69248   1.69298   1.70514   1.70990   1.71263
  Beta virt. eigenvalues --    1.71306   1.74268   1.74563   1.74625   1.75156
  Beta virt. eigenvalues --    1.75415   1.75565   1.76874   1.76948   1.77074
  Beta virt. eigenvalues --    1.77522   1.77586   1.77945   1.80371   1.80416
  Beta virt. eigenvalues --    1.80584   1.82071   1.84581   1.84718   1.86055
  Beta virt. eigenvalues --    1.86136   1.86347   1.90657   1.91069   1.94510
  Beta virt. eigenvalues --    1.95217   1.95304   1.95627   1.97000   1.97042
  Beta virt. eigenvalues --    1.97847   1.98731   1.98746   1.98877   2.00307
  Beta virt. eigenvalues --    2.00404   2.01758   2.06128   2.08010   2.08265
  Beta virt. eigenvalues --    2.09191   2.10812   2.10968   2.11573   2.14628
  Beta virt. eigenvalues --    2.14986   2.15023   2.17391   2.17499   2.18885
  Beta virt. eigenvalues --    2.20968   2.24472   2.24562   2.29490   2.29555
  Beta virt. eigenvalues --    2.29581   2.29877   2.30441   2.30481   2.31046
  Beta virt. eigenvalues --    2.31105   2.31597   2.35162   2.35302   2.35512
  Beta virt. eigenvalues --    2.36027   2.36118   2.37043   2.38625   2.41474
  Beta virt. eigenvalues --    2.41709   2.54514   2.54802   2.54885   2.62167
  Beta virt. eigenvalues --    2.62261   2.63044   2.63898   2.63966   2.64061
  Beta virt. eigenvalues --    2.65783   2.65868   2.65939   2.66262   2.66283
  Beta virt. eigenvalues --    2.66367   2.66410   2.66895   2.66973   2.68328
  Beta virt. eigenvalues --    2.68651   2.73080   2.75203   2.75691   2.75761
  Beta virt. eigenvalues --    2.76033   2.76097   2.76578   2.81319   2.82637
  Beta virt. eigenvalues --    2.84724   2.88390   2.89307   2.89504   2.90390
  Beta virt. eigenvalues --    2.90537   2.91379   2.91963   2.92279   3.05174
  Beta virt. eigenvalues --    3.06370   3.06574   3.15444   3.15600   3.15976
  Beta virt. eigenvalues --    3.24166   3.24266   3.24339   3.45994   3.65493
  Beta virt. eigenvalues --    3.65612   3.65812  53.86219
          Condensed to atoms (all electrons):
               1          2          3          4          5          6
     1  O    7.985919   0.561682  -0.049098   0.000715  -0.000021  -0.000012
     2  P    0.561682  13.023462   0.288232  -0.052240   0.003425   0.000508
     3  C   -0.049098   0.288232   5.730523   0.264850   0.086953  -0.171471
     4  C    0.000715  -0.052240   0.264850   5.080234   0.323375   0.090553
     5  C   -0.000021   0.003425   0.086953   0.323375   5.028463   0.273562
     6  C   -0.000012   0.000508  -0.171471   0.090553   0.273562   5.117266
     7  C    0.000737   0.007651   0.081562  -0.143071   0.085731   0.265054
     8  C    0.011206  -0.034334   0.215227   0.056826  -0.139376   0.093744
     9  C   -0.047830   0.289007  -0.060104  -0.005052  -0.000136  -0.000014
    10  C    0.000667  -0.052732  -0.008671  -0.000327  -0.000468   0.000008
    11  C   -0.000023   0.003218  -0.000239   0.000391  -0.000015   0.000000
    12  C   -0.000011   0.000486  -0.000069  -0.000008   0.000000   0.000000
    13  C    0.000715   0.007708  -0.000008  -0.000003   0.000000   0.000000
    14  C    0.011187  -0.035221   0.007029  -0.000360   0.000013   0.000001
    15  C   -0.049739   0.287381  -0.061316  -0.008970  -0.000249  -0.000074
    16  C    0.000621  -0.052212  -0.005402  -0.000342   0.000378  -0.000008
    17  C   -0.000020   0.003400  -0.000151  -0.000474  -0.000017   0.000000
    18  C   -0.000014   0.000435  -0.000011   0.000006   0.000000   0.000000
    19  C    0.000765   0.007779  -0.000057  -0.000038  -0.000015   0.000001
    20  C    0.013018  -0.033808  -0.001618   0.001981  -0.000057  -0.000001
    21  H    0.000052  -0.012515  -0.073528   0.447877  -0.058940   0.013673
    22  H    0.000000  -0.000243   0.017282  -0.072111   0.455491  -0.073806
    23  H    0.000000   0.000030  -0.001556   0.014690  -0.068112   0.449790
    24  H   -0.000002  -0.000294   0.016557  -0.001803   0.014349  -0.072566
    25  H    0.007145  -0.007385  -0.076839   0.013352  -0.001786   0.013145
    26  H    0.000051  -0.012375   0.003831   0.003213   0.001431  -0.000159
    27  H    0.000000  -0.000239   0.000016   0.000015   0.000000   0.000000
    28  H    0.000000   0.000031   0.000000   0.000000   0.000000   0.000000
    29  H   -0.000002  -0.000286   0.000002   0.000000   0.000000   0.000000
    30  H    0.008196  -0.006803   0.000761  -0.000004   0.000000   0.000000
    31  H    0.000050  -0.012479   0.000243   0.000176   0.000094   0.000003
    32  H    0.000000  -0.000240   0.000010  -0.000009   0.000001   0.000000
    33  H    0.000000   0.000030   0.000000   0.000000   0.000000   0.000000
    34  H   -0.000002  -0.000291   0.000010   0.000001   0.000000   0.000000
    35  H    0.004196  -0.008042   0.000120   0.000293   0.000009   0.000000
    36  Ag   0.036131  -0.006107   0.000683  -0.000455  -0.000079  -0.000099
               7          8          9         10         11         12
     1  O    0.000737   0.011206  -0.047830   0.000667  -0.000023  -0.000011
     2  P    0.007651  -0.034334   0.289007  -0.052732   0.003218   0.000486
     3  C    0.081562   0.215227  -0.060104  -0.008671  -0.000239  -0.000069
     4  C   -0.143071   0.056826  -0.005052  -0.000327   0.000391  -0.000008
     5  C    0.085731  -0.139376  -0.000136  -0.000468  -0.000015   0.000000
     6  C    0.265054   0.093744  -0.000014   0.000008   0.000000   0.000000
     7  C    5.064209   0.293875  -0.000053  -0.000045  -0.000015   0.000001
     8  C    0.293875   5.071111  -0.001881   0.001870  -0.000074   0.000000
     9  C   -0.000053  -0.001881   5.728310   0.265315   0.087044  -0.170077
    10  C   -0.000045   0.001870   0.265315   5.081562   0.322540   0.090252
    11  C   -0.000015  -0.000074   0.087044   0.322540   5.028993   0.274394
    12  C    0.000001   0.000000  -0.170077   0.090252   0.274394   5.115016
    13  C    0.000000  -0.000038   0.081047  -0.143395   0.085596   0.265946
    14  C   -0.000001  -0.000194   0.218918   0.056038  -0.139028   0.092466
    15  C    0.000007   0.007293  -0.061321  -0.005277  -0.000162  -0.000007
    16  C   -0.000003  -0.000330  -0.008561  -0.000401  -0.000462   0.000006
    17  C    0.000000   0.000014  -0.000172   0.000367  -0.000016   0.000000
    18  C    0.000000   0.000001  -0.000080  -0.000008   0.000000   0.000000
    19  C    0.000000  -0.000003   0.000020  -0.000003   0.000000   0.000000
    20  C   -0.000036  -0.000284   0.006977  -0.000337   0.000014   0.000001
    21  H   -0.001438   0.013499   0.000192   0.000199   0.000095   0.000003
    22  H    0.014438  -0.001876   0.000010  -0.000009   0.000001   0.000000
    23  H   -0.068511   0.014373   0.000000   0.000000   0.000000   0.000000
    24  H    0.459081  -0.073852   0.000010   0.000001   0.000000   0.000000
    25  H   -0.058181   0.453555   0.000254   0.000312   0.000004   0.000000
    26  H    0.000149  -0.000423  -0.073565   0.447892  -0.059102   0.013655
    27  H   -0.000001   0.000005   0.017230  -0.071975   0.455409  -0.073804
    28  H    0.000000   0.000000  -0.001555   0.014692  -0.067972   0.449776
    29  H    0.000000   0.000000   0.016325  -0.001787   0.014334  -0.072016
    30  H   -0.000001  -0.000041  -0.077506   0.013390  -0.001787   0.013049
    31  H   -0.000003  -0.000083   0.003574   0.003163   0.001408  -0.000160
    32  H    0.000000   0.000000   0.000015   0.000016   0.000000   0.000000
    33  H    0.000000   0.000000   0.000000   0.000000   0.000000   0.000000
    34  H    0.000000   0.000000   0.000002   0.000000   0.000000   0.000000
    35  H   -0.000013  -0.000269   0.000558   0.000003   0.000000   0.000000
    36  Ag   0.000724   0.000237  -0.000566  -0.000498   0.000005   0.000001
              13         14         15         16         17         18
     1  O    0.000715   0.011187  -0.049739   0.000621  -0.000020  -0.000014
     2  P    0.007708  -0.035221   0.287381  -0.052212   0.003400   0.000435
     3  C   -0.000008   0.007029  -0.061316  -0.005402  -0.000151  -0.000011
     4  C   -0.000003  -0.000360  -0.008970  -0.000342  -0.000474   0.000006
     5  C    0.000000   0.000013  -0.000249   0.000378  -0.000017   0.000000
     6  C    0.000000   0.000001  -0.000074  -0.000008   0.000000   0.000000
     7  C    0.000000  -0.000001   0.000007  -0.000003   0.000000   0.000000
     8  C   -0.000038  -0.000194   0.007293  -0.000330   0.000014   0.000001
     9  C    0.081047   0.218918  -0.061321  -0.008561  -0.000172  -0.000080
    10  C   -0.143395   0.056038  -0.005277  -0.000401   0.000367  -0.000008
    11  C    0.085596  -0.139028  -0.000162  -0.000462  -0.000016   0.000000
    12  C    0.265946   0.092466  -0.000007   0.000006   0.000000   0.000000
    13  C    5.068334   0.292421  -0.000101  -0.000042  -0.000015   0.000001
    14  C    0.292421   5.069913  -0.001416   0.001911  -0.000067   0.000000
    15  C   -0.000101  -0.001416   5.733281   0.264353   0.087279  -0.173209
    16  C   -0.000042   0.001911   0.264353   5.080759   0.322757   0.091839
    17  C   -0.000015  -0.000067   0.087279   0.322757   5.030251   0.271519
    18  C    0.000001   0.000000  -0.173209   0.091839   0.271519   5.123399
    19  C    0.000000  -0.000036   0.081562  -0.143508   0.086541   0.261620
    20  C   -0.000002  -0.000249   0.209906   0.059289  -0.139826   0.095951
    21  H   -0.000003  -0.000084   0.003744   0.003176   0.001454  -0.000163
    22  H    0.000000   0.000000   0.000016   0.000015   0.000000   0.000000
    23  H    0.000000   0.000000   0.000000   0.000000   0.000000   0.000000
    24  H    0.000000   0.000000   0.000002   0.000000   0.000000   0.000000
    25  H   -0.000014  -0.000215   0.000774   0.000001   0.000000   0.000000
    26  H   -0.001440   0.013524   0.000228   0.000190   0.000096   0.000003
    27  H    0.014439  -0.001874   0.000010  -0.000009   0.000001   0.000000
    28  H   -0.068569   0.014313   0.000000   0.000000   0.000000   0.000000
    29  H    0.458597  -0.073983   0.000009   0.000001   0.000000   0.000000
    30  H   -0.059023   0.454757   0.000680   0.000292   0.000005   0.000000
    31  H    0.000148  -0.000413  -0.073616   0.447822  -0.059092   0.013709
    32  H   -0.000001   0.000005   0.017380  -0.072383   0.455650  -0.073981
    33  H    0.000000   0.000000  -0.001555   0.014721  -0.068375   0.449794
    34  H    0.000000   0.000000   0.016875  -0.001872   0.014396  -0.074076
    35  H   -0.000001  -0.000048  -0.073445   0.013526  -0.001842   0.013329
    36  Ag   0.000365   0.000827  -0.000597  -0.000396  -0.000019  -0.000129
              19         20         21         22         23         24
     1  O    0.000765   0.013018   0.000052   0.000000   0.000000  -0.000002
     2  P    0.007779  -0.033808  -0.012515  -0.000243   0.000030  -0.000294
     3  C   -0.000057  -0.001618  -0.073528   0.017282  -0.001556   0.016557
     4  C   -0.000038   0.001981   0.447877  -0.072111   0.014690  -0.001803
     5  C   -0.000015  -0.000057  -0.058940   0.455491  -0.068112   0.014349
     6  C    0.000001  -0.000001   0.013673  -0.073806   0.449790  -0.072566
     7  C    0.000000  -0.000036  -0.001438   0.014438  -0.068511   0.459081
     8  C   -0.000003  -0.000284   0.013499  -0.001876   0.014373  -0.073852
     9  C    0.000020   0.006977   0.000192   0.000010   0.000000   0.000010
    10  C   -0.000003  -0.000337   0.000199  -0.000009   0.000000   0.000001
    11  C    0.000000   0.000014   0.000095   0.000001   0.000000   0.000000
    12  C    0.000000   0.000001   0.000003   0.000000   0.000000   0.000000
    13  C    0.000000  -0.000002  -0.000003   0.000000   0.000000   0.000000
    14  C   -0.000036  -0.000249  -0.000084   0.000000   0.000000   0.000000
    15  C    0.081562   0.209906   0.003744   0.000016   0.000000   0.000002
    16  C   -0.143508   0.059289   0.003176   0.000015   0.000000   0.000000
    17  C    0.086541  -0.139826   0.001454   0.000000   0.000000   0.000000
    18  C    0.261620   0.095951  -0.000163   0.000000   0.000000   0.000000
    19  C    5.061231   0.297194   0.000151  -0.000001   0.000000   0.000000
    20  C    0.297194   5.079117  -0.000476   0.000005   0.000000   0.000000
    21  H    0.000151  -0.000476   0.652639  -0.012533  -0.000264   0.000032
    22  H   -0.000001   0.000005  -0.012533   0.665550  -0.012293  -0.000256
    23  H    0.000000   0.000000  -0.000264  -0.012293   0.659496  -0.012092
    24  H    0.000000   0.000000   0.000032  -0.000256  -0.012092   0.655362
    25  H   -0.000001  -0.000068  -0.000179   0.000035  -0.000232  -0.011372
    26  H   -0.000003  -0.000086   0.000678   0.000051  -0.000004  -0.000003
    27  H    0.000000   0.000000  -0.000003   0.000000   0.000000   0.000000
    28  H    0.000000   0.000000   0.000000   0.000000   0.000000   0.000000
    29  H    0.000000   0.000000   0.000000   0.000000   0.000000   0.000000
    30  H   -0.000014  -0.000264  -0.000002   0.000000   0.000000   0.000000
    31  H   -0.001449   0.013485   0.000677  -0.000003   0.000000   0.000000
    32  H    0.014498  -0.001923   0.000052   0.000000   0.000000   0.000000
    33  H   -0.068513   0.014390  -0.000004   0.000000   0.000000   0.000000
    34  H    0.460205  -0.073567  -0.000003   0.000000   0.000000   0.000000
    35  H   -0.058249   0.449948  -0.000056   0.000000   0.000000   0.000000
    36  Ag   0.000550  -0.004027   0.000008  -0.000001  -0.000005   0.000219
              25         26         27         28         29         30
     1  O    0.007145   0.000051   0.000000   0.000000  -0.000002   0.008196
     2  P   -0.007385  -0.012375  -0.000239   0.000031  -0.000286  -0.006803
     3  C   -0.076839   0.003831   0.000016   0.000000   0.000002   0.000761
     4  C    0.013352   0.003213   0.000015   0.000000   0.000000  -0.000004
     5  C   -0.001786   0.001431   0.000000   0.000000   0.000000   0.000000
     6  C    0.013145  -0.000159   0.000000   0.000000   0.000000   0.000000
     7  C   -0.058181   0.000149  -0.000001   0.000000   0.000000  -0.000001
     8  C    0.453555  -0.000423   0.000005   0.000000   0.000000  -0.000041
     9  C    0.000254  -0.073565   0.017230  -0.001555   0.016325  -0.077506
    10  C    0.000312   0.447892  -0.071975   0.014692  -0.001787   0.013390
    11  C    0.000004  -0.059102   0.455409  -0.067972   0.014334  -0.001787
    12  C    0.000000   0.013655  -0.073804   0.449776  -0.072016   0.013049
    13  C   -0.000014  -0.001440   0.014439  -0.068569   0.458597  -0.059023
    14  C   -0.000215   0.013524  -0.001874   0.014313  -0.073983   0.454757
    15  C    0.000774   0.000228   0.000010   0.000000   0.000009   0.000680
    16  C    0.000001   0.000190  -0.000009   0.000000   0.000001   0.000292
    17  C    0.000000   0.000096   0.000001   0.000000   0.000000   0.000005
    18  C    0.000000   0.000003   0.000000   0.000000   0.000000   0.000000
    19  C   -0.000001  -0.000003   0.000000   0.000000   0.000000  -0.000014
    20  C   -0.000068  -0.000086   0.000000   0.000000   0.000000  -0.000264
    21  H   -0.000179   0.000678  -0.000003   0.000000   0.000000  -0.000002
    22  H    0.000035   0.000051   0.000000   0.000000   0.000000   0.000000
    23  H   -0.000232  -0.000004   0.000000   0.000000   0.000000   0.000000
    24  H   -0.011372  -0.000003   0.000000   0.000000   0.000000   0.000000
    25  H    0.621680  -0.000052   0.000000   0.000000   0.000000  -0.000033
    26  H   -0.000052   0.652189  -0.012507  -0.000264   0.000032  -0.000181
    27  H    0.000000  -0.012507   0.665325  -0.012289  -0.000256   0.000036
    28  H    0.000000  -0.000264  -0.012289   0.659582  -0.012124  -0.000235
    29  H    0.000000   0.000032  -0.000256  -0.012124   0.655974  -0.010992
    30  H   -0.000033  -0.000181   0.000036  -0.000235  -0.010992   0.623751
    31  H   -0.000002   0.000677   0.000052  -0.000004  -0.000003  -0.000042
    32  H    0.000000  -0.000003   0.000000   0.000000   0.000000   0.000000
    33  H    0.000000   0.000000   0.000000   0.000000   0.000000   0.000000
    34  H    0.000000   0.000000   0.000000   0.000000   0.000000   0.000000
    35  H   -0.000026  -0.000002   0.000000   0.000000   0.000000  -0.000038
    36  Ag   0.005160  -0.000002  -0.000002  -0.000001   0.000031   0.002096
              31         32         33         34         35         36
     1  O    0.000050   0.000000   0.000000  -0.000002   0.004196   0.036131
     2  P   -0.012479  -0.000240   0.000030  -0.000291  -0.008042  -0.006107
     3  C    0.000243   0.000010   0.000000   0.000010   0.000120   0.000683
     4  C    0.000176  -0.000009   0.000000   0.000001   0.000293  -0.000455
     5  C    0.000094   0.000001   0.000000   0.000000   0.000009  -0.000079
     6  C    0.000003   0.000000   0.000000   0.000000   0.000000  -0.000099
     7  C   -0.000003   0.000000   0.000000   0.000000  -0.000013   0.000724
     8  C   -0.000083   0.000000   0.000000   0.000000  -0.000269   0.000237
     9  C    0.003574   0.000015   0.000000   0.000002   0.000558  -0.000566
    10  C    0.003163   0.000016   0.000000   0.000000   0.000003  -0.000498
    11  C    0.001408   0.000000   0.000000   0.000000   0.000000   0.000005
    12  C   -0.000160   0.000000   0.000000   0.000000   0.000000   0.000001
    13  C    0.000148  -0.000001   0.000000   0.000000  -0.000001   0.000365
    14  C   -0.000413   0.000005   0.000000   0.000000  -0.000048   0.000827
    15  C   -0.073616   0.017380  -0.001555   0.016875  -0.073445  -0.000597
    16  C    0.447822  -0.072383   0.014721  -0.001872   0.013526  -0.000396
    17  C   -0.059092   0.455650  -0.068375   0.014396  -0.001842  -0.000019
    18  C    0.013709  -0.073981   0.449794  -0.074076   0.013329  -0.000129
    19  C   -0.001449   0.014498  -0.068513   0.460205  -0.058249   0.000550
    20  C    0.013485  -0.001923   0.014390  -0.073567   0.449948  -0.004027
    21  H    0.000677   0.000052  -0.000004  -0.000003  -0.000056   0.000008
    22  H   -0.000003   0.000000   0.000000   0.000000   0.000000  -0.000001
    23  H    0.000000   0.000000   0.000000   0.000000   0.000000  -0.000005
    24  H    0.000000   0.000000   0.000000   0.000000   0.000000   0.000219
    25  H   -0.000002   0.000000   0.000000   0.000000  -0.000026   0.005160
    26  H    0.000677  -0.000003   0.000000   0.000000  -0.000002  -0.000002
    27  H    0.000052   0.000000   0.000000   0.000000   0.000000  -0.000002
    28  H   -0.000004   0.000000   0.000000   0.000000   0.000000  -0.000001
    29  H   -0.000003   0.000000   0.000000   0.000000   0.000000   0.000031
    30  H   -0.000042   0.000000   0.000000   0.000000  -0.000038   0.002096
    31  H    0.653840  -0.012561  -0.000264   0.000033  -0.000172  -0.000004
    32  H   -0.012561   0.666174  -0.012300  -0.000254   0.000033   0.000001
    33  H   -0.000264  -0.012300   0.659833  -0.012012  -0.000224  -0.000004
    34  H    0.000033  -0.000254  -0.012012   0.655526  -0.012150   0.000509
    35  H   -0.000172   0.000033  -0.000224  -0.012150   0.618641   0.013197
    36  Ag  -0.000004   0.000001  -0.000004   0.000509   0.013197  19.089578
          Atomic-Atomic Spin Densities.
               1          2          3          4          5          6
     1  O    0.086848  -0.010624  -0.001084  -0.000018   0.000001   0.000000
     2  P   -0.010624   0.019927  -0.000132  -0.000511   0.000137   0.000031
     3  C   -0.001084  -0.000132  -0.001557   0.000524  -0.000041   0.000026
     4  C   -0.000018  -0.000511   0.000524   0.001154  -0.000564  -0.000180
     5  C    0.000001   0.000137  -0.000041  -0.000564   0.000562   0.000222
     6  C    0.000000   0.000031   0.000026  -0.000180   0.000222   0.000706
     7  C    0.000003  -0.000046  -0.000037   0.000203  -0.000178  -0.000181
     8  C    0.000816   0.000208  -0.001399  -0.000378   0.000084  -0.000019
     9  C    0.000358   0.001334  -0.000459  -0.000097   0.000012   0.000001
    10  C   -0.000007  -0.000673   0.000194   0.000017  -0.000002   0.000000
    11  C    0.000000   0.000121  -0.000021  -0.000011   0.000001   0.000000
    12  C    0.000000   0.000007   0.000000   0.000000   0.000000   0.000000
    13  C   -0.000005  -0.000016   0.000001   0.000000   0.000000   0.000000
    14  C    0.000202  -0.000778  -0.000095  -0.000001   0.000000   0.000000
    15  C   -0.001635   0.000193   0.000765   0.000045  -0.000011  -0.000001
    16  C   -0.000028  -0.000691   0.000063  -0.000024  -0.000007   0.000000
    17  C    0.000001   0.000144  -0.000004   0.000002   0.000001   0.000000
    18  C    0.000001   0.000036  -0.000002   0.000001   0.000000   0.000000
    19  C    0.000005  -0.000068   0.000001   0.000000   0.000000   0.000000
    20  C    0.001610   0.000985  -0.000375   0.000009   0.000004   0.000000
    21  H   -0.000002  -0.000262   0.000046   0.000107  -0.000096  -0.000002
    22  H    0.000000  -0.000008  -0.000005   0.000047  -0.000127   0.000000
    23  H    0.000000  -0.000001  -0.000002   0.000014  -0.000037  -0.000036
    24  H   -0.000001  -0.000005   0.000015   0.000014  -0.000013  -0.000081
    25  H   -0.000892   0.000044   0.001138   0.000077  -0.000020  -0.000096
    26  H   -0.000001  -0.000247   0.000073   0.000095  -0.000023  -0.000004
    27  H    0.000000  -0.000007   0.000001   0.000001   0.000000   0.000000
    28  H    0.000000   0.000000   0.000000   0.000000   0.000000   0.000000
    29  H    0.000000   0.000001   0.000000   0.000000   0.000000   0.000000
    30  H   -0.000730   0.000592   0.000034   0.000002   0.000000   0.000000
    31  H   -0.000002  -0.000309   0.000019   0.000009  -0.000003   0.000000
    32  H    0.000000  -0.000007   0.000000   0.000000   0.000000   0.000000
    33  H    0.000000  -0.000001   0.000000   0.000000   0.000000   0.000000
    34  H   -0.000002  -0.000013   0.000001   0.000000   0.000000   0.000000
    35  H   -0.001297  -0.000336   0.000127   0.000004  -0.000001   0.000000
    36  Ag  -0.064981   0.005112   0.001883   0.000079  -0.000023  -0.000035
               7          8          9         10         11         12
     1  O    0.000003   0.000816   0.000358  -0.000007   0.000000   0.000000
     2  P   -0.000046   0.000208   0.001334  -0.000673   0.000121   0.000007
     3  C   -0.000037  -0.001399  -0.000459   0.000194  -0.000021   0.000000
     4  C    0.000203  -0.000378  -0.000097   0.000017  -0.000011   0.000000
     5  C   -0.000178   0.000084   0.000012  -0.000002   0.000001   0.000000
     6  C   -0.000181  -0.000019   0.000001   0.000000   0.000000   0.000000
     7  C    0.000096   0.000440  -0.000001  -0.000001   0.000000   0.000000
     8  C    0.000440   0.004849   0.000133  -0.000026   0.000006   0.000000
     9  C   -0.000001   0.000133   0.001221  -0.001725   0.000361   0.000028
    10  C   -0.000001  -0.000026  -0.001725   0.004344  -0.001553  -0.000247
    11  C    0.000000   0.000006   0.000361  -0.001553   0.001108   0.000140
    12  C    0.000000   0.000000   0.000028  -0.000247   0.000140   0.001562
    13  C    0.000000   0.000000   0.000085   0.000276  -0.000139  -0.000247
    14  C    0.000000   0.000023   0.000771  -0.000401   0.000174   0.000074
    15  C   -0.000001  -0.000168  -0.000306   0.000052  -0.000002  -0.000001
    16  C    0.000000  -0.000005  -0.000018   0.000005   0.000001   0.000001
    17  C    0.000000   0.000000   0.000016  -0.000008   0.000001   0.000000
    18  C    0.000000   0.000000   0.000001   0.000000   0.000000   0.000000
    19  C    0.000000   0.000000  -0.000002   0.000000   0.000000   0.000000
    20  C    0.000000   0.000066   0.000120  -0.000021   0.000001   0.000000
    21  H    0.000006  -0.000026  -0.000037   0.000017  -0.000003   0.000000
    22  H    0.000018  -0.000003   0.000000   0.000000   0.000000   0.000000
    23  H    0.000019   0.000006   0.000000   0.000000   0.000000   0.000000
    24  H   -0.000028  -0.000075   0.000000   0.000000   0.000000   0.000000
    25  H   -0.000108  -0.001510  -0.000068   0.000011  -0.000002   0.000000
    26  H    0.000004  -0.000027  -0.000251   0.000384  -0.000270  -0.000010
    27  H    0.000000   0.000000  -0.000027   0.000176  -0.000329  -0.000042
    28  H    0.000000   0.000000   0.000000   0.000012  -0.000019  -0.000004
    29  H    0.000000   0.000000   0.000004   0.000009  -0.000004  -0.000024
    30  H    0.000000  -0.000014   0.000089   0.000242  -0.000057  -0.000045
    31  H    0.000000  -0.000003  -0.000169   0.000177  -0.000037  -0.000005
    32  H    0.000000   0.000000  -0.000001   0.000001   0.000000   0.000000
    33  H    0.000000   0.000000   0.000000   0.000000   0.000000   0.000000
    34  H    0.000000   0.000000   0.000000   0.000000   0.000000   0.000000
    35  H    0.000000  -0.000038  -0.000031   0.000003   0.000000   0.000000
    36  Ag  -0.000110  -0.002878  -0.000170   0.000014   0.000002  -0.000001
              13         14         15         16         17         18
     1  O   -0.000005   0.000202  -0.001635  -0.000028   0.000001   0.000001
     2  P   -0.000016  -0.000778   0.000193  -0.000691   0.000144   0.000036
     3  C    0.000001  -0.000095   0.000765   0.000063  -0.000004  -0.000002
     4  C    0.000000  -0.000001   0.000045  -0.000024   0.000002   0.000001
     5  C    0.000000   0.000000  -0.000011  -0.000007   0.000001   0.000000
     6  C    0.000000   0.000000  -0.000001   0.000000   0.000000   0.000000
     7  C    0.000000   0.000000  -0.000001   0.000000   0.000000   0.000000
     8  C    0.000000   0.000023  -0.000168  -0.000005   0.000000   0.000000
     9  C    0.000085   0.000771  -0.000306  -0.000018   0.000016   0.000001
    10  C    0.000276  -0.000401   0.000052   0.000005  -0.000008   0.000000
    11  C   -0.000139   0.000174  -0.000002   0.000001   0.000001   0.000000
    12  C   -0.000247   0.000074  -0.000001   0.000001   0.000000   0.000000
    13  C   -0.000613  -0.000138   0.000003  -0.000001   0.000000   0.000000
    14  C   -0.000138   0.003605  -0.000112  -0.000005   0.000001   0.000000
    15  C    0.000003  -0.000112   0.000518   0.000714  -0.000059  -0.000200
    16  C   -0.000001  -0.000005   0.000714   0.001692  -0.000733  -0.000157
    17  C    0.000000   0.000001  -0.000059  -0.000733   0.000493   0.000165
    18  C    0.000000   0.000000  -0.000200  -0.000157   0.000165   0.001978
    19  C    0.000000   0.000000   0.000164   0.000249  -0.000303  -0.000331
    20  C   -0.000001   0.000032  -0.005872  -0.000728   0.000202   0.000156
    21  H    0.000000   0.000000   0.000058   0.000081  -0.000017  -0.000002
    22  H    0.000000   0.000000   0.000001   0.000001   0.000000   0.000000
    23  H    0.000000   0.000000   0.000000   0.000000   0.000000   0.000000
    24  H    0.000000   0.000000   0.000000   0.000000   0.000000   0.000000
    25  H    0.000001  -0.000019   0.000034   0.000002   0.000000   0.000000
    26  H    0.000009  -0.000025   0.000008   0.000012  -0.000002   0.000000
    27  H    0.000019  -0.000008   0.000000   0.000000   0.000000   0.000000
    28  H    0.000011  -0.000006   0.000000   0.000000   0.000000   0.000000
    29  H    0.000041  -0.000082   0.000000   0.000000   0.000000   0.000000
    30  H    0.000099  -0.001852   0.000128   0.000006  -0.000001   0.000000
    31  H    0.000005  -0.000011   0.000008   0.000208  -0.000177   0.000006
    32  H    0.000000   0.000000  -0.000008   0.000049  -0.000162   0.000028
    33  H    0.000000   0.000000   0.000007   0.000022  -0.000098  -0.000100
    34  H    0.000000   0.000000   0.000114   0.000028  -0.000043  -0.000303
    35  H    0.000000  -0.000007   0.002000   0.000168  -0.000051  -0.000141
    36  Ag   0.000019  -0.000542   0.003087   0.000108  -0.000026  -0.000067
              19         20         21         22         23         24
     1  O    0.000005   0.001610  -0.000002   0.000000   0.000000  -0.000001
     2  P   -0.000068   0.000985  -0.000262  -0.000008  -0.000001  -0.000005
     3  C    0.000001  -0.000375   0.000046  -0.000005  -0.000002   0.000015
     4  C    0.000000   0.000009   0.000107   0.000047   0.000014   0.000014
     5  C    0.000000   0.000004  -0.000096  -0.000127  -0.000037  -0.000013
     6  C    0.000000   0.000000  -0.000002   0.000000  -0.000036  -0.000081
     7  C    0.000000   0.000000   0.000006   0.000018   0.000019  -0.000028
     8  C    0.000000   0.000066  -0.000026  -0.000003   0.000006  -0.000075
     9  C   -0.000002   0.000120  -0.000037   0.000000   0.000000   0.000000
    10  C    0.000000  -0.000021   0.000017   0.000000   0.000000   0.000000
    11  C    0.000000   0.000001  -0.000003   0.000000   0.000000   0.000000
    12  C    0.000000   0.000000   0.000000   0.000000   0.000000   0.000000
    13  C    0.000000  -0.000001   0.000000   0.000000   0.000000   0.000000
    14  C    0.000000   0.000032   0.000000   0.000000   0.000000   0.000000
    15  C    0.000164  -0.005872   0.000058   0.000001   0.000000   0.000000
    16  C    0.000249  -0.000728   0.000081   0.000001   0.000000   0.000000
    17  C   -0.000303   0.000202  -0.000017   0.000000   0.000000   0.000000
    18  C   -0.000331   0.000156  -0.000002   0.000000   0.000000   0.000000
    19  C   -0.000458   0.000793   0.000002   0.000000   0.000000   0.000000
    20  C    0.000793   0.014572  -0.000040   0.000000   0.000000   0.000000
    21  H    0.000002  -0.000040   0.000086   0.000018   0.000001   0.000000
    22  H    0.000000   0.000000   0.000018   0.000075   0.000010   0.000001
    23  H    0.000000   0.000000   0.000001   0.000010   0.000008   0.000009
    24  H    0.000000   0.000000   0.000000   0.000001   0.000009   0.000085
    25  H    0.000000  -0.000019   0.000005   0.000001   0.000003   0.000076
    26  H    0.000000  -0.000005   0.000024   0.000002   0.000000   0.000000
    27  H    0.000000   0.000000   0.000000   0.000000   0.000000   0.000000
    28  H    0.000000   0.000000   0.000000   0.000000   0.000000   0.000000
    29  H    0.000000   0.000000   0.000000   0.000000   0.000000   0.000000
    30  H    0.000000  -0.000062   0.000000   0.000000   0.000000   0.000000
    31  H    0.000013  -0.000082   0.000026   0.000000   0.000000   0.000000
    32  H    0.000023  -0.000007   0.000001   0.000000   0.000000   0.000000
    33  H    0.000065   0.000002   0.000000   0.000000   0.000000   0.000000
    34  H   -0.000162  -0.000256   0.000000   0.000000   0.000000   0.000000
    35  H   -0.000338  -0.003436   0.000007   0.000000   0.000000   0.000000
    36  Ag  -0.000315  -0.006585   0.000015   0.000002   0.000002   0.000067
              25         26         27         28         29         30
     1  O   -0.000892  -0.000001   0.000000   0.000000   0.000000  -0.000730
     2  P    0.000044  -0.000247  -0.000007   0.000000   0.000001   0.000592
     3  C    0.001138   0.000073   0.000001   0.000000   0.000000   0.000034
     4  C    0.000077   0.000095   0.000001   0.000000   0.000000   0.000002
     5  C   -0.000020  -0.000023   0.000000   0.000000   0.000000   0.000000
     6  C   -0.000096  -0.000004   0.000000   0.000000   0.000000   0.000000
     7  C   -0.000108   0.000004   0.000000   0.000000   0.000000   0.000000
     8  C   -0.001510  -0.000027   0.000000   0.000000   0.000000  -0.000014
     9  C   -0.000068  -0.000251  -0.000027   0.000000   0.000004   0.000089
    10  C    0.000011   0.000384   0.000176   0.000012   0.000009   0.000242
    11  C   -0.000002  -0.000270  -0.000329  -0.000019  -0.000004  -0.000057
    12  C    0.000000  -0.000010  -0.000042  -0.000004  -0.000024  -0.000045
    13  C    0.000001   0.000009   0.000019   0.000011   0.000041   0.000099
    14  C   -0.000019  -0.000025  -0.000008  -0.000006  -0.000082  -0.001852
    15  C    0.000034   0.000008   0.000000   0.000000   0.000000   0.000128
    16  C    0.000002   0.000012   0.000000   0.000000   0.000000   0.000006
    17  C    0.000000  -0.000002   0.000000   0.000000   0.000000  -0.000001
    18  C    0.000000   0.000000   0.000000   0.000000   0.000000   0.000000
    19  C    0.000000   0.000000   0.000000   0.000000   0.000000   0.000000
    20  C   -0.000019  -0.000005   0.000000   0.000000   0.000000  -0.000062
    21  H    0.000005   0.000024   0.000000   0.000000   0.000000   0.000000
    22  H    0.000001   0.000002   0.000000   0.000000   0.000000   0.000000
    23  H    0.000003   0.000000   0.000000   0.000000   0.000000   0.000000
    24  H    0.000076   0.000000   0.000000   0.000000   0.000000   0.000000
    25  H    0.000003   0.000007   0.000000   0.000000   0.000000   0.000014
    26  H    0.000007   0.000206   0.000045   0.000001   0.000000   0.000008
    27  H    0.000000   0.000045   0.000303   0.000011   0.000001   0.000002
    28  H    0.000000   0.000001   0.000011  -0.000067   0.000004   0.000002
    29  H    0.000000   0.000000   0.000001   0.000004   0.000050   0.000035
    30  H    0.000014   0.000008   0.000002   0.000002   0.000035   0.001376
    31  H    0.000001   0.000038   0.000004   0.000000   0.000000   0.000010
    32  H    0.000000   0.000000   0.000000   0.000000   0.000000   0.000000
    33  H    0.000000   0.000000   0.000000   0.000000   0.000000   0.000000
    34  H    0.000000   0.000000   0.000000   0.000000   0.000000   0.000000
    35  H    0.000015   0.000001   0.000000   0.000000   0.000000   0.000018
    36  Ag   0.002704   0.000002   0.000000   0.000000   0.000004   0.001308
              31         32         33         34         35         36
     1  O   -0.000002   0.000000   0.000000  -0.000002  -0.001297  -0.064981
     2  P   -0.000309  -0.000007  -0.000001  -0.000013  -0.000336   0.005112
     3  C    0.000019   0.000000   0.000000   0.000001   0.000127   0.001883
     4  C    0.000009   0.000000   0.000000   0.000000   0.000004   0.000079
     5  C   -0.000003   0.000000   0.000000   0.000000  -0.000001  -0.000023
     6  C    0.000000   0.000000   0.000000   0.000000   0.000000  -0.000035
     7  C    0.000000   0.000000   0.000000   0.000000   0.000000  -0.000110
     8  C   -0.000003   0.000000   0.000000   0.000000  -0.000038  -0.002878
     9  C   -0.000169  -0.000001   0.000000   0.000000  -0.000031  -0.000170
    10  C    0.000177   0.000001   0.000000   0.000000   0.000003   0.000014
    11  C   -0.000037   0.000000   0.000000   0.000000   0.000000   0.000002
    12  C   -0.000005   0.000000   0.000000   0.000000   0.000000  -0.000001
    13  C    0.000005   0.000000   0.000000   0.000000   0.000000   0.000019
    14  C   -0.000011   0.000000   0.000000   0.000000  -0.000007  -0.000542
    15  C    0.000008  -0.000008   0.000007   0.000114   0.002000   0.003087
    16  C    0.000208   0.000049   0.000022   0.000028   0.000168   0.000108
    17  C   -0.000177  -0.000162  -0.000098  -0.000043  -0.000051  -0.000026
    18  C    0.000006   0.000028  -0.000100  -0.000303  -0.000141  -0.000067
    19  C    0.000013   0.000023   0.000065  -0.000162  -0.000338  -0.000315
    20  C   -0.000082  -0.000007   0.000002  -0.000256  -0.003436  -0.006585
    21  H    0.000026   0.000001   0.000000   0.000000   0.000007   0.000015
    22  H    0.000000   0.000000   0.000000   0.000000   0.000000   0.000002
    23  H    0.000000   0.000000   0.000000   0.000000   0.000000   0.000002
    24  H    0.000000   0.000000   0.000000   0.000000   0.000000   0.000067
    25  H    0.000001   0.000000   0.000000   0.000000   0.000015   0.002704
    26  H    0.000038   0.000000   0.000000   0.000000   0.000001   0.000002
    27  H    0.000004   0.000000   0.000000   0.000000   0.000000   0.000000
    28  H    0.000000   0.000000   0.000000   0.000000   0.000000   0.000000
    29  H    0.000000   0.000000   0.000000   0.000000   0.000000   0.000004
    30  H    0.000010   0.000000   0.000000   0.000000   0.000018   0.001308
    31  H    0.000280   0.000028   0.000002   0.000001   0.000010   0.000007
    32  H    0.000028   0.000085   0.000016   0.000002   0.000001   0.000001
    33  H    0.000002   0.000016   0.000032   0.000034   0.000005   0.000003
    34  H    0.000001   0.000002   0.000034   0.000495   0.000171   0.000219
    35  H    0.000010   0.000001   0.000005   0.000171   0.000650   0.006334
    36  Ag   0.000007   0.000001   0.000003   0.000219   0.006334   1.019610
 Mulliken charges and spin densities:
               1          2
     1  O   -0.496282   0.008534
     2  P    0.843380   0.014137
     3  C   -0.203755  -0.000299
     4  C   -0.013284   0.000620
     5  C   -0.004003  -0.000121
     6  C    0.000904   0.000355
     7  C   -0.001847   0.000098
     8  C    0.020226   0.000062
     9  C   -0.206334   0.001170
    10  C   -0.012352   0.001273
    11  C   -0.004554  -0.000534
    12  C    0.001101   0.001185
    13  C   -0.002664  -0.000590
    14  C    0.019868   0.000799
    15  C   -0.199728  -0.000476
    16  C   -0.015725   0.001011
    17  C   -0.003644  -0.000661
    18  C    0.000065   0.001069
    19  C   -0.000227  -0.000663
    20  C    0.015354   0.001061
    21  H    0.021990   0.000012
    22  H    0.020236   0.000033
    23  H    0.024690  -0.000004
    24  H    0.026626   0.000065
    25  H    0.040970   0.001402
    26  H    0.022283   0.000056
    27  H    0.020421   0.000151
    28  H    0.024620  -0.000056
    29  H    0.026143   0.000037
    30  H    0.039954   0.001206
    31  H    0.021198   0.000053
    32  H    0.019821   0.000050
    33  H    0.024484  -0.000010
    34  H    0.026671   0.000287
    35  H    0.040723   0.003836
    36  Ag  -0.137330   0.964851
 Sum of Mulliken charges =   0.00000   1.00000
 Mulliken charges and spin densities with hydrogens summed into heavy atoms:
               1          2
     1  O   -0.496282   0.008534
     2  P    0.843380   0.014137
     3  C   -0.203755  -0.000299
     4  C    0.008706   0.000632
     5  C    0.016233  -0.000089
     6  C    0.025594   0.000351
     7  C    0.024779   0.000164
     8  C    0.061196   0.001464
     9  C   -0.206334   0.001170
    10  C    0.009931   0.001329
    11  C    0.015868  -0.000383
    12  C    0.025721   0.001129
    13  C    0.023479  -0.000553
    14  C    0.059822   0.002005
    15  C   -0.199728  -0.000476
    16  C    0.005473   0.001064
    17  C    0.016177  -0.000610
    18  C    0.024549   0.001058
    19  C    0.026443  -0.000375
    20  C    0.056077   0.004897
    36  Ag  -0.137330   0.964851
 Electronic spatial extent (au):  <R**2>=           7220.4024
 Charge=              0.0000 electrons
 Dipole moment (field-independent basis, Debye):
    X=             -1.7592    Y=             -0.0276    Z=             -7.6937  Tot=              7.8923
 Quadrupole moment (field-independent basis, Debye-Ang):
   XX=           -132.6788   YY=           -129.5430   ZZ=           -173.2908
   XY=             -0.1537   XZ=            -10.4658   YZ=             -0.0531
 Traceless Quadrupole moment (field-independent basis, Debye-Ang):
   XX=             12.4920   YY=             15.6279   ZZ=            -28.1199
   XY=             -0.1537   XZ=            -10.4658   YZ=             -0.0531
 Octapole moment (field-independent basis, Debye-Ang**2):
  XXX=           -136.9812  YYY=             18.3682  ZZZ=           -577.6917  XYY=             26.4006
  XXY=            -15.5044  XXZ=           -139.6312  XZZ=            -83.0131  YZZ=             -1.6766
  YYZ=           -127.6819  XYZ=              2.1488
 Hexadecapole moment (field-independent basis, Debye-Ang**3):
 XXXX=          -3278.9869 YYYY=          -3075.8834 ZZZZ=          -5030.2500 XXXY=              9.9403
 XXXZ=           -352.2850 YYYX=            -10.3845 YYYZ=           -111.3004 ZZZX=           -606.6000
 ZZZY=            -52.4692 XXYY=          -1059.2540 XXZZ=          -1279.3416 YYZZ=          -1179.0502
 XXYZ=             55.2598 YYXZ=            -69.5857 ZZXY=            -11.2818
 N-N= 1.886557076275D+03 E-N=-6.683867852134D+03  KE= 1.158023206523D+03
                          Isotropic Fermi Contact Couplings
        Atom                 a.u.       MegaHertz       Gauss      10(-4) cm-1
     1  O(17)              0.23993    -145.44733     -51.89922     -48.51601
     2  P(31)              0.03469      62.82691      22.41820      20.95680
     3  C(13)             -0.00053      -0.59925      -0.21383      -0.19989
     4  C(13)              0.00014       0.15381       0.05488       0.05130
     5  C(13)              0.00014       0.15278       0.05452       0.05096
     6  C(13)              0.00011       0.12813       0.04572       0.04274
     7  C(13)             -0.00001      -0.00775      -0.00276      -0.00258
     8  C(13)              0.00286       3.21751       1.14809       1.07325
     9  C(13)              0.00289       3.25167       1.16028       1.08464
    10  C(13)              0.00092       1.03432       0.36907       0.34501
    11  C(13)              0.00037       0.41235       0.14714       0.13754
    12  C(13)              0.00026       0.29739       0.10612       0.09920
    13  C(13)             -0.00018      -0.20033      -0.07148      -0.06682
    14  C(13)              0.00110       1.24078       0.44274       0.41388
    15  C(13)             -0.00108      -1.21908      -0.43500      -0.40664
    16  C(13)              0.00005       0.05756       0.02054       0.01920
    17  C(13)              0.00012       0.13985       0.04990       0.04665
    18  C(13)              0.00030       0.33608       0.11992       0.11211
    19  C(13)             -0.00018      -0.20313      -0.07248      -0.06776
    20  C(13)              0.00620       6.96562       2.48551       2.32348
    21  H(1)               0.00000       0.00691       0.00246       0.00230
    22  H(1)               0.00000       0.01575       0.00562       0.00525
    23  H(1)               0.00000      -0.01307      -0.00466      -0.00436
    24  H(1)               0.00000      -0.01996      -0.00712      -0.00666
    25  H(1)               0.00001       0.06639       0.02369       0.02215
    26  H(1)               0.00002       0.08817       0.03146       0.02941
    27  H(1)               0.00003       0.15236       0.05437       0.05082
    28  H(1)              -0.00002      -0.08142      -0.02905      -0.02716
    29  H(1)               0.00001       0.03072       0.01096       0.01025
    30  H(1)              -0.00002      -0.10578      -0.03775      -0.03529
    31  H(1)               0.00002       0.09128       0.03257       0.03045
    32  H(1)               0.00001       0.02973       0.01061       0.00992
    33  H(1)              -0.00001      -0.03065      -0.01094      -0.01022
    34  H(1)               0.00001       0.05447       0.01944       0.01817
    35  H(1)              -0.00007      -0.29375      -0.10482      -0.09798
    36  Ag(107             0.00026      -0.04805      -0.01714      -0.01603
 --------------------------------------------------------
       Center         ----  Spin Dipole Couplings  ----
                      3XX-RR        3YY-RR        3ZZ-RR
 --------------------------------------------------------
     1   Atom        0.001719     -0.030033      0.028315
     2   Atom       -0.020134     -0.018717      0.038851
     3   Atom       -0.001565     -0.000804      0.002369
     4   Atom       -0.000081     -0.000744      0.000825
     5   Atom       -0.000233     -0.000384      0.000617
     6   Atom       -0.000122     -0.000243      0.000365
     7   Atom       -0.000319     -0.000164      0.000483
     8   Atom       -0.001902     -0.000729      0.002631
     9   Atom        0.002323     -0.002110     -0.000213
    10   Atom       -0.000974      0.000798      0.000176
    11   Atom        0.000577     -0.000844      0.000267
    12   Atom       -0.000309      0.000603     -0.000293
    13   Atom        0.000695     -0.000836      0.000141
    14   Atom        0.000436     -0.000921      0.000485
    15   Atom       -0.001329     -0.000605      0.001934
    16   Atom       -0.000259     -0.000381      0.000640
    17   Atom       -0.000583      0.000064      0.000520
    18   Atom        0.000057     -0.000067      0.000010
    19   Atom       -0.001214      0.000764      0.000450
    20   Atom       -0.003325     -0.001775      0.005100
    21   Atom       -0.000505     -0.000526      0.001031
    22   Atom       -0.000247     -0.000253      0.000500
    23   Atom       -0.000233     -0.000055      0.000288
    24   Atom       -0.000590      0.000366      0.000223
    25   Atom       -0.002220      0.000181      0.002040
    26   Atom       -0.000328     -0.000410      0.000738
    27   Atom        0.000009     -0.000240      0.000231
    28   Atom        0.000236     -0.000218     -0.000018
    29   Atom        0.000574     -0.000446     -0.000128
    30   Atom        0.001421     -0.001438      0.000017
    31   Atom       -0.000347     -0.000401      0.000748
    32   Atom       -0.000263     -0.000073      0.000336
    33   Atom       -0.000324      0.000147      0.000177
    34   Atom       -0.000715      0.000499      0.000216
    35   Atom       -0.003309     -0.000959      0.004267
    36   Atom        0.010337      0.024568     -0.034904
 --------------------------------------------------------
                        XY            XZ            YZ
 --------------------------------------------------------
     1   Atom        0.006474      0.041060      0.007693
     2   Atom       -0.000165     -0.008371     -0.002583
     3   Atom       -0.000054      0.000040      0.000910
     4   Atom        0.000255     -0.000148      0.000322
     5   Atom       -0.000160     -0.000293      0.000294
     6   Atom        0.000059     -0.000163      0.000590
     7   Atom       -0.000319     -0.000221      0.000977
     8   Atom       -0.000161     -0.000116      0.002451
     9   Atom        0.002188      0.002397      0.001221
    10   Atom        0.000551      0.000756      0.000906
    11   Atom        0.000096      0.000620      0.000399
    12   Atom        0.000124      0.000476     -0.000465
    13   Atom        0.000099      0.000655      0.000278
    14   Atom       -0.000229      0.001654     -0.000825
    15   Atom        0.000330      0.000993     -0.001048
    16   Atom       -0.000573     -0.000166     -0.000191
    17   Atom        0.000170      0.000445     -0.000701
    18   Atom       -0.000620     -0.000314     -0.000478
    19   Atom        0.000274      0.000162     -0.001279
    20   Atom       -0.000077     -0.000612     -0.003408
    21   Atom        0.000006     -0.000113      0.000023
    22   Atom       -0.000057     -0.000184      0.000194
    23   Atom       -0.000153     -0.000220      0.000411
    24   Atom       -0.000300     -0.000245      0.000934
    25   Atom        0.000247      0.000149      0.002893
    26   Atom        0.000031      0.000358      0.000364
    27   Atom        0.000086      0.000319      0.000130
    28   Atom        0.000095      0.000361      0.000040
    29   Atom        0.000022      0.000529      0.000015
    30   Atom       -0.000203      0.001778      0.000065
    31   Atom       -0.000051      0.000403     -0.000361
    32   Atom       -0.000034      0.000124     -0.000330
    33   Atom        0.000043     -0.000054     -0.000510
    34   Atom        0.000379     -0.000296     -0.001138
    35   Atom        0.000082      0.000170     -0.004766
    36   Atom        0.000262     -0.027722     -0.003552
 --------------------------------------------------------


 ---------------------------------------------------------------------------------
              Anisotropic Spin Dipole Couplings in Principal Axis System
 ---------------------------------------------------------------------------------

       Atom             a.u.   MegaHertz   Gauss  10(-4) cm-1        Axes

              Baa    -0.0313     2.266     0.809     0.756 -0.2398  0.9700  0.0400
     1 O(17)  Bbb    -0.0280     2.025     0.723     0.675  0.7746  0.2160 -0.5944
              Bcc     0.0593    -4.291    -1.531    -1.431  0.5852  0.1116  0.8032
 
              Baa    -0.0214    -4.627    -1.651    -1.543  0.9698  0.1972  0.1432
     2 P(31)  Bbb    -0.0187    -4.047    -1.444    -1.350 -0.2013  0.9794  0.0147
              Bcc     0.0401     8.674     3.095     2.893 -0.1373 -0.0431  0.9896
 
              Baa    -0.0016    -0.211    -0.075    -0.070  0.9930  0.1128 -0.0362
     3 C(13)  Bbb    -0.0010    -0.139    -0.050    -0.047 -0.1183  0.9597 -0.2549
              Bcc     0.0026     0.351     0.125     0.117  0.0059  0.2574  0.9663
 
              Baa    -0.0009    -0.121    -0.043    -0.040 -0.3228  0.9251 -0.2000
     4 C(13)  Bbb     0.0000     0.001     0.000     0.000  0.9409  0.3365  0.0380
              Bcc     0.0009     0.121     0.043     0.040 -0.1024  0.1759  0.9791
 
              Baa    -0.0005    -0.067    -0.024    -0.022  0.3994  0.9069 -0.1339
     5 C(13)  Bbb    -0.0003    -0.040    -0.014    -0.013  0.8658 -0.3252  0.3803
              Bcc     0.0008     0.107     0.038     0.036 -0.3014  0.2678  0.9151
 
              Baa    -0.0006    -0.086    -0.031    -0.029 -0.2578  0.8141 -0.5204
     6 C(13)  Bbb    -0.0001    -0.013    -0.005    -0.004  0.9579  0.2858 -0.0274
              Bcc     0.0007     0.099     0.035     0.033 -0.1264  0.5056  0.8535
 
              Baa    -0.0009    -0.121    -0.043    -0.040  0.2411  0.8107 -0.5335
     7 C(13)  Bbb    -0.0004    -0.050    -0.018    -0.017  0.9441 -0.0685  0.3224
              Bcc     0.0013     0.171     0.061     0.057 -0.2248  0.5814  0.7819
 
              Baa    -0.0021    -0.278    -0.099    -0.093  0.4806  0.7824 -0.3962
     8 C(13)  Bbb    -0.0019    -0.249    -0.089    -0.083  0.8764 -0.4128  0.2479
              Bcc     0.0039     0.527     0.188     0.176 -0.0304  0.4664  0.8841
 
              Baa    -0.0030    -0.408    -0.145    -0.136 -0.3246  0.9369 -0.1294
     9 C(13)  Bbb    -0.0017    -0.222    -0.079    -0.074 -0.4947 -0.0516  0.8675
              Bcc     0.0047     0.629     0.225     0.210  0.8061  0.3457  0.4803
 
              Baa    -0.0014    -0.182    -0.065    -0.061  0.9083 -0.0583 -0.4141
    10 C(13)  Bbb    -0.0004    -0.052    -0.018    -0.017  0.2754 -0.6618  0.6973
              Bcc     0.0017     0.233     0.083     0.078  0.3147  0.7474  0.5851
 
              Baa    -0.0010    -0.132    -0.047    -0.044  0.0770  0.9378 -0.3386
    11 C(13)  Bbb    -0.0001    -0.018    -0.006    -0.006 -0.6483  0.3051  0.6976
              Bcc     0.0011     0.150     0.053     0.050  0.7575  0.1658  0.6315
 
              Baa    -0.0009    -0.120    -0.043    -0.040 -0.6397  0.2756  0.7175
    12 C(13)  Bbb     0.0001     0.012     0.004     0.004  0.7647  0.3222  0.5580
              Bcc     0.0008     0.108     0.039     0.036 -0.0774  0.9057 -0.4168
 
              Baa    -0.0009    -0.123    -0.044    -0.041  0.0590  0.9555 -0.2890
    13 C(13)  Bbb    -0.0002    -0.033    -0.012    -0.011 -0.5699  0.2699  0.7761
              Bcc     0.0012     0.155     0.055     0.052  0.8196  0.1189  0.5605
 
              Baa    -0.0016    -0.209    -0.074    -0.070 -0.4409  0.6488  0.6202
    14 C(13)  Bbb    -0.0007    -0.099    -0.035    -0.033  0.6049  0.7253 -0.3287
              Bcc     0.0023     0.308     0.110     0.103  0.6631 -0.2302  0.7123
 
              Baa    -0.0019    -0.259    -0.092    -0.086  0.8156 -0.4702 -0.3371
    15 C(13)  Bbb    -0.0006    -0.076    -0.027    -0.025  0.5365  0.8328  0.1363
              Bcc     0.0025     0.335     0.119     0.112  0.2167 -0.2920  0.9315
 
              Baa    -0.0009    -0.126    -0.045    -0.042  0.6596  0.7348  0.1585
    16 C(13)  Bbb     0.0003     0.034     0.012     0.011  0.7453 -0.6666 -0.0111
              Bcc     0.0007     0.091     0.033     0.030 -0.0975 -0.1255  0.9873
 
              Baa    -0.0009    -0.126    -0.045    -0.042  0.7738 -0.4457 -0.4501
    17 C(13)  Bbb    -0.0001    -0.018    -0.006    -0.006  0.6115  0.7110  0.3472
              Bcc     0.0011     0.144     0.051     0.048  0.1653 -0.5439  0.8227
 
              Baa    -0.0010    -0.129    -0.046    -0.043  0.5578  0.6584  0.5054
    18 C(13)  Bbb     0.0003     0.043     0.015     0.014 -0.5149 -0.2031  0.8329
              Bcc     0.0006     0.086     0.031     0.029 -0.6510  0.7247 -0.2257
 
              Baa    -0.0014    -0.182    -0.065    -0.061  0.9113 -0.2927 -0.2897
    19 C(13)  Bbb    -0.0005    -0.073    -0.026    -0.024  0.4106  0.5918  0.6937
              Bcc     0.0019     0.255     0.091     0.085  0.0316  0.7511 -0.6595
 
              Baa    -0.0036    -0.481    -0.171    -0.160  0.7986  0.5390  0.2678
    20 C(13)  Bbb    -0.0030    -0.396    -0.141    -0.132 -0.5994  0.7525  0.2730
              Bcc     0.0065     0.876     0.313     0.292 -0.0544 -0.3785  0.9240
 
              Baa    -0.0005    -0.283    -0.101    -0.094 -0.4089  0.9116 -0.0432
    21 H(1)   Bbb    -0.0005    -0.272    -0.097    -0.091  0.9097  0.4109  0.0607
              Bcc     0.0010     0.555     0.198     0.185 -0.0731  0.0144  0.9972
 
              Baa    -0.0003    -0.165    -0.059    -0.055  0.5536  0.8295 -0.0735
    22 H(1)   Bbb    -0.0003    -0.151    -0.054    -0.050  0.8023 -0.5077  0.3139
              Bcc     0.0006     0.316     0.113     0.105 -0.2231  0.2327  0.9466
 
              Baa    -0.0003    -0.177    -0.063    -0.059  0.2711  0.8432 -0.4642
    23 H(1)   Bbb    -0.0003    -0.167    -0.060    -0.056  0.9171 -0.0799  0.3906
              Bcc     0.0006     0.344     0.123     0.115 -0.2923  0.5316  0.7950
 
              Baa    -0.0007    -0.364    -0.130    -0.121  0.8443  0.4702 -0.2569
    24 H(1)   Bbb    -0.0006    -0.335    -0.120    -0.112  0.4974 -0.5096  0.7021
              Bcc     0.0013     0.699     0.249     0.233 -0.1992  0.7206  0.6642
 
              Baa    -0.0023    -1.210    -0.432    -0.404  0.9491 -0.2757  0.1522
    25 H(1)   Bbb    -0.0019    -1.009    -0.360    -0.337  0.3121  0.7595 -0.5707
              Bcc     0.0042     2.220     0.792     0.740  0.0417  0.5892  0.8069
 
              Baa    -0.0006    -0.294    -0.105    -0.098  0.4583  0.8139 -0.3571
    26 H(1)   Bbb    -0.0004    -0.208    -0.074    -0.069  0.8473 -0.5214 -0.1011
              Bcc     0.0009     0.502     0.179     0.168  0.2685  0.2563  0.9286
 
              Baa    -0.0003    -0.146    -0.052    -0.049 -0.0462  0.9739 -0.2221
    27 H(1)   Bbb    -0.0002    -0.116    -0.041    -0.039  0.8235 -0.0887 -0.5603
              Bcc     0.0005     0.262     0.093     0.087  0.5654  0.2088  0.7980
 
              Baa    -0.0003    -0.151    -0.054    -0.050 -0.5725  0.3913  0.7205
    28 H(1)   Bbb    -0.0002    -0.119    -0.042    -0.040  0.1237  0.9099 -0.3959
              Bcc     0.0005     0.270     0.096     0.090  0.8105  0.1375  0.5694
 
              Baa    -0.0004    -0.238    -0.085    -0.079  0.0219  0.9962 -0.0845
    29 H(1)   Bbb    -0.0004    -0.220    -0.078    -0.073 -0.4727  0.0848  0.8771
              Bcc     0.0009     0.458     0.164     0.153  0.8810  0.0207  0.4727
 
              Baa    -0.0015    -0.814    -0.291    -0.272  0.2756  0.8933 -0.3549
    30 H(1)   Bbb    -0.0011    -0.591    -0.211    -0.197 -0.4897  0.4482  0.7478
              Bcc     0.0026     1.406     0.502     0.469  0.8272 -0.0323  0.5610
 
              Baa    -0.0006    -0.293    -0.105    -0.098 -0.5725  0.7266  0.3799
    31 H(1)   Bbb    -0.0004    -0.226    -0.081    -0.075  0.7666  0.6387 -0.0663
              Bcc     0.0010     0.520     0.185     0.173  0.2908 -0.2532  0.9227
 
              Baa    -0.0003    -0.161    -0.058    -0.054  0.8248 -0.4207 -0.3777
    32 H(1)   Bbb    -0.0002    -0.127    -0.045    -0.042  0.5440  0.7724  0.3277
              Bcc     0.0005     0.288     0.103     0.096  0.1539 -0.4757  0.8660
 
              Baa    -0.0004    -0.187    -0.067    -0.062  0.2931  0.6719  0.6802
    33 H(1)   Bbb    -0.0003    -0.174    -0.062    -0.058  0.9536 -0.2564 -0.1577
              Bcc     0.0007     0.361     0.129     0.120 -0.0685 -0.6948  0.7159
 
              Baa    -0.0008    -0.444    -0.159    -0.148  0.8174 -0.4906 -0.3019
    34 H(1)   Bbb    -0.0008    -0.411    -0.147    -0.137  0.5392  0.4673  0.7006
              Bcc     0.0016     0.855     0.305     0.285  0.2026  0.7355 -0.6466
 
              Baa    -0.0038    -2.043    -0.729    -0.681 -0.2893  0.8222  0.4901
    35 H(1)   Bbb    -0.0033    -1.741    -0.621    -0.581  0.9572  0.2539  0.1391
              Bcc     0.0071     3.783     1.350     1.262  0.0101 -0.5094  0.8605
 
              Baa    -0.0482     1.046     0.373     0.349  0.4275  0.0425  0.9030
    36 Ag(107 Bbb     0.0222    -0.483    -0.172    -0.161  0.7460 -0.5809 -0.3258
              Bcc     0.0260    -0.563    -0.201    -0.188  0.5107  0.8129 -0.2801
 

 ---------------------------------------------------------------------------------

 No NMR shielding tensors so no spin-rotation constants.
 Leave Link  601 at Sat Sep 12 00:13:49 2026, MaxMem=  6442450944 cpu:               1.0 elap:               1.8
 (Enter C:\G16W\l9999.exe)
 Unable to Open any file for archive entry.
 1|1|UNPC-DESKTOP-2JKEGCA|SP|UPBE1PBE|def2SVP|C18H15Ag1O1P1(2)|JHKIM|12
 -Sep-2026|0||#P PBE1PBE/Def2SVP EmpiricalDispersion=GD3BJ SP SCF=(XQC,
 MaxCycle=128) NoSymm Guess=Read||Ph3P=O t=0.250 dz=+0.00 class=toface|
 |0,2|O,0,0.157203,-0.100492,2.626991|P,0,0.069607,-0.044493,1.163304|C
 ,0,1.166792,-1.236526,0.327247|C,0,1.691956,-1.034741,-0.941876|C,0,2.
 506392,-1.999945,-1.50715|C,0,2.795669,-3.162547,-0.810599|C,0,2.27647
 4,-3.361367,0.458551|C,0,1.463446,-2.397796,1.027112|C,0,-1.601084,-0.
 398148,0.524976|C,0,-1.842527,-0.947129,-0.727028|C,0,-3.145051,-1.169
 9,-1.137226|C,0,-4.203253,-0.845855,-0.303131|C,0,-3.962206,-0.303544,
 0.948922|C,0,-2.661381,-0.081191,1.362634|C,0,0.513641,1.583938,0.4742
 47|C,0,0.007445,2.073442,-0.722137|C,0,0.409889,3.31619,-1.178293|C,0,
 1.314314,4.068046,-0.445332|C,0,1.814986,3.5822,0.751795|C,0,1.413441,
 2.341123,1.211398|H,0,1.473765,-0.121933,-1.478618|H,0,2.919456,-1.844
 342,-2.493424|H,0,3.432355,-3.912319,-1.257069|H,0,2.507467,-4.265374,
 1.002736|H,0,1.05567,-2.521752,2.020234|H,0,-1.014865,-1.209302,-1.371
 357|H,0,-3.33617,-1.600225,-2.109779|H,0,-5.217949,-1.022428,-0.628822
 |H,0,-4.787714,-0.056885,1.600396|H,0,-2.444807,0.328765,2.338833|H,0,
 -0.706462,1.489685,-1.286482|H,0,0.015119,3.701451,-2.107435|H,0,1.624
 492,5.037702,-0.806466|H,0,2.515351,4.171781,1.325042|H,0,1.778541,1.9
 43911,2.147808|Ag,0,1.11952554,0.00012742,4.62352152||Version=EM64W-G1
 6RevC.01|HF=-1256.8475063|S2=0.751769|S2-1=0.|S2A=0.750003|RMSD=4.391e
 -009|Dipole=-0.6921186,-0.0108523,-3.0269341|Quadrupole=9.2875279,11.6
 189319,-20.9064598,-0.1142436,-7.7810738,-0.0394645|PG=C01 [X(C18H15Ag
 1O1P1)]||@
 The archive entry for this job was punched.


 THEREFORE SHALL EVIL COME UPON THEE...
 THOU SHALT NOT KNOW FROM WHENCE IT RISETH...
 AND MISCHIEF SHALL FALL UPON THEE...
 THOU SHALT NOT BE ABLE TO PUT IT OFF...
 AND DESOLATION SHALL COME UPON THEE SUDDENLY...
 WHICH THOU SHALT NOT KNOW...

                                         ISAIAH 47.11
 Job cpu time:       0 days  0 hours  7 minutes 44.0 seconds.
 Elapsed time:       0 days  0 hours  7 minutes 42.2 seconds.
 File lengths (MBytes):  RWF=    145 Int=      0 D2E=      0 Chk=     12 Scr=      1
 Normal termination of Gaussian 16 at Sat Sep 12 00:13:50 2026.
