 Entering Gaussian System, Link 0=C:\G16W\g16.exe
 Input=Ph3PO_t3_z1.gjf
 Output=Ph3PO_t3_z1.out
 Initial command:
 C:\G16W\l1.exe ".\Gau-69224.inp" "Ph3PO_t3_z1.out" /scrdir=".\"
 Entering Link 1 = C:\G16W\l1.exe PID=     50848.
  
 Copyright (c) 1988-2019, Gaussian, Inc.  All Rights Reserved.
  
 This is part of the Gaussian(R) 16 program.  It is based on
 the Gaussian(R) 09 system (copyright 2009, Gaussian, Inc.),
 the Gaussian(R) 03 system (copyright 2003, Gaussian, Inc.),
 the Gaussian(R) 98 system (copyright 1998, Gaussian, Inc.),
 the Gaussian(R) 94 system (copyright 1995, Gaussian, Inc.),
 the Gaussian 92(TM) system (copyright 1992, Gaussian, Inc.),
 the Gaussian 90(TM) system (copyright 1990, Gaussian, Inc.),
 the Gaussian 88(TM) system (copyright 1988, Gaussian, Inc.),
 the Gaussian 86(TM) system (copyright 1986, Carnegie Mellon
 University), and the Gaussian 82(TM) system (copyright 1983,
 Carnegie Mellon University). Gaussian is a federally registered
 trademark of Gaussian, Inc.
  
 This software contains proprietary and confidential information,
 including trade secrets, belonging to Gaussian, Inc.
  
 This software is provided under written license and may be
 used, copied, transmitted, or stored only in accord with that
 written license.
  
 The following legend is applicable only to US Government
 contracts under FAR:
  
                    RESTRICTED RIGHTS LEGEND
  
 Use, reproduction and disclosure by the US Government is
 subject to restrictions as set forth in subparagraphs (a)
 and (c) of the Commercial Computer Software - Restricted
 Rights clause in FAR 52.227-19.
  
 Gaussian, Inc.
 340 Quinnipiac St., Bldg. 40, Wallingford CT 06492
  
  
 ---------------------------------------------------------------
 Warning -- This program may not be used in any manner that
 competes with the business of Gaussian, Inc. or will provide
 assistance to any competitor of Gaussian, Inc.  The licensee
 of this program is prohibited from giving any competitor of
 Gaussian, Inc. access to this program.  By using this program,
 the user acknowledges that Gaussian, Inc. is engaged in the
 business of creating and licensing software in the field of
 computational chemistry and represents and warrants to the
 licensee that it is not a competitor of Gaussian, Inc. and that
 it will not use this program in any manner prohibited above.
 ---------------------------------------------------------------
  

 Cite this work as:
 Gaussian 16, Revision C.01,
 M. J. Frisch, G. W. Trucks, H. B. Schlegel, G. E. Scuseria, 
 M. A. Robb, J. R. Cheeseman, G. Scalmani, V. Barone, 
 G. A. Petersson, H. Nakatsuji, X. Li, M. Caricato, A. V. Marenich, 
 J. Bloino, B. G. Janesko, R. Gomperts, B. Mennucci, H. P. Hratchian, 
 J. V. Ortiz, A. F. Izmaylov, J. L. Sonnenberg, D. Williams-Young, 
 F. Ding, F. Lipparini, F. Egidi, J. Goings, B. Peng, A. Petrone, 
 T. Henderson, D. Ranasinghe, V. G. Zakrzewski, J. Gao, N. Rega, 
 G. Zheng, W. Liang, M. Hada, M. Ehara, K. Toyota, R. Fukuda, 
 J. Hasegawa, M. Ishida, T. Nakajima, Y. Honda, O. Kitao, H. Nakai, 
 T. Vreven, K. Throssell, J. A. Montgomery, Jr., J. E. Peralta, 
 F. Ogliaro, M. J. Bearpark, J. J. Heyd, E. N. Brothers, K. N. Kudin, 
 V. N. Staroverov, T. A. Keith, R. Kobayashi, J. Normand, 
 K. Raghavachari, A. P. Rendell, J. C. Burant, S. S. Iyengar, 
 J. Tomasi, M. Cossi, J. M. Millam, M. Klene, C. Adamo, R. Cammi, 
 J. W. Ochterski, R. L. Martin, K. Morokuma, O. Farkas, 
 J. B. Foresman, and D. J. Fox, Gaussian, Inc., Wallingford CT, 2019.
 
 ******************************************
 Gaussian 16:  EM64W-G16RevC.01 30-May-2019
                12-Sep-2026 
 ******************************************
 %Chk=Ph3PO.chk
 %NProcShared=8
 Will use up to    8 processors via shared memory.
 %Mem=48GB
 ----------------------------------------------------------------------
 #P PBE1PBE/Def2SVP EmpiricalDispersion=GD3BJ SP SCF=(XQC,MaxCycle=128)
  NoSymm Guess=Read
 ----------------------------------------------------------------------
 1/38=1,172=1/1;
 2/12=2,15=1,17=6,18=5,40=1/2;
 3/5=43,7=101,11=2,25=1,30=1,74=-13,116=-2,124=41/1,2,3;
 4/5=1/1;
 5/5=2,7=128,8=3,13=1,38=6/2,8;
 6/7=2,8=2,9=2,10=2,28=1/1;
 99/5=1,9=1/99;
 Leave Link    1 at Sat Sep 12 00:42:27 2026, MaxMem=  6442450944 cpu:               0.0 elap:               0.3
 (Enter C:\G16W\l101.exe)
 ------------------------------------
 Ph3P=O t=0.750 dz=+0.40 class=toface
 ------------------------------------
 Symbolic Z-matrix:
 Charge =  0 Multiplicity = 2
 O                     0.1572   -0.10049   2.62699 
 P                     0.06961  -0.04449   1.1633 
 C                     1.16679  -1.23653   0.32725 
 C                     1.69196  -1.03474  -0.94188 
 C                     2.50639  -1.99995  -1.50715 
 C                     2.79567  -3.16255  -0.8106 
 C                     2.27647  -3.36137   0.45855 
 C                     1.46345  -2.3978    1.02711 
 C                    -1.60108  -0.39815   0.52498 
 C                    -1.84253  -0.94713  -0.72703 
 C                    -3.14505  -1.1699   -1.13723 
 C                    -4.20325  -0.84586  -0.30313 
 C                    -3.96221  -0.30354   0.94892 
 C                    -2.66138  -0.08119   1.36263 
 C                     0.51364   1.58394   0.47425 
 C                     0.00745   2.07344  -0.72214 
 C                     0.40989   3.31619  -1.17829 
 C                     1.31431   4.06805  -0.44533 
 C                     1.81499   3.5822    0.7518 
 C                     1.41344   2.34112   1.2114 
 H                     1.47377  -0.12193  -1.47862 
 H                     2.91946  -1.84434  -2.49342 
 H                     3.43236  -3.91232  -1.25707 
 H                     2.50747  -4.26537   1.00274 
 H                     1.05567  -2.52175   2.02023 
 H                    -1.01486  -1.2093   -1.37136 
 H                    -3.33617  -1.60023  -2.10978 
 H                    -5.21795  -1.02243  -0.62882 
 H                    -4.78771  -0.05689   1.6004 
 H                    -2.44481   0.32877   2.33883 
 H                    -0.70646   1.48969  -1.28648 
 H                     0.01512   3.70145  -2.10744 
 H                     1.62449   5.0377   -0.80647 
 H                     2.51535   4.17178   1.32504 
 H                     1.77854   1.94391   2.14781 
 Ag                    3.92467   0.71222   2.20415 
 
 ITRead=  0  0  0  0  0  0  0  0  0  0  0  0  0  0  0  0  0  0  0  0
 ITRead=  0  0  0  0  0  0  0  0  0  0  0  0  0  0  0  0
 MicOpt= -1 -1 -1 -1 -1 -1 -1 -1 -1 -1 -1 -1 -1 -1 -1 -1 -1 -1 -1 -1
 MicOpt= -1 -1 -1 -1 -1 -1 -1 -1 -1 -1 -1 -1 -1 -1 -1 -1
 NAtoms=     36 NQM=       36 NQMF=       0 NMMI=      0 NMMIF=      0
                NMic=       0 NMicF=      0.
                    Isotopes and Nuclear Properties:
 (Nuclear quadrupole moments (NQMom) in fm**2, nuclear magnetic moments (NMagM)
  in nuclear magnetons)

  Atom         1           2           3           4           5           6           7           8           9          10
 IAtWgt=          16          31          12          12          12          12          12          12          12          12
 AtmWgt=  15.9949146  30.9737634  12.0000000  12.0000000  12.0000000  12.0000000  12.0000000  12.0000000  12.0000000  12.0000000
 NucSpn=           0           1           0           0           0           0           0           0           0           0
 AtZEff=   0.0000000   0.0000000   0.0000000   0.0000000   0.0000000   0.0000000   0.0000000   0.0000000   0.0000000   0.0000000
 NQMom=    0.0000000   0.0000000   0.0000000   0.0000000   0.0000000   0.0000000   0.0000000   0.0000000   0.0000000   0.0000000
 NMagM=    0.0000000   1.1316000   0.0000000   0.0000000   0.0000000   0.0000000   0.0000000   0.0000000   0.0000000   0.0000000
 AtZNuc=   8.0000000  15.0000000   6.0000000   6.0000000   6.0000000   6.0000000   6.0000000   6.0000000   6.0000000   6.0000000

  Atom        11          12          13          14          15          16          17          18          19          20
 IAtWgt=          12          12          12          12          12          12          12          12          12          12
 AtmWgt=  12.0000000  12.0000000  12.0000000  12.0000000  12.0000000  12.0000000  12.0000000  12.0000000  12.0000000  12.0000000
 NucSpn=           0           0           0           0           0           0           0           0           0           0
 AtZEff=   0.0000000   0.0000000   0.0000000   0.0000000   0.0000000   0.0000000   0.0000000   0.0000000   0.0000000   0.0000000
 NQMom=    0.0000000   0.0000000   0.0000000   0.0000000   0.0000000   0.0000000   0.0000000   0.0000000   0.0000000   0.0000000
 NMagM=    0.0000000   0.0000000   0.0000000   0.0000000   0.0000000   0.0000000   0.0000000   0.0000000   0.0000000   0.0000000
 AtZNuc=   6.0000000   6.0000000   6.0000000   6.0000000   6.0000000   6.0000000   6.0000000   6.0000000   6.0000000   6.0000000

  Atom        21          22          23          24          25          26          27          28          29          30
 IAtWgt=           1           1           1           1           1           1           1           1           1           1
 AtmWgt=   1.0078250   1.0078250   1.0078250   1.0078250   1.0078250   1.0078250   1.0078250   1.0078250   1.0078250   1.0078250
 NucSpn=           1           1           1           1           1           1           1           1           1           1
 AtZEff=   0.0000000   0.0000000   0.0000000   0.0000000   0.0000000   0.0000000   0.0000000   0.0000000   0.0000000   0.0000000
 NQMom=    0.0000000   0.0000000   0.0000000   0.0000000   0.0000000   0.0000000   0.0000000   0.0000000   0.0000000   0.0000000
 NMagM=    2.7928460   2.7928460   2.7928460   2.7928460   2.7928460   2.7928460   2.7928460   2.7928460   2.7928460   2.7928460
 AtZNuc=   1.0000000   1.0000000   1.0000000   1.0000000   1.0000000   1.0000000   1.0000000   1.0000000   1.0000000   1.0000000

  Atom        31          32          33          34          35          36
 IAtWgt=           1           1           1           1           1         107
 AtmWgt=   1.0078250   1.0078250   1.0078250   1.0078250   1.0078250 106.9050900
 NucSpn=           1           1           1           1           1           1
 AtZEff=   0.0000000   0.0000000   0.0000000   0.0000000   0.0000000   0.0000000
 NQMom=    0.0000000   0.0000000   0.0000000   0.0000000   0.0000000   0.0000000
 NMagM=    2.7928460   2.7928460   2.7928460   2.7928460   2.7928460  -0.1135700
 AtZNuc=   1.0000000   1.0000000   1.0000000   1.0000000   1.0000000  47.0000000
 Leave Link  101 at Sat Sep 12 00:42:28 2026, MaxMem=  6442450944 cpu:               1.0 elap:               0.3
 (Enter C:\G16W\l202.exe)
                          Input orientation:                          
 ---------------------------------------------------------------------
 Center     Atomic      Atomic             Coordinates (Angstroms)
 Number     Number       Type             X           Y           Z
 ---------------------------------------------------------------------
      1          8           0        0.157203   -0.100492    2.626991
      2         15           0        0.069607   -0.044493    1.163304
      3          6           0        1.166792   -1.236526    0.327247
      4          6           0        1.691956   -1.034741   -0.941876
      5          6           0        2.506392   -1.999945   -1.507150
      6          6           0        2.795669   -3.162547   -0.810599
      7          6           0        2.276474   -3.361367    0.458551
      8          6           0        1.463446   -2.397796    1.027112
      9          6           0       -1.601084   -0.398148    0.524976
     10          6           0       -1.842527   -0.947129   -0.727028
     11          6           0       -3.145051   -1.169900   -1.137226
     12          6           0       -4.203253   -0.845855   -0.303131
     13          6           0       -3.962206   -0.303544    0.948922
     14          6           0       -2.661381   -0.081191    1.362634
     15          6           0        0.513641    1.583938    0.474247
     16          6           0        0.007445    2.073442   -0.722137
     17          6           0        0.409889    3.316190   -1.178293
     18          6           0        1.314314    4.068046   -0.445332
     19          6           0        1.814986    3.582200    0.751795
     20          6           0        1.413441    2.341123    1.211398
     21          1           0        1.473765   -0.121933   -1.478618
     22          1           0        2.919456   -1.844342   -2.493424
     23          1           0        3.432355   -3.912319   -1.257069
     24          1           0        2.507467   -4.265374    1.002736
     25          1           0        1.055670   -2.521752    2.020234
     26          1           0       -1.014865   -1.209302   -1.371357
     27          1           0       -3.336170   -1.600225   -2.109779
     28          1           0       -5.217949   -1.022428   -0.628822
     29          1           0       -4.787714   -0.056885    1.600396
     30          1           0       -2.444807    0.328765    2.338833
     31          1           0       -0.706462    1.489685   -1.286482
     32          1           0        0.015119    3.701451   -2.107435
     33          1           0        1.624492    5.037702   -0.806466
     34          1           0        2.515351    4.171781    1.325042
     35          1           0        1.778541    1.943911    2.147808
     36         47           0        3.924672    0.712219    2.204146
 ---------------------------------------------------------------------
                    Distance matrix (angstroms):
                    1          2          3          4          5
     1  O    0.000000
     2  P    1.467375   0.000000
     3  C    2.756568   1.823115   0.000000
     4  C    3.995635   2.836263   1.388232   0.000000
     5  C    5.120325   4.110114   2.396320   1.383640   0.000000
     6  C    5.306101   4.588024   2.767217   2.400620   1.385824
     7  C    4.452724   4.045812   2.400747   2.777777   2.402147
     8  C    3.089254   2.738498   1.387935   2.405629   2.769207
     9  C    2.756563   1.823114   2.898812   3.660740   4.854549
    10  C    3.995642   2.836259   3.201757   3.542091   4.542038
    11  C    5.120336   4.110110   4.554241   4.842837   5.724039
    12  C    5.306106   4.588022   5.421013   5.932720   6.913821
    13  C    4.452716   4.045811   5.250101   6.006606   7.124102
    14  C    3.089237   2.738499   4.130585   5.017127   6.214753
    15  C    2.756567   1.823116   2.898833   3.201767   4.554252
    16  C    3.995632   2.836265   3.660762   3.542127   4.842878
    17  C    5.120327   4.110117   4.854562   4.542047   5.724051
    18  C    5.306108   4.588026   5.362567   5.140779   6.274474
    19  C    4.452732   4.045811   4.880627   4.919329   6.061453
    20  C    3.089259   2.738497   3.693526   4.013803   5.237358
    21  H    4.311591   2.992893   2.144224   1.081165   2.143376
    22  H    6.073690   4.973204   3.376012   2.137642   1.080542
    23  H    6.351580   5.668012   3.847428   3.377690   2.139421
    24  H    5.050563   4.876964   3.380476   3.857922   3.381079
    25  H    2.652904   2.800618   2.128464   3.374931   3.849586
    26  H    4.311611   2.992886   2.765072   2.746235   3.611483
    27  H    6.073701   4.973197   5.133034   5.192862   5.887144
    28  H    6.351578   5.668009   6.459475   6.917004   7.835333
    29  H    5.050545   4.876963   6.202306   7.028903   8.163106
    30  H    2.652876   2.800619   4.420437   5.452982   6.687963
    31  H    4.311595   2.992898   3.680411   3.499127   4.748541
    32  H    6.073693   4.973208   5.624735   5.157696   6.250816
    33  H    6.351583   5.668013   6.392240   6.074327   7.127214
    34  H    5.050569   4.876965   5.662507   5.738011   6.790552
    35  H    2.652911   2.800617   3.715354   4.292553   5.426093
    36  Ag   3.877256   4.064171   3.863452   4.234896   4.810517
                    6          7          8          9         10
     6  C    0.000000
     7  C    1.385581   0.000000
     8  C    2.395171   1.383020   0.000000
     9  C    5.362565   4.880629   3.693518   0.000000
    10  C    5.140810   4.919381   4.013838   1.388232   0.000000
    11  C    6.274510   6.061515   5.237397   2.396320   1.383639
    12  C    7.389824   6.992483   6.024080   2.767216   2.400619
    13  C    7.545773   6.965047   5.816331   2.400745   2.777778
    14  C    6.633030   5.996610   4.742724   1.387935   2.405630
    15  C    5.421033   5.250130   4.130617   2.898845   3.660723
    16  C    5.932756   6.006635   5.017149   3.201783   3.542071
    17  C    6.913840   7.124126   6.214775   4.554278   4.842820
    18  C    7.389811   7.545789   6.633057   5.421064   5.932704
    19  C    6.992455   6.965062   5.996643   5.250157   6.006591
    20  C    6.024069   5.816356   4.742765   4.130635   5.017113
    21  H    3.382161   3.858873   3.385017   3.680405   3.499090
    22  H    2.141235   3.380673   3.849734   5.624722   5.157677
    23  H    1.080214   2.140785   3.374591   6.392229   6.074346
    24  H    2.141838   1.080150   2.139725   5.662498   5.738056
    25  H    3.384055   2.152712   1.080712   3.715351   4.292602
    26  H    4.318540   4.337379   3.647903   2.144225   1.081166
    27  H    6.459734   6.418700   5.789000   3.376010   2.137640
    28  H    8.296459   7.925869   7.019601   3.847426   3.377690
    29  H    8.541998   7.882015   6.699666   3.380473   3.857922
    30  H    7.040651   6.280369   4.942589   2.128461   3.374930
    31  H    5.842487   5.956153   5.017343   2.765075   2.746215
    32  H    7.518491   7.847382   7.008841   5.133070   5.192848
    33  H    8.283463   8.518786   7.659933   6.459531   6.916989
    34  H    7.644077   7.586579   6.659926   6.202370   7.028893
    35  H    5.988542   5.589946   4.495071   4.420485   5.452974
    36  Ag   5.037574   4.728400   4.137057   5.881029   6.678757
                   11         12         13         14         15
    11  C    0.000000
    12  C    1.385825   0.000000
    13  C    2.402151   1.385583   0.000000
    14  C    2.769210   2.395173   1.383020   0.000000
    15  C    4.854534   5.362583   4.880688   3.693596   0.000000
    16  C    4.542004   5.140801   4.919414   4.013894   1.388230
    17  C    5.724010   6.274520   6.061578   5.237481   2.396320
    18  C    6.913807   7.389871   6.992597   6.024206   2.767218
    19  C    7.124101   7.545843   6.965186   5.816478   2.400746
    20  C    6.214754   6.633090   5.996727   4.742853   1.387934
    21  H    4.748499   5.842462   5.956149   5.017350   2.765053
    22  H    6.250791   7.518467   7.847361   7.008825   5.133042
    23  H    7.127236   8.283460   8.518755   7.659896   6.459504
    24  H    6.790608   7.644093   7.586545   6.659873   6.202346
    25  H    5.426151   5.988566   5.589923   4.495024   4.420471
    26  H    2.143376   3.382162   3.858874   3.385019   3.680323
    27  H    1.080539   2.141234   3.380674   3.849735   5.624689
    28  H    2.139423   1.080213   2.140785   3.374591   6.392263
    29  H    3.381082   2.141841   1.080149   2.139723   5.662586
    30  H    3.849588   3.384056   2.152712   1.080709   3.715448
    31  H    3.611424   4.318480   4.337346   3.647900   2.144225
    32  H    5.887108   6.459734   6.418755   5.789077   3.376014
    33  H    7.835322   8.296517   7.926001   7.019741   3.847428
    34  H    8.163116   8.542087   7.882179   6.699831   3.380477
    35  H    6.687976   7.040721   6.280490   4.942716   2.128464
    36  Ag   8.042892   8.647381   8.050478   6.686833   3.922700
                   16         17         18         19         20
    16  C    0.000000
    17  C    1.383641   0.000000
    18  C    2.400619   1.385822   0.000000
    19  C    2.777774   2.402145   1.385580   0.000000
    20  C    2.405626   2.769205   2.395171   1.383020   0.000000
    21  H    2.746276   3.611470   4.318452   4.337254   3.647803
    22  H    5.192908   5.887154   6.459682   6.418618   5.788947
    23  H    6.917044   7.835359   8.296459   7.925858   7.019607
    24  H    7.028932   8.163139   8.542037   7.882063   6.699719
    25  H    5.452998   6.687987   7.040692   6.280424   4.942648
    26  H    3.499002   4.748397   5.842345   5.956032   5.017251
    27  H    5.157629   6.250741   7.518423   7.847327   7.008798
    28  H    6.074361   7.127278   8.283541   8.518854   7.659975
    29  H    5.738118   6.790716   7.644266   7.586746   6.660036
    30  H    4.292665   5.426248   5.988722   5.590113   4.495194
    31  H    1.081166   2.143377   3.382161   3.858872   3.385017
    32  H    2.137644   1.080543   2.141235   3.380671   3.849734
    33  H    3.377690   2.139420   1.080213   2.140783   3.374590
    34  H    3.857922   3.381079   2.141839   1.080152   2.139726
    35  H    3.374929   3.849585   3.384055   2.152713   1.080712
    36  Ag   5.075502   5.529490   5.009518   3.846672   3.153594
                   21         22         23         24         25
    21  H    0.000000
    22  H    2.467093   0.000000
    23  H    4.272258   2.463365   0.000000
    24  H    4.939004   4.272501   2.467141   0.000000
    25  H    4.263320   4.930080   4.280540   2.486611   0.000000
    26  H    2.717932   4.140192   5.205490   5.232850   4.184797
    27  H    5.071409   6.272131   7.203181   7.137147   6.098728
    28  H    6.805298   8.388662   9.141877   8.535850   6.973074
    29  H    6.977871   8.908133   9.518351   8.443237   6.355861
    30  H    5.489196   7.539789   8.090633   6.885948   4.525516
    31  H    2.718017   5.071462   6.805315   6.977862   5.489181
    32  H    4.140208   6.272159   8.388690   8.908157   7.539805
    33  H    5.205415   7.203144   9.141897   9.518407   8.090682
    34  H    5.232723   7.137067   8.535858   8.443313   6.886025
    35  H    4.184682   6.098654   6.973071   6.355922   4.525590
    36  Ag   4.501723   5.441841   5.797305   5.313030   4.327074
                   26         27         28         29         30
    26  H    0.000000
    27  H    2.467092   0.000000
    28  H    4.272259   2.463367   0.000000
    29  H    4.939005   4.272502   2.467142   0.000000
    30  H    4.263320   4.930079   4.280539   2.486610   0.000000
    31  H    2.717875   4.140136   5.205453   5.232835   4.184792
    32  H    5.071309   6.272074   7.203217   7.137248   6.098815
    33  H    6.805172   8.388615   9.141976   8.536052   6.973248
    34  H    6.977754   8.908106   9.518473   8.443471   6.356077
    35  H    5.489116   7.539776   8.090718   6.886113   4.525688
    36  Ag   6.393394   8.756550   9.727395   8.767080   6.382432
                   31         32         33         34         35
    31  H    0.000000
    32  H    2.467094   0.000000
    33  H    4.272258   2.463365   0.000000
    34  H    4.939006   4.272501   2.467139   0.000000
    35  H    4.263321   4.930081   4.280538   2.486612   0.000000
    36  Ag   5.851182   6.542923   5.750166   3.837652   2.475099
                   36
    36  Ag   0.000000
 Symmetry turned off by external request.
 Stoichiometry    C18H15AgOP(2)
 Framework group  C1[X(C18H15AgOP)]
 Deg. of freedom   102
 Full point group                 C1      NOp   1
 Rotational constants (GHZ):           0.3019054           0.1653645           0.1344828
 Leave Link  202 at Sat Sep 12 00:42:28 2026, MaxMem=  6442450944 cpu:               0.0 elap:               0.1
 (Enter C:\G16W\l301.exe)
 Standard basis: def2SVP (5D, 7F)
 Ernie: Thresh=  0.10000D-02 Tol=  0.10000D-05 Strict=F.
   390 basis functions,   682 primitive gaussians,   415 cartesian basis functions
    83 alpha electrons       82 beta electrons
       nuclear repulsion energy      1890.2331722693 Hartrees.
 IExCor= 1009 DFT=T Ex+Corr=PBE1PBE ExCW=0 ScaHFX=  0.250000
 ScaDFX=  0.750000  0.750000  1.000000  1.000000 ScalE2=  1.000000  1.000000
 IRadAn=      5 IRanWt=     -1 IRanGd=            0 ICorTp=0 IEmpDi=141
 NAtoms=   36 NActive=   36 NUniq=   36 SFac= 1.00D+00 NAtFMM=   60 NAOKFM=F Big=F
 Integral buffers will be    131072 words long.
 Raffenetti 2 integral format.
 Two-electron integral symmetry is turned off.
 R6Disp:  Grimme-D3(BJ) Dispersion energy=       -0.0539383998 Hartrees.
 Nuclear repulsion after empirical dispersion term =     1890.1792338696 Hartrees.
 Leave Link  301 at Sat Sep 12 00:42:29 2026, MaxMem=  6442450944 cpu:               1.0 elap:               0.5
 (Enter C:\G16W\l302.exe)
 NPDir=0 NMtPBC=     1 NCelOv=     1 NCel=       1 NClECP=     1 NCelD=      1
         NCelK=      1 NCelE2=     1 NClLst=     1 CellRange=     0.0.
 One-electron integrals computed using PRISM.
   1 Symmetry operations used in ECPInt.
 ECPInt:  NShTT=   15931 NPrTT=   58300 LenC2=   14736 LenP2D=   37491.
 LDataN:  DoStor=T MaxTD1= 7 Len=  274
 NBasis=   390 RedAO= T EigKep=  2.58D-04  NBF=   390
 NBsUse=   390 1.00D-06 EigRej= -1.00D+00 NBFU=   390
 Precomputing XC quadrature grid using
 IXCGrd= 4 IRadAn=           5 IRanWt=          -1 IRanGd=           0 AccXCQ= 0.00D+00.
 Defaulting to unpruned grid for atomic number  47.
 Generated NRdTot=       0 NPtTot=           0 NUsed=           0 NTot=          32
 NSgBfM=   412   412   412   412   412 MxSgAt=    36 MxSgA2=    36.
 Leave Link  302 at Sat Sep 12 00:42:36 2026, MaxMem=  6442450944 cpu:               7.0 elap:               7.3
 (Enter C:\G16W\l303.exe)
 DipDrv:  MaxL=1.
 Leave Link  303 at Sat Sep 12 00:42:38 2026, MaxMem=  6442450944 cpu:               2.0 elap:               1.4
 (Enter C:\G16W\l401.exe)
 Initial guess from the checkpoint file:  "Ph3PO.chk"
 B after Tr=     0.163995    0.030832    0.071015
         Rot=    0.999997    0.000507   -0.002416   -0.000123 Ang=   0.28 deg.
 Guess basis will be translated and rotated to current coordinates.
 JPrj=2 DoOrth=T DoCkMO=T.
 Initial guess <Sx>= 0.0000 <Sy>= 0.0000 <Sz>= 0.5000 <S**2>= 0.7518 S= 0.5009
 Leave Link  401 at Sat Sep 12 00:43:01 2026, MaxMem=  6442450944 cpu:              23.0 elap:              23.1
 (Enter C:\G16W\l502.exe)
 Two-electron integral symmetry not used.
 UHF open shell SCF:
 Using DIIS extrapolation, IDIIS=  1040.
 NGot=  6442450944 LenX=  6442098989 LenY=  6441926323
 Requested convergence on RMS density matrix=1.00D-08 within 128 cycles.
 Requested convergence on MAX density matrix=1.00D-06.
 Requested convergence on             energy=1.00D-06.
 No special actions if energy rises.
 Fock matrices will be formed incrementally for  20 cycles.

 Cycle   1  Pass 1  IDiag  1:
 FoFJK:  IHMeth= 1 ICntrl=       0 DoSepK=F KAlg= 0 I1Cent=           0 FoldK=F
 IRaf= 860000000 NMat=       1 IRICut=       1 DoRegI=T DoRafI=F ISym2E= 0 IDoP0=0 IntGTp=1.
 FoFCou: FMM=F IPFlag=           0 FMFlag=      100000 FMFlg1=           0
         NFxFlg=           0 DoJE=F BraDBF=F KetDBF=F FulRan=T
         wScrn=  0.000000 ICntrl=         0 IOpCl=  1 I1Cent=           0 NGrid=           0
         NMat0=    1 NMatS0=      1 NMatT0=    0 NMatD0=    1 NMtDS0=    0 NMtDT0=    0
 Symmetry not used in FoFCou.
 Defaulting to unpruned grid for atomic number  47.
 Defaulting to unpruned grid for atomic number  47.
 Defaulting to unpruned grid for atomic number  47.
 Defaulting to unpruned grid for atomic number  47.
 Defaulting to unpruned grid for atomic number  47.
 Defaulting to unpruned grid for atomic number  47.
 Defaulting to unpruned grid for atomic number  47.
 Defaulting to unpruned grid for atomic number  47.
 E= -1256.84127588984    
 DIIS: error= 3.02D-03 at cycle   1 NSaved=   1.
 NSaved= 1 IEnMin= 1 EnMin= -1256.84127588984     IErMin= 1 ErrMin= 3.02D-03
 ErrMax= 3.02D-03  0.00D+00 EMaxC= 1.00D-01 BMatC= 1.54D-02 BMatP= 1.54D-02
 IDIUse=3 WtCom= 9.70D-01 WtEn= 3.02D-02
 Coeff-Com:  0.100D+01
 Coeff-En:   0.100D+01
 Coeff:      0.100D+01
 Gap=     0.138 Goal=   None    Shift=    0.000
 Gap=     0.209 Goal=   None    Shift=    0.000
 GapD=    0.138 DampG=1.000 DampE=1.000 DampFc=1.0000 IDamp=-1.
 RMSDP=3.98D-04 MaxDP=2.36D-02              OVMax= 3.50D-02

 Cycle   2  Pass 1  IDiag  1:
 RMSU=  3.98D-04    CP:  1.00D+00
 E= -1256.84358670902     Delta-E=       -0.002310819186 Rises=F Damp=F
 DIIS: error= 3.76D-04 at cycle   2 NSaved=   2.
 NSaved= 2 IEnMin= 2 EnMin= -1256.84358670902     IErMin= 2 ErrMin= 3.76D-04
 ErrMax= 3.76D-04  0.00D+00 EMaxC= 1.00D-01 BMatC= 2.14D-04 BMatP= 1.54D-02
 IDIUse=3 WtCom= 9.96D-01 WtEn= 3.76D-03
 Coeff-Com:  0.856D-02 0.991D+00
 Coeff-En:   0.000D+00 0.100D+01
 Coeff:      0.853D-02 0.991D+00
 Gap=     0.138 Goal=   None    Shift=    0.000
 Gap=     0.190 Goal=   None    Shift=    0.000
 RMSDP=7.40D-05 MaxDP=5.69D-03 DE=-2.31D-03 OVMax= 1.18D-02

 Cycle   3  Pass 1  IDiag  1:
 RMSU=  7.23D-05    CP:  1.00D+00  1.04D+00
 E= -1256.84356289351     Delta-E=        0.000023815515 Rises=F Damp=F
 DIIS: error= 5.13D-04 at cycle   3 NSaved=   3.
 NSaved= 3 IEnMin= 2 EnMin= -1256.84358670902     IErMin= 2 ErrMin= 3.76D-04
 ErrMax= 5.13D-04  0.00D+00 EMaxC= 1.00D-01 BMatC= 4.30D-04 BMatP= 2.14D-04
 IDIUse=3 WtCom= 3.06D-01 WtEn= 6.94D-01
 Coeff-Com: -0.781D-02 0.596D+00 0.411D+00
 Coeff-En:   0.000D+00 0.568D+00 0.432D+00
 Coeff:     -0.239D-02 0.577D+00 0.426D+00
 Gap=     0.138 Goal=   None    Shift=    0.000
 Gap=     0.190 Goal=   None    Shift=    0.000
 RMSDP=4.25D-05 MaxDP=1.55D-03 DE= 2.38D-05 OVMax= 3.55D-03

 Cycle   4  Pass 1  IDiag  1:
 RMSU=  2.32D-05    CP:  1.00D+00  1.06D+00  5.26D-01
 E= -1256.84367164878     Delta-E=       -0.000108755274 Rises=F Damp=F
 DIIS: error= 8.62D-05 at cycle   4 NSaved=   4.
 NSaved= 4 IEnMin= 4 EnMin= -1256.84367164878     IErMin= 4 ErrMin= 8.62D-05
 ErrMax= 8.62D-05  0.00D+00 EMaxC= 1.00D-01 BMatC= 2.18D-05 BMatP= 2.14D-04
 IDIUse=1 WtCom= 1.00D+00 WtEn= 0.00D+00
 Coeff-Com: -0.477D-02 0.244D+00 0.230D+00 0.531D+00
 Coeff:     -0.477D-02 0.244D+00 0.230D+00 0.531D+00
 Gap=     0.138 Goal=   None    Shift=    0.000
 Gap=     0.190 Goal=   None    Shift=    0.000
 RMSDP=9.73D-06 MaxDP=7.78D-04 DE=-1.09D-04 OVMax= 1.07D-03

 Cycle   5  Pass 1  IDiag  1:
 RMSU=  7.54D-06    CP:  1.00D+00  1.07D+00  6.04D-01  9.13D-01
 E= -1256.84367823592     Delta-E=       -0.000006587136 Rises=F Damp=F
 DIIS: error= 3.97D-05 at cycle   5 NSaved=   5.
 NSaved= 5 IEnMin= 5 EnMin= -1256.84367823592     IErMin= 5 ErrMin= 3.97D-05
 ErrMax= 3.97D-05  0.00D+00 EMaxC= 1.00D-01 BMatC= 2.31D-06 BMatP= 2.18D-05
 IDIUse=1 WtCom= 1.00D+00 WtEn= 0.00D+00
 Coeff-Com: -0.360D-03-0.283D-01-0.650D-02 0.217D+00 0.819D+00
 Coeff:     -0.360D-03-0.283D-01-0.650D-02 0.217D+00 0.819D+00
 Gap=     0.138 Goal=   None    Shift=    0.000
 Gap=     0.190 Goal=   None    Shift=    0.000
 RMSDP=5.76D-06 MaxDP=4.77D-04 DE=-6.59D-06 OVMax= 8.36D-04

 Cycle   6  Pass 1  IDiag  1:
 RMSU=  3.93D-06    CP:  1.00D+00  1.07D+00  6.13D-01  1.08D+00  9.74D-01
 E= -1256.84367930350     Delta-E=       -0.000001067585 Rises=F Damp=F
 DIIS: error= 2.73D-05 at cycle   6 NSaved=   6.
 NSaved= 6 IEnMin= 6 EnMin= -1256.84367930350     IErMin= 6 ErrMin= 2.73D-05
 ErrMax= 2.73D-05  0.00D+00 EMaxC= 1.00D-01 BMatC= 1.28D-06 BMatP= 2.31D-06
 IDIUse=1 WtCom= 1.00D+00 WtEn= 0.00D+00
 Coeff-Com:  0.509D-03-0.559D-01-0.433D-01 0.485D-01 0.544D+00 0.506D+00
 Coeff:      0.509D-03-0.559D-01-0.433D-01 0.485D-01 0.544D+00 0.506D+00
 Gap=     0.138 Goal=   None    Shift=    0.000
 Gap=     0.190 Goal=   None    Shift=    0.000
 RMSDP=2.71D-06 MaxDP=1.78D-04 DE=-1.07D-06 OVMax= 3.04D-04

 Cycle   7  Pass 1  IDiag  1:
 RMSU=  1.90D-06    CP:  1.00D+00  1.07D+00  6.20D-01  1.11D+00  1.14D+00
                    CP:  7.67D-01
 E= -1256.84367974009     Delta-E=       -0.000000436586 Rises=F Damp=F
 DIIS: error= 9.38D-06 at cycle   7 NSaved=   7.
 NSaved= 7 IEnMin= 7 EnMin= -1256.84367974009     IErMin= 7 ErrMin= 9.38D-06
 ErrMax= 9.38D-06  0.00D+00 EMaxC= 1.00D-01 BMatC= 1.78D-07 BMatP= 1.28D-06
 IDIUse=1 WtCom= 1.00D+00 WtEn= 0.00D+00
 Coeff-Com:  0.334D-03-0.208D-01-0.203D-01-0.206D-01 0.124D+00 0.264D+00
 Coeff-Com:  0.673D+00
 Coeff:      0.334D-03-0.208D-01-0.203D-01-0.206D-01 0.124D+00 0.264D+00
 Coeff:      0.673D+00
 Gap=     0.138 Goal=   None    Shift=    0.000
 Gap=     0.190 Goal=   None    Shift=    0.000
 RMSDP=1.31D-06 MaxDP=1.02D-04 DE=-4.37D-07 OVMax= 1.54D-04

 Cycle   8  Pass 1  IDiag  1:
 RMSU=  8.80D-07    CP:  1.00D+00  1.07D+00  6.25D-01  1.13D+00  1.18D+00
                    CP:  9.70D-01  1.03D+00
 E= -1256.84367986157     Delta-E=       -0.000000121480 Rises=F Damp=F
 DIIS: error= 7.15D-06 at cycle   8 NSaved=   8.
 NSaved= 8 IEnMin= 8 EnMin= -1256.84367986157     IErMin= 8 ErrMin= 7.15D-06
 ErrMax= 7.15D-06  0.00D+00 EMaxC= 1.00D-01 BMatC= 5.98D-08 BMatP= 1.78D-07
 IDIUse=1 WtCom= 1.00D+00 WtEn= 0.00D+00
 Coeff-Com: -0.777D-04 0.159D-01 0.920D-02-0.386D-01-0.203D+00-0.111D+00
 Coeff-Com:  0.341D+00 0.986D+00
 Coeff:     -0.777D-04 0.159D-01 0.920D-02-0.386D-01-0.203D+00-0.111D+00
 Coeff:      0.341D+00 0.986D+00
 Gap=     0.138 Goal=   None    Shift=    0.000
 Gap=     0.190 Goal=   None    Shift=    0.000
 RMSDP=1.30D-06 MaxDP=9.69D-05 DE=-1.21D-07 OVMax= 2.02D-04

 Cycle   9  Pass 1  IDiag  1:
 RMSU=  6.23D-07    CP:  1.00D+00  1.07D+00  6.27D-01  1.14D+00  1.22D+00
                    CP:  1.09D+00  1.45D+00  1.43D+00
 E= -1256.84367995101     Delta-E=       -0.000000089443 Rises=F Damp=F
 DIIS: error= 3.82D-06 at cycle   9 NSaved=   9.
 NSaved= 9 IEnMin= 9 EnMin= -1256.84367995101     IErMin= 9 ErrMin= 3.82D-06
 ErrMax= 3.82D-06  0.00D+00 EMaxC= 1.00D-01 BMatC= 1.61D-08 BMatP= 5.98D-08
 IDIUse=1 WtCom= 1.00D+00 WtEn= 0.00D+00
 Coeff-Com: -0.108D-03 0.971D-02 0.805D-02-0.354D-02-0.895D-01-0.985D-01
 Coeff-Com: -0.740D-01 0.308D+00 0.940D+00
 Coeff:     -0.108D-03 0.971D-02 0.805D-02-0.354D-02-0.895D-01-0.985D-01
 Coeff:     -0.740D-01 0.308D+00 0.940D+00
 Gap=     0.138 Goal=   None    Shift=    0.000
 Gap=     0.190 Goal=   None    Shift=    0.000
 RMSDP=7.11D-07 MaxDP=3.57D-05 DE=-8.94D-08 OVMax= 1.06D-04

 Cycle  10  Pass 1  IDiag  1:
 RMSU=  3.66D-07    CP:  1.00D+00  1.07D+00  6.26D-01  1.15D+00  1.24D+00
                    CP:  1.15D+00  1.61D+00  1.83D+00  1.45D+00
 E= -1256.84367997778     Delta-E=       -0.000000026766 Rises=F Damp=F
 DIIS: error= 2.13D-06 at cycle  10 NSaved=  10.
 NSaved=10 IEnMin=10 EnMin= -1256.84367997778     IErMin=10 ErrMin= 2.13D-06
 ErrMax= 2.13D-06  0.00D+00 EMaxC= 1.00D-01 BMatC= 9.87D-09 BMatP= 1.61D-08
 IDIUse=1 WtCom= 1.00D+00 WtEn= 0.00D+00
 Coeff-Com: -0.416D-04-0.940D-03 0.198D-02 0.204D-01 0.423D-01-0.178D-01
 Coeff-Com: -0.241D+00-0.290D+00 0.656D+00 0.830D+00
 Coeff:     -0.416D-04-0.940D-03 0.198D-02 0.204D-01 0.423D-01-0.178D-01
 Coeff:     -0.241D+00-0.290D+00 0.656D+00 0.830D+00
 Gap=     0.138 Goal=   None    Shift=    0.000
 Gap=     0.190 Goal=   None    Shift=    0.000
 RMSDP=5.83D-07 MaxDP=2.74D-05 DE=-2.68D-08 OVMax= 9.17D-05

 Cycle  11  Pass 1  IDiag  1:
 RMSU=  2.14D-07    CP:  1.00D+00  1.07D+00  6.27D-01  1.15D+00  1.24D+00
                    CP:  1.18D+00  1.72D+00  2.15D+00  2.07D+00  1.11D+00
 E= -1256.84367999027     Delta-E=       -0.000000012495 Rises=F Damp=F
 DIIS: error= 9.54D-07 at cycle  11 NSaved=  11.
 NSaved=11 IEnMin=11 EnMin= -1256.84367999027     IErMin=11 ErrMin= 9.54D-07
 ErrMax= 9.54D-07  0.00D+00 EMaxC= 1.00D-01 BMatC= 2.08D-09 BMatP= 9.87D-09
 IDIUse=1 WtCom= 1.00D+00 WtEn= 0.00D+00
 Coeff-Com:  0.908D-05-0.342D-02-0.945D-03 0.124D-01 0.475D-01 0.149D-01
 Coeff-Com: -0.113D+00-0.238D+00 0.829D-01 0.445D+00 0.753D+00
 Coeff:      0.908D-05-0.342D-02-0.945D-03 0.124D-01 0.475D-01 0.149D-01
 Coeff:     -0.113D+00-0.238D+00 0.829D-01 0.445D+00 0.753D+00
 Gap=     0.138 Goal=   None    Shift=    0.000
 Gap=     0.190 Goal=   None    Shift=    0.000
 RMSDP=2.58D-07 MaxDP=1.29D-05 DE=-1.25D-08 OVMax= 3.89D-05

 Cycle  12  Pass 1  IDiag  1:
 RMSU=  9.55D-08    CP:  1.00D+00  1.07D+00  6.27D-01  1.15D+00  1.24D+00
                    CP:  1.19D+00  1.76D+00  2.31D+00  2.29D+00  1.42D+00
                    CP:  1.07D+00
 E= -1256.84367999218     Delta-E=       -0.000000001911 Rises=F Damp=F
 DIIS: error= 4.56D-07 at cycle  12 NSaved=  12.
 NSaved=12 IEnMin=12 EnMin= -1256.84367999218     IErMin=12 ErrMin= 4.56D-07
 ErrMax= 4.56D-07  0.00D+00 EMaxC= 1.00D-01 BMatC= 3.28D-10 BMatP= 2.08D-09
 IDIUse=1 WtCom= 1.00D+00 WtEn= 0.00D+00
 Coeff-Com:  0.117D-04-0.177D-02-0.869D-03 0.329D-02 0.181D-01 0.945D-02
 Coeff-Com: -0.233D-01-0.780D-01-0.476D-01 0.100D+00 0.374D+00 0.647D+00
 Coeff:      0.117D-04-0.177D-02-0.869D-03 0.329D-02 0.181D-01 0.945D-02
 Coeff:     -0.233D-01-0.780D-01-0.476D-01 0.100D+00 0.374D+00 0.647D+00
 Gap=     0.138 Goal=   None    Shift=    0.000
 Gap=     0.190 Goal=   None    Shift=    0.000
 RMSDP=6.37D-08 MaxDP=4.57D-06 DE=-1.91D-09 OVMax= 7.40D-06

 Cycle  13  Pass 1  IDiag  1:
 RMSU=  2.79D-08    CP:  1.00D+00  1.07D+00  6.27D-01  1.15D+00  1.24D+00
                    CP:  1.20D+00  1.77D+00  2.33D+00  2.34D+00  1.47D+00
                    CP:  1.24D+00  1.01D+00
 E= -1256.84367999241     Delta-E=       -0.000000000227 Rises=F Damp=F
 DIIS: error= 1.58D-07 at cycle  13 NSaved=  13.
 NSaved=13 IEnMin=13 EnMin= -1256.84367999241     IErMin=13 ErrMin= 1.58D-07
 ErrMax= 1.58D-07  0.00D+00 EMaxC= 1.00D-01 BMatC= 3.01D-11 BMatP= 3.28D-10
 IDIUse=1 WtCom= 1.00D+00 WtEn= 0.00D+00
 Coeff-Com:  0.227D-05 0.460D-04-0.127D-03-0.916D-03-0.163D-02 0.627D-03
 Coeff-Com:  0.113D-01 0.129D-01-0.294D-01-0.428D-01-0.423D-02 0.219D+00
 Coeff-Com:  0.836D+00
 Coeff:      0.227D-05 0.460D-04-0.127D-03-0.916D-03-0.163D-02 0.627D-03
 Coeff:      0.113D-01 0.129D-01-0.294D-01-0.428D-01-0.423D-02 0.219D+00
 Coeff:      0.836D+00
 Gap=     0.138 Goal=   None    Shift=    0.000
 Gap=     0.190 Goal=   None    Shift=    0.000
 RMSDP=2.58D-08 MaxDP=3.19D-06 DE=-2.27D-10 OVMax= 4.51D-06

 Cycle  14  Pass 1  IDiag  1:
 RMSU=  1.13D-08    CP:  1.00D+00  1.07D+00  6.27D-01  1.15D+00  1.24D+00
                    CP:  1.20D+00  1.77D+00  2.33D+00  2.35D+00  1.49D+00
                    CP:  1.30D+00  1.16D+00  9.39D-01
 E= -1256.84367999241     Delta-E=        0.000000000000 Rises=F Damp=F
 DIIS: error= 7.79D-08 at cycle  14 NSaved=  14.
 NSaved=14 IEnMin=13 EnMin= -1256.84367999241     IErMin=14 ErrMin= 7.79D-08
 ErrMax= 7.79D-08  0.00D+00 EMaxC= 1.00D-01 BMatC= 8.27D-12 BMatP= 3.01D-11
 IDIUse=1 WtCom= 1.00D+00 WtEn= 0.00D+00
 Coeff-Com: -0.366D-06 0.239D-03 0.274D-04-0.904D-03-0.305D-02-0.698D-03
 Coeff-Com:  0.866D-02 0.160D-01-0.972D-02-0.340D-01-0.471D-01 0.385D-01
 Coeff-Com:  0.445D+00 0.587D+00
 Coeff:     -0.366D-06 0.239D-03 0.274D-04-0.904D-03-0.305D-02-0.698D-03
 Coeff:      0.866D-02 0.160D-01-0.972D-02-0.340D-01-0.471D-01 0.385D-01
 Coeff:      0.445D+00 0.587D+00
 Gap=     0.138 Goal=   None    Shift=    0.000
 Gap=     0.190 Goal=   None    Shift=    0.000
 RMSDP=8.39D-09 MaxDP=7.75D-07 DE= 4.55D-13 OVMax= 1.08D-06

 SCF Done:  E(UPBE1PBE) =  -1256.84367999     A.U. after   14 cycles
            NFock= 14  Conv=0.84D-08     -V/T= 2.0853
 <Sx>= 0.0000 <Sy>= 0.0000 <Sz>= 0.5000 <S**2>= 0.7514 S= 0.5007
 <L.S>= 0.000000000000E+00
 KE= 1.158035596717D+03 PE=-6.691972729714D+03 EE= 2.386914219135D+03
 Annihilation of the first spin contaminant:
 S**2 before annihilation     0.7514,   after     0.7500
 Leave Link  502 at Sat Sep 12 00:49:02 2026, MaxMem=  6442450944 cpu:             361.0 elap:             360.8
 (Enter C:\G16W\l508.exe)
 QCSCF skips out because SCF is already converged.
 Leave Link  508 at Sat Sep 12 00:49:02 2026, MaxMem=  6442450944 cpu:               0.0 elap:               0.1
 (Enter C:\G16W\l601.exe)
 Copying SCF densities to generalized density rwf, IOpCl= 1 IROHF=0.

 **********************************************************************

            Population analysis using the SCF Density.

 **********************************************************************

 Alpha  occ. eigenvalues --  -77.27213 -19.15000 -10.25295 -10.25211 -10.25166
 Alpha  occ. eigenvalues --  -10.25075 -10.24968 -10.24942 -10.24882 -10.24869
 Alpha  occ. eigenvalues --  -10.24866 -10.24846 -10.24789 -10.24784 -10.24756
 Alpha  occ. eigenvalues --  -10.24732 -10.24724 -10.24673 -10.24582 -10.24559
 Alpha  occ. eigenvalues --   -6.67270  -4.81306  -4.81274  -4.81272  -3.74700
 Alpha  occ. eigenvalues --   -2.32706  -2.32654  -2.32637  -0.98444  -0.89585
 Alpha  occ. eigenvalues --   -0.89183  -0.89073  -0.79860  -0.78001  -0.77788
 Alpha  occ. eigenvalues --   -0.77749  -0.77453  -0.77393  -0.67158  -0.63774
 Alpha  occ. eigenvalues --   -0.63542  -0.63480  -0.62443  -0.62312  -0.58344
 Alpha  occ. eigenvalues --   -0.55250  -0.55083  -0.52124  -0.48756  -0.48615
 Alpha  occ. eigenvalues --   -0.48574  -0.47385  -0.47190  -0.46623  -0.45244
 Alpha  occ. eigenvalues --   -0.44863  -0.44852  -0.44400  -0.44385  -0.40450
 Alpha  occ. eigenvalues --   -0.40224  -0.40109  -0.39523  -0.37669  -0.37171
 Alpha  occ. eigenvalues --   -0.36877  -0.36388  -0.36383  -0.36006  -0.32332
 Alpha  occ. eigenvalues --   -0.32271  -0.32184  -0.32179  -0.32038  -0.29411
 Alpha  occ. eigenvalues --   -0.29395  -0.28290  -0.28043  -0.27992  -0.27722
 Alpha  occ. eigenvalues --   -0.27589  -0.27508  -0.17234
 Alpha virt. eigenvalues --   -0.03424  -0.03381  -0.02377  -0.02029  -0.01280
 Alpha virt. eigenvalues --   -0.01129   0.00306   0.01009   0.02750   0.06562
 Alpha virt. eigenvalues --    0.07581   0.07961   0.09484   0.10426   0.11270
 Alpha virt. eigenvalues --    0.11460   0.11882   0.12479   0.12726   0.13324
 Alpha virt. eigenvalues --    0.13828   0.14593   0.15183   0.16286   0.16764
 Alpha virt. eigenvalues --    0.16981   0.17207   0.17771   0.18359   0.19475
 Alpha virt. eigenvalues --    0.19820   0.20699   0.25656   0.27919   0.28208
 Alpha virt. eigenvalues --    0.28544   0.29361   0.29590   0.30226   0.30558
 Alpha virt. eigenvalues --    0.30824   0.31345   0.31681   0.31853   0.33237
 Alpha virt. eigenvalues --    0.34205   0.35019   0.36055   0.36686   0.37569
 Alpha virt. eigenvalues --    0.38930   0.39994   0.41070   0.41361   0.41864
 Alpha virt. eigenvalues --    0.42553   0.43203   0.44181   0.44808   0.45112
 Alpha virt. eigenvalues --    0.45173   0.46301   0.46430   0.46871   0.47496
 Alpha virt. eigenvalues --    0.47934   0.48690   0.48939   0.49299   0.49462
 Alpha virt. eigenvalues --    0.50350   0.50575   0.50927   0.51878   0.53390
 Alpha virt. eigenvalues --    0.53701   0.54301   0.55057   0.55530   0.55728
 Alpha virt. eigenvalues --    0.57034   0.57386   0.59082   0.60093   0.60286
 Alpha virt. eigenvalues --    0.61133   0.63562   0.63794   0.64163   0.65246
 Alpha virt. eigenvalues --    0.66080   0.66150   0.66331   0.67133   0.67337
 Alpha virt. eigenvalues --    0.67658   0.68018   0.68609   0.68990   0.69361
 Alpha virt. eigenvalues --    0.70102   0.70541   0.71010   0.71566   0.71912
 Alpha virt. eigenvalues --    0.72343   0.72891   0.73210   0.74112   0.74809
 Alpha virt. eigenvalues --    0.75228   0.75764   0.76031   0.76934   0.77148
 Alpha virt. eigenvalues --    0.77452   0.78504   0.79935   0.80605   0.81512
 Alpha virt. eigenvalues --    0.82299   0.83058   0.83237   0.85173   0.86613
 Alpha virt. eigenvalues --    0.86798   0.88943   0.89516   0.91151   0.92672
 Alpha virt. eigenvalues --    0.95049   0.95515   0.96195   0.99296   1.00343
 Alpha virt. eigenvalues --    1.00402   1.01177   1.02539   1.05278   1.09625
 Alpha virt. eigenvalues --    1.12262   1.12544   1.13401   1.15893   1.16142
 Alpha virt. eigenvalues --    1.19186   1.20031   1.20421   1.22093   1.23185
 Alpha virt. eigenvalues --    1.23782   1.24595   1.24804   1.25190   1.25515
 Alpha virt. eigenvalues --    1.25643   1.26344   1.27619   1.28530   1.29131
 Alpha virt. eigenvalues --    1.31049   1.31587   1.32387   1.33331   1.33421
 Alpha virt. eigenvalues --    1.34330   1.35479   1.37683   1.38610   1.45260
 Alpha virt. eigenvalues --    1.52337   1.56359   1.56504   1.60389   1.60737
 Alpha virt. eigenvalues --    1.66741   1.67889   1.67983   1.68368   1.69967
 Alpha virt. eigenvalues --    1.70225   1.71465   1.71749   1.71886   1.72023
 Alpha virt. eigenvalues --    1.75086   1.75336   1.75497   1.76088   1.76159
 Alpha virt. eigenvalues --    1.76574   1.77573   1.77631   1.77903   1.78283
 Alpha virt. eigenvalues --    1.78459   1.79162   1.81121   1.81196   1.81657
 Alpha virt. eigenvalues --    1.83003   1.85371   1.85822   1.86968   1.87153
 Alpha virt. eigenvalues --    1.87340   1.91432   1.91632   1.95159   1.95795
 Alpha virt. eigenvalues --    1.95908   1.96409   1.97679   1.97684   1.98291
 Alpha virt. eigenvalues --    1.99292   1.99525   1.99696   2.00986   2.01160
 Alpha virt. eigenvalues --    2.02309   2.06749   2.06810   2.08979   2.09330
 Alpha virt. eigenvalues --    2.11423   2.11751   2.12541   2.15273   2.15663
 Alpha virt. eigenvalues --    2.16116   2.18127   2.18588   2.19847   2.21708
 Alpha virt. eigenvalues --    2.25225   2.25318   2.30279   2.30340   2.30575
 Alpha virt. eigenvalues --    2.30784   2.31183   2.31502   2.31803   2.32164
 Alpha virt. eigenvalues --    2.32420   2.35894   2.35909   2.36114   2.36771
 Alpha virt. eigenvalues --    2.37151   2.37852   2.39311   2.42347   2.42513
 Alpha virt. eigenvalues --    2.55289   2.55565   2.55794   2.62391   2.62715
 Alpha virt. eigenvalues --    2.62734   2.62766   2.62780   2.62845   2.63121
 Alpha virt. eigenvalues --    2.63295   2.63372   2.63983   2.64772   2.64986
 Alpha virt. eigenvalues --    2.65158   2.66484   2.66632   2.66688   2.71992
 Alpha virt. eigenvalues --    2.72180   2.75739   2.76261   2.76322   2.76480
 Alpha virt. eigenvalues --    2.76768   2.77707   2.83140   2.83337   2.85357
 Alpha virt. eigenvalues --    2.89151   2.90472   2.90558   2.92105   2.92290
 Alpha virt. eigenvalues --    2.92427   2.92997   2.93167   3.05800   3.07181
 Alpha virt. eigenvalues --    3.07214   3.16078   3.16174   3.16393   3.24844
 Alpha virt. eigenvalues --    3.24988   3.25013   3.44503   3.65890   3.66299
 Alpha virt. eigenvalues --    3.66347  53.82622
  Beta  occ. eigenvalues --  -77.27213 -19.14991 -10.25303 -10.25206 -10.25166
  Beta  occ. eigenvalues --  -10.25037 -10.24974 -10.24923 -10.24867 -10.24865
  Beta  occ. eigenvalues --  -10.24862 -10.24846 -10.24783 -10.24770 -10.24757
  Beta  occ. eigenvalues --  -10.24732 -10.24718 -10.24673 -10.24582 -10.24559
  Beta  occ. eigenvalues --   -6.67270  -4.81306  -4.81274  -4.81272  -3.74581
  Beta  occ. eigenvalues --   -2.32681  -2.32622  -2.32606  -0.98427  -0.89566
  Beta  occ. eigenvalues --   -0.89166  -0.89070  -0.79848  -0.77952  -0.77779
  Beta  occ. eigenvalues --   -0.77747  -0.77440  -0.77387  -0.67149  -0.63739
  Beta  occ. eigenvalues --   -0.63534  -0.63474  -0.62411  -0.62307  -0.58325
  Beta  occ. eigenvalues --   -0.55216  -0.55081  -0.52104  -0.48738  -0.48607
  Beta  occ. eigenvalues --   -0.48569  -0.47336  -0.47187  -0.46614  -0.45167
  Beta  occ. eigenvalues --   -0.44859  -0.44849  -0.44389  -0.44377  -0.40418
  Beta  occ. eigenvalues --   -0.40187  -0.40098  -0.39505  -0.37651  -0.37116
  Beta  occ. eigenvalues --   -0.36872  -0.36375  -0.36369  -0.35992  -0.31685
  Beta  occ. eigenvalues --   -0.31616  -0.31536  -0.31532  -0.31417  -0.29366
  Beta  occ. eigenvalues --   -0.29362  -0.28208  -0.28010  -0.27982  -0.27646
  Beta  occ. eigenvalues --   -0.27574  -0.27485
  Beta virt. eigenvalues --   -0.08474  -0.03369  -0.03278  -0.02161  -0.01995
  Beta virt. eigenvalues --   -0.01148  -0.01061   0.02781   0.03468   0.05110
  Beta virt. eigenvalues --    0.06824   0.07598   0.08095   0.09604   0.10526
  Beta virt. eigenvalues --    0.11377   0.11723   0.12205   0.12553   0.12808
  Beta virt. eigenvalues --    0.13587   0.14086   0.14639   0.15494   0.16321
  Beta virt. eigenvalues --    0.16775   0.17012   0.17227   0.18192   0.18595
  Beta virt. eigenvalues --    0.19573   0.20038   0.21171   0.25761   0.28072
  Beta virt. eigenvalues --    0.28242   0.28648   0.29425   0.29601   0.30490
  Beta virt. eigenvalues --    0.30624   0.30940   0.31549   0.31826   0.31894
  Beta virt. eigenvalues --    0.34862   0.35540   0.36483   0.37144   0.37175
  Beta virt. eigenvalues --    0.37838   0.39437   0.40082   0.41348   0.41804
  Beta virt. eigenvalues --    0.42129   0.42799   0.43758   0.44454   0.44863
  Beta virt. eigenvalues --    0.45242   0.45427   0.46589   0.46920   0.47311
  Beta virt. eigenvalues --    0.47723   0.48281   0.48893   0.49029   0.49497
  Beta virt. eigenvalues --    0.49712   0.50429   0.50620   0.51112   0.51969
  Beta virt. eigenvalues --    0.53923   0.53984   0.54890   0.55154   0.55924
  Beta virt. eigenvalues --    0.56718   0.57226   0.57924   0.59180   0.60314
  Beta virt. eigenvalues --    0.60428   0.61232   0.63629   0.64109   0.64226
  Beta virt. eigenvalues --    0.65478   0.66169   0.66372   0.66493   0.67158
  Beta virt. eigenvalues --    0.67386   0.67711   0.68043   0.68640   0.69095
  Beta virt. eigenvalues --    0.69402   0.70160   0.70624   0.71113   0.71604
  Beta virt. eigenvalues --    0.71953   0.72442   0.72913   0.73286   0.74141
  Beta virt. eigenvalues --    0.74832   0.75256   0.75841   0.76065   0.76987
  Beta virt. eigenvalues --    0.77248   0.77469   0.78569   0.80088   0.80650
  Beta virt. eigenvalues --    0.81580   0.82372   0.83086   0.83303   0.85265
  Beta virt. eigenvalues --    0.86630   0.86855   0.88966   0.89527   0.91170
  Beta virt. eigenvalues --    0.92745   0.95056   0.95531   0.96237   0.99307
  Beta virt. eigenvalues --    1.00363   1.00442   1.01194   1.02593   1.05291
  Beta virt. eigenvalues --    1.09641   1.12269   1.12559   1.13413   1.15911
  Beta virt. eigenvalues --    1.16162   1.19194   1.20044   1.20430   1.22103
  Beta virt. eigenvalues --    1.23194   1.23796   1.24609   1.24811   1.25239
  Beta virt. eigenvalues --    1.25532   1.25651   1.26353   1.27632   1.28537
  Beta virt. eigenvalues --    1.29148   1.31056   1.31607   1.32453   1.33339
  Beta virt. eigenvalues --    1.33431   1.34375   1.35495   1.37688   1.38637
  Beta virt. eigenvalues --    1.45286   1.52351   1.56373   1.56520   1.60403
  Beta virt. eigenvalues --    1.60765   1.66755   1.67890   1.67990   1.68373
  Beta virt. eigenvalues --    1.69970   1.70231   1.71475   1.71758   1.71894
  Beta virt. eigenvalues --    1.72031   1.75094   1.75357   1.75500   1.76097
  Beta virt. eigenvalues --    1.76175   1.76581   1.77578   1.77636   1.77913
  Beta virt. eigenvalues --    1.78285   1.78468   1.79191   1.81125   1.81197
  Beta virt. eigenvalues --    1.81679   1.83017   1.85381   1.85840   1.86980
  Beta virt. eigenvalues --    1.87163   1.87370   1.91438   1.91653   1.95172
  Beta virt. eigenvalues --    1.95814   1.95911   1.96428   1.97682   1.97715
  Beta virt. eigenvalues --    1.98372   1.99336   1.99535   1.99719   2.00995
  Beta virt. eigenvalues --    2.01172   2.02320   2.06753   2.07665   2.08987
  Beta virt. eigenvalues --    2.09466   2.11428   2.11751   2.12609   2.15282
  Beta virt. eigenvalues --    2.15668   2.16142   2.18135   2.18605   2.19884
  Beta virt. eigenvalues --    2.21721   2.25234   2.25333   2.30294   2.30347
  Beta virt. eigenvalues --    2.30580   2.30801   2.31203   2.31522   2.31807
  Beta virt. eigenvalues --    2.32191   2.32436   2.35897   2.35915   2.36124
  Beta virt. eigenvalues --    2.36775   2.37166   2.37911   2.39324   2.42351
  Beta virt. eigenvalues --    2.42538   2.55296   2.55569   2.55828   2.62434
  Beta virt. eigenvalues --    2.62749   2.62765   2.62800   2.62815   2.62883
  Beta virt. eigenvalues --    2.63130   2.63327   2.63394   2.63998   2.64774
  Beta virt. eigenvalues --    2.64992   2.65181   2.66519   2.66640   2.66690
  Beta virt. eigenvalues --    2.72012   2.72203   2.75742   2.76261   2.76324
  Beta virt. eigenvalues --    2.76484   2.76770   2.77747   2.83147   2.83349
  Beta virt. eigenvalues --    2.85364   2.89164   2.90478   2.90577   2.92113
  Beta virt. eigenvalues --    2.92297   2.92444   2.93005   2.93188   3.05808
  Beta virt. eigenvalues --    3.07183   3.07231   3.16080   3.16176   3.16428
  Beta virt. eigenvalues --    3.24868   3.24990   3.25014   3.44516   3.65900
  Beta virt. eigenvalues --    3.66318   3.66350  53.82784
          Condensed to atoms (all electrons):
               1          2          3          4          5          6
     1  O    7.919364   0.641534  -0.056449   0.001084  -0.000028  -0.000010
     2  P    0.641534  13.056839   0.256490  -0.058230   0.002948   0.000493
     3  C   -0.056449   0.256490   5.811610   0.258170   0.088600  -0.172845
     4  C    0.001084  -0.058230   0.258170   5.095834   0.319392   0.091178
     5  C   -0.000028   0.002948   0.088600   0.319392   5.032676   0.273159
     6  C   -0.000010   0.000493  -0.172845   0.091178   0.273159   5.123075
     7  C    0.000784   0.009025   0.080878  -0.144270   0.085700   0.259510
     8  C    0.009727  -0.026172   0.208232   0.050952  -0.139048   0.095660
     9  C   -0.052706   0.258737  -0.064982  -0.004150  -0.000179  -0.000005
    10  C    0.000984  -0.056960  -0.008923   0.000147  -0.000481  -0.000003
    11  C   -0.000027   0.002665  -0.000289   0.000443  -0.000019   0.000000
    12  C   -0.000008   0.000690  -0.000077  -0.000009   0.000000   0.000000
    13  C    0.000688   0.008521   0.000026   0.000000   0.000000   0.000000
    14  C    0.010021  -0.022423   0.007843  -0.000498   0.000015   0.000001
    15  C   -0.054909   0.258097  -0.064967  -0.008675  -0.000327  -0.000070
    16  C    0.000989  -0.053258  -0.004959   0.000346   0.000392  -0.000008
    17  C   -0.000030   0.002223  -0.000247  -0.000444  -0.000024   0.000000
    18  C   -0.000010   0.000697   0.000009  -0.000007   0.000001   0.000000
    19  C    0.000689   0.008047  -0.000148  -0.000009  -0.000015   0.000001
    20  C    0.010299  -0.022435  -0.002072   0.001270  -0.000059   0.000000
    21  H    0.000060  -0.012618  -0.074710   0.448635  -0.060190   0.013832
    22  H    0.000001  -0.000226   0.017344  -0.072540   0.455332  -0.074632
    23  H    0.000000   0.000032  -0.001526   0.014707  -0.068079   0.449112
    24  H   -0.000004  -0.000321   0.016715  -0.001781   0.014438  -0.072909
    25  H    0.013704  -0.003727  -0.086754   0.013078  -0.001821   0.013548
    26  H    0.000058  -0.012587   0.003941   0.003057   0.001472  -0.000156
    27  H    0.000001  -0.000243   0.000019   0.000014   0.000000   0.000000
    28  H    0.000000   0.000031   0.000000   0.000000   0.000000   0.000000
    29  H   -0.000005  -0.000329   0.000002   0.000000   0.000000   0.000000
    30  H    0.014382  -0.003222   0.000997  -0.000022   0.000001   0.000000
    31  H    0.000049  -0.012203   0.000450   0.000121   0.000103   0.000003
    32  H    0.000001  -0.000237   0.000010  -0.000008   0.000001   0.000000
    33  H    0.000000   0.000031   0.000000   0.000000   0.000000   0.000000
    34  H   -0.000004  -0.000305   0.000008  -0.000001   0.000000   0.000000
    35  H    0.012157  -0.004259   0.001536   0.000264   0.000027   0.000003
    36  Ag   0.013716   0.000382  -0.002800   0.001146  -0.000459   0.000257
               7          8          9         10         11         12
     1  O    0.000784   0.009727  -0.052706   0.000984  -0.000027  -0.000008
     2  P    0.009025  -0.026172   0.258737  -0.056960   0.002665   0.000690
     3  C    0.080878   0.208232  -0.064982  -0.008923  -0.000289  -0.000077
     4  C   -0.144270   0.050952  -0.004150   0.000147   0.000443  -0.000009
     5  C    0.085700  -0.139048  -0.000179  -0.000481  -0.000019   0.000000
     6  C    0.259510   0.095660  -0.000005  -0.000003   0.000000   0.000000
     7  C    5.088248   0.278393  -0.000047  -0.000010  -0.000013   0.000001
     8  C    0.278393   5.083644  -0.002021   0.001717  -0.000095   0.000001
     9  C   -0.000047  -0.002021   5.780746   0.267806   0.087746  -0.170671
    10  C   -0.000010   0.001717   0.267806   5.089843   0.320893   0.089401
    11  C   -0.000013  -0.000095   0.087746   0.320893   5.034327   0.275571
    12  C    0.000001   0.000001  -0.170671   0.089401   0.275571   5.120424
    13  C    0.000000  -0.000041   0.080711  -0.143897   0.085475   0.262513
    14  C   -0.000006  -0.000171   0.207769   0.051248  -0.139736   0.093246
    15  C   -0.000002   0.008187  -0.064452  -0.004557  -0.000246  -0.000001
    16  C   -0.000002  -0.000424  -0.008146   0.000023  -0.000460   0.000000
    17  C    0.000000   0.000016  -0.000149   0.000432  -0.000020   0.000000
    18  C    0.000000   0.000001  -0.000099  -0.000010   0.000000   0.000000
    19  C    0.000000  -0.000003   0.000079   0.000001   0.000000   0.000000
    20  C   -0.000033  -0.000269   0.006281  -0.000472   0.000015   0.000001
    21  H   -0.001452   0.013572   0.000205   0.000167   0.000104   0.000002
    22  H    0.014643  -0.001970   0.000010  -0.000007   0.000001   0.000000
    23  H   -0.068840   0.014271   0.000000   0.000000   0.000000   0.000000
    24  H    0.458199  -0.074904   0.000010   0.000001   0.000000   0.000000
    25  H   -0.059095   0.455725   0.000465   0.000262  -0.000001   0.000001
    26  H    0.000145  -0.000274  -0.074071   0.448016  -0.060722   0.013730
    27  H   -0.000001   0.000005   0.017196  -0.072298   0.454878  -0.074516
    28  H    0.000000   0.000000  -0.001542   0.014736  -0.068268   0.449140
    29  H    0.000000   0.000000   0.016583  -0.001751   0.014414  -0.072865
    30  H   -0.000001  -0.000023  -0.087964   0.012984  -0.001854   0.013568
    31  H   -0.000003  -0.000090   0.003911   0.003100   0.001486  -0.000156
    32  H    0.000000   0.000000   0.000018   0.000015   0.000000   0.000000
    33  H    0.000000   0.000000   0.000000   0.000000   0.000000   0.000000
    34  H    0.000000   0.000000   0.000002   0.000000   0.000000   0.000000
    35  H   -0.000016  -0.000421   0.000305  -0.000017   0.000001   0.000000
    36  Ag   0.000527   0.003192   0.003286  -0.000173   0.000015   0.000010
              13         14         15         16         17         18
     1  O    0.000688   0.010021  -0.054909   0.000989  -0.000030  -0.000010
     2  P    0.008521  -0.022423   0.258097  -0.053258   0.002223   0.000697
     3  C    0.000026   0.007843  -0.064967  -0.004959  -0.000247   0.000009
     4  C    0.000000  -0.000498  -0.008675   0.000346  -0.000444  -0.000007
     5  C    0.000000   0.000015  -0.000327   0.000392  -0.000024   0.000001
     6  C    0.000000   0.000001  -0.000070  -0.000008   0.000000   0.000000
     7  C    0.000000  -0.000006  -0.000002  -0.000002   0.000000   0.000000
     8  C   -0.000041  -0.000171   0.008187  -0.000424   0.000016   0.000001
     9  C    0.080711   0.207769  -0.064452  -0.008146  -0.000149  -0.000099
    10  C   -0.143897   0.051248  -0.004557   0.000023   0.000432  -0.000010
    11  C    0.085475  -0.139736  -0.000246  -0.000460  -0.000020   0.000000
    12  C    0.262513   0.093246  -0.000001   0.000000   0.000000   0.000000
    13  C    5.086409   0.283394  -0.000155  -0.000007  -0.000015   0.000001
    14  C    0.283394   5.079963  -0.001500   0.001580  -0.000091   0.000002
    15  C   -0.000155  -0.001500   5.760191   0.274176   0.088561  -0.167595
    16  C   -0.000007   0.001580   0.274176   5.079776   0.319023   0.087703
    17  C   -0.000015  -0.000091   0.088561   0.319023   5.040141   0.273235
    18  C    0.000001   0.000002  -0.167595   0.087703   0.273235   5.112281
    19  C    0.000000  -0.000042   0.073518  -0.139746   0.085754   0.273047
    20  C    0.000000  -0.000107   0.212972   0.052039  -0.142642   0.092052
    21  H   -0.000002  -0.000090   0.003850   0.003679   0.001536  -0.000169
    22  H    0.000000   0.000000   0.000017   0.000015   0.000000   0.000000
    23  H    0.000000   0.000000   0.000000   0.000000   0.000000   0.000000
    24  H    0.000000  -0.000001   0.000002   0.000000   0.000000   0.000000
    25  H   -0.000018  -0.000129   0.001069  -0.000015   0.000001   0.000000
    26  H   -0.001444   0.013721   0.000448   0.000099   0.000112   0.000002
    27  H    0.014581  -0.001890   0.000011  -0.000008   0.000001   0.000000
    28  H   -0.069004   0.014274   0.000000   0.000000   0.000000   0.000000
    29  H    0.457450  -0.074232   0.000010   0.000001   0.000000   0.000000
    30  H   -0.059614   0.456391   0.000787   0.000220  -0.000001   0.000002
    31  H    0.000140  -0.000300  -0.073598   0.448429  -0.061533   0.013860
    32  H   -0.000001   0.000005   0.017283  -0.072283   0.455025  -0.074545
    33  H    0.000000   0.000000  -0.001680   0.014871  -0.068968   0.450293
    34  H    0.000000   0.000000   0.016982  -0.001838   0.014300  -0.072420
    35  H    0.000001   0.000002  -0.075179   0.012869  -0.001760   0.012411
    36  Ag  -0.000026  -0.000145  -0.007571  -0.002850   0.000099  -0.000803
              19         20         21         22         23         24
     1  O    0.000689   0.010299   0.000060   0.000001   0.000000  -0.000004
     2  P    0.008047  -0.022435  -0.012618  -0.000226   0.000032  -0.000321
     3  C   -0.000148  -0.002072  -0.074710   0.017344  -0.001526   0.016715
     4  C   -0.000009   0.001270   0.448635  -0.072540   0.014707  -0.001781
     5  C   -0.000015  -0.000059  -0.060190   0.455332  -0.068079   0.014438
     6  C    0.000001   0.000000   0.013832  -0.074632   0.449112  -0.072909
     7  C    0.000000  -0.000033  -0.001452   0.014643  -0.068840   0.458199
     8  C   -0.000003  -0.000269   0.013572  -0.001970   0.014271  -0.074904
     9  C    0.000079   0.006281   0.000205   0.000010   0.000000   0.000010
    10  C    0.000001  -0.000472   0.000167  -0.000007   0.000000   0.000001
    11  C    0.000000   0.000015   0.000104   0.000001   0.000000   0.000000
    12  C    0.000000   0.000001   0.000002   0.000000   0.000000   0.000000
    13  C    0.000000   0.000000  -0.000002   0.000000   0.000000   0.000000
    14  C   -0.000042  -0.000107  -0.000090   0.000000   0.000000  -0.000001
    15  C    0.073518   0.212972   0.003850   0.000017   0.000000   0.000002
    16  C   -0.139746   0.052039   0.003679   0.000015   0.000000   0.000000
    17  C    0.085754  -0.142642   0.001536   0.000000   0.000000   0.000000
    18  C    0.273047   0.092052  -0.000169   0.000000   0.000000   0.000000
    19  C    5.056027   0.290537   0.000145  -0.000001   0.000000   0.000000
    20  C    0.290537   5.128413  -0.000639   0.000004   0.000000   0.000000
    21  H    0.000145  -0.000639   0.655005  -0.012694  -0.000269   0.000034
    22  H   -0.000001   0.000004  -0.012694   0.669651  -0.012423  -0.000261
    23  H    0.000000   0.000000  -0.000269  -0.012423   0.663812  -0.012252
    24  H    0.000000   0.000000   0.000034  -0.000261  -0.012252   0.660882
    25  H   -0.000001  -0.000040  -0.000195   0.000036  -0.000244  -0.011064
    26  H   -0.000002  -0.000099   0.000654   0.000048  -0.000005  -0.000003
    27  H    0.000000   0.000000  -0.000003   0.000000   0.000000   0.000000
    28  H    0.000000   0.000000   0.000000   0.000000   0.000000   0.000000
    29  H    0.000000  -0.000001   0.000000   0.000000   0.000000   0.000000
    30  H   -0.000019  -0.000110  -0.000004   0.000000   0.000000   0.000000
    31  H   -0.001594   0.014377   0.000706  -0.000004   0.000000   0.000000
    32  H    0.014676  -0.001915   0.000054   0.000000   0.000000   0.000000
    33  H   -0.069450   0.014682  -0.000005   0.000000   0.000000   0.000000
    34  H    0.456743  -0.074757  -0.000003   0.000000   0.000000   0.000000
    35  H   -0.055403   0.435622  -0.000068   0.000000   0.000000   0.000000
    36  Ag   0.001786  -0.002842   0.000502   0.000124  -0.000024   0.000116
              25         26         27         28         29         30
     1  O    0.013704   0.000058   0.000001   0.000000  -0.000005   0.014382
     2  P   -0.003727  -0.012587  -0.000243   0.000031  -0.000329  -0.003222
     3  C   -0.086754   0.003941   0.000019   0.000000   0.000002   0.000997
     4  C    0.013078   0.003057   0.000014   0.000000   0.000000  -0.000022
     5  C   -0.001821   0.001472   0.000000   0.000000   0.000000   0.000001
     6  C    0.013548  -0.000156   0.000000   0.000000   0.000000   0.000000
     7  C   -0.059095   0.000145  -0.000001   0.000000   0.000000  -0.000001
     8  C    0.455725  -0.000274   0.000005   0.000000   0.000000  -0.000023
     9  C    0.000465  -0.074071   0.017196  -0.001542   0.016583  -0.087964
    10  C    0.000262   0.448016  -0.072298   0.014736  -0.001751   0.012984
    11  C   -0.000001  -0.060722   0.454878  -0.068268   0.014414  -0.001854
    12  C    0.000001   0.013730  -0.074516   0.449140  -0.072865   0.013568
    13  C   -0.000018  -0.001444   0.014581  -0.069004   0.457450  -0.059614
    14  C   -0.000129   0.013721  -0.001890   0.014274  -0.074232   0.456391
    15  C    0.001069   0.000448   0.000011   0.000000   0.000010   0.000787
    16  C   -0.000015   0.000099  -0.000008   0.000000   0.000001   0.000220
    17  C    0.000001   0.000112   0.000001   0.000000   0.000000  -0.000001
    18  C    0.000000   0.000002   0.000000   0.000000   0.000000   0.000002
    19  C   -0.000001  -0.000002   0.000000   0.000000   0.000000  -0.000019
    20  C   -0.000040  -0.000099   0.000000   0.000000  -0.000001  -0.000110
    21  H   -0.000195   0.000654  -0.000003   0.000000   0.000000  -0.000004
    22  H    0.000036   0.000048   0.000000   0.000000   0.000000   0.000000
    23  H   -0.000244  -0.000005   0.000000   0.000000   0.000000   0.000000
    24  H   -0.011064  -0.000003   0.000000   0.000000   0.000000   0.000000
    25  H    0.629715  -0.000045   0.000000   0.000000   0.000000  -0.000045
    26  H   -0.000045   0.656687  -0.012563  -0.000271   0.000034  -0.000182
    27  H    0.000000  -0.012563   0.670434  -0.012450  -0.000263   0.000037
    28  H    0.000000  -0.000271  -0.012450   0.664904  -0.012280  -0.000246
    29  H    0.000000   0.000034  -0.000263  -0.012280   0.661747  -0.011017
    30  H   -0.000045  -0.000182   0.000037  -0.000246  -0.011017   0.632342
    31  H   -0.000004   0.000677   0.000047  -0.000005  -0.000003  -0.000043
    32  H    0.000000  -0.000004   0.000000   0.000000   0.000000   0.000000
    33  H    0.000000   0.000000   0.000000   0.000000   0.000000   0.000000
    34  H    0.000000   0.000000   0.000000   0.000000   0.000000   0.000000
    35  H   -0.000113  -0.000006   0.000000   0.000000   0.000000  -0.000019
    36  Ag   0.000840   0.000014  -0.000002   0.000000  -0.000001  -0.000127
              31         32         33         34         35         36
     1  O    0.000049   0.000001   0.000000  -0.000004   0.012157   0.013716
     2  P   -0.012203  -0.000237   0.000031  -0.000305  -0.004259   0.000382
     3  C    0.000450   0.000010   0.000000   0.000008   0.001536  -0.002800
     4  C    0.000121  -0.000008   0.000000  -0.000001   0.000264   0.001146
     5  C    0.000103   0.000001   0.000000   0.000000   0.000027  -0.000459
     6  C    0.000003   0.000000   0.000000   0.000000   0.000003   0.000257
     7  C   -0.000003   0.000000   0.000000   0.000000  -0.000016   0.000527
     8  C   -0.000090   0.000000   0.000000   0.000000  -0.000421   0.003192
     9  C    0.003911   0.000018   0.000000   0.000002   0.000305   0.003286
    10  C    0.003100   0.000015   0.000000   0.000000  -0.000017  -0.000173
    11  C    0.001486   0.000000   0.000000   0.000000   0.000001   0.000015
    12  C   -0.000156   0.000000   0.000000   0.000000   0.000000   0.000010
    13  C    0.000140  -0.000001   0.000000   0.000000   0.000001  -0.000026
    14  C   -0.000300   0.000005   0.000000   0.000000   0.000002  -0.000145
    15  C   -0.073598   0.017283  -0.001680   0.016982  -0.075179  -0.007571
    16  C    0.448429  -0.072283   0.014871  -0.001838   0.012869  -0.002850
    17  C   -0.061533   0.455025  -0.068968   0.014300  -0.001760   0.000099
    18  C    0.013860  -0.074545   0.450293  -0.072420   0.012411  -0.000803
    19  C   -0.001594   0.014676  -0.069450   0.456743  -0.055403   0.001786
    20  C    0.014377  -0.001915   0.014682  -0.074757   0.435622  -0.002842
    21  H    0.000706   0.000054  -0.000005  -0.000003  -0.000068   0.000502
    22  H   -0.000004   0.000000   0.000000   0.000000   0.000000   0.000124
    23  H    0.000000   0.000000   0.000000   0.000000   0.000000  -0.000024
    24  H    0.000000   0.000000   0.000000   0.000000   0.000000   0.000116
    25  H   -0.000004   0.000000   0.000000   0.000000  -0.000113   0.000840
    26  H    0.000677  -0.000004   0.000000   0.000000  -0.000006   0.000014
    27  H    0.000047   0.000000   0.000000   0.000000   0.000000  -0.000002
    28  H   -0.000005   0.000000   0.000000   0.000000   0.000000   0.000000
    29  H   -0.000003   0.000000   0.000000   0.000000   0.000000  -0.000001
    30  H   -0.000043   0.000000   0.000000   0.000000  -0.000019  -0.000127
    31  H    0.655035  -0.012544  -0.000267   0.000034  -0.000138  -0.000060
    32  H   -0.012544   0.669166  -0.012404  -0.000252   0.000042  -0.000014
    33  H   -0.000267  -0.012404   0.663492  -0.012208  -0.000235   0.000114
    34  H    0.000034  -0.000252  -0.012208   0.654678  -0.012076   0.003695
    35  H   -0.000138   0.000042  -0.000235  -0.012076   0.607399   0.010062
    36  Ag  -0.000060  -0.000014   0.000114   0.003695   0.010062  19.030994
          Atomic-Atomic Spin Densities.
               1          2          3          4          5          6
     1  O    0.004119  -0.000532   0.000003   0.000008   0.000000   0.000000
     2  P   -0.000532   0.000779  -0.001136   0.000346   0.000069   0.000008
     3  C    0.000003  -0.001136   0.001571   0.000216  -0.000022   0.000052
     4  C    0.000008   0.000346   0.000216   0.002835  -0.000077  -0.000115
     5  C    0.000000   0.000069  -0.000022  -0.000077  -0.000867   0.000107
     6  C    0.000000   0.000008   0.000052  -0.000115   0.000107   0.000944
     7  C    0.000001   0.000012   0.000017   0.000037   0.000015  -0.000090
     8  C   -0.000015  -0.000334   0.000902  -0.000012  -0.000024  -0.000146
     9  C    0.000154   0.000940   0.000012   0.000003   0.000003  -0.000001
    10  C    0.000005  -0.000133  -0.000013  -0.000030   0.000006   0.000001
    11  C    0.000000   0.000055  -0.000021  -0.000001   0.000000   0.000000
    12  C    0.000000   0.000003   0.000000   0.000000   0.000000   0.000000
    13  C   -0.000002  -0.000001  -0.000002   0.000000   0.000000   0.000000
    14  C   -0.000017  -0.000047   0.000021   0.000000   0.000000   0.000000
    15  C   -0.000270   0.000763  -0.000017   0.000045   0.000011   0.000000
    16  C    0.000028   0.000498  -0.000185   0.000131   0.000003   0.000000
    17  C    0.000000  -0.000047   0.000015  -0.000025  -0.000001   0.000000
    18  C    0.000001   0.000014  -0.000003   0.000006   0.000000   0.000000
    19  C   -0.000011  -0.000047   0.000007  -0.000004   0.000000   0.000000
    20  C    0.000531   0.000082  -0.000220   0.000104   0.000007   0.000000
    21  H   -0.000001  -0.000055   0.000109  -0.000072   0.000007  -0.000009
    22  H    0.000000   0.000001   0.000002  -0.000027   0.000028   0.000000
    23  H    0.000000   0.000000   0.000001  -0.000003  -0.000007   0.000032
    24  H    0.000000   0.000002   0.000009  -0.000004   0.000004   0.000003
    25  H   -0.000016   0.000009   0.000168  -0.000002   0.000001  -0.000008
    26  H    0.000001  -0.000246   0.000233   0.000085  -0.000029  -0.000005
    27  H    0.000000  -0.000002   0.000001   0.000000   0.000000   0.000000
    28  H    0.000000   0.000000   0.000000   0.000000   0.000000   0.000000
    29  H    0.000000   0.000000   0.000000   0.000000   0.000000   0.000000
    30  H    0.000011  -0.000012   0.000010   0.000000   0.000000   0.000000
    31  H   -0.000001  -0.000057   0.000023  -0.000008  -0.000001   0.000000
    32  H    0.000000   0.000000   0.000000   0.000000   0.000000   0.000000
    33  H    0.000000   0.000000   0.000000   0.000000   0.000000   0.000000
    34  H   -0.000001  -0.000001   0.000000  -0.000001   0.000000   0.000000
    35  H    0.000105  -0.000022  -0.000013   0.000016   0.000001   0.000000
    36  Ag  -0.001788  -0.002714  -0.000796  -0.001447  -0.000456   0.000226
               7          8          9         10         11         12
     1  O    0.000001  -0.000015   0.000154   0.000005   0.000000   0.000000
     2  P    0.000012  -0.000334   0.000940  -0.000133   0.000055   0.000003
     3  C    0.000017   0.000902   0.000012  -0.000013  -0.000021   0.000000
     4  C    0.000037  -0.000012   0.000003  -0.000030  -0.000001   0.000000
     5  C    0.000015  -0.000024   0.000003   0.000006   0.000000   0.000000
     6  C   -0.000090  -0.000146  -0.000001   0.000001   0.000000   0.000000
     7  C   -0.000757   0.000332   0.000004   0.000000   0.000000   0.000000
     8  C    0.000332   0.002385  -0.000008  -0.000004  -0.000003   0.000000
     9  C    0.000004  -0.000008  -0.000243  -0.000395   0.000163   0.000021
    10  C    0.000000  -0.000004  -0.000395   0.000603  -0.000237  -0.000012
    11  C    0.000000  -0.000003   0.000163  -0.000237   0.000319   0.000028
    12  C    0.000000   0.000000   0.000021  -0.000012   0.000028  -0.000103
    13  C    0.000000   0.000000   0.000055  -0.000057   0.000027   0.000024
    14  C    0.000000   0.000003  -0.000162   0.000218  -0.000084  -0.000022
    15  C   -0.000001   0.000013   0.000022   0.000047  -0.000007   0.000000
    16  C    0.000000  -0.000004   0.000113  -0.000021   0.000008   0.000000
    17  C    0.000000   0.000000   0.000002  -0.000001   0.000000   0.000000
    18  C    0.000000   0.000000   0.000000   0.000000   0.000000   0.000000
    19  C    0.000000   0.000000   0.000001   0.000000   0.000000   0.000000
    20  C    0.000001  -0.000001  -0.000047  -0.000002   0.000000   0.000000
    21  H    0.000000   0.000006  -0.000005  -0.000006  -0.000001   0.000000
    22  H    0.000002  -0.000003   0.000000   0.000000   0.000000   0.000000
    23  H   -0.000008  -0.000002   0.000000   0.000000   0.000000   0.000000
    24  H    0.000016  -0.000023   0.000000   0.000000   0.000000   0.000000
    25  H    0.000025  -0.000077  -0.000008   0.000000   0.000000   0.000000
    26  H    0.000001   0.000046  -0.000120  -0.000056  -0.000134  -0.000003
    27  H    0.000000   0.000000  -0.000009   0.000015  -0.000035  -0.000002
    28  H    0.000000   0.000000  -0.000003   0.000006  -0.000005  -0.000004
    29  H    0.000000   0.000000  -0.000004   0.000002  -0.000001   0.000002
    30  H    0.000000   0.000001  -0.000074   0.000040  -0.000009   0.000003
    31  H    0.000000   0.000001  -0.000018  -0.000002  -0.000008   0.000000
    32  H    0.000000   0.000000   0.000000   0.000000   0.000000   0.000000
    33  H    0.000000   0.000000   0.000000   0.000000   0.000000   0.000000
    34  H    0.000000   0.000000   0.000000   0.000000   0.000000   0.000000
    35  H    0.000000   0.000001  -0.000015   0.000000   0.000000   0.000000
    36  Ag  -0.000368  -0.000772   0.000042   0.000005  -0.000005   0.000000
              13         14         15         16         17         18
     1  O   -0.000002  -0.000017  -0.000270   0.000028   0.000000   0.000001
     2  P   -0.000001  -0.000047   0.000763   0.000498  -0.000047   0.000014
     3  C   -0.000002   0.000021  -0.000017  -0.000185   0.000015  -0.000003
     4  C    0.000000   0.000000   0.000045   0.000131  -0.000025   0.000006
     5  C    0.000000   0.000000   0.000011   0.000003  -0.000001   0.000000
     6  C    0.000000   0.000000   0.000000   0.000000   0.000000   0.000000
     7  C    0.000000   0.000000  -0.000001   0.000000   0.000000   0.000000
     8  C    0.000000   0.000003   0.000013  -0.000004   0.000000   0.000000
     9  C    0.000055  -0.000162   0.000022   0.000113   0.000002   0.000000
    10  C   -0.000057   0.000218   0.000047  -0.000021  -0.000001   0.000000
    11  C    0.000027  -0.000084  -0.000007   0.000008   0.000000   0.000000
    12  C    0.000024  -0.000022   0.000000   0.000000   0.000000   0.000000
    13  C    0.000018   0.000043  -0.000006   0.000002   0.000000   0.000000
    14  C    0.000043  -0.000030   0.000019  -0.000021   0.000000   0.000000
    15  C   -0.000006   0.000019   0.020293  -0.005224  -0.000371  -0.000651
    16  C    0.000002  -0.000021  -0.005224  -0.002513  -0.000072   0.000688
    17  C    0.000000   0.000000  -0.000371  -0.000072   0.015727  -0.001683
    18  C    0.000000   0.000000  -0.000651   0.000688  -0.001683  -0.004694
    19  C    0.000000   0.000000   0.002541  -0.001101  -0.000460   0.000352
    20  C    0.000000  -0.000001  -0.005510   0.002112  -0.000085   0.001077
    21  H    0.000000   0.000000  -0.000028  -0.000063   0.000035  -0.000005
    22  H    0.000000   0.000000   0.000000   0.000000   0.000000   0.000000
    23  H    0.000000   0.000000   0.000000   0.000000   0.000000   0.000000
    24  H    0.000000   0.000000   0.000000   0.000000   0.000000   0.000000
    25  H    0.000000   0.000000   0.000002   0.000000   0.000000   0.000000
    26  H   -0.000004   0.000030   0.000024  -0.000043   0.000004   0.000000
    27  H   -0.000003   0.000004   0.000000   0.000000   0.000000   0.000000
    28  H   -0.000003   0.000002   0.000000   0.000000   0.000000   0.000000
    29  H   -0.000006   0.000004   0.000000   0.000000   0.000000   0.000000
    30  H   -0.000039  -0.000038   0.000065  -0.000017   0.000000   0.000000
    31  H    0.000000   0.000004   0.000250  -0.000322  -0.000018  -0.000003
    32  H    0.000000   0.000000  -0.000002  -0.000070   0.000247  -0.000015
    33  H    0.000000   0.000000   0.000037  -0.000035  -0.000056  -0.000207
    34  H    0.000000   0.000000   0.000137  -0.000067   0.000001  -0.000414
    35  H    0.000000   0.000000  -0.000816   0.000190  -0.000017   0.000069
    36  Ag  -0.000001   0.000002   0.002489  -0.001401   0.000381  -0.001285
              19         20         21         22         23         24
     1  O   -0.000011   0.000531  -0.000001   0.000000   0.000000   0.000000
     2  P   -0.000047   0.000082  -0.000055   0.000001   0.000000   0.000002
     3  C    0.000007  -0.000220   0.000109   0.000002   0.000001   0.000009
     4  C   -0.000004   0.000104  -0.000072  -0.000027  -0.000003  -0.000004
     5  C    0.000000   0.000007   0.000007   0.000028  -0.000007   0.000004
     6  C    0.000000   0.000000  -0.000009   0.000000   0.000032   0.000003
     7  C    0.000000   0.000001   0.000000   0.000002  -0.000008   0.000016
     8  C    0.000000  -0.000001   0.000006  -0.000003  -0.000002  -0.000023
     9  C    0.000001  -0.000047  -0.000005   0.000000   0.000000   0.000000
    10  C    0.000000  -0.000002  -0.000006   0.000000   0.000000   0.000000
    11  C    0.000000   0.000000  -0.000001   0.000000   0.000000   0.000000
    12  C    0.000000   0.000000   0.000000   0.000000   0.000000   0.000000
    13  C    0.000000   0.000000   0.000000   0.000000   0.000000   0.000000
    14  C    0.000000  -0.000001   0.000000   0.000000   0.000000   0.000000
    15  C    0.002541  -0.005510  -0.000028   0.000000   0.000000   0.000000
    16  C   -0.001101   0.002112  -0.000063   0.000000   0.000000   0.000000
    17  C   -0.000460  -0.000085   0.000035   0.000000   0.000000   0.000000
    18  C    0.000352   0.001077  -0.000005   0.000000   0.000000   0.000000
    19  C    0.014765  -0.002702   0.000003   0.000000   0.000000   0.000000
    20  C   -0.002702   0.022675  -0.000033   0.000000   0.000000   0.000000
    21  H    0.000003  -0.000033  -0.000149   0.000000   0.000000   0.000000
    22  H    0.000000   0.000000   0.000000   0.000064   0.000001   0.000000
    23  H    0.000000   0.000000   0.000000   0.000001  -0.000048   0.000002
    24  H    0.000000   0.000000   0.000000   0.000000   0.000002   0.000065
    25  H    0.000000   0.000000   0.000000   0.000000   0.000000   0.000004
    26  H    0.000000  -0.000006   0.000018  -0.000001   0.000000   0.000000
    27  H    0.000000   0.000000   0.000000   0.000000   0.000000   0.000000
    28  H    0.000000   0.000000   0.000000   0.000000   0.000000   0.000000
    29  H    0.000000   0.000000   0.000000   0.000000   0.000000   0.000000
    30  H    0.000001  -0.000015   0.000000   0.000000   0.000000   0.000000
    31  H    0.000018  -0.000036   0.000006   0.000000   0.000000   0.000000
    32  H   -0.000002  -0.000006   0.000000   0.000000   0.000000   0.000000
    33  H   -0.000007  -0.000028   0.000000   0.000000   0.000000   0.000000
    34  H   -0.000046  -0.000771   0.000000   0.000000   0.000000   0.000000
    35  H   -0.000370   0.007582  -0.000002   0.000000   0.000000   0.000000
    36  Ag  -0.001567  -0.026861   0.000161  -0.000025  -0.000019  -0.000053
              25         26         27         28         29         30
     1  O   -0.000016   0.000001   0.000000   0.000000   0.000000   0.000011
     2  P    0.000009  -0.000246  -0.000002   0.000000   0.000000  -0.000012
     3  C    0.000168   0.000233   0.000001   0.000000   0.000000   0.000010
     4  C   -0.000002   0.000085   0.000000   0.000000   0.000000   0.000000
     5  C    0.000001  -0.000029   0.000000   0.000000   0.000000   0.000000
     6  C   -0.000008  -0.000005   0.000000   0.000000   0.000000   0.000000
     7  C    0.000025   0.000001   0.000000   0.000000   0.000000   0.000000
     8  C   -0.000077   0.000046   0.000000   0.000000   0.000000   0.000001
     9  C   -0.000008  -0.000120  -0.000009  -0.000003  -0.000004  -0.000074
    10  C    0.000000  -0.000056   0.000015   0.000006   0.000002   0.000040
    11  C    0.000000  -0.000134  -0.000035  -0.000005  -0.000001  -0.000009
    12  C    0.000000  -0.000003  -0.000002  -0.000004   0.000002   0.000003
    13  C    0.000000  -0.000004  -0.000003  -0.000003  -0.000006  -0.000039
    14  C    0.000000   0.000030   0.000004   0.000002   0.000004  -0.000038
    15  C    0.000002   0.000024   0.000000   0.000000   0.000000   0.000065
    16  C    0.000000  -0.000043   0.000000   0.000000   0.000000  -0.000017
    17  C    0.000000   0.000004   0.000000   0.000000   0.000000   0.000000
    18  C    0.000000   0.000000   0.000000   0.000000   0.000000   0.000000
    19  C    0.000000   0.000000   0.000000   0.000000   0.000000   0.000001
    20  C    0.000000  -0.000006   0.000000   0.000000   0.000000  -0.000015
    21  H    0.000000   0.000018   0.000000   0.000000   0.000000   0.000000
    22  H    0.000000  -0.000001   0.000000   0.000000   0.000000   0.000000
    23  H    0.000000   0.000000   0.000000   0.000000   0.000000   0.000000
    24  H    0.000004   0.000000   0.000000   0.000000   0.000000   0.000000
    25  H   -0.000118   0.000000   0.000000   0.000000   0.000000   0.000000
    26  H    0.000000   0.000305   0.000018   0.000001   0.000000   0.000004
    27  H    0.000000   0.000018   0.000027   0.000002   0.000000   0.000000
    28  H    0.000000   0.000001   0.000002   0.000009   0.000001   0.000000
    29  H    0.000000   0.000000   0.000000   0.000001  -0.000004   0.000004
    30  H    0.000000   0.000004   0.000000   0.000000   0.000004   0.000140
    31  H    0.000000   0.000031   0.000001   0.000000   0.000000   0.000002
    32  H    0.000000   0.000000   0.000000   0.000000   0.000000   0.000000
    33  H    0.000000   0.000000   0.000000   0.000000   0.000000   0.000000
    34  H    0.000000   0.000000   0.000000   0.000000   0.000000   0.000000
    35  H    0.000000  -0.000001   0.000000   0.000000   0.000000  -0.000003
    36  Ag  -0.000026   0.000050   0.000000   0.000000   0.000000   0.000030
              31         32         33         34         35         36
     1  O   -0.000001   0.000000   0.000000  -0.000001   0.000105  -0.001788
     2  P   -0.000057   0.000000   0.000000  -0.000001  -0.000022  -0.002714
     3  C    0.000023   0.000000   0.000000   0.000000  -0.000013  -0.000796
     4  C   -0.000008   0.000000   0.000000  -0.000001   0.000016  -0.001447
     5  C   -0.000001   0.000000   0.000000   0.000000   0.000001  -0.000456
     6  C    0.000000   0.000000   0.000000   0.000000   0.000000   0.000226
     7  C    0.000000   0.000000   0.000000   0.000000   0.000000  -0.000368
     8  C    0.000001   0.000000   0.000000   0.000000   0.000001  -0.000772
     9  C   -0.000018   0.000000   0.000000   0.000000  -0.000015   0.000042
    10  C   -0.000002   0.000000   0.000000   0.000000   0.000000   0.000005
    11  C   -0.000008   0.000000   0.000000   0.000000   0.000000  -0.000005
    12  C    0.000000   0.000000   0.000000   0.000000   0.000000   0.000000
    13  C    0.000000   0.000000   0.000000   0.000000   0.000000  -0.000001
    14  C    0.000004   0.000000   0.000000   0.000000   0.000000   0.000002
    15  C    0.000250  -0.000002   0.000037   0.000137  -0.000816   0.002489
    16  C   -0.000322  -0.000070  -0.000035  -0.000067   0.000190  -0.001401
    17  C   -0.000018   0.000247  -0.000056   0.000001  -0.000017   0.000381
    18  C   -0.000003  -0.000015  -0.000207  -0.000414   0.000069  -0.001285
    19  C    0.000018  -0.000002  -0.000007  -0.000046  -0.000370  -0.001567
    20  C   -0.000036  -0.000006  -0.000028  -0.000771   0.007582  -0.026861
    21  H    0.000006   0.000000   0.000000   0.000000  -0.000002   0.000161
    22  H    0.000000   0.000000   0.000000   0.000000   0.000000  -0.000025
    23  H    0.000000   0.000000   0.000000   0.000000   0.000000  -0.000019
    24  H    0.000000   0.000000   0.000000   0.000000   0.000000  -0.000053
    25  H    0.000000   0.000000   0.000000   0.000000   0.000000  -0.000026
    26  H    0.000031   0.000000   0.000000   0.000000  -0.000001   0.000050
    27  H    0.000001   0.000000   0.000000   0.000000   0.000000   0.000000
    28  H    0.000000   0.000000   0.000000   0.000000   0.000000   0.000000
    29  H    0.000000   0.000000   0.000000   0.000000   0.000000   0.000000
    30  H    0.000002   0.000000   0.000000   0.000000  -0.000003   0.000030
    31  H    0.000462   0.000011   0.000001   0.000001  -0.000002   0.000053
    32  H    0.000011  -0.000858   0.000013   0.000001   0.000000   0.000004
    33  H    0.000001   0.000013   0.000552   0.000068  -0.000002   0.000096
    34  H    0.000001   0.000001   0.000068  -0.000182  -0.000193   0.002006
    35  H   -0.000002   0.000000  -0.000002  -0.000193  -0.000863  -0.010429
    36  Ag   0.000053   0.000004   0.000096   0.002006  -0.010429   1.020761
 Mulliken charges and spin densities:
               1          2
     1  O   -0.486098   0.002314
     2  P    0.782274  -0.001807
     3  C   -0.211128   0.000945
     4  C   -0.009195   0.002005
     5  C   -0.003528  -0.001222
     6  C    0.000807   0.001000
     7  C   -0.002259  -0.000760
     8  C    0.022633   0.002260
     9  C   -0.200683   0.000424
    10  C   -0.012216  -0.000025
    11  C   -0.006282   0.000049
    12  C    0.000006  -0.000064
    13  C   -0.005684   0.000043
    14  C    0.021887  -0.000068
    15  C   -0.190676   0.013854
    16  C   -0.012229  -0.007387
    17  C   -0.004538   0.013573
    18  C    0.000062  -0.006753
    19  C    0.005385   0.011370
    20  C   -0.010073  -0.002154
    21  H    0.020370  -0.000082
    22  H    0.017534   0.000043
    23  H    0.021728  -0.000053
    24  H    0.023102   0.000024
    25  H    0.034866  -0.000044
    26  H    0.019518   0.000205
    27  H    0.017012   0.000017
    28  H    0.020980   0.000006
    29  H    0.022506  -0.000003
    30  H    0.032803   0.000105
    31  H    0.020018   0.000385
    32  H    0.017911  -0.000679
    33  H    0.021733   0.000429
    34  H    0.027423   0.000540
    35  H    0.057009  -0.004782
    36  Ag  -0.052978   0.976293
 Sum of Mulliken charges =   0.00000   1.00000
 Mulliken charges and spin densities with hydrogens summed into heavy atoms:
               1          2
     1  O   -0.486098   0.002314
     2  P    0.782274  -0.001807
     3  C   -0.211128   0.000945
     4  C    0.011175   0.001923
     5  C    0.014006  -0.001179
     6  C    0.022535   0.000947
     7  C    0.020843  -0.000735
     8  C    0.057499   0.002216
     9  C   -0.200683   0.000424
    10  C    0.007302   0.000180
    11  C    0.010730   0.000066
    12  C    0.020986  -0.000058
    13  C    0.016822   0.000041
    14  C    0.054690   0.000037
    15  C   -0.190676   0.013854
    16  C    0.007789  -0.007002
    17  C    0.013374   0.012894
    18  C    0.021795  -0.006324
    19  C    0.032808   0.011909
    20  C    0.046937  -0.006936
    36  Ag  -0.052978   0.976293
 Electronic spatial extent (au):  <R**2>=           7078.9074
 Charge=              0.0000 electrons
 Dipole moment (field-independent basis, Debye):
    X=             -1.3146    Y=              0.0622    Z=             -4.2798  Tot=              4.4776
 Quadrupole moment (field-independent basis, Debye-Ang):
   XX=           -137.7801   YY=           -130.1883   ZZ=           -147.1313
   XY=             -1.1254   XZ=             -3.9763   YZ=              0.1337
 Traceless Quadrupole moment (field-independent basis, Debye-Ang):
   XX=              0.5865   YY=              8.1783   ZZ=             -8.7648
   XY=             -1.1254   XZ=             -3.9763   YZ=              0.1337
 Octapole moment (field-independent basis, Debye-Ang**2):
  XXX=           -329.7182  YYY=            -24.8750  ZZZ=           -245.4522  XYY=            -32.8339
  XXY=            -34.0846  XXZ=            -82.9182  XZZ=            -91.6136  YZZ=            -13.5751
  YYZ=            -71.1032  XYZ=              0.1100
 Hexadecapole moment (field-independent basis, Debye-Ang**3):
 XXXX=          -5222.2803 YYYY=          -3161.4048 ZZZZ=          -1789.4638 XXXY=           -195.1900
 XXXZ=           -584.6785 YYYX=           -181.6824 YYYZ=           -204.5618 ZZZX=           -501.1747
 ZZZY=           -133.9307 XXYY=          -1374.8194 XXZZ=          -1141.5303 YYZZ=           -810.0915
 XXYZ=              7.6904 YYXZ=           -131.1644 ZZXY=            -71.3808
 N-N= 1.890179233870D+03 E-N=-6.691972716635D+03  KE= 1.158035596717D+03
                          Isotropic Fermi Contact Couplings
        Atom                 a.u.       MegaHertz       Gauss      10(-4) cm-1
     1  O(17)              0.00451      -2.73680      -0.97656      -0.91290
     2  P(31)             -0.00047      -0.85886      -0.30646      -0.28649
     3  C(13)              0.00102       1.14472       0.40846       0.38184
     4  C(13)              0.00097       1.09504       0.39074       0.36527
     5  C(13)             -0.00010      -0.11340      -0.04046      -0.03782
     6  C(13)              0.00017       0.19472       0.06948       0.06495
     7  C(13)             -0.00011      -0.12549      -0.04478      -0.04186
     8  C(13)              0.00194       2.18234       0.77871       0.72795
     9  C(13)              0.00076       0.84977       0.30322       0.28345
    10  C(13)             -0.00001      -0.01196      -0.00427      -0.00399
    11  C(13)              0.00002       0.02661       0.00950       0.00888
    12  C(13)              0.00001       0.01164       0.00416       0.00388
    13  C(13)              0.00000      -0.00050      -0.00018      -0.00017
    14  C(13)              0.00003       0.03023       0.01079       0.01009
    15  C(13)              0.00195       2.19282       0.78245       0.73145
    16  C(13)             -0.00093      -1.04634      -0.37336      -0.34902
    17  C(13)              0.00240       2.69820       0.96278       0.90002
    18  C(13)             -0.00135      -1.51737      -0.54144      -0.50614
    19  C(13)              0.00214       2.40842       0.85938       0.80336
    20  C(13)              0.02789      31.35927      11.18977      10.46033
    21  H(1)              -0.00001      -0.06529      -0.02330      -0.02178
    22  H(1)               0.00001       0.06160       0.02198       0.02055
    23  H(1)              -0.00001      -0.06130      -0.02187      -0.02045
    24  H(1)               0.00001       0.04917       0.01754       0.01640
    25  H(1)               0.00003       0.11487       0.04099       0.03832
    26  H(1)               0.00000      -0.01446      -0.00516      -0.00482
    27  H(1)               0.00001       0.02473       0.00882       0.00825
    28  H(1)               0.00000       0.00517       0.00184       0.00172
    29  H(1)               0.00000      -0.00388      -0.00138      -0.00129
    30  H(1)               0.00000      -0.00145      -0.00052      -0.00049
    31  H(1)               0.00011       0.48914       0.17454       0.16316
    32  H(1)              -0.00020      -0.87255      -0.31135      -0.29105
    33  H(1)               0.00012       0.53554       0.19109       0.17864
    34  H(1)              -0.00015      -0.66821      -0.23843      -0.22289
    35  H(1)               0.00045       1.99923       0.71338       0.66687
    36  Ag(107             0.00034      -0.06146      -0.02193      -0.02050
 --------------------------------------------------------
       Center         ----  Spin Dipole Couplings  ----
                      3XX-RR        3YY-RR        3ZZ-RR
 --------------------------------------------------------
     1   Atom        0.010839     -0.003395     -0.007444
     2   Atom        0.002761     -0.000888     -0.001873
     3   Atom        0.002840     -0.001479     -0.001361
     4   Atom        0.001074     -0.001598      0.000523
     5   Atom       -0.001271      0.000134      0.001137
     6   Atom       -0.000492      0.000643     -0.000151
     7   Atom       -0.000862      0.001573     -0.000711
     8   Atom        0.001028      0.001104     -0.002131
     9   Atom        0.001481     -0.000789     -0.000693
    10   Atom        0.000526     -0.000518     -0.000008
    11   Atom        0.000354     -0.000209     -0.000146
    12   Atom        0.000407     -0.000245     -0.000162
    13   Atom        0.000494     -0.000221     -0.000274
    14   Atom        0.000947     -0.000485     -0.000462
    15   Atom        0.004437     -0.004346     -0.000090
    16   Atom       -0.001779      0.000281      0.001498
    17   Atom        0.003904     -0.003139     -0.000765
    18   Atom       -0.001372      0.001437     -0.000065
    19   Atom        0.008870     -0.004417     -0.004453
    20   Atom       -0.005085     -0.004652      0.009737
    21   Atom       -0.000172     -0.001153      0.001325
    22   Atom       -0.000729     -0.000276      0.001005
    23   Atom       -0.000664      0.000647      0.000017
    24   Atom       -0.000680      0.001488     -0.000808
    25   Atom        0.000630      0.000754     -0.001384
    26   Atom        0.000470     -0.000403     -0.000067
    27   Atom        0.000226     -0.000164     -0.000063
    28   Atom        0.000259     -0.000140     -0.000119
    29   Atom        0.000420     -0.000206     -0.000214
    30   Atom        0.001081     -0.000542     -0.000539
    31   Atom        0.000419     -0.000519      0.000100
    32   Atom       -0.000180     -0.000660      0.000841
    33   Atom       -0.000340      0.000308      0.000032
    34   Atom       -0.001042      0.002784     -0.001742
    35   Atom        0.006336     -0.003879     -0.002457
    36   Atom       -0.004694      0.002184      0.002510
 --------------------------------------------------------
                        XY            XZ            YZ
 --------------------------------------------------------
     1   Atom        0.008170     -0.002955     -0.001095
     2   Atom       -0.001000      0.000533      0.001754
     3   Atom        0.003087      0.003423      0.001724
     4   Atom        0.002752      0.003805      0.002452
     5   Atom        0.000149      0.000423      0.001378
     6   Atom        0.000915      0.000742      0.001645
     7   Atom        0.000946      0.000352      0.001141
     8   Atom        0.004615      0.002539      0.002342
     9   Atom        0.000550      0.000874      0.000150
    10   Atom        0.000292      0.000474      0.000265
    11   Atom        0.000156      0.000320      0.000049
    12   Atom        0.000115      0.000179      0.000071
    13   Atom        0.000118      0.000107     -0.000007
    14   Atom        0.000214      0.000173      0.000063
    15   Atom       -0.006395     -0.005754      0.004930
    16   Atom        0.001929      0.004420     -0.002464
    17   Atom       -0.006848     -0.006172      0.003511
    18   Atom        0.000743      0.004436     -0.002882
    19   Atom       -0.005989     -0.006325     -0.000028
    20   Atom       -0.004988      0.016692     -0.013758
    21   Atom        0.000377      0.001977      0.000480
    22   Atom        0.000213      0.000457      0.001048
    23   Atom        0.000173      0.000141      0.001074
    24   Atom        0.000718      0.000177      0.000600
    25   Atom        0.002469     -0.000060      0.000041
    26   Atom        0.000344      0.000697      0.000275
    27   Atom        0.000145      0.000265      0.000088
    28   Atom        0.000082      0.000124      0.000026
    29   Atom        0.000062      0.000034      0.000001
    30   Atom        0.000123     -0.000072     -0.000022
    31   Atom       -0.000137      0.000935     -0.000398
    32   Atom       -0.000877      0.000708     -0.000766
    33   Atom       -0.000633      0.000679     -0.000883
    34   Atom       -0.001901      0.001110     -0.000627
    35   Atom       -0.009473      0.005947     -0.004673
    36   Atom        0.001843     -0.002880      0.002748
 --------------------------------------------------------


 ---------------------------------------------------------------------------------
              Anisotropic Spin Dipole Couplings in Principal Axis System
 ---------------------------------------------------------------------------------

       Atom             a.u.   MegaHertz   Gauss  10(-4) cm-1        Axes

              Baa    -0.0079     0.575     0.205     0.192  0.2300 -0.1830  0.9558
     1 O(17)  Bbb    -0.0071     0.510     0.182     0.170 -0.3655  0.8940  0.2591
              Bcc     0.0150    -1.085    -0.387    -0.362  0.9020  0.4089 -0.1387
 
              Baa    -0.0034    -0.730    -0.261    -0.244 -0.1669 -0.6120  0.7731
     2 P(31)  Bbb     0.0004     0.077     0.028     0.026  0.1730  0.7538  0.6340
              Bcc     0.0030     0.653     0.233     0.218  0.9707 -0.2395  0.0199
 
              Baa    -0.0033    -0.440    -0.157    -0.147 -0.4934  0.0132  0.8697
     3 C(13)  Bbb    -0.0031    -0.413    -0.147    -0.138 -0.3520  0.9113 -0.2136
              Bcc     0.0064     0.852     0.304     0.284  0.7954  0.4115  0.4450
 
              Baa    -0.0033    -0.446    -0.159    -0.149 -0.4535  0.8839 -0.1146
     4 C(13)  Bbb    -0.0030    -0.403    -0.144    -0.134 -0.5919 -0.2025  0.7802
              Bcc     0.0063     0.849     0.303     0.283  0.6663  0.4216  0.6150
 
              Baa    -0.0014    -0.182    -0.065    -0.061  0.9672  0.1138 -0.2271
     5 C(13)  Bbb    -0.0008    -0.108    -0.038    -0.036 -0.2211  0.8173 -0.5321
              Bcc     0.0022     0.289     0.103     0.097  0.1251  0.5649  0.8156
 
              Baa    -0.0014    -0.194    -0.069    -0.065 -0.0305 -0.6100  0.7919
     6 C(13)  Bbb    -0.0010    -0.130    -0.046    -0.043  0.9263 -0.3148 -0.2068
              Bcc     0.0024     0.324     0.116     0.108  0.3755  0.7272  0.5746
 
              Baa    -0.0012    -0.163    -0.058    -0.054  0.6474 -0.4662  0.6029
     7 C(13)  Bbb    -0.0011    -0.154    -0.055    -0.051 -0.7012 -0.0543  0.7109
              Bcc     0.0024     0.317     0.113     0.106  0.2987  0.8830  0.3621
 
              Baa    -0.0036    -0.490    -0.175    -0.163  0.7240 -0.4424 -0.5292
     8 C(13)  Bbb    -0.0033    -0.448    -0.160    -0.149  0.1929 -0.6068  0.7711
              Bcc     0.0070     0.938     0.335     0.313  0.6622  0.6604  0.3540
 
              Baa    -0.0010    -0.136    -0.049    -0.045 -0.3767  0.3427  0.8606
     9 C(13)  Bbb    -0.0009    -0.120    -0.043    -0.040 -0.0670  0.9165 -0.3943
              Bcc     0.0019     0.256     0.091     0.085  0.9239  0.2062  0.3222
 
              Baa    -0.0006    -0.086    -0.031    -0.029 -0.1091  0.9433 -0.3135
    10 C(13)  Bbb    -0.0003    -0.036    -0.013    -0.012 -0.5562  0.2035  0.8057
              Bcc     0.0009     0.122     0.043     0.041  0.8238  0.2623  0.5025
 
              Baa    -0.0003    -0.042    -0.015    -0.014 -0.4712  0.3257  0.8197
    11 C(13)  Bbb    -0.0002    -0.032    -0.011    -0.011 -0.0344  0.9218 -0.3860
              Bcc     0.0005     0.073     0.026     0.024  0.8814  0.2101  0.4232
 
              Baa    -0.0003    -0.038    -0.014    -0.013 -0.0264  0.8830 -0.4687
    12 C(13)  Bbb    -0.0002    -0.026    -0.009    -0.009 -0.3313  0.4346  0.8375
              Bcc     0.0005     0.065     0.023     0.022  0.9432  0.1774  0.2811
 
              Baa    -0.0003    -0.040    -0.014    -0.013 -0.1776  0.3543  0.9181
    13 C(13)  Bbb    -0.0002    -0.031    -0.011    -0.010 -0.0953  0.9224 -0.3744
              Bcc     0.0005     0.071     0.025     0.024  0.9795  0.1540  0.1300
 
              Baa    -0.0005    -0.073    -0.026    -0.024 -0.0575  0.8379 -0.5427
    14 C(13)  Bbb    -0.0005    -0.062    -0.022    -0.021 -0.1825  0.5257  0.8309
              Bcc     0.0010     0.134     0.048     0.045  0.9815  0.1468  0.1227
 
              Baa    -0.0083    -1.114    -0.397    -0.371  0.3026  0.8957 -0.3258
    15 C(13)  Bbb    -0.0040    -0.533    -0.190    -0.178  0.6053  0.0834  0.7916
              Bcc     0.0123     1.647     0.588     0.549  0.7362 -0.4367 -0.5169
 
              Baa    -0.0062    -0.838    -0.299    -0.279  0.7236 -0.4207 -0.5472
    16 C(13)  Bbb     0.0014     0.192     0.069     0.064  0.4871  0.8730 -0.0271
              Bcc     0.0048     0.645     0.230     0.215  0.4890 -0.2469  0.8366
 
              Baa    -0.0073    -0.984    -0.351    -0.328  0.5455  0.8355  0.0660
    17 C(13)  Bbb    -0.0047    -0.629    -0.225    -0.210  0.3758 -0.3142  0.8718
              Bcc     0.0120     1.613     0.576     0.538  0.7492 -0.4508 -0.4854
 
              Baa    -0.0060    -0.810    -0.289    -0.270  0.6789 -0.3220 -0.6599
    18 C(13)  Bbb     0.0012     0.165     0.059     0.055  0.5747  0.7924  0.2046
              Bcc     0.0048     0.645     0.230     0.215  0.4570 -0.5181  0.7230
 
              Baa    -0.0088    -1.176    -0.420    -0.392  0.4428  0.6140  0.6534
    19 C(13)  Bbb    -0.0044    -0.591    -0.211    -0.197  0.0019  0.7281 -0.6855
              Bcc     0.0132     1.768     0.631     0.590  0.8966 -0.3048 -0.3212
 
              Baa    -0.0174    -2.338    -0.834    -0.780  0.6741 -0.4034 -0.6187
    20 C(13)  Bbb    -0.0096    -1.292    -0.461    -0.431  0.5702  0.8167  0.0888
              Bcc     0.0270     3.630     1.295     1.211  0.4695 -0.4126  0.7806
 
              Baa    -0.0015    -0.823    -0.294    -0.275  0.8265 -0.1241 -0.5491
    21 H(1)   Bbb    -0.0012    -0.663    -0.236    -0.221  0.0169  0.9804 -0.1963
              Bcc     0.0028     1.486     0.530     0.496  0.5627  0.1530  0.8124
 
              Baa    -0.0009    -0.474    -0.169    -0.158  0.5472  0.6693 -0.5026
    22 H(1)   Bbb    -0.0008    -0.431    -0.154    -0.144  0.8120 -0.5702  0.1248
              Bcc     0.0017     0.906     0.323     0.302  0.2031  0.4764  0.8555
 
              Baa    -0.0008    -0.420    -0.150    -0.140 -0.0957 -0.5889  0.8025
    23 H(1)   Bbb    -0.0007    -0.366    -0.131    -0.122  0.9900 -0.1403  0.0151
              Bcc     0.0015     0.787     0.281     0.262  0.1037  0.7959  0.5964
 
              Baa    -0.0010    -0.510    -0.182    -0.170 -0.0075 -0.2363  0.9716
    24 H(1)   Bbb    -0.0009    -0.478    -0.171    -0.160  0.9598 -0.2742 -0.0592
              Bcc     0.0019     0.988     0.353     0.330  0.2804  0.9322  0.2289
 
              Baa    -0.0018    -0.955    -0.341    -0.319  0.7053 -0.6873  0.1736
    25 H(1)   Bbb    -0.0014    -0.732    -0.261    -0.244 -0.1225  0.1231  0.9848
              Bcc     0.0032     1.687     0.602     0.563  0.6982  0.7159 -0.0026
 
              Baa    -0.0006    -0.304    -0.109    -0.102 -0.2928 -0.6084  0.7376
    26 H(1)   Bbb    -0.0005    -0.271    -0.097    -0.090 -0.5424  0.7410  0.3959
              Bcc     0.0011     0.576     0.205     0.192  0.7874  0.2842  0.5470
 
              Baa    -0.0002    -0.118    -0.042    -0.039 -0.4389 -0.2337  0.8676
    27 H(1)   Bbb    -0.0002    -0.113    -0.040    -0.038 -0.3523  0.9330  0.0731
              Bcc     0.0004     0.230     0.082     0.077  0.8266  0.2735  0.4918
 
              Baa    -0.0002    -0.084    -0.030    -0.028  0.0143  0.8117 -0.5839
    28 H(1)   Bbb    -0.0002    -0.083    -0.030    -0.028 -0.3380  0.5535  0.7612
              Bcc     0.0003     0.167     0.059     0.056  0.9410  0.1865  0.2823
 
              Baa    -0.0002    -0.116    -0.041    -0.039 -0.0861  0.3749  0.9231
    29 H(1)   Bbb    -0.0002    -0.113    -0.040    -0.038 -0.0696  0.9220 -0.3809
              Bcc     0.0004     0.228     0.081     0.076  0.9939  0.0970  0.0533
 
              Baa    -0.0006    -0.301    -0.107    -0.100 -0.0318  0.7877  0.6153
    30 H(1)   Bbb    -0.0005    -0.282    -0.101    -0.094  0.0817 -0.6115  0.7870
              Bcc     0.0011     0.584     0.208     0.195  0.9961  0.0753 -0.0450
 
              Baa    -0.0009    -0.458    -0.163    -0.153 -0.4233  0.6123  0.6678
    31 H(1)   Bbb    -0.0004    -0.226    -0.081    -0.075  0.5303  0.7651 -0.3653
              Bcc     0.0013     0.684     0.244     0.228  0.7346 -0.1995  0.6486
 
              Baa    -0.0013    -0.720    -0.257    -0.240  0.5528  0.8260  0.1103
    32 H(1)   Bbb    -0.0004    -0.194    -0.069    -0.065  0.6791 -0.3698 -0.6341
              Bcc     0.0017     0.914     0.326     0.305  0.4830 -0.4254  0.7653
 
              Baa    -0.0009    -0.460    -0.164    -0.153  0.7438 -0.0968 -0.6614
    33 H(1)   Bbb    -0.0007    -0.352    -0.126    -0.118  0.4989  0.7389  0.4529
              Bcc     0.0015     0.812     0.290     0.271 -0.4449  0.6668 -0.5979
 
              Baa    -0.0027    -1.416    -0.505    -0.472 -0.6773 -0.1539  0.7195
    34 H(1)   Bbb    -0.0011    -0.588    -0.210    -0.196  0.6185  0.4106  0.6700
              Bcc     0.0038     2.003     0.715     0.668 -0.3985  0.8987 -0.1830
 
              Baa    -0.0097    -5.193    -1.853    -1.732  0.4412  0.8746  0.2011
    35 H(1)   Bbb    -0.0055    -2.910    -1.039    -0.971 -0.4402  0.0156  0.8977
              Bcc     0.0152     8.103     2.891     2.703  0.7820 -0.4846  0.3919
 
              Baa    -0.0065     0.142     0.051     0.047  0.8781 -0.3022  0.3710
    36 Ag(107 Bbb     0.0014    -0.029    -0.011    -0.010  0.4670  0.7102 -0.5267
              Bcc     0.0052    -0.113    -0.040    -0.038 -0.1043  0.6358  0.7648
 

 ---------------------------------------------------------------------------------

 No NMR shielding tensors so no spin-rotation constants.
 Leave Link  601 at Sat Sep 12 00:49:05 2026, MaxMem=  6442450944 cpu:               3.0 elap:               3.0
 (Enter C:\G16W\l9999.exe)
 Unable to Open any file for archive entry.
 1|1|UNPC-DESKTOP-2JKEGCA|SP|UPBE1PBE|def2SVP|C18H15Ag1O1P1(2)|JHKIM|12
 -Sep-2026|0||#P PBE1PBE/Def2SVP EmpiricalDispersion=GD3BJ SP SCF=(XQC,
 MaxCycle=128) NoSymm Guess=Read||Ph3P=O t=0.750 dz=+0.40 class=toface|
 |0,2|O,0,0.157203,-0.100492,2.626991|P,0,0.069607,-0.044493,1.163304|C
 ,0,1.166792,-1.236526,0.327247|C,0,1.691956,-1.034741,-0.941876|C,0,2.
 506392,-1.999945,-1.50715|C,0,2.795669,-3.162547,-0.810599|C,0,2.27647
 4,-3.361367,0.458551|C,0,1.463446,-2.397796,1.027112|C,0,-1.601084,-0.
 398148,0.524976|C,0,-1.842527,-0.947129,-0.727028|C,0,-3.145051,-1.169
 9,-1.137226|C,0,-4.203253,-0.845855,-0.303131|C,0,-3.962206,-0.303544,
 0.948922|C,0,-2.661381,-0.081191,1.362634|C,0,0.513641,1.583938,0.4742
 47|C,0,0.007445,2.073442,-0.722137|C,0,0.409889,3.31619,-1.178293|C,0,
 1.314314,4.068046,-0.445332|C,0,1.814986,3.5822,0.751795|C,0,1.413441,
 2.341123,1.211398|H,0,1.473765,-0.121933,-1.478618|H,0,2.919456,-1.844
 342,-2.493424|H,0,3.432355,-3.912319,-1.257069|H,0,2.507467,-4.265374,
 1.002736|H,0,1.05567,-2.521752,2.020234|H,0,-1.014865,-1.209302,-1.371
 357|H,0,-3.33617,-1.600225,-2.109779|H,0,-5.217949,-1.022428,-0.628822
 |H,0,-4.787714,-0.056885,1.600396|H,0,-2.444807,0.328765,2.338833|H,0,
 -0.706462,1.489685,-1.286482|H,0,0.015119,3.701451,-2.107435|H,0,1.624
 492,5.037702,-0.806466|H,0,2.515351,4.171781,1.325042|H,0,1.778541,1.9
 43911,2.147808|Ag,0,3.92467161,0.71221944,2.20414619||Version=EM64W-G1
 6RevC.01|HF=-1256.84368|S2=0.751441|S2-1=0.|S2A=0.750002|RMSD=8.386e-0
 09|Dipole=-0.5171973,0.0244861,-1.6838055|Quadrupole=0.4360164,6.08036
 06,-6.516377,-0.8366984,-2.956273,0.0993926|PG=C01 [X(C18H15Ag1O1P1)]|
 |@
 The archive entry for this job was punched.


 A BIRD IN THE HAND IS SAFER THAN ONE OVERHEAD.

                       -- NEWTON'S SEVENTH LAW
 Job cpu time:       0 days  0 hours  6 minutes 39.0 seconds.
 Elapsed time:       0 days  0 hours  6 minutes 37.5 seconds.
 File lengths (MBytes):  RWF=    145 Int=      0 D2E=      0 Chk=     12 Scr=      1
 Normal termination of Gaussian 16 at Sat Sep 12 00:49:06 2026.
