 Entering Gaussian System, Link 0=C:\G16W\g16.exe
 Input=Ph3PO_t1_z1.gjf
 Output=Ph3PO_t1_z1.out
 Initial command:
 C:\G16W\l1.exe ".\Gau-122400.inp" "Ph3PO_t1_z1.out" /scrdir=".\"
 Entering Link 1 = C:\G16W\l1.exe PID=     61616.
  
 Copyright (c) 1988-2019, Gaussian, Inc.  All Rights Reserved.
  
 This is part of the Gaussian(R) 16 program.  It is based on
 the Gaussian(R) 09 system (copyright 2009, Gaussian, Inc.),
 the Gaussian(R) 03 system (copyright 2003, Gaussian, Inc.),
 the Gaussian(R) 98 system (copyright 1998, Gaussian, Inc.),
 the Gaussian(R) 94 system (copyright 1995, Gaussian, Inc.),
 the Gaussian 92(TM) system (copyright 1992, Gaussian, Inc.),
 the Gaussian 90(TM) system (copyright 1990, Gaussian, Inc.),
 the Gaussian 88(TM) system (copyright 1988, Gaussian, Inc.),
 the Gaussian 86(TM) system (copyright 1986, Carnegie Mellon
 University), and the Gaussian 82(TM) system (copyright 1983,
 Carnegie Mellon University). Gaussian is a federally registered
 trademark of Gaussian, Inc.
  
 This software contains proprietary and confidential information,
 including trade secrets, belonging to Gaussian, Inc.
  
 This software is provided under written license and may be
 used, copied, transmitted, or stored only in accord with that
 written license.
  
 The following legend is applicable only to US Government
 contracts under FAR:
  
                    RESTRICTED RIGHTS LEGEND
  
 Use, reproduction and disclosure by the US Government is
 subject to restrictions as set forth in subparagraphs (a)
 and (c) of the Commercial Computer Software - Restricted
 Rights clause in FAR 52.227-19.
  
 Gaussian, Inc.
 340 Quinnipiac St., Bldg. 40, Wallingford CT 06492
  
  
 ---------------------------------------------------------------
 Warning -- This program may not be used in any manner that
 competes with the business of Gaussian, Inc. or will provide
 assistance to any competitor of Gaussian, Inc.  The licensee
 of this program is prohibited from giving any competitor of
 Gaussian, Inc. access to this program.  By using this program,
 the user acknowledges that Gaussian, Inc. is engaged in the
 business of creating and licensing software in the field of
 computational chemistry and represents and warrants to the
 licensee that it is not a competitor of Gaussian, Inc. and that
 it will not use this program in any manner prohibited above.
 ---------------------------------------------------------------
  

 Cite this work as:
 Gaussian 16, Revision C.01,
 M. J. Frisch, G. W. Trucks, H. B. Schlegel, G. E. Scuseria, 
 M. A. Robb, J. R. Cheeseman, G. Scalmani, V. Barone, 
 G. A. Petersson, H. Nakatsuji, X. Li, M. Caricato, A. V. Marenich, 
 J. Bloino, B. G. Janesko, R. Gomperts, B. Mennucci, H. P. Hratchian, 
 J. V. Ortiz, A. F. Izmaylov, J. L. Sonnenberg, D. Williams-Young, 
 F. Ding, F. Lipparini, F. Egidi, J. Goings, B. Peng, A. Petrone, 
 T. Henderson, D. Ranasinghe, V. G. Zakrzewski, J. Gao, N. Rega, 
 G. Zheng, W. Liang, M. Hada, M. Ehara, K. Toyota, R. Fukuda, 
 J. Hasegawa, M. Ishida, T. Nakajima, Y. Honda, O. Kitao, H. Nakai, 
 T. Vreven, K. Throssell, J. A. Montgomery, Jr., J. E. Peralta, 
 F. Ogliaro, M. J. Bearpark, J. J. Heyd, E. N. Brothers, K. N. Kudin, 
 V. N. Staroverov, T. A. Keith, R. Kobayashi, J. Normand, 
 K. Raghavachari, A. P. Rendell, J. C. Burant, S. S. Iyengar, 
 J. Tomasi, M. Cossi, J. M. Millam, M. Klene, C. Adamo, R. Cammi, 
 J. W. Ochterski, R. L. Martin, K. Morokuma, O. Farkas, 
 J. B. Foresman, and D. J. Fox, Gaussian, Inc., Wallingford CT, 2019.
 
 ******************************************
 Gaussian 16:  EM64W-G16RevC.01 30-May-2019
                12-Sep-2026 
 ******************************************
 %Chk=Ph3PO.chk
 %NProcShared=8
 Will use up to    8 processors via shared memory.
 %Mem=48GB
 ----------------------------------------------------------------------
 #P PBE1PBE/Def2SVP EmpiricalDispersion=GD3BJ SP SCF=(XQC,MaxCycle=128)
  NoSymm Guess=Read
 ----------------------------------------------------------------------
 1/38=1,172=1/1;
 2/12=2,15=1,17=6,18=5,40=1/2;
 3/5=43,7=101,11=2,25=1,30=1,74=-13,116=-2,124=41/1,2,3;
 4/5=1/1;
 5/5=2,7=128,8=3,13=1,38=6/2,8;
 6/7=2,8=2,9=2,10=2,28=1/1;
 99/5=1,9=1/99;
 Leave Link    1 at Sat Sep 12 00:13:51 2026, MaxMem=  6442450944 cpu:               1.0 elap:               0.5
 (Enter C:\G16W\l101.exe)
 ------------------------------------
 Ph3P=O t=0.250 dz=+0.40 class=toface
 ------------------------------------
 Symbolic Z-matrix:
 Charge =  0 Multiplicity = 2
 O                     0.1572   -0.10049   2.62699 
 P                     0.06961  -0.04449   1.1633 
 C                     1.16679  -1.23653   0.32725 
 C                     1.69196  -1.03474  -0.94188 
 C                     2.50639  -1.99995  -1.50715 
 C                     2.79567  -3.16255  -0.8106 
 C                     2.27647  -3.36137   0.45855 
 C                     1.46345  -2.3978    1.02711 
 C                    -1.60108  -0.39815   0.52498 
 C                    -1.84253  -0.94713  -0.72703 
 C                    -3.14505  -1.1699   -1.13723 
 C                    -4.20325  -0.84586  -0.30313 
 C                    -3.96221  -0.30354   0.94892 
 C                    -2.66138  -0.08119   1.36263 
 C                     0.51364   1.58394   0.47425 
 C                     0.00745   2.07344  -0.72214 
 C                     0.40989   3.31619  -1.17829 
 C                     1.31431   4.06805  -0.44533 
 C                     1.81499   3.5822    0.7518 
 C                     1.41344   2.34112   1.2114 
 H                     1.47377  -0.12193  -1.47862 
 H                     2.91946  -1.84434  -2.49342 
 H                     3.43236  -3.91232  -1.25707 
 H                     2.50747  -4.26537   1.00274 
 H                     1.05567  -2.52175   2.02023 
 H                    -1.01486  -1.2093   -1.37136 
 H                    -3.33617  -1.60023  -2.10978 
 H                    -5.21795  -1.02243  -0.62882 
 H                    -4.78771  -0.05689   1.6004 
 H                    -2.44481   0.32877   2.33883 
 H                    -0.70646   1.48969  -1.28648 
 H                     0.01512   3.70145  -2.10744 
 H                     1.62449   5.0377   -0.80647 
 H                     2.51535   4.17178   1.32504 
 H                     1.77854   1.94391   2.14781 
 Ag                    1.26228   0.01112   4.99702 
 
 ITRead=  0  0  0  0  0  0  0  0  0  0  0  0  0  0  0  0  0  0  0  0
 ITRead=  0  0  0  0  0  0  0  0  0  0  0  0  0  0  0  0
 MicOpt= -1 -1 -1 -1 -1 -1 -1 -1 -1 -1 -1 -1 -1 -1 -1 -1 -1 -1 -1 -1
 MicOpt= -1 -1 -1 -1 -1 -1 -1 -1 -1 -1 -1 -1 -1 -1 -1 -1
 NAtoms=     36 NQM=       36 NQMF=       0 NMMI=      0 NMMIF=      0
                NMic=       0 NMicF=      0.
                    Isotopes and Nuclear Properties:
 (Nuclear quadrupole moments (NQMom) in fm**2, nuclear magnetic moments (NMagM)
  in nuclear magnetons)

  Atom         1           2           3           4           5           6           7           8           9          10
 IAtWgt=          16          31          12          12          12          12          12          12          12          12
 AtmWgt=  15.9949146  30.9737634  12.0000000  12.0000000  12.0000000  12.0000000  12.0000000  12.0000000  12.0000000  12.0000000
 NucSpn=           0           1           0           0           0           0           0           0           0           0
 AtZEff=   0.0000000   0.0000000   0.0000000   0.0000000   0.0000000   0.0000000   0.0000000   0.0000000   0.0000000   0.0000000
 NQMom=    0.0000000   0.0000000   0.0000000   0.0000000   0.0000000   0.0000000   0.0000000   0.0000000   0.0000000   0.0000000
 NMagM=    0.0000000   1.1316000   0.0000000   0.0000000   0.0000000   0.0000000   0.0000000   0.0000000   0.0000000   0.0000000
 AtZNuc=   8.0000000  15.0000000   6.0000000   6.0000000   6.0000000   6.0000000   6.0000000   6.0000000   6.0000000   6.0000000

  Atom        11          12          13          14          15          16          17          18          19          20
 IAtWgt=          12          12          12          12          12          12          12          12          12          12
 AtmWgt=  12.0000000  12.0000000  12.0000000  12.0000000  12.0000000  12.0000000  12.0000000  12.0000000  12.0000000  12.0000000
 NucSpn=           0           0           0           0           0           0           0           0           0           0
 AtZEff=   0.0000000   0.0000000   0.0000000   0.0000000   0.0000000   0.0000000   0.0000000   0.0000000   0.0000000   0.0000000
 NQMom=    0.0000000   0.0000000   0.0000000   0.0000000   0.0000000   0.0000000   0.0000000   0.0000000   0.0000000   0.0000000
 NMagM=    0.0000000   0.0000000   0.0000000   0.0000000   0.0000000   0.0000000   0.0000000   0.0000000   0.0000000   0.0000000
 AtZNuc=   6.0000000   6.0000000   6.0000000   6.0000000   6.0000000   6.0000000   6.0000000   6.0000000   6.0000000   6.0000000

  Atom        21          22          23          24          25          26          27          28          29          30
 IAtWgt=           1           1           1           1           1           1           1           1           1           1
 AtmWgt=   1.0078250   1.0078250   1.0078250   1.0078250   1.0078250   1.0078250   1.0078250   1.0078250   1.0078250   1.0078250
 NucSpn=           1           1           1           1           1           1           1           1           1           1
 AtZEff=   0.0000000   0.0000000   0.0000000   0.0000000   0.0000000   0.0000000   0.0000000   0.0000000   0.0000000   0.0000000
 NQMom=    0.0000000   0.0000000   0.0000000   0.0000000   0.0000000   0.0000000   0.0000000   0.0000000   0.0000000   0.0000000
 NMagM=    2.7928460   2.7928460   2.7928460   2.7928460   2.7928460   2.7928460   2.7928460   2.7928460   2.7928460   2.7928460
 AtZNuc=   1.0000000   1.0000000   1.0000000   1.0000000   1.0000000   1.0000000   1.0000000   1.0000000   1.0000000   1.0000000

  Atom        31          32          33          34          35          36
 IAtWgt=           1           1           1           1           1         107
 AtmWgt=   1.0078250   1.0078250   1.0078250   1.0078250   1.0078250 106.9050900
 NucSpn=           1           1           1           1           1           1
 AtZEff=   0.0000000   0.0000000   0.0000000   0.0000000   0.0000000   0.0000000
 NQMom=    0.0000000   0.0000000   0.0000000   0.0000000   0.0000000   0.0000000
 NMagM=    2.7928460   2.7928460   2.7928460   2.7928460   2.7928460  -0.1135700
 AtZNuc=   1.0000000   1.0000000   1.0000000   1.0000000   1.0000000  47.0000000
 Leave Link  101 at Sat Sep 12 00:13:51 2026, MaxMem=  6442450944 cpu:               0.0 elap:               0.3
 (Enter C:\G16W\l202.exe)
                          Input orientation:                          
 ---------------------------------------------------------------------
 Center     Atomic      Atomic             Coordinates (Angstroms)
 Number     Number       Type             X           Y           Z
 ---------------------------------------------------------------------
      1          8           0        0.157203   -0.100492    2.626991
      2         15           0        0.069607   -0.044493    1.163304
      3          6           0        1.166792   -1.236526    0.327247
      4          6           0        1.691956   -1.034741   -0.941876
      5          6           0        2.506392   -1.999945   -1.507150
      6          6           0        2.795669   -3.162547   -0.810599
      7          6           0        2.276474   -3.361367    0.458551
      8          6           0        1.463446   -2.397796    1.027112
      9          6           0       -1.601084   -0.398148    0.524976
     10          6           0       -1.842527   -0.947129   -0.727028
     11          6           0       -3.145051   -1.169900   -1.137226
     12          6           0       -4.203253   -0.845855   -0.303131
     13          6           0       -3.962206   -0.303544    0.948922
     14          6           0       -2.661381   -0.081191    1.362634
     15          6           0        0.513641    1.583938    0.474247
     16          6           0        0.007445    2.073442   -0.722137
     17          6           0        0.409889    3.316190   -1.178293
     18          6           0        1.314314    4.068046   -0.445332
     19          6           0        1.814986    3.582200    0.751795
     20          6           0        1.413441    2.341123    1.211398
     21          1           0        1.473765   -0.121933   -1.478618
     22          1           0        2.919456   -1.844342   -2.493424
     23          1           0        3.432355   -3.912319   -1.257069
     24          1           0        2.507467   -4.265374    1.002736
     25          1           0        1.055670   -2.521752    2.020234
     26          1           0       -1.014865   -1.209302   -1.371357
     27          1           0       -3.336170   -1.600225   -2.109779
     28          1           0       -5.217949   -1.022428   -0.628822
     29          1           0       -4.787714   -0.056885    1.600396
     30          1           0       -2.444807    0.328765    2.338833
     31          1           0       -0.706462    1.489685   -1.286482
     32          1           0        0.015119    3.701451   -2.107435
     33          1           0        1.624492    5.037702   -0.806466
     34          1           0        2.515351    4.171781    1.325042
     35          1           0        1.778541    1.943911    2.147808
     36         47           0        1.262283    0.011125    4.997018
 ---------------------------------------------------------------------
                    Distance matrix (angstroms):
                    1          2          3          4          5
     1  O    0.000000
     2  P    1.467375   0.000000
     3  C    2.756568   1.823115   0.000000
     4  C    3.995635   2.836263   1.388232   0.000000
     5  C    5.120325   4.110114   2.396320   1.383640   0.000000
     6  C    5.306101   4.588024   2.767217   2.400620   1.385824
     7  C    4.452724   4.045812   2.400747   2.777777   2.402147
     8  C    3.089254   2.738498   1.387935   2.405629   2.769207
     9  C    2.756563   1.823114   2.898812   3.660740   4.854549
    10  C    3.995642   2.836259   3.201757   3.542091   4.542038
    11  C    5.120336   4.110110   4.554241   4.842837   5.724039
    12  C    5.306106   4.588022   5.421013   5.932720   6.913821
    13  C    4.452716   4.045811   5.250101   6.006606   7.124102
    14  C    3.089237   2.738499   4.130585   5.017127   6.214753
    15  C    2.756567   1.823116   2.898833   3.201767   4.554252
    16  C    3.995632   2.836265   3.660762   3.542127   4.842878
    17  C    5.120327   4.110117   4.854562   4.542047   5.724051
    18  C    5.306108   4.588026   5.362567   5.140779   6.274474
    19  C    4.452732   4.045811   4.880627   4.919329   6.061453
    20  C    3.089259   2.738497   3.693526   4.013803   5.237358
    21  H    4.311591   2.992893   2.144224   1.081165   2.143376
    22  H    6.073690   4.973204   3.376012   2.137642   1.080542
    23  H    6.351580   5.668012   3.847428   3.377690   2.139421
    24  H    5.050563   4.876964   3.380476   3.857922   3.381079
    25  H    2.652904   2.800618   2.128464   3.374931   3.849586
    26  H    4.311611   2.992886   2.765072   2.746235   3.611483
    27  H    6.073701   4.973197   5.133034   5.192862   5.887144
    28  H    6.351578   5.668009   6.459475   6.917004   7.835333
    29  H    5.050545   4.876963   6.202306   7.028903   8.163106
    30  H    2.652876   2.800619   4.420437   5.452982   6.687963
    31  H    4.311595   2.992898   3.680411   3.499127   4.748541
    32  H    6.073693   4.973208   5.624735   5.157696   6.250816
    33  H    6.351583   5.668013   6.392240   6.074327   7.127214
    34  H    5.050569   4.876965   5.662507   5.738011   6.790552
    35  H    2.652911   2.800617   3.715354   4.292553   5.426093
    36  Ag   2.617382   4.015337   4.834512   6.045570   6.920723
                    6          7          8          9         10
     6  C    0.000000
     7  C    1.385581   0.000000
     8  C    2.395171   1.383020   0.000000
     9  C    5.362565   4.880629   3.693518   0.000000
    10  C    5.140810   4.919381   4.013838   1.388232   0.000000
    11  C    6.274510   6.061515   5.237397   2.396320   1.383639
    12  C    7.389824   6.992483   6.024080   2.767216   2.400619
    13  C    7.545773   6.965047   5.816331   2.400745   2.777778
    14  C    6.633030   5.996610   4.742724   1.387935   2.405630
    15  C    5.421033   5.250130   4.130617   2.898845   3.660723
    16  C    5.932756   6.006635   5.017149   3.201783   3.542071
    17  C    6.913840   7.124126   6.214775   4.554278   4.842820
    18  C    7.389811   7.545789   6.633057   5.421064   5.932704
    19  C    6.992455   6.965062   5.996643   5.250157   6.006591
    20  C    6.024069   5.816356   4.742765   4.130635   5.017113
    21  H    3.382161   3.858873   3.385017   3.680405   3.499090
    22  H    2.141235   3.380673   3.849734   5.624722   5.157677
    23  H    1.080214   2.140785   3.374591   6.392229   6.074346
    24  H    2.141838   1.080150   2.139725   5.662498   5.738056
    25  H    3.384055   2.152712   1.080712   3.715351   4.292602
    26  H    4.318540   4.337379   3.647903   2.144225   1.081166
    27  H    6.459734   6.418700   5.789000   3.376010   2.137640
    28  H    8.296459   7.925869   7.019601   3.847426   3.377690
    29  H    8.541998   7.882015   6.699666   3.380473   3.857922
    30  H    7.040651   6.280369   4.942589   2.128461   3.374930
    31  H    5.842487   5.956153   5.017343   2.765075   2.746215
    32  H    7.518491   7.847382   7.008841   5.133070   5.192848
    33  H    8.283463   8.518786   7.659933   6.459531   6.916989
    34  H    7.644077   7.586579   6.659926   6.202370   7.028893
    35  H    5.988542   5.589946   4.495071   4.420485   5.452974
    36  Ag   6.793517   5.744559   4.647958   5.325930   6.582005
                   11         12         13         14         15
    11  C    0.000000
    12  C    1.385825   0.000000
    13  C    2.402151   1.385583   0.000000
    14  C    2.769210   2.395173   1.383020   0.000000
    15  C    4.854534   5.362583   4.880688   3.693596   0.000000
    16  C    4.542004   5.140801   4.919414   4.013894   1.388230
    17  C    5.724010   6.274520   6.061578   5.237481   2.396320
    18  C    6.913807   7.389871   6.992597   6.024206   2.767218
    19  C    7.124101   7.545843   6.965186   5.816478   2.400746
    20  C    6.214754   6.633090   5.996727   4.742853   1.387934
    21  H    4.748499   5.842462   5.956149   5.017350   2.765053
    22  H    6.250791   7.518467   7.847361   7.008825   5.133042
    23  H    7.127236   8.283460   8.518755   7.659896   6.459504
    24  H    6.790608   7.644093   7.586545   6.659873   6.202346
    25  H    5.426151   5.988566   5.589923   4.495024   4.420471
    26  H    2.143376   3.382162   3.858874   3.385019   3.680323
    27  H    1.080539   2.141234   3.380674   3.849735   5.624689
    28  H    2.139423   1.080213   2.140785   3.374591   6.392263
    29  H    3.381082   2.141841   1.080149   2.139723   5.662586
    30  H    3.849588   3.384056   2.152712   1.080709   3.715448
    31  H    3.611424   4.318480   4.337346   3.647900   2.144225
    32  H    5.887108   6.459734   6.418755   5.789077   3.376014
    33  H    7.835322   8.296517   7.926001   7.019741   3.847428
    34  H    8.163116   8.542087   7.882179   6.699831   3.380477
    35  H    6.687976   7.040721   6.280490   4.942716   2.128464
    36  Ag   7.645153   7.661467   6.616750   5.349057   4.846613
                   16         17         18         19         20
    16  C    0.000000
    17  C    1.383641   0.000000
    18  C    2.400619   1.385822   0.000000
    19  C    2.777774   2.402145   1.385580   0.000000
    20  C    2.405626   2.769205   2.395171   1.383020   0.000000
    21  H    2.746276   3.611470   4.318452   4.337254   3.647803
    22  H    5.192908   5.887154   6.459682   6.418618   5.788947
    23  H    6.917044   7.835359   8.296459   7.925858   7.019607
    24  H    7.028932   8.163139   8.542037   7.882063   6.699719
    25  H    5.452998   6.687987   7.040692   6.280424   4.942648
    26  H    3.499002   4.748397   5.842345   5.956032   5.017251
    27  H    5.157629   6.250741   7.518423   7.847327   7.008798
    28  H    6.074361   7.127278   8.283541   8.518854   7.659975
    29  H    5.738118   6.790716   7.644266   7.586746   6.660036
    30  H    4.292665   5.426248   5.988722   5.590113   4.495194
    31  H    1.081166   2.143377   3.382161   3.858872   3.385017
    32  H    2.137644   1.080543   2.141235   3.380671   3.849734
    33  H    3.377690   2.139420   1.080213   2.140783   3.374590
    34  H    3.857922   3.381079   2.141839   1.080152   2.139726
    35  H    3.374929   3.849585   3.384055   2.152713   1.080712
    36  Ag   6.207778   7.055813   6.788261   5.574942   4.447770
                   21         22         23         24         25
    21  H    0.000000
    22  H    2.467093   0.000000
    23  H    4.272258   2.463365   0.000000
    24  H    4.939004   4.272501   2.467141   0.000000
    25  H    4.263320   4.930080   4.280540   2.486611   0.000000
    26  H    2.717932   4.140192   5.205490   5.232850   4.184797
    27  H    5.071409   6.272131   7.203181   7.137147   6.098728
    28  H    6.805298   8.388662   9.141877   8.535850   6.973074
    29  H    6.977871   8.908133   9.518351   8.443237   6.355861
    30  H    5.489196   7.539789   8.090633   6.885948   4.525516
    31  H    2.718017   5.071462   6.805315   6.977862   5.489181
    32  H    4.140208   6.272159   8.388690   8.908157   7.539805
    33  H    5.205415   7.203144   9.141897   9.518407   8.090682
    34  H    5.232723   7.137067   8.535858   8.443313   6.886025
    35  H    4.184682   6.098654   6.973071   6.355922   4.525590
    36  Ag   6.480454   7.892762   7.695208   5.982743   3.914000
                   26         27         28         29         30
    26  H    0.000000
    27  H    2.467092   0.000000
    28  H    4.272259   2.463367   0.000000
    29  H    4.939005   4.272502   2.467142   0.000000
    30  H    4.263320   4.930079   4.280539   2.486610   0.000000
    31  H    2.717875   4.140136   5.205453   5.232835   4.184792
    32  H    5.071309   6.272074   7.203217   7.137248   6.098815
    33  H    6.805172   8.388615   9.141976   8.536052   6.973248
    34  H    6.977754   8.908106   9.518473   8.443471   6.356077
    35  H    5.489116   7.539776   8.090718   6.886113   4.525688
    36  Ag   6.872484   8.616773   8.643594   6.938597   4.572675
                   31         32         33         34         35
    31  H    0.000000
    32  H    2.467094   0.000000
    33  H    4.272258   2.463365   0.000000
    34  H    4.939006   4.272501   2.467139   0.000000
    35  H    4.263321   4.930081   4.280538   2.486612   0.000000
    36  Ag   6.748664   8.102294   7.686228   5.688993   3.481405
                   36
    36  Ag   0.000000
 Symmetry turned off by external request.
 Stoichiometry    C18H15AgOP(2)
 Framework group  C1[X(C18H15AgOP)]
 Deg. of freedom   102
 Full point group                 C1      NOp   1
 Rotational constants (GHZ):           0.2180037           0.1484177           0.1459512
 Leave Link  202 at Sat Sep 12 00:13:51 2026, MaxMem=  6442450944 cpu:               0.0 elap:               0.1
 (Enter C:\G16W\l301.exe)
 Standard basis: def2SVP (5D, 7F)
 Ernie: Thresh=  0.10000D-02 Tol=  0.10000D-05 Strict=F.
   390 basis functions,   682 primitive gaussians,   415 cartesian basis functions
    83 alpha electrons       82 beta electrons
       nuclear repulsion energy      1864.1384162882 Hartrees.
 IExCor= 1009 DFT=T Ex+Corr=PBE1PBE ExCW=0 ScaHFX=  0.250000
 ScaDFX=  0.750000  0.750000  1.000000  1.000000 ScalE2=  1.000000  1.000000
 IRadAn=      5 IRanWt=     -1 IRanGd=            0 ICorTp=0 IEmpDi=141
 NAtoms=   36 NActive=   36 NUniq=   36 SFac= 1.00D+00 NAtFMM=   60 NAOKFM=F Big=F
 Integral buffers will be    131072 words long.
 Raffenetti 2 integral format.
 Two-electron integral symmetry is turned off.
 R6Disp:  Grimme-D3(BJ) Dispersion energy=       -0.0512574252 Hartrees.
 Nuclear repulsion after empirical dispersion term =     1864.0871588629 Hartrees.
 Leave Link  301 at Sat Sep 12 00:13:52 2026, MaxMem=  6442450944 cpu:               0.0 elap:               0.2
 (Enter C:\G16W\l302.exe)
 NPDir=0 NMtPBC=     1 NCelOv=     1 NCel=       1 NClECP=     1 NCelD=      1
         NCelK=      1 NCelE2=     1 NClLst=     1 CellRange=     0.0.
 One-electron integrals computed using PRISM.
   1 Symmetry operations used in ECPInt.
 ECPInt:  NShTT=   15931 NPrTT=   58300 LenC2=   14669 LenP2D=   37142.
 LDataN:  DoStor=T MaxTD1= 7 Len=  274
 NBasis=   390 RedAO= T EigKep=  2.60D-04  NBF=   390
 NBsUse=   390 1.00D-06 EigRej= -1.00D+00 NBFU=   390
 Precomputing XC quadrature grid using
 IXCGrd= 4 IRadAn=           5 IRanWt=          -1 IRanGd=           0 AccXCQ= 0.00D+00.
 Defaulting to unpruned grid for atomic number  47.
 Generated NRdTot=       0 NPtTot=           0 NUsed=           0 NTot=          32
 NSgBfM=   411   411   411   411   411 MxSgAt=    36 MxSgA2=    36.
 Leave Link  302 at Sat Sep 12 00:14:02 2026, MaxMem=  6442450944 cpu:              10.0 elap:              10.1
 (Enter C:\G16W\l303.exe)
 DipDrv:  MaxL=1.
 Leave Link  303 at Sat Sep 12 00:14:04 2026, MaxMem=  6442450944 cpu:               2.0 elap:               1.4
 (Enter C:\G16W\l401.exe)
 Initial guess from the checkpoint file:  "Ph3PO.chk"
 B after Tr=     0.054328    0.002546    0.174389
         Rot=    0.999997    0.000491   -0.002336   -0.000119 Ang=   0.27 deg.
 Guess basis will be translated and rotated to current coordinates.
 JPrj=2 DoOrth=T DoCkMO=T.
 Initial guess <Sx>= 0.0000 <Sy>= 0.0000 <Sz>= 0.5000 <S**2>= 0.7518 S= 0.5009
 Leave Link  401 at Sat Sep 12 00:14:33 2026, MaxMem=  6442450944 cpu:              29.0 elap:              29.2
 (Enter C:\G16W\l502.exe)
 Two-electron integral symmetry not used.
 UHF open shell SCF:
 Using DIIS extrapolation, IDIIS=  1040.
 NGot=  6442450944 LenX=  6442098989 LenY=  6441926323
 Requested convergence on RMS density matrix=1.00D-08 within 128 cycles.
 Requested convergence on MAX density matrix=1.00D-06.
 Requested convergence on             energy=1.00D-06.
 No special actions if energy rises.
 Fock matrices will be formed incrementally for  20 cycles.

 Cycle   1  Pass 1  IDiag  1:
 FoFJK:  IHMeth= 1 ICntrl=       0 DoSepK=F KAlg= 0 I1Cent=           0 FoldK=F
 IRaf= 850000000 NMat=       1 IRICut=       1 DoRegI=T DoRafI=F ISym2E= 0 IDoP0=0 IntGTp=1.
 FoFCou: FMM=F IPFlag=           0 FMFlag=      100000 FMFlg1=           0
         NFxFlg=           0 DoJE=F BraDBF=F KetDBF=F FulRan=T
         wScrn=  0.000000 ICntrl=         0 IOpCl=  1 I1Cent=           0 NGrid=           0
         NMat0=    1 NMatS0=      1 NMatT0=    0 NMatD0=    1 NMtDS0=    0 NMtDT0=    0
 Symmetry not used in FoFCou.
 Defaulting to unpruned grid for atomic number  47.
 Defaulting to unpruned grid for atomic number  47.
 Defaulting to unpruned grid for atomic number  47.
 Defaulting to unpruned grid for atomic number  47.
 Defaulting to unpruned grid for atomic number  47.
 Defaulting to unpruned grid for atomic number  47.
 Defaulting to unpruned grid for atomic number  47.
 Defaulting to unpruned grid for atomic number  47.
 E= -1256.84345511009    
 DIIS: error= 1.05D-02 at cycle   1 NSaved=   1.
 NSaved= 1 IEnMin= 1 EnMin= -1256.84345511009     IErMin= 1 ErrMin= 1.05D-02
 ErrMax= 1.05D-02  0.00D+00 EMaxC= 1.00D-01 BMatC= 4.34D-02 BMatP= 4.34D-02
 IDIUse=3 WtCom= 8.95D-01 WtEn= 1.05D-01
 Coeff-Com:  0.100D+01
 Coeff-En:   0.100D+01
 Coeff:      0.100D+01
 Gap=     0.107 Goal=   None    Shift=    0.000
 Gap=     0.246 Goal=   None    Shift=    0.000
 GapD=    0.107 DampG=1.000 DampE=0.250 DampFc=0.2500 IDamp=-1.
 Damping current iteration by 2.50D-01
 RMSDP=5.07D-04 MaxDP=6.69D-02              OVMax= 5.18D-02

 Cycle   2  Pass 1  IDiag  1:
 RMSU=  1.27D-04    CP:  1.00D+00
 E= -1256.84476622858     Delta-E=       -0.001311118494 Rises=F Damp=T
 DIIS: error= 7.77D-03 at cycle   2 NSaved=   2.
 NSaved= 2 IEnMin= 2 EnMin= -1256.84476622858     IErMin= 2 ErrMin= 7.77D-03
 ErrMax= 7.77D-03  0.00D+00 EMaxC= 1.00D-01 BMatC= 2.39D-02 BMatP= 4.34D-02
 IDIUse=3 WtCom= 9.22D-01 WtEn= 7.77D-02
 Coeff-Com: -0.249D+01 0.349D+01
 Coeff-En:   0.000D+00 0.100D+01
 Coeff:     -0.230D+01 0.330D+01
 Gap=     0.108 Goal=   None    Shift=    0.000
 Gap=     0.219 Goal=   None    Shift=    0.000
 RMSDP=3.69D-04 MaxDP=4.84D-02 DE=-1.31D-03 OVMax= 1.55D-02

 Cycle   3  Pass 1  IDiag  1:
 RMSU=  2.07D-04    CP:  1.00D+00  3.00D+00
 E= -1256.84770264405     Delta-E=       -0.002936415469 Rises=F Damp=F
 DIIS: error= 2.38D-03 at cycle   3 NSaved=   3.
 NSaved= 3 IEnMin= 3 EnMin= -1256.84770264405     IErMin= 3 ErrMin= 2.38D-03
 ErrMax= 2.38D-03  0.00D+00 EMaxC= 1.00D-01 BMatC= 6.99D-03 BMatP= 2.39D-02
 IDIUse=3 WtCom= 9.76D-01 WtEn= 2.38D-02
 Coeff-Com: -0.167D+01 0.222D+01 0.448D+00
 Coeff-En:   0.000D+00 0.000D+00 0.100D+01
 Coeff:     -0.163D+01 0.217D+01 0.461D+00
 Gap=     0.108 Goal=   None    Shift=    0.000
 Gap=     0.218 Goal=   None    Shift=    0.000
 RMSDP=1.49D-04 MaxDP=9.02D-03 DE=-2.94D-03 OVMax= 9.47D-03

 Cycle   4  Pass 1  IDiag  1:
 RMSU=  1.24D-04    CP:  1.00D+00  3.00D+00  6.06D-01
 E= -1256.84905556817     Delta-E=       -0.001352924125 Rises=F Damp=F
 DIIS: error= 5.72D-04 at cycle   4 NSaved=   4.
 NSaved= 4 IEnMin= 4 EnMin= -1256.84905556817     IErMin= 4 ErrMin= 5.72D-04
 ErrMax= 5.72D-04  0.00D+00 EMaxC= 1.00D-01 BMatC= 2.40D-04 BMatP= 6.99D-03
 IDIUse=3 WtCom= 9.94D-01 WtEn= 5.72D-03
 Coeff-Com: -0.772D+00 0.102D+01 0.256D+00 0.493D+00
 Coeff-En:   0.000D+00 0.000D+00 0.000D+00 0.100D+01
 Coeff:     -0.767D+00 0.102D+01 0.254D+00 0.496D+00
 Gap=     0.109 Goal=   None    Shift=    0.000
 Gap=     0.219 Goal=   None    Shift=    0.000
 RMSDP=3.24D-05 MaxDP=4.38D-03 DE=-1.35D-03 OVMax= 2.94D-03

 Cycle   5  Pass 1  IDiag  1:
 RMSU=  2.61D-05    CP:  1.00D+00  3.00D+00  6.89D-01  9.32D-01
 E= -1256.84911102915     Delta-E=       -0.000055460972 Rises=F Damp=F
 DIIS: error= 2.32D-04 at cycle   5 NSaved=   5.
 NSaved= 5 IEnMin= 5 EnMin= -1256.84911102915     IErMin= 5 ErrMin= 2.32D-04
 ErrMax= 2.32D-04  0.00D+00 EMaxC= 1.00D-01 BMatC= 2.31D-05 BMatP= 2.40D-04
 IDIUse=3 WtCom= 9.98D-01 WtEn= 2.32D-03
 Coeff-Com: -0.198D-01 0.244D-01 0.282D-01 0.248D+00 0.720D+00
 Coeff-En:   0.000D+00 0.000D+00 0.000D+00 0.000D+00 0.100D+01
 Coeff:     -0.197D-01 0.244D-01 0.281D-01 0.247D+00 0.720D+00
 Gap=     0.109 Goal=   None    Shift=    0.000
 Gap=     0.219 Goal=   None    Shift=    0.000
 RMSDP=1.60D-05 MaxDP=2.08D-03 DE=-5.55D-05 OVMax= 2.52D-03

 Cycle   6  Pass 1  IDiag  1:
 RMSU=  1.27D-05    CP:  1.00D+00  3.00D+00  7.06D-01  9.97D-01  8.38D-01
 E= -1256.84911977048     Delta-E=       -0.000008741333 Rises=F Damp=F
 DIIS: error= 1.10D-04 at cycle   6 NSaved=   6.
 NSaved= 6 IEnMin= 6 EnMin= -1256.84911977048     IErMin= 6 ErrMin= 1.10D-04
 ErrMax= 1.10D-04  0.00D+00 EMaxC= 1.00D-01 BMatC= 8.88D-06 BMatP= 2.31D-05
 IDIUse=3 WtCom= 9.99D-01 WtEn= 1.10D-03
 Coeff-Com:  0.210D+00-0.280D+00-0.518D-01 0.464D-01 0.498D+00 0.578D+00
 Coeff-En:   0.000D+00 0.000D+00 0.000D+00 0.000D+00 0.000D+00 0.100D+01
 Coeff:      0.210D+00-0.280D+00-0.517D-01 0.463D-01 0.497D+00 0.578D+00
 Gap=     0.109 Goal=   None    Shift=    0.000
 Gap=     0.219 Goal=   None    Shift=    0.000
 RMSDP=9.00D-06 MaxDP=1.25D-03 DE=-8.74D-06 OVMax= 1.47D-03

 Cycle   7  Pass 1  IDiag  1:
 RMSU=  6.76D-06    CP:  1.00D+00  3.00D+00  7.17D-01  1.03D+00  9.88D-01
                    CP:  9.83D-01
 E= -1256.84912333977     Delta-E=       -0.000003569291 Rises=F Damp=F
 DIIS: error= 3.34D-05 at cycle   7 NSaved=   7.
 NSaved= 7 IEnMin= 7 EnMin= -1256.84912333977     IErMin= 7 ErrMin= 3.34D-05
 ErrMax= 3.34D-05  0.00D+00 EMaxC= 1.00D-01 BMatC= 5.66D-07 BMatP= 8.88D-06
 IDIUse=1 WtCom= 1.00D+00 WtEn= 0.00D+00
 Coeff-Com:  0.817D-01-0.108D+00-0.237D-01-0.228D-01 0.618D-01 0.234D+00
 Coeff-Com:  0.778D+00
 Coeff:      0.817D-01-0.108D+00-0.237D-01-0.228D-01 0.618D-01 0.234D+00
 Coeff:      0.778D+00
 Gap=     0.109 Goal=   None    Shift=    0.000
 Gap=     0.219 Goal=   None    Shift=    0.000
 RMSDP=3.09D-06 MaxDP=5.65D-04 DE=-3.57D-06 OVMax= 6.49D-04

 Cycle   8  Pass 1  IDiag  1:
 RMSU=  1.16D-06    CP:  1.00D+00  3.00D+00  7.21D-01  1.04D+00  1.01D+00
                    CP:  1.17D+00  1.07D+00
 E= -1256.84912365553     Delta-E=       -0.000000315760 Rises=F Damp=F
 DIIS: error= 7.66D-06 at cycle   8 NSaved=   8.
 NSaved= 8 IEnMin= 8 EnMin= -1256.84912365553     IErMin= 8 ErrMin= 7.66D-06
 ErrMax= 7.66D-06  0.00D+00 EMaxC= 1.00D-01 BMatC= 8.34D-08 BMatP= 5.66D-07
 IDIUse=1 WtCom= 1.00D+00 WtEn= 0.00D+00
 Coeff-Com:  0.839D-02-0.110D-01-0.345D-02-0.141D-01-0.294D-01 0.263D-01
 Coeff-Com:  0.317D+00 0.706D+00
 Coeff:      0.839D-02-0.110D-01-0.345D-02-0.141D-01-0.294D-01 0.263D-01
 Coeff:      0.317D+00 0.706D+00
 Gap=     0.109 Goal=   None    Shift=    0.000
 Gap=     0.219 Goal=   None    Shift=    0.000
 RMSDP=1.01D-06 MaxDP=1.48D-04 DE=-3.16D-07 OVMax= 1.62D-04

 Cycle   9  Pass 1  IDiag  1:
 RMSU=  6.57D-07    CP:  1.00D+00  3.00D+00  7.21D-01  1.04D+00  1.01D+00
                    CP:  1.20D+00  1.15D+00  8.26D-01
 E= -1256.84912368108     Delta-E=       -0.000000025549 Rises=F Damp=F
 DIIS: error= 6.91D-06 at cycle   9 NSaved=   9.
 NSaved= 9 IEnMin= 9 EnMin= -1256.84912368108     IErMin= 9 ErrMin= 6.91D-06
 ErrMax= 6.91D-06  0.00D+00 EMaxC= 1.00D-01 BMatC= 4.01D-08 BMatP= 8.34D-08
 IDIUse=1 WtCom= 1.00D+00 WtEn= 0.00D+00
 Coeff-Com: -0.883D-02 0.118D-01 0.189D-02-0.534D-02-0.295D-01-0.247D-01
 Coeff-Com:  0.705D-01 0.456D+00 0.529D+00
 Coeff:     -0.883D-02 0.118D-01 0.189D-02-0.534D-02-0.295D-01-0.247D-01
 Coeff:      0.705D-01 0.456D+00 0.529D+00
 Gap=     0.109 Goal=   None    Shift=    0.000
 Gap=     0.219 Goal=   None    Shift=    0.000
 RMSDP=4.56D-07 MaxDP=4.85D-05 DE=-2.55D-08 OVMax= 5.23D-05

 Cycle  10  Pass 1  IDiag  1:
 RMSU=  2.50D-07    CP:  1.00D+00  3.00D+00  7.22D-01  1.04D+00  1.02D+00
                    CP:  1.21D+00  1.17D+00  1.04D+00  7.11D-01
 E= -1256.84912369396     Delta-E=       -0.000000012884 Rises=F Damp=F
 DIIS: error= 1.22D-06 at cycle  10 NSaved=  10.
 NSaved=10 IEnMin=10 EnMin= -1256.84912369396     IErMin=10 ErrMin= 1.22D-06
 ErrMax= 1.22D-06  0.00D+00 EMaxC= 1.00D-01 BMatC= 1.73D-09 BMatP= 4.01D-08
 IDIUse=1 WtCom= 1.00D+00 WtEn= 0.00D+00
 Coeff-Com: -0.461D-02 0.613D-02 0.118D-02-0.388D-03-0.823D-02-0.142D-01
 Coeff-Com: -0.152D-01 0.795D-01 0.209D+00 0.747D+00
 Coeff:     -0.461D-02 0.613D-02 0.118D-02-0.388D-03-0.823D-02-0.142D-01
 Coeff:     -0.152D-01 0.795D-01 0.209D+00 0.747D+00
 Gap=     0.109 Goal=   None    Shift=    0.000
 Gap=     0.219 Goal=   None    Shift=    0.000
 RMSDP=1.45D-07 MaxDP=1.95D-05 DE=-1.29D-08 OVMax= 2.07D-05

 Cycle  11  Pass 1  IDiag  1:
 RMSU=  7.43D-08    CP:  1.00D+00  3.00D+00  7.22D-01  1.04D+00  1.02D+00
                    CP:  1.22D+00  1.18D+00  1.06D+00  8.42D-01  9.89D-01
 E= -1256.84912369458     Delta-E=       -0.000000000619 Rises=F Damp=F
 DIIS: error= 3.77D-07 at cycle  11 NSaved=  11.
 NSaved=11 IEnMin=11 EnMin= -1256.84912369458     IErMin=11 ErrMin= 3.77D-07
 ErrMax= 3.77D-07  0.00D+00 EMaxC= 1.00D-01 BMatC= 2.31D-10 BMatP= 1.73D-09
 IDIUse=1 WtCom= 1.00D+00 WtEn= 0.00D+00
 Coeff-Com: -0.108D-02 0.143D-02 0.310D-03 0.298D-03-0.868D-03-0.315D-02
 Coeff-Com: -0.105D-01-0.100D-01 0.326D-01 0.307D+00 0.684D+00
 Coeff:     -0.108D-02 0.143D-02 0.310D-03 0.298D-03-0.868D-03-0.315D-02
 Coeff:     -0.105D-01-0.100D-01 0.326D-01 0.307D+00 0.684D+00
 Gap=     0.109 Goal=   None    Shift=    0.000
 Gap=     0.219 Goal=   None    Shift=    0.000
 RMSDP=4.36D-08 MaxDP=4.20D-06 DE=-6.19D-10 OVMax= 3.62D-06

 Cycle  12  Pass 1  IDiag  1:
 RMSU=  3.04D-08    CP:  1.00D+00  3.00D+00  7.22D-01  1.04D+00  1.02D+00
                    CP:  1.22D+00  1.19D+00  1.07D+00  8.57D-01  1.07D+00
                    CP:  9.01D-01
 E= -1256.84912369487     Delta-E=       -0.000000000287 Rises=F Damp=F
 DIIS: error= 2.42D-07 at cycle  12 NSaved=  12.
 NSaved=12 IEnMin=12 EnMin= -1256.84912369487     IErMin=12 ErrMin= 2.42D-07
 ErrMax= 2.42D-07  0.00D+00 EMaxC= 1.00D-01 BMatC= 6.51D-11 BMatP= 2.31D-10
 IDIUse=1 WtCom= 1.00D+00 WtEn= 0.00D+00
 Coeff-Com:  0.868D-03-0.116D-02-0.206D-03 0.274D-03 0.204D-02 0.282D-02
 Coeff-Com: -0.290D-03-0.299D-01-0.463D-01-0.553D-01 0.304D+00 0.823D+00
 Coeff:      0.868D-03-0.116D-02-0.206D-03 0.274D-03 0.204D-02 0.282D-02
 Coeff:     -0.290D-03-0.299D-01-0.463D-01-0.553D-01 0.304D+00 0.823D+00
 Gap=     0.109 Goal=   None    Shift=    0.000
 Gap=     0.219 Goal=   None    Shift=    0.000
 RMSDP=2.91D-08 MaxDP=2.74D-06 DE=-2.87D-10 OVMax= 3.45D-06

 Cycle  13  Pass 1  IDiag  1:
 RMSU=  1.75D-08    CP:  1.00D+00  3.00D+00  7.22D-01  1.04D+00  1.02D+00
                    CP:  1.22D+00  1.19D+00  1.08D+00  8.66D-01  1.10D+00
                    CP:  1.08D+00  1.42D+00
 E= -1256.84912369485     Delta-E=        0.000000000018 Rises=F Damp=F
 DIIS: error= 1.45D-07 at cycle  13 NSaved=  13.
 NSaved=13 IEnMin=12 EnMin= -1256.84912369487     IErMin=13 ErrMin= 1.45D-07
 ErrMax= 1.45D-07  0.00D+00 EMaxC= 1.00D-01 BMatC= 1.57D-11 BMatP= 6.51D-11
 IDIUse=1 WtCom= 1.00D+00 WtEn= 0.00D+00
 Coeff-Com:  0.193D-03-0.256D-03-0.658D-04-0.157D-03-0.998D-04 0.456D-03
 Coeff-Com:  0.362D-02 0.839D-02-0.223D-02-0.927D-01-0.253D+00-0.963D-01
 Coeff-Com:  0.143D+01
 Coeff:      0.193D-03-0.256D-03-0.658D-04-0.157D-03-0.998D-04 0.456D-03
 Coeff:      0.362D-02 0.839D-02-0.223D-02-0.927D-01-0.253D+00-0.963D-01
 Coeff:      0.143D+01
 Gap=     0.109 Goal=   None    Shift=    0.000
 Gap=     0.219 Goal=   None    Shift=    0.000
 RMSDP=3.05D-08 MaxDP=1.37D-06 DE= 1.77D-11 OVMax= 3.77D-06

 Cycle  14  Pass 1  IDiag  1:
 RMSU=  9.56D-09    CP:  1.00D+00  3.00D+00  7.22D-01  1.04D+00  1.02D+00
                    CP:  1.22D+00  1.19D+00  1.08D+00  8.72D-01  1.12D+00
                    CP:  1.25D+00  2.13D+00  1.79D+00
 E= -1256.84912369490     Delta-E=       -0.000000000047 Rises=F Damp=F
 DIIS: error= 7.66D-08 at cycle  14 NSaved=  14.
 NSaved=14 IEnMin=14 EnMin= -1256.84912369490     IErMin=14 ErrMin= 7.66D-08
 ErrMax= 7.66D-08  0.00D+00 EMaxC= 1.00D-01 BMatC= 5.43D-12 BMatP= 1.57D-11
 IDIUse=1 WtCom= 1.00D+00 WtEn= 0.00D+00
 Coeff-Com: -0.261D-03 0.349D-03 0.550D-04-0.174D-03-0.822D-03-0.860D-03
 Coeff-Com:  0.132D-02 0.149D-01 0.167D-01-0.154D-01-0.209D+00-0.328D+00
 Coeff-Com:  0.527D+00 0.994D+00
 Coeff:     -0.261D-03 0.349D-03 0.550D-04-0.174D-03-0.822D-03-0.860D-03
 Coeff:      0.132D-02 0.149D-01 0.167D-01-0.154D-01-0.209D+00-0.328D+00
 Coeff:      0.527D+00 0.994D+00
 Gap=     0.109 Goal=   None    Shift=    0.000
 Gap=     0.219 Goal=   None    Shift=    0.000
 RMSDP=1.85D-08 MaxDP=8.93D-07 DE=-4.68D-11 OVMax= 2.26D-06

 Cycle  15  Pass 1  IDiag  1:
 RMSU=  5.40D-09    CP:  1.00D+00  3.00D+00  7.22D-01  1.04D+00  1.02D+00
                    CP:  1.22D+00  1.19D+00  1.08D+00  8.72D-01  1.13D+00
                    CP:  1.32D+00  2.55D+00  2.38D+00  1.38D+00
 E= -1256.84912369480     Delta-E=        0.000000000096 Rises=F Damp=F
 DIIS: error= 3.42D-08 at cycle  15 NSaved=  15.
 NSaved=15 IEnMin=14 EnMin= -1256.84912369490     IErMin=15 ErrMin= 3.42D-08
 ErrMax= 3.42D-08  0.00D+00 EMaxC= 1.00D-01 BMatC= 1.70D-12 BMatP= 5.43D-12
 IDIUse=1 WtCom= 1.00D+00 WtEn= 0.00D+00
 Coeff-Com: -0.168D-03 0.224D-03 0.418D-04-0.420D-04-0.344D-03-0.505D-03
 Coeff-Com: -0.318D-03 0.531D-02 0.856D-02 0.130D-01-0.455D-01-0.138D+00
 Coeff-Com: -0.821D-01 0.515D+00 0.725D+00
 Coeff:     -0.168D-03 0.224D-03 0.418D-04-0.420D-04-0.344D-03-0.505D-03
 Coeff:     -0.318D-03 0.531D-02 0.856D-02 0.130D-01-0.455D-01-0.138D+00
 Coeff:     -0.821D-01 0.515D+00 0.725D+00
 Gap=     0.109 Goal=   None    Shift=    0.000
 Gap=     0.219 Goal=   None    Shift=    0.000
 RMSDP=6.74D-09 MaxDP=3.51D-07 DE= 9.64D-11 OVMax= 8.90D-07

 SCF Done:  E(UPBE1PBE) =  -1256.84912369     A.U. after   15 cycles
            NFock= 15  Conv=0.67D-08     -V/T= 2.0853
 <Sx>= 0.0000 <Sy>= 0.0000 <Sz>= 0.5000 <S**2>= 0.7516 S= 0.5008
 <L.S>= 0.000000000000E+00
 KE= 1.158016485182D+03 PE=-6.639532165003D+03 EE= 2.360579397264D+03
 Annihilation of the first spin contaminant:
 S**2 before annihilation     0.7516,   after     0.7500
 Leave Link  502 at Sat Sep 12 00:20:19 2026, MaxMem=  6442450944 cpu:             346.0 elap:             346.3
 (Enter C:\G16W\l508.exe)
 QCSCF skips out because SCF is already converged.
 Leave Link  508 at Sat Sep 12 00:20:20 2026, MaxMem=  6442450944 cpu:               0.0 elap:               0.1
 (Enter C:\G16W\l601.exe)
 Copying SCF densities to generalized density rwf, IOpCl= 1 IROHF=0.

 **********************************************************************

            Population analysis using the SCF Density.

 **********************************************************************

 Alpha  occ. eigenvalues --  -77.28412 -19.17037 -10.25657 -10.25605 -10.25593
 Alpha  occ. eigenvalues --  -10.25397 -10.25340 -10.25319 -10.25264 -10.25208
 Alpha  occ. eigenvalues --  -10.25186 -10.25178 -10.25158 -10.25132 -10.25107
 Alpha  occ. eigenvalues --  -10.25091 -10.25085 -10.24981 -10.24923 -10.24887
 Alpha  occ. eigenvalues --   -6.68436  -4.82509  -4.82425  -4.82423  -3.71922
 Alpha  occ. eigenvalues --   -2.29976  -2.29962  -2.29751  -1.00295  -0.89986
 Alpha  occ. eigenvalues --   -0.89506  -0.89462  -0.80357  -0.78208  -0.78166
 Alpha  occ. eigenvalues --   -0.78142  -0.77806  -0.77776  -0.67733  -0.64078
 Alpha  occ. eigenvalues --   -0.63906  -0.63876  -0.62730  -0.62694  -0.58780
 Alpha  occ. eigenvalues --   -0.55537  -0.55495  -0.52616  -0.49110  -0.49014
 Alpha  occ. eigenvalues --   -0.48989  -0.47596  -0.47561  -0.47001  -0.45312
 Alpha  occ. eigenvalues --   -0.45287  -0.45255  -0.44858  -0.44851  -0.42356
 Alpha  occ. eigenvalues --   -0.40497  -0.40463  -0.39960  -0.38554  -0.37387
 Alpha  occ. eigenvalues --   -0.37359  -0.37016  -0.36944  -0.36884  -0.30966
 Alpha  occ. eigenvalues --   -0.30818  -0.29561  -0.29560  -0.29257  -0.29237
 Alpha  occ. eigenvalues --   -0.28930  -0.28543  -0.28495  -0.28363  -0.28167
 Alpha  occ. eigenvalues --   -0.28109  -0.27885  -0.14651
 Alpha virt. eigenvalues --   -0.03746  -0.03717  -0.02558  -0.02351  -0.01437
 Alpha virt. eigenvalues --   -0.01423   0.01437   0.01729   0.04140   0.06516
 Alpha virt. eigenvalues --    0.07320   0.07483   0.09204   0.10249   0.11102
 Alpha virt. eigenvalues --    0.11234   0.11343   0.12127   0.12207   0.13478
 Alpha virt. eigenvalues --    0.13838   0.13857   0.15077   0.16374   0.16404
 Alpha virt. eigenvalues --    0.16514   0.16982   0.17336   0.17547   0.19060
 Alpha virt. eigenvalues --    0.19395   0.21745   0.25758   0.27876   0.27896
 Alpha virt. eigenvalues --    0.28397   0.29219   0.29346   0.30155   0.30242
 Alpha virt. eigenvalues --    0.30442   0.31396   0.31455   0.31764   0.34354
 Alpha virt. eigenvalues --    0.35880   0.36186   0.36926   0.37072   0.38326
 Alpha virt. eigenvalues --    0.38725   0.39755   0.39844   0.41359   0.41547
 Alpha virt. eigenvalues --    0.43264   0.43953   0.44031   0.44459   0.44810
 Alpha virt. eigenvalues --    0.45069   0.46072   0.46424   0.47406   0.47721
 Alpha virt. eigenvalues --    0.48234   0.48320   0.48726   0.48915   0.49188
 Alpha virt. eigenvalues --    0.49362   0.49957   0.50222   0.50630   0.51225
 Alpha virt. eigenvalues --    0.51597   0.51883   0.52932   0.54804   0.55096
 Alpha virt. eigenvalues --    0.55936   0.56617   0.56655   0.57539   0.59580
 Alpha virt. eigenvalues --    0.60221   0.60285   0.60780   0.63252   0.63815
 Alpha virt. eigenvalues --    0.64058   0.65613   0.65870   0.66090   0.66933
 Alpha virt. eigenvalues --    0.67186   0.67515   0.68167   0.68262   0.68649
 Alpha virt. eigenvalues --    0.69632   0.70030   0.70422   0.71015   0.71234
 Alpha virt. eigenvalues --    0.71894   0.72386   0.72447   0.72609   0.74358
 Alpha virt. eigenvalues --    0.74775   0.74837   0.75539   0.76183   0.76817
 Alpha virt. eigenvalues --    0.77142   0.77516   0.79105   0.79419   0.80732
 Alpha virt. eigenvalues --    0.81777   0.82469   0.82621   0.84995   0.86069
 Alpha virt. eigenvalues --    0.86627   0.88981   0.90285   0.90613   0.92874
 Alpha virt. eigenvalues --    0.94492   0.94519   0.97860   0.98627   0.99228
 Alpha virt. eigenvalues --    1.00678   1.01077   1.03934   1.04927   1.08928
 Alpha virt. eigenvalues --    1.11784   1.11903   1.15273   1.15318   1.17678
 Alpha virt. eigenvalues --    1.18744   1.19250   1.20273   1.22638   1.22949
 Alpha virt. eigenvalues --    1.23883   1.23991   1.24403   1.24508   1.25268
 Alpha virt. eigenvalues --    1.25465   1.26832   1.28315   1.28394   1.29680
 Alpha virt. eigenvalues --    1.30711   1.30995   1.32572   1.33009   1.33507
 Alpha virt. eigenvalues --    1.34086   1.37151   1.37229   1.41117   1.43737
 Alpha virt. eigenvalues --    1.52212   1.56057   1.56840   1.59980   1.60256
 Alpha virt. eigenvalues --    1.65590   1.67530   1.67547   1.67871   1.69565
 Alpha virt. eigenvalues --    1.69593   1.70816   1.71292   1.71545   1.71587
 Alpha virt. eigenvalues --    1.74617   1.74921   1.74949   1.75490   1.75737
 Alpha virt. eigenvalues --    1.75844   1.77178   1.77249   1.77325   1.77839
 Alpha virt. eigenvalues --    1.77877   1.78231   1.80690   1.80714   1.80884
 Alpha virt. eigenvalues --    1.82396   1.84950   1.85001   1.86436   1.86485
 Alpha virt. eigenvalues --    1.86681   1.90972   1.91187   1.94802   1.95513
 Alpha virt. eigenvalues --    1.95563   1.95887   1.97299   1.97325   1.98184
 Alpha virt. eigenvalues --    1.99033   1.99046   1.99215   2.00627   2.00673
 Alpha virt. eigenvalues --    2.02037   2.06436   2.08392   2.08588   2.08841
 Alpha virt. eigenvalues --    2.10957   2.11284   2.11357   2.14923   2.15246
 Alpha virt. eigenvalues --    2.15281   2.17731   2.17773   2.19186   2.21257
 Alpha virt. eigenvalues --    2.24802   2.24829   2.29840   2.29912   2.29937
 Alpha virt. eigenvalues --    2.30237   2.30799   2.30819   2.31384   2.31423
 Alpha virt. eigenvalues --    2.31933   2.35476   2.35558   2.35721   2.36349
 Alpha virt. eigenvalues --    2.36394   2.37155   2.38935   2.41832   2.41993
 Alpha virt. eigenvalues --    2.54847   2.55149   2.55188   2.62589   2.62627
 Alpha virt. eigenvalues --    2.63359   2.64276   2.64353   2.64411   2.65407
 Alpha virt. eigenvalues --    2.65414   2.65496   2.65519   2.65595   2.65599
 Alpha virt. eigenvalues --    2.66180   2.66229   2.66274   2.66649   2.70000
 Alpha virt. eigenvalues --    2.70188   2.75497   2.75917   2.76024   2.76275
 Alpha virt. eigenvalues --    2.76398   2.76825   2.82094   2.82192   2.85034
 Alpha virt. eigenvalues --    2.88735   2.89915   2.89955   2.91211   2.91216
 Alpha virt. eigenvalues --    2.91706   2.92337   2.92541   3.05510   3.06731
 Alpha virt. eigenvalues --    3.06889   3.15783   3.15889   3.16211   3.24551
 Alpha virt. eigenvalues --    3.24602   3.24648   3.47114   3.65837   3.65944
 Alpha virt. eigenvalues --    3.66109  53.84477
  Beta  occ. eigenvalues --  -77.28406 -19.16945 -10.25655 -10.25605 -10.25593
  Beta  occ. eigenvalues --  -10.25394 -10.25340 -10.25320 -10.25263 -10.25208
  Beta  occ. eigenvalues --  -10.25185 -10.25177 -10.25158 -10.25130 -10.25107
  Beta  occ. eigenvalues --  -10.25090 -10.25080 -10.24982 -10.24923 -10.24887
  Beta  occ. eigenvalues --   -6.68428  -4.82494  -4.82419  -4.82418  -3.71810
  Beta  occ. eigenvalues --   -2.29925  -2.29915  -2.29751  -1.00193  -0.89979
  Beta  occ. eigenvalues --   -0.89504  -0.89460  -0.80344  -0.78206  -0.78163
  Beta  occ. eigenvalues --   -0.78138  -0.77804  -0.77775  -0.67708  -0.64073
  Beta  occ. eigenvalues --   -0.63904  -0.63873  -0.62727  -0.62691  -0.58763
  Beta  occ. eigenvalues --   -0.55533  -0.55491  -0.52588  -0.49096  -0.49011
  Beta  occ. eigenvalues --   -0.48986  -0.47594  -0.47557  -0.46989  -0.45307
  Beta  occ. eigenvalues --   -0.45280  -0.45249  -0.44848  -0.44844  -0.42124
  Beta  occ. eigenvalues --   -0.40495  -0.40461  -0.39951  -0.38504  -0.37372
  Beta  occ. eigenvalues --   -0.37345  -0.36990  -0.36930  -0.36863  -0.30792
  Beta  occ. eigenvalues --   -0.30672  -0.28992  -0.28985  -0.28967  -0.28947
  Beta  occ. eigenvalues --   -0.28540  -0.28445  -0.28319  -0.28225  -0.28086
  Beta  occ. eigenvalues --   -0.27947  -0.27697
  Beta virt. eigenvalues --   -0.05844  -0.03736  -0.03707  -0.02512  -0.02319
  Beta virt. eigenvalues --   -0.01419  -0.01407   0.04004   0.04402   0.05539
  Beta virt. eigenvalues --    0.07124   0.07362   0.07572   0.09342   0.10680
  Beta virt. eigenvalues --    0.11139   0.11346   0.12122   0.12222   0.12468
  Beta virt. eigenvalues --    0.13563   0.13947   0.14340   0.15372   0.16415
  Beta virt. eigenvalues --    0.16461   0.16534   0.17091   0.17462   0.17718
  Beta virt. eigenvalues --    0.19147   0.19663   0.22387   0.25962   0.27902
  Beta virt. eigenvalues --    0.27914   0.28413   0.29229   0.29360   0.30208
  Beta virt. eigenvalues --    0.30268   0.30521   0.31424   0.31466   0.31818
  Beta virt. eigenvalues --    0.34821   0.36566   0.36612   0.38315   0.38748
  Beta virt. eigenvalues --    0.39170   0.39769   0.39894   0.40423   0.41404
  Beta virt. eigenvalues --    0.41709   0.43394   0.43999   0.44093   0.44670
  Beta virt. eigenvalues --    0.44879   0.45281   0.46172   0.46703   0.47616
  Beta virt. eigenvalues --    0.47817   0.48670   0.48787   0.49012   0.49320
  Beta virt. eigenvalues --    0.49787   0.49843   0.50347   0.51002   0.51302
  Beta virt. eigenvalues --    0.51462   0.52011   0.52448   0.53811   0.55016
  Beta virt. eigenvalues --    0.55376   0.56328   0.56635   0.56792   0.58036
  Beta virt. eigenvalues --    0.59688   0.60244   0.60333   0.61625   0.63288
  Beta virt. eigenvalues --    0.63902   0.64106   0.65621   0.65890   0.66179
  Beta virt. eigenvalues --    0.66952   0.67211   0.67548   0.68173   0.68271
  Beta virt. eigenvalues --    0.68690   0.69688   0.70086   0.70446   0.71041
  Beta virt. eigenvalues --    0.71311   0.71937   0.72398   0.72472   0.72628
  Beta virt. eigenvalues --    0.74390   0.74783   0.74864   0.75548   0.76216
  Beta virt. eigenvalues --    0.76847   0.77171   0.77570   0.79133   0.79429
  Beta virt. eigenvalues --    0.80760   0.81872   0.82480   0.82680   0.85050
  Beta virt. eigenvalues --    0.86078   0.86689   0.88987   0.90310   0.90648
  Beta virt. eigenvalues --    0.92903   0.94496   0.94527   0.97891   0.98644
  Beta virt. eigenvalues --    0.99257   1.00690   1.01096   1.04047   1.04957
  Beta virt. eigenvalues --    1.08934   1.11792   1.11911   1.15298   1.15338
  Beta virt. eigenvalues --    1.17728   1.18762   1.19269   1.20284   1.22666
  Beta virt. eigenvalues --    1.22977   1.23894   1.24001   1.24408   1.24514
  Beta virt. eigenvalues --    1.25285   1.25487   1.26842   1.28323   1.28404
  Beta virt. eigenvalues --    1.29719   1.30727   1.31011   1.32587   1.33020
  Beta virt. eigenvalues --    1.33527   1.34109   1.37154   1.37232   1.41452
  Beta virt. eigenvalues --    1.43781   1.52221   1.56066   1.56862   1.59989
  Beta virt. eigenvalues --    1.60267   1.65608   1.67532   1.67548   1.67873
  Beta virt. eigenvalues --    1.69566   1.69596   1.70818   1.71293   1.71547
  Beta virt. eigenvalues --    1.71589   1.74619   1.74923   1.74951   1.75493
  Beta virt. eigenvalues --    1.75738   1.75847   1.77179   1.77253   1.77328
  Beta virt. eigenvalues --    1.77841   1.77880   1.78234   1.80692   1.80715
  Beta virt. eigenvalues --    1.80885   1.82402   1.84952   1.85005   1.86439
  Beta virt. eigenvalues --    1.86490   1.86683   1.90976   1.91195   1.94805
  Beta virt. eigenvalues --    1.95514   1.95563   1.95890   1.97304   1.97328
  Beta virt. eigenvalues --    1.98188   1.99036   1.99049   1.99218   2.00630
  Beta virt. eigenvalues --    2.00677   2.02040   2.06440   2.08515   2.08590
  Beta virt. eigenvalues --    2.09925   2.10968   2.11288   2.11380   2.14928
  Beta virt. eigenvalues --    2.15249   2.15282   2.17733   2.17774   2.19191
  Beta virt. eigenvalues --    2.21262   2.24807   2.24835   2.29843   2.29915
  Beta virt. eigenvalues --    2.29939   2.30238   2.30801   2.30822   2.31387
  Beta virt. eigenvalues --    2.31425   2.31936   2.35479   2.35562   2.35724
  Beta virt. eigenvalues --    2.36351   2.36398   2.37160   2.38938   2.41836
  Beta virt. eigenvalues --    2.41998   2.54849   2.55151   2.55192   2.62594
  Beta virt. eigenvalues --    2.62634   2.63361   2.64278   2.64357   2.64415
  Beta virt. eigenvalues --    2.65396   2.65404   2.65524   2.65548   2.65668
  Beta virt. eigenvalues --    2.65674   2.66183   2.66231   2.66279   2.66740
  Beta virt. eigenvalues --    2.70086   2.70281   2.75498   2.75920   2.76026
  Beta virt. eigenvalues --    2.76278   2.76402   2.76843   2.82148   2.82248
  Beta virt. eigenvalues --    2.85037   2.88738   2.89932   2.89972   2.91253
  Beta virt. eigenvalues --    2.91272   2.91709   2.92346   2.92551   3.05514
  Beta virt. eigenvalues --    3.06735   3.06894   3.15786   3.15891   3.16219
  Beta virt. eigenvalues --    3.24554   3.24604   3.24652   3.47251   3.65842
  Beta virt. eigenvalues --    3.65946   3.66114  53.84627
          Condensed to atoms (all electrons):
               1          2          3          4          5          6
     1  O    7.940184   0.595825  -0.052049   0.000786  -0.000024  -0.000011
     2  P    0.595825  13.045248   0.274280  -0.054681   0.003149   0.000450
     3  C   -0.052049   0.274280   5.752841   0.266221   0.087132  -0.171051
     4  C    0.000786  -0.054681   0.266221   5.084350   0.322453   0.090420
     5  C   -0.000024   0.003149   0.087132   0.322453   5.031093   0.273763
     6  C   -0.000011   0.000450  -0.171051   0.090420   0.273763   5.118858
     7  C    0.000759   0.008440   0.079848  -0.143874   0.085726   0.264410
     8  C    0.011270  -0.030607   0.215783   0.055095  -0.139512   0.093587
     9  C   -0.051501   0.275329  -0.062295  -0.004935  -0.000173  -0.000012
    10  C    0.000784  -0.054811  -0.008985  -0.000093  -0.000475   0.000006
    11  C   -0.000025   0.002984  -0.000252   0.000406  -0.000017   0.000000
    12  C   -0.000010   0.000483  -0.000072  -0.000008   0.000000   0.000000
    13  C    0.000725   0.008298   0.000005  -0.000002   0.000000   0.000000
    14  C    0.011079  -0.030469   0.007404  -0.000398   0.000014   0.000001
    15  C   -0.052706   0.273069  -0.062778  -0.009268  -0.000262  -0.000074
    16  C    0.000729  -0.055208  -0.005057  -0.000072   0.000397  -0.000008
    17  C   -0.000024   0.003178  -0.000181  -0.000480  -0.000019   0.000000
    18  C   -0.000013   0.000351  -0.000008   0.000006   0.000000   0.000000
    19  C    0.000783   0.008700  -0.000081  -0.000036  -0.000015   0.000001
    20  C    0.012813  -0.030090  -0.001559   0.001916  -0.000067  -0.000001
    21  H    0.000054  -0.012324  -0.073615   0.447899  -0.059616   0.013717
    22  H    0.000001  -0.000238   0.017260  -0.072206   0.455290  -0.074166
    23  H    0.000000   0.000031  -0.001559   0.014714  -0.068192   0.449586
    24  H   -0.000003  -0.000301   0.016553  -0.001801   0.014407  -0.072672
    25  H    0.009129  -0.005921  -0.079537   0.013366  -0.001792   0.013177
    26  H    0.000053  -0.012270   0.003773   0.003157   0.001445  -0.000161
    27  H    0.000000  -0.000236   0.000016   0.000015   0.000000   0.000000
    28  H    0.000000   0.000031   0.000000   0.000000   0.000000   0.000000
    29  H   -0.000003  -0.000299   0.000002   0.000000   0.000000   0.000000
    30  H    0.010557  -0.005600   0.000872  -0.000007   0.000001   0.000000
    31  H    0.000053  -0.012323   0.000314   0.000162   0.000100   0.000003
    32  H    0.000001  -0.000234   0.000010  -0.000008   0.000001   0.000000
    33  H    0.000000   0.000031   0.000000   0.000000   0.000000   0.000000
    34  H   -0.000002  -0.000295   0.000010   0.000001   0.000000   0.000000
    35  H    0.006342  -0.006713   0.000292   0.000359   0.000009   0.000000
    36  Ag   0.039457  -0.004390  -0.000259  -0.000426  -0.000060  -0.000040
               7          8          9         10         11         12
     1  O    0.000759   0.011270  -0.051501   0.000784  -0.000025  -0.000010
     2  P    0.008440  -0.030607   0.275329  -0.054811   0.002984   0.000483
     3  C    0.079848   0.215783  -0.062295  -0.008985  -0.000252  -0.000072
     4  C   -0.143874   0.055095  -0.004935  -0.000093   0.000406  -0.000008
     5  C    0.085726  -0.139512  -0.000173  -0.000475  -0.000017   0.000000
     6  C    0.264410   0.093587  -0.000012   0.000006   0.000000   0.000000
     7  C    5.074521   0.288681  -0.000069  -0.000038  -0.000015   0.000001
     8  C    0.288681   5.073229  -0.001751   0.001858  -0.000081   0.000000
     9  C   -0.000069  -0.001751   5.753338   0.266064   0.087258  -0.170118
    10  C   -0.000038   0.001858   0.266064   5.084923   0.321987   0.090147
    11  C   -0.000015  -0.000081   0.087258   0.321987   5.031182   0.274650
    12  C    0.000001   0.000000  -0.170118   0.090147   0.274650   5.116946
    13  C    0.000000  -0.000039   0.079911  -0.143977   0.085544   0.265202
    14  C   -0.000001  -0.000201   0.216962   0.054629  -0.139261   0.092446
    15  C    0.000011   0.007651  -0.062966  -0.004993  -0.000193  -0.000003
    16  C   -0.000003  -0.000374  -0.009223  -0.000106  -0.000469   0.000003
    17  C    0.000000   0.000014  -0.000213   0.000387  -0.000018   0.000000
    18  C    0.000000   0.000001  -0.000082  -0.000007   0.000000   0.000000
    19  C    0.000000  -0.000002   0.000032  -0.000004   0.000000   0.000000
    20  C   -0.000036  -0.000271   0.007359  -0.000375   0.000014   0.000001
    21  H   -0.001447   0.013594   0.000294   0.000174   0.000100   0.000003
    22  H    0.014498  -0.001882   0.000010  -0.000008   0.000001   0.000000
    23  H   -0.068785   0.014350   0.000000   0.000000   0.000000   0.000000
    24  H    0.458680  -0.074264   0.000010   0.000001   0.000000   0.000000
    25  H   -0.059022   0.453917   0.000380   0.000344   0.000003   0.000000
    26  H    0.000150  -0.000366  -0.073602   0.447888  -0.059664   0.013705
    27  H   -0.000001   0.000005   0.017228  -0.072150   0.455265  -0.074142
    28  H    0.000000   0.000000  -0.001551   0.014710  -0.068103   0.449509
    29  H    0.000000   0.000000   0.016385  -0.001782   0.014377  -0.072292
    30  H   -0.000001  -0.000040  -0.080967   0.013317  -0.001794   0.013156
    31  H   -0.000003  -0.000085   0.003650   0.003123   0.001434  -0.000160
    32  H    0.000000   0.000000   0.000017   0.000015   0.000000   0.000000
    33  H    0.000000   0.000000   0.000000   0.000000   0.000000   0.000000
    34  H    0.000000   0.000000   0.000002   0.000000   0.000000   0.000000
    35  H   -0.000015  -0.000301   0.000726   0.000002   0.000000   0.000000
    36  Ag   0.000584   0.001163  -0.000538  -0.000328  -0.000006   0.000011
              13         14         15         16         17         18
     1  O    0.000725   0.011079  -0.052706   0.000729  -0.000024  -0.000013
     2  P    0.008298  -0.030469   0.273069  -0.055208   0.003178   0.000351
     3  C    0.000005   0.007404  -0.062778  -0.005057  -0.000181  -0.000008
     4  C   -0.000002  -0.000398  -0.009268  -0.000072  -0.000480   0.000006
     5  C    0.000000   0.000014  -0.000262   0.000397  -0.000019   0.000000
     6  C    0.000000   0.000001  -0.000074  -0.000008   0.000000   0.000000
     7  C    0.000000  -0.000001   0.000011  -0.000003   0.000000   0.000000
     8  C   -0.000039  -0.000201   0.007651  -0.000374   0.000014   0.000001
     9  C    0.079911   0.216962  -0.062966  -0.009223  -0.000213  -0.000082
    10  C   -0.143977   0.054629  -0.004993  -0.000106   0.000387  -0.000007
    11  C    0.085544  -0.139261  -0.000193  -0.000469  -0.000018   0.000000
    12  C    0.265202   0.092446  -0.000003   0.000003   0.000000   0.000000
    13  C    5.076088   0.288686  -0.000120  -0.000030  -0.000015   0.000001
    14  C    0.288686   5.071853  -0.001391   0.001874  -0.000073   0.000000
    15  C   -0.000120  -0.001391   5.752799   0.265255   0.087266  -0.172293
    16  C   -0.000030   0.001874   0.265255   5.086114   0.322055   0.091605
    17  C   -0.000015  -0.000073   0.087266   0.322055   5.032322   0.272004
    18  C    0.000001   0.000000  -0.172293   0.091605   0.272004   5.123130
    19  C    0.000000  -0.000037   0.079564  -0.144511   0.086468   0.261910
    20  C   -0.000002  -0.000248   0.213278   0.056765  -0.139906   0.095462
    21  H   -0.000003  -0.000087   0.003735   0.003102   0.001463  -0.000166
    22  H    0.000000   0.000000   0.000016   0.000015   0.000000   0.000000
    23  H    0.000000   0.000000   0.000000   0.000000   0.000000   0.000000
    24  H    0.000000   0.000000   0.000002   0.000000   0.000000   0.000000
    25  H   -0.000015  -0.000226   0.000912  -0.000002   0.000001   0.000000
    26  H   -0.001447   0.013596   0.000306   0.000173   0.000101   0.000003
    27  H    0.014492  -0.001877   0.000010  -0.000008   0.000001   0.000000
    28  H   -0.068780   0.014303   0.000000   0.000000   0.000000   0.000000
    29  H    0.458150  -0.074179   0.000010   0.000001   0.000000   0.000000
    30  H   -0.059231   0.454972   0.000762   0.000315   0.000005   0.000001
    31  H    0.000147  -0.000362  -0.073644   0.447843  -0.059683   0.013738
    32  H   -0.000001   0.000005   0.017347  -0.072413   0.455453  -0.074338
    33  H    0.000000   0.000000  -0.001561   0.014731  -0.068320   0.449611
    34  H    0.000000   0.000000   0.016738  -0.001861   0.014462  -0.073647
    35  H   -0.000001  -0.000054  -0.075516   0.013651  -0.001835   0.013261
    36  Ag   0.000213   0.000668  -0.001461  -0.000385  -0.000013  -0.000043
              19         20         21         22         23         24
     1  O    0.000783   0.012813   0.000054   0.000001   0.000000  -0.000003
     2  P    0.008700  -0.030090  -0.012324  -0.000238   0.000031  -0.000301
     3  C   -0.000081  -0.001559  -0.073615   0.017260  -0.001559   0.016553
     4  C   -0.000036   0.001916   0.447899  -0.072206   0.014714  -0.001801
     5  C   -0.000015  -0.000067  -0.059616   0.455290  -0.068192   0.014407
     6  C    0.000001  -0.000001   0.013717  -0.074166   0.449586  -0.072672
     7  C    0.000000  -0.000036  -0.001447   0.014498  -0.068785   0.458680
     8  C   -0.000002  -0.000271   0.013594  -0.001882   0.014350  -0.074264
     9  C    0.000032   0.007359   0.000294   0.000010   0.000000   0.000010
    10  C   -0.000004  -0.000375   0.000174  -0.000008   0.000000   0.000001
    11  C    0.000000   0.000014   0.000100   0.000001   0.000000   0.000000
    12  C    0.000000   0.000001   0.000003   0.000000   0.000000   0.000000
    13  C    0.000000  -0.000002  -0.000003   0.000000   0.000000   0.000000
    14  C   -0.000037  -0.000248  -0.000087   0.000000   0.000000   0.000000
    15  C    0.079564   0.213278   0.003735   0.000016   0.000000   0.000002
    16  C   -0.144511   0.056765   0.003102   0.000015   0.000000   0.000000
    17  C    0.086468  -0.139906   0.001463   0.000000   0.000000   0.000000
    18  C    0.261910   0.095462  -0.000166   0.000000   0.000000   0.000000
    19  C    5.073394   0.290123   0.000154  -0.000001   0.000000   0.000000
    20  C    0.290123   5.078634  -0.000399   0.000005   0.000000   0.000000
    21  H    0.000154  -0.000399   0.654142  -0.012571  -0.000268   0.000033
    22  H   -0.000001   0.000005  -0.012571   0.667719  -0.012365  -0.000259
    23  H    0.000000   0.000000  -0.000268  -0.012365   0.661846  -0.012184
    24  H    0.000000   0.000000   0.000033  -0.000259  -0.012184   0.658300
    25  H   -0.000001  -0.000068  -0.000184   0.000037  -0.000238  -0.011261
    26  H   -0.000003  -0.000087   0.000668   0.000050  -0.000005  -0.000003
    27  H    0.000000   0.000000  -0.000004   0.000000   0.000000   0.000000
    28  H    0.000000   0.000000   0.000000   0.000000   0.000000   0.000000
    29  H    0.000000   0.000000   0.000000   0.000000   0.000000   0.000000
    30  H   -0.000016  -0.000250  -0.000003   0.000000   0.000000   0.000000
    31  H   -0.001458   0.013604   0.000664  -0.000004   0.000000   0.000000
    32  H    0.014553  -0.001921   0.000051   0.000000   0.000000   0.000000
    33  H   -0.068809   0.014358  -0.000005   0.000000   0.000000   0.000000
    34  H    0.459643  -0.074202  -0.000003   0.000000   0.000000   0.000000
    35  H   -0.059718   0.451294  -0.000051   0.000000   0.000000   0.000000
    36  Ag   0.000490  -0.001083   0.000005  -0.000001  -0.000003   0.000118
              25         26         27         28         29         30
     1  O    0.009129   0.000053   0.000000   0.000000  -0.000003   0.010557
     2  P   -0.005921  -0.012270  -0.000236   0.000031  -0.000299  -0.005600
     3  C   -0.079537   0.003773   0.000016   0.000000   0.000002   0.000872
     4  C    0.013366   0.003157   0.000015   0.000000   0.000000  -0.000007
     5  C   -0.001792   0.001445   0.000000   0.000000   0.000000   0.000001
     6  C    0.013177  -0.000161   0.000000   0.000000   0.000000   0.000000
     7  C   -0.059022   0.000150  -0.000001   0.000000   0.000000  -0.000001
     8  C    0.453917  -0.000366   0.000005   0.000000   0.000000  -0.000040
     9  C    0.000380  -0.073602   0.017228  -0.001551   0.016385  -0.080967
    10  C    0.000344   0.447888  -0.072150   0.014710  -0.001782   0.013317
    11  C    0.000003  -0.059664   0.455265  -0.068103   0.014377  -0.001794
    12  C    0.000000   0.013705  -0.074142   0.449509  -0.072292   0.013156
    13  C   -0.000015  -0.001447   0.014492  -0.068780   0.458150  -0.059231
    14  C   -0.000226   0.013596  -0.001877   0.014303  -0.074179   0.454972
    15  C    0.000912   0.000306   0.000010   0.000000   0.000010   0.000762
    16  C   -0.000002   0.000173  -0.000008   0.000000   0.000001   0.000315
    17  C    0.000001   0.000101   0.000001   0.000000   0.000000   0.000005
    18  C    0.000000   0.000003   0.000000   0.000000   0.000000   0.000001
    19  C   -0.000001  -0.000003   0.000000   0.000000   0.000000  -0.000016
    20  C   -0.000068  -0.000087   0.000000   0.000000   0.000000  -0.000250
    21  H   -0.000184   0.000668  -0.000004   0.000000   0.000000  -0.000003
    22  H    0.000037   0.000050   0.000000   0.000000   0.000000   0.000000
    23  H   -0.000238  -0.000005   0.000000   0.000000   0.000000   0.000000
    24  H   -0.011261  -0.000003   0.000000   0.000000   0.000000   0.000000
    25  H    0.625478  -0.000047   0.000000   0.000000   0.000000  -0.000046
    26  H   -0.000047   0.653852  -0.012561  -0.000267   0.000033  -0.000186
    27  H    0.000000  -0.012561   0.667596  -0.012365  -0.000260   0.000037
    28  H    0.000000  -0.000267  -0.012365   0.661973  -0.012197  -0.000241
    29  H    0.000000   0.000033  -0.000260  -0.012197   0.658583  -0.010961
    30  H   -0.000046  -0.000186   0.000037  -0.000241  -0.010961   0.627235
    31  H   -0.000003   0.000665   0.000051  -0.000005  -0.000003  -0.000043
    32  H    0.000000  -0.000004   0.000000   0.000000   0.000000   0.000000
    33  H    0.000000   0.000000   0.000000   0.000000   0.000000   0.000000
    34  H    0.000000   0.000000   0.000000   0.000000   0.000000   0.000000
    35  H   -0.000044  -0.000003   0.000000   0.000000   0.000000  -0.000053
    36  Ag   0.003356   0.000001  -0.000001   0.000000   0.000007   0.001327
              31         32         33         34         35         36
     1  O    0.000053   0.000001   0.000000  -0.000002   0.006342   0.039457
     2  P   -0.012323  -0.000234   0.000031  -0.000295  -0.006713  -0.004390
     3  C    0.000314   0.000010   0.000000   0.000010   0.000292  -0.000259
     4  C    0.000162  -0.000008   0.000000   0.000001   0.000359  -0.000426
     5  C    0.000100   0.000001   0.000000   0.000000   0.000009  -0.000060
     6  C    0.000003   0.000000   0.000000   0.000000   0.000000  -0.000040
     7  C   -0.000003   0.000000   0.000000   0.000000  -0.000015   0.000584
     8  C   -0.000085   0.000000   0.000000   0.000000  -0.000301   0.001163
     9  C    0.003650   0.000017   0.000000   0.000002   0.000726  -0.000538
    10  C    0.003123   0.000015   0.000000   0.000000   0.000002  -0.000328
    11  C    0.001434   0.000000   0.000000   0.000000   0.000000  -0.000006
    12  C   -0.000160   0.000000   0.000000   0.000000   0.000000   0.000011
    13  C    0.000147  -0.000001   0.000000   0.000000  -0.000001   0.000213
    14  C   -0.000362   0.000005   0.000000   0.000000  -0.000054   0.000668
    15  C   -0.073644   0.017347  -0.001561   0.016738  -0.075516  -0.001461
    16  C    0.447843  -0.072413   0.014731  -0.001861   0.013651  -0.000385
    17  C   -0.059683   0.455453  -0.068320   0.014462  -0.001835  -0.000013
    18  C    0.013738  -0.074338   0.449611  -0.073647   0.013261  -0.000043
    19  C   -0.001458   0.014553  -0.068809   0.459643  -0.059718   0.000490
    20  C    0.013604  -0.001921   0.014358  -0.074202   0.451294  -0.001083
    21  H    0.000664   0.000051  -0.000005  -0.000003  -0.000051   0.000005
    22  H   -0.000004   0.000000   0.000000   0.000000   0.000000  -0.000001
    23  H    0.000000   0.000000   0.000000   0.000000   0.000000  -0.000003
    24  H    0.000000   0.000000   0.000000   0.000000   0.000000   0.000118
    25  H   -0.000003   0.000000   0.000000   0.000000  -0.000044   0.003356
    26  H    0.000665  -0.000004   0.000000   0.000000  -0.000003   0.000001
    27  H    0.000051   0.000000   0.000000   0.000000   0.000000  -0.000001
    28  H   -0.000005   0.000000   0.000000   0.000000   0.000000   0.000000
    29  H   -0.000003   0.000000   0.000000   0.000000   0.000000   0.000007
    30  H   -0.000043   0.000000   0.000000   0.000000  -0.000053   0.001327
    31  H    0.654788  -0.012590  -0.000268   0.000033  -0.000179  -0.000001
    32  H   -0.012590   0.668114  -0.012370  -0.000258   0.000035   0.000000
    33  H   -0.000268  -0.012370   0.662005  -0.012139  -0.000231  -0.000003
    34  H    0.000033  -0.000258  -0.012139   0.658477  -0.011843   0.000288
    35  H   -0.000179   0.000035  -0.000231  -0.011843   0.623681   0.008627
    36  Ag  -0.000001   0.000000  -0.000003   0.000288   0.008627  19.044507
          Atomic-Atomic Spin Densities.
               1          2          3          4          5          6
     1  O    0.045298  -0.004515  -0.000339  -0.000011   0.000000   0.000000
     2  P   -0.004515   0.009523   0.000001  -0.000335   0.000074   0.000013
     3  C   -0.000339   0.000001  -0.001601   0.000251  -0.000012   0.000084
     4  C   -0.000011  -0.000335   0.000251   0.000477  -0.000239  -0.000098
     5  C    0.000000   0.000074  -0.000012  -0.000239   0.000239   0.000109
     6  C    0.000000   0.000013   0.000084  -0.000098   0.000109   0.000153
     7  C    0.000001  -0.000020  -0.000098   0.000120  -0.000097   0.000048
     8  C    0.000357   0.000125  -0.000186  -0.000204   0.000043  -0.000059
     9  C    0.000179   0.001009  -0.000162  -0.000044   0.000007   0.000000
    10  C    0.000001  -0.000481   0.000117   0.000012  -0.000002   0.000000
    11  C    0.000000   0.000082  -0.000012  -0.000006   0.000001   0.000000
    12  C    0.000000   0.000003   0.000000   0.000000   0.000000   0.000000
    13  C   -0.000003  -0.000017   0.000000   0.000000   0.000000   0.000000
    14  C    0.000066  -0.000289  -0.000047   0.000000   0.000000   0.000000
    15  C   -0.000591   0.000092   0.000337   0.000034  -0.000006   0.000000
    16  C   -0.000013  -0.000213   0.000020  -0.000013  -0.000004   0.000000
    17  C    0.000000   0.000061  -0.000001   0.000000   0.000000   0.000000
    18  C    0.000000   0.000025  -0.000001   0.000000   0.000000   0.000000
    19  C    0.000000  -0.000063   0.000002   0.000000   0.000000   0.000000
    20  C    0.000804   0.000568  -0.000173  -0.000004   0.000002   0.000000
    21  H   -0.000001  -0.000128   0.000008   0.000061  -0.000038   0.000000
    22  H    0.000000  -0.000004  -0.000004   0.000016  -0.000046   0.000003
    23  H    0.000000   0.000000  -0.000003   0.000008  -0.000020  -0.000005
    24  H    0.000000  -0.000002  -0.000003   0.000008  -0.000006  -0.000018
    25  H   -0.000553  -0.000063   0.000808   0.000051  -0.000009  -0.000067
    26  H    0.000000  -0.000133   0.000040   0.000044  -0.000010  -0.000001
    27  H    0.000000  -0.000004   0.000001   0.000000   0.000000   0.000000
    28  H    0.000000   0.000000   0.000000   0.000000   0.000000   0.000000
    29  H    0.000000   0.000000   0.000000   0.000000   0.000000   0.000000
    30  H   -0.000334   0.000184   0.000016   0.000001   0.000000   0.000000
    31  H    0.000000  -0.000153   0.000007   0.000005  -0.000001   0.000000
    32  H    0.000000  -0.000003   0.000000   0.000000   0.000000   0.000000
    33  H    0.000000  -0.000001   0.000000   0.000000   0.000000   0.000000
    34  H   -0.000001  -0.000007   0.000000   0.000000   0.000000   0.000000
    35  H   -0.000905  -0.000308   0.000061   0.000007  -0.000001   0.000000
    36  Ag  -0.032823   0.001306   0.000854   0.000064  -0.000013  -0.000018
               7          8          9         10         11         12
     1  O    0.000001   0.000357   0.000179   0.000001   0.000000   0.000000
     2  P   -0.000020   0.000125   0.001009  -0.000481   0.000082   0.000003
     3  C   -0.000098  -0.000186  -0.000162   0.000117  -0.000012   0.000000
     4  C    0.000120  -0.000204  -0.000044   0.000012  -0.000006   0.000000
     5  C   -0.000097   0.000043   0.000007  -0.000002   0.000001   0.000000
     6  C    0.000048  -0.000059   0.000000   0.000000   0.000000   0.000000
     7  C   -0.000153   0.000348   0.000001   0.000000   0.000000   0.000000
     8  C    0.000348   0.002159   0.000044  -0.000015   0.000003   0.000000
     9  C    0.000001   0.000044   0.000449  -0.001079   0.000246   0.000023
    10  C    0.000000  -0.000015  -0.001079   0.002446  -0.000911  -0.000097
    11  C    0.000000   0.000003   0.000246  -0.000911   0.000668   0.000070
    12  C    0.000000   0.000000   0.000023  -0.000097   0.000070   0.000595
    13  C    0.000000   0.000000   0.000033   0.000105  -0.000053  -0.000074
    14  C    0.000000   0.000010   0.000481  -0.000138   0.000068   0.000012
    15  C   -0.000001  -0.000071  -0.000103   0.000035  -0.000001   0.000000
    16  C    0.000000   0.000000   0.000030  -0.000002   0.000000   0.000001
    17  C    0.000000   0.000000   0.000005  -0.000004   0.000000   0.000000
    18  C    0.000000   0.000000   0.000001   0.000000   0.000000   0.000000
    19  C    0.000000   0.000000  -0.000002   0.000000   0.000000   0.000000
    20  C    0.000000   0.000029   0.000035  -0.000011   0.000000   0.000000
    21  H    0.000002  -0.000008  -0.000018   0.000009  -0.000002   0.000000
    22  H    0.000008  -0.000001   0.000000   0.000000   0.000000   0.000000
    23  H    0.000000   0.000005   0.000000   0.000000   0.000000   0.000000
    24  H   -0.000016  -0.000040   0.000000   0.000000   0.000000   0.000000
    25  H   -0.000062  -0.000925  -0.000049   0.000009  -0.000001   0.000000
    26  H    0.000001  -0.000011  -0.000132   0.000208  -0.000134  -0.000004
    27  H    0.000000   0.000000  -0.000018   0.000096  -0.000163  -0.000015
    28  H    0.000000   0.000000   0.000000   0.000005  -0.000007  -0.000001
    29  H    0.000000   0.000000   0.000000   0.000004  -0.000002  -0.000010
    30  H    0.000000  -0.000007   0.000078   0.000143  -0.000031  -0.000015
    31  H    0.000000  -0.000001  -0.000069   0.000085  -0.000018  -0.000002
    32  H    0.000000   0.000000  -0.000001   0.000000   0.000000   0.000000
    33  H    0.000000   0.000000   0.000000   0.000000   0.000000   0.000000
    34  H    0.000000   0.000000   0.000000   0.000000   0.000000   0.000000
    35  H    0.000000  -0.000022  -0.000022   0.000002   0.000000   0.000000
    36  Ag  -0.000053  -0.001444  -0.000116   0.000032  -0.000004  -0.000001
              13         14         15         16         17         18
     1  O   -0.000003   0.000066  -0.000591  -0.000013   0.000000   0.000000
     2  P   -0.000017  -0.000289   0.000092  -0.000213   0.000061   0.000025
     3  C    0.000000  -0.000047   0.000337   0.000020  -0.000001  -0.000001
     4  C    0.000000   0.000000   0.000034  -0.000013   0.000000   0.000000
     5  C    0.000000   0.000000  -0.000006  -0.000004   0.000000   0.000000
     6  C    0.000000   0.000000   0.000000   0.000000   0.000000   0.000000
     7  C    0.000000   0.000000  -0.000001   0.000000   0.000000   0.000000
     8  C    0.000000   0.000010  -0.000071   0.000000   0.000000   0.000000
     9  C    0.000033   0.000481  -0.000103   0.000030   0.000005   0.000001
    10  C    0.000105  -0.000138   0.000035  -0.000002  -0.000004   0.000000
    11  C   -0.000053   0.000068  -0.000001   0.000000   0.000000   0.000000
    12  C   -0.000074   0.000012   0.000000   0.000001   0.000000   0.000000
    13  C   -0.000347   0.000021   0.000002  -0.000001   0.000000   0.000000
    14  C    0.000021   0.001447  -0.000055  -0.000002   0.000001   0.000000
    15  C    0.000002  -0.000055  -0.000893   0.000450  -0.000088  -0.000034
    16  C   -0.000001  -0.000002   0.000450   0.000300  -0.000182  -0.000120
    17  C    0.000000   0.000001  -0.000088  -0.000182   0.000078   0.000130
    18  C    0.000000   0.000000  -0.000034  -0.000120   0.000130   0.000735
    19  C    0.000000   0.000000   0.000061   0.000179  -0.000164  -0.000047
    20  C    0.000000   0.000016  -0.002637  -0.000331   0.000108   0.000085
    21  H    0.000000   0.000000   0.000036   0.000034  -0.000006  -0.000001
    22  H    0.000000   0.000000   0.000000   0.000000   0.000000   0.000000
    23  H    0.000000   0.000000   0.000000   0.000000   0.000000   0.000000
    24  H    0.000000   0.000000   0.000000   0.000000   0.000000   0.000000
    25  H    0.000000  -0.000010   0.000019   0.000001   0.000000   0.000000
    26  H    0.000004  -0.000009   0.000005   0.000005  -0.000001   0.000000
    27  H    0.000006  -0.000002   0.000000   0.000000   0.000000   0.000000
    28  H    0.000005  -0.000002   0.000000   0.000000   0.000000   0.000000
    29  H    0.000022  -0.000041   0.000000   0.000000   0.000000   0.000000
    30  H    0.000009  -0.000919   0.000056   0.000003   0.000000   0.000000
    31  H    0.000002  -0.000004   0.000015   0.000079  -0.000068   0.000001
    32  H    0.000000   0.000000  -0.000001   0.000009  -0.000056   0.000012
    33  H    0.000000   0.000000   0.000002   0.000010  -0.000040  -0.000036
    34  H    0.000000   0.000000   0.000046   0.000012  -0.000017  -0.000132
    35  H    0.000000  -0.000005   0.001653   0.000070  -0.000020  -0.000136
    36  Ag   0.000016  -0.000309   0.001482   0.000065  -0.000014  -0.000037
              19         20         21         22         23         24
     1  O    0.000000   0.000804  -0.000001   0.000000   0.000000   0.000000
     2  P   -0.000063   0.000568  -0.000128  -0.000004   0.000000  -0.000002
     3  C    0.000002  -0.000173   0.000008  -0.000004  -0.000003  -0.000003
     4  C    0.000000  -0.000004   0.000061   0.000016   0.000008   0.000008
     5  C    0.000000   0.000002  -0.000038  -0.000046  -0.000020  -0.000006
     6  C    0.000000   0.000000   0.000000   0.000003  -0.000005  -0.000018
     7  C    0.000000   0.000000   0.000002   0.000008   0.000000  -0.000016
     8  C    0.000000   0.000029  -0.000008  -0.000001   0.000005  -0.000040
     9  C   -0.000002   0.000035  -0.000018   0.000000   0.000000   0.000000
    10  C    0.000000  -0.000011   0.000009   0.000000   0.000000   0.000000
    11  C    0.000000   0.000000  -0.000002   0.000000   0.000000   0.000000
    12  C    0.000000   0.000000   0.000000   0.000000   0.000000   0.000000
    13  C    0.000000   0.000000   0.000000   0.000000   0.000000   0.000000
    14  C    0.000000   0.000016   0.000000   0.000000   0.000000   0.000000
    15  C    0.000061  -0.002637   0.000036   0.000000   0.000000   0.000000
    16  C    0.000179  -0.000331   0.000034   0.000000   0.000000   0.000000
    17  C   -0.000164   0.000108  -0.000006   0.000000   0.000000   0.000000
    18  C   -0.000047   0.000085  -0.000001   0.000000   0.000000   0.000000
    19  C   -0.000485   0.000487   0.000001   0.000000   0.000000   0.000000
    20  C    0.000487   0.008223  -0.000021   0.000000   0.000000   0.000000
    21  H    0.000001  -0.000021   0.000037   0.000007   0.000000   0.000000
    22  H    0.000000   0.000000   0.000007   0.000026   0.000004   0.000000
    23  H    0.000000   0.000000   0.000000   0.000004   0.000005   0.000002
    24  H    0.000000   0.000000   0.000000   0.000000   0.000002   0.000030
    25  H    0.000000  -0.000012   0.000002   0.000000   0.000002   0.000050
    26  H    0.000000  -0.000002   0.000011   0.000001   0.000000   0.000000
    27  H    0.000000   0.000000   0.000000   0.000000   0.000000   0.000000
    28  H    0.000000   0.000000   0.000000   0.000000   0.000000   0.000000
    29  H    0.000000   0.000000   0.000000   0.000000   0.000000   0.000000
    30  H    0.000000  -0.000032   0.000000   0.000000   0.000000   0.000000
    31  H    0.000006  -0.000033   0.000011   0.000000   0.000000   0.000000
    32  H    0.000012  -0.000004   0.000000   0.000000   0.000000   0.000000
    33  H    0.000021   0.000003   0.000000   0.000000   0.000000   0.000000
    34  H   -0.000068  -0.000170   0.000000   0.000000   0.000000   0.000000
    35  H   -0.000161  -0.002330   0.000003   0.000000   0.000000   0.000000
    36  Ag  -0.000155  -0.003562   0.000008   0.000001   0.000001   0.000032
              25         26         27         28         29         30
     1  O   -0.000553   0.000000   0.000000   0.000000   0.000000  -0.000334
     2  P   -0.000063  -0.000133  -0.000004   0.000000   0.000000   0.000184
     3  C    0.000808   0.000040   0.000001   0.000000   0.000000   0.000016
     4  C    0.000051   0.000044   0.000000   0.000000   0.000000   0.000001
     5  C   -0.000009  -0.000010   0.000000   0.000000   0.000000   0.000000
     6  C   -0.000067  -0.000001   0.000000   0.000000   0.000000   0.000000
     7  C   -0.000062   0.000001   0.000000   0.000000   0.000000   0.000000
     8  C   -0.000925  -0.000011   0.000000   0.000000   0.000000  -0.000007
     9  C   -0.000049  -0.000132  -0.000018   0.000000   0.000000   0.000078
    10  C    0.000009   0.000208   0.000096   0.000005   0.000004   0.000143
    11  C   -0.000001  -0.000134  -0.000163  -0.000007  -0.000002  -0.000031
    12  C    0.000000  -0.000004  -0.000015  -0.000001  -0.000010  -0.000015
    13  C    0.000000   0.000004   0.000006   0.000005   0.000022   0.000009
    14  C   -0.000010  -0.000009  -0.000002  -0.000002  -0.000041  -0.000919
    15  C    0.000019   0.000005   0.000000   0.000000   0.000000   0.000056
    16  C    0.000001   0.000005   0.000000   0.000000   0.000000   0.000003
    17  C    0.000000  -0.000001   0.000000   0.000000   0.000000   0.000000
    18  C    0.000000   0.000000   0.000000   0.000000   0.000000   0.000000
    19  C    0.000000   0.000000   0.000000   0.000000   0.000000   0.000000
    20  C   -0.000012  -0.000002   0.000000   0.000000   0.000000  -0.000032
    21  H    0.000002   0.000011   0.000000   0.000000   0.000000   0.000000
    22  H    0.000000   0.000001   0.000000   0.000000   0.000000   0.000000
    23  H    0.000002   0.000000   0.000000   0.000000   0.000000   0.000000
    24  H    0.000050   0.000000   0.000000   0.000000   0.000000   0.000000
    25  H   -0.000174   0.000004   0.000000   0.000000   0.000000   0.000009
    26  H    0.000004   0.000100   0.000021   0.000000   0.000000   0.000004
    27  H    0.000000   0.000021   0.000145   0.000004   0.000000   0.000001
    28  H    0.000000   0.000000   0.000004  -0.000030   0.000002   0.000001
    29  H    0.000000   0.000000   0.000000   0.000002   0.000026   0.000015
    30  H    0.000009   0.000004   0.000001   0.000001   0.000015   0.000739
    31  H    0.000000   0.000017   0.000002   0.000000   0.000000   0.000004
    32  H    0.000000   0.000000   0.000000   0.000000   0.000000   0.000000
    33  H    0.000000   0.000000   0.000000   0.000000   0.000000   0.000000
    34  H    0.000000   0.000000   0.000000   0.000000   0.000000   0.000000
    35  H    0.000012   0.000000   0.000000   0.000000   0.000000   0.000012
    36  Ag   0.001688   0.000004   0.000000   0.000000   0.000002   0.000697
              31         32         33         34         35         36
     1  O    0.000000   0.000000   0.000000  -0.000001  -0.000905  -0.032823
     2  P   -0.000153  -0.000003  -0.000001  -0.000007  -0.000308   0.001306
     3  C    0.000007   0.000000   0.000000   0.000000   0.000061   0.000854
     4  C    0.000005   0.000000   0.000000   0.000000   0.000007   0.000064
     5  C   -0.000001   0.000000   0.000000   0.000000  -0.000001  -0.000013
     6  C    0.000000   0.000000   0.000000   0.000000   0.000000  -0.000018
     7  C    0.000000   0.000000   0.000000   0.000000   0.000000  -0.000053
     8  C   -0.000001   0.000000   0.000000   0.000000  -0.000022  -0.001444
     9  C   -0.000069  -0.000001   0.000000   0.000000  -0.000022  -0.000116
    10  C    0.000085   0.000000   0.000000   0.000000   0.000002   0.000032
    11  C   -0.000018   0.000000   0.000000   0.000000   0.000000  -0.000004
    12  C   -0.000002   0.000000   0.000000   0.000000   0.000000  -0.000001
    13  C    0.000002   0.000000   0.000000   0.000000   0.000000   0.000016
    14  C   -0.000004   0.000000   0.000000   0.000000  -0.000005  -0.000309
    15  C    0.000015  -0.000001   0.000002   0.000046   0.001653   0.001482
    16  C    0.000079   0.000009   0.000010   0.000012   0.000070   0.000065
    17  C   -0.000068  -0.000056  -0.000040  -0.000017  -0.000020  -0.000014
    18  C    0.000001   0.000012  -0.000036  -0.000132  -0.000136  -0.000037
    19  C    0.000006   0.000012   0.000021  -0.000068  -0.000161  -0.000155
    20  C   -0.000033  -0.000004   0.000003  -0.000170  -0.002330  -0.003562
    21  H    0.000011   0.000000   0.000000   0.000000   0.000003   0.000008
    22  H    0.000000   0.000000   0.000000   0.000000   0.000000   0.000001
    23  H    0.000000   0.000000   0.000000   0.000000   0.000000   0.000001
    24  H    0.000000   0.000000   0.000000   0.000000   0.000000   0.000032
    25  H    0.000000   0.000000   0.000000   0.000000   0.000012   0.001688
    26  H    0.000017   0.000000   0.000000   0.000000   0.000000   0.000004
    27  H    0.000002   0.000000   0.000000   0.000000   0.000000   0.000000
    28  H    0.000000   0.000000   0.000000   0.000000   0.000000   0.000000
    29  H    0.000000   0.000000   0.000000   0.000000   0.000000   0.000002
    30  H    0.000004   0.000000   0.000000   0.000000   0.000012   0.000697
    31  H    0.000125   0.000011   0.000001   0.000000   0.000006   0.000006
    32  H    0.000011   0.000030   0.000007   0.000001   0.000001   0.000001
    33  H    0.000001   0.000007   0.000015   0.000013   0.000004   0.000001
    34  H    0.000000   0.000001   0.000013   0.000239   0.000133   0.000113
    35  H    0.000006   0.000001   0.000004   0.000133  -0.000258   0.004364
    36  Ag   0.000006   0.000001   0.000001   0.000113   0.004364   1.007789
 Mulliken charges and spin densities:
               1          2
     1  O   -0.485011   0.006619
     2  P    0.817133   0.006327
     3  C   -0.203281  -0.000034
     4  C   -0.013030   0.000206
     5  C   -0.004754  -0.000030
     6  C    0.000216   0.000142
     7  C   -0.002998   0.000028
     8  C    0.019578   0.000130
     9  C   -0.204959   0.000805
    10  C   -0.012227   0.000573
    11  C   -0.005309  -0.000207
    12  C    0.000543   0.000483
    13  C   -0.003799  -0.000269
    14  C    0.020374   0.000287
    15  C   -0.199503  -0.000156
    16  C   -0.014901   0.000391
    17  C   -0.004402  -0.000277
    18  C   -0.000487   0.000445
    19  C   -0.001122  -0.000375
    20  C    0.014939   0.001037
    21  H    0.020891   0.000008
    22  H    0.018800   0.000011
    23  H    0.023070   0.000000
    24  H    0.024645   0.000036
    25  H    0.038307   0.000729
    26  H    0.021060   0.000032
    27  H    0.018890   0.000074
    28  H    0.022983  -0.000024
    29  H    0.024430   0.000020
    30  H    0.036884   0.000633
    31  H    0.020442   0.000034
    32  H    0.018537   0.000019
    33  H    0.022969  -0.000002
    34  H    0.024595   0.000163
    35  H    0.038278   0.002161
    36  Ag  -0.091780   0.979979
 Sum of Mulliken charges =   0.00000   1.00000
 Mulliken charges and spin densities with hydrogens summed into heavy atoms:
               1          2
     1  O   -0.485011   0.006619
     2  P    0.817133   0.006327
     3  C   -0.203281  -0.000034
     4  C    0.007861   0.000215
     5  C    0.014046  -0.000019
     6  C    0.023286   0.000142
     7  C    0.021646   0.000064
     8  C    0.057886   0.000859
     9  C   -0.204959   0.000805
    10  C    0.008833   0.000605
    11  C    0.013581  -0.000133
    12  C    0.023526   0.000460
    13  C    0.020631  -0.000249
    14  C    0.057258   0.000921
    15  C   -0.199503  -0.000156
    16  C    0.005540   0.000425
    17  C    0.014134  -0.000259
    18  C    0.022482   0.000443
    19  C    0.023473  -0.000211
    20  C    0.053217   0.003198
    36  Ag  -0.091780   0.979979
 Electronic spatial extent (au):  <R**2>=           7482.2890
 Charge=              0.0000 electrons
 Dipole moment (field-independent basis, Debye):
    X=             -1.2944    Y=              0.0208    Z=             -6.4743  Tot=              6.6024
 Quadrupole moment (field-independent basis, Debye-Ang):
   XX=           -132.6032   YY=           -130.2132   ZZ=           -165.9790
   XY=             -0.1237   XZ=             -8.0302   YZ=              0.0388
 Traceless Quadrupole moment (field-independent basis, Debye-Ang):
   XX=             10.3286   YY=             12.7186   ZZ=            -23.0472
   XY=             -0.1237   XZ=             -8.0302   YZ=              0.0388
 Octapole moment (field-independent basis, Debye-Ang**2):
  XXX=           -140.3558  YYY=             16.9181  ZZZ=           -556.4189  XYY=             22.3467
  XXY=            -14.7026  XXZ=           -141.0582  XZZ=            -74.4284  YZZ=             -1.3877
  YYZ=           -132.0856  XYZ=              2.0955
 Hexadecapole moment (field-independent basis, Debye-Ang**3):
 XXXX=          -3329.2433 YYYY=          -3094.1526 ZZZZ=          -5229.1416 XXXY=              9.1932
 XXXZ=           -403.7187 YYYX=            -11.0770 YYYZ=           -113.9722 ZZZX=           -621.8521
 ZZZY=            -54.7482 XXYY=          -1071.2770 XXZZ=          -1333.4912 YYZZ=          -1237.3908
 XXYZ=             53.0651 YYXZ=            -88.4622 ZZXY=            -11.3798
 N-N= 1.864087158863D+03 E-N=-6.639532171112D+03  KE= 1.158016485182D+03
                          Isotropic Fermi Contact Couplings
        Atom                 a.u.       MegaHertz       Gauss      10(-4) cm-1
     1  O(17)              0.13675     -82.89671     -29.57961     -27.65137
     2  P(31)              0.01875      33.96130      12.11824      11.32827
     3  C(13)             -0.00032      -0.35938      -0.12824      -0.11988
     4  C(13)              0.00003       0.03900       0.01391       0.01301
     5  C(13)              0.00006       0.06823       0.02435       0.02276
     6  C(13)              0.00005       0.05575       0.01989       0.01860
     7  C(13)             -0.00001      -0.01001      -0.00357      -0.00334
     8  C(13)              0.00134       1.50481       0.53695       0.50195
     9  C(13)              0.00169       1.89822       0.67733       0.63318
    10  C(13)              0.00047       0.52903       0.18877       0.17647
    11  C(13)              0.00021       0.23048       0.08224       0.07688
    12  C(13)              0.00011       0.12573       0.04486       0.04194
    13  C(13)             -0.00009      -0.09564      -0.03413      -0.03190
    14  C(13)              0.00044       0.49777       0.17762       0.16604
    15  C(13)             -0.00061      -0.68495      -0.24441      -0.22848
    16  C(13)             -0.00001      -0.01504      -0.00537      -0.00502
    17  C(13)              0.00006       0.06729       0.02401       0.02245
    18  C(13)              0.00014       0.15284       0.05454       0.05098
    19  C(13)             -0.00010      -0.10740      -0.03832      -0.03583
    20  C(13)              0.00315       3.53646       1.26190       1.17964
    21  H(1)               0.00000       0.00669       0.00239       0.00223
    22  H(1)               0.00000       0.00422       0.00151       0.00141
    23  H(1)               0.00000      -0.00326      -0.00116      -0.00109
    24  H(1)               0.00000      -0.00881      -0.00314      -0.00294
    25  H(1)               0.00002       0.10210       0.03643       0.03406
    26  H(1)               0.00001       0.05300       0.01891       0.01768
    27  H(1)               0.00002       0.07992       0.02852       0.02666
    28  H(1)              -0.00001      -0.03445      -0.01229      -0.01149
    29  H(1)               0.00000       0.01608       0.00574       0.00536
    30  H(1)              -0.00001      -0.04861      -0.01735      -0.01622
    31  H(1)               0.00001       0.05925       0.02114       0.01976
    32  H(1)               0.00000       0.00946       0.00338       0.00316
    33  H(1)               0.00000      -0.00705      -0.00251      -0.00235
    34  H(1)               0.00001       0.03037       0.01084       0.01013
    35  H(1)               0.00000      -0.01918      -0.00684      -0.00640
    36  Ag(107             0.00031      -0.05603      -0.01999      -0.01869
 --------------------------------------------------------
       Center         ----  Spin Dipole Couplings  ----
                      3XX-RR        3YY-RR        3ZZ-RR
 --------------------------------------------------------
     1   Atom       -0.000690     -0.022704      0.023393
     2   Atom       -0.011984     -0.011344      0.023329
     3   Atom       -0.001289     -0.000760      0.002049
     4   Atom       -0.000362     -0.000590      0.000952
     5   Atom       -0.000270     -0.000346      0.000616
     6   Atom       -0.000258     -0.000197      0.000454
     7   Atom       -0.000491     -0.000093      0.000584
     8   Atom       -0.001557     -0.000577      0.002134
     9   Atom        0.001353     -0.001656      0.000303
    10   Atom       -0.000534      0.000132      0.000402
    11   Atom        0.000277     -0.000520      0.000244
    12   Atom       -0.000039      0.000084     -0.000045
    13   Atom        0.000489     -0.000606      0.000118
    14   Atom        0.000424     -0.000850      0.000425
    15   Atom       -0.000997     -0.000751      0.001749
    16   Atom       -0.000386     -0.000357      0.000743
    17   Atom       -0.000445     -0.000046      0.000491
    18   Atom       -0.000216     -0.000030      0.000246
    19   Atom       -0.000944      0.000387      0.000557
    20   Atom       -0.002399     -0.001219      0.003619
    21   Atom       -0.000462     -0.000481      0.000943
    22   Atom       -0.000239     -0.000235      0.000473
    23   Atom       -0.000233     -0.000068      0.000302
    24   Atom       -0.000564      0.000290      0.000273
    25   Atom       -0.001941      0.000084      0.001857
    26   Atom       -0.000288     -0.000371      0.000659
    27   Atom       -0.000015     -0.000206      0.000221
    28   Atom        0.000172     -0.000202      0.000030
    29   Atom        0.000496     -0.000404     -0.000092
    30   Atom        0.001171     -0.001280      0.000108
    31   Atom       -0.000318     -0.000363      0.000681
    32   Atom       -0.000237     -0.000092      0.000328
    33   Atom       -0.000302      0.000089      0.000213
    34   Atom       -0.000675      0.000396      0.000279
    35   Atom       -0.002878     -0.000931      0.003809
    36   Atom        0.006521      0.015999     -0.022520
 --------------------------------------------------------
                        XY            XZ            YZ
 --------------------------------------------------------
     1   Atom        0.004385      0.030928      0.005500
     2   Atom       -0.000119     -0.003919     -0.001354
     3   Atom        0.000054      0.000159      0.000835
     4   Atom        0.000068     -0.000108      0.000284
     5   Atom       -0.000083     -0.000206      0.000292
     6   Atom       -0.000039     -0.000194      0.000512
     7   Atom       -0.000229     -0.000227      0.000919
     8   Atom       -0.000073     -0.000012      0.001925
     9   Atom        0.001030      0.001953      0.000641
    10   Atom        0.000343      0.000648      0.000582
    11   Atom        0.000116      0.000498      0.000239
    12   Atom        0.000095      0.000435     -0.000147
    13   Atom        0.000056      0.000629      0.000144
    14   Atom       -0.000084      0.001336     -0.000358
    15   Atom        0.000172      0.000687     -0.000901
    16   Atom       -0.000256      0.000094     -0.000315
    17   Atom        0.000021      0.000275     -0.000534
    18   Atom       -0.000271     -0.000089     -0.000546
    19   Atom        0.000187      0.000033     -0.001165
    20   Atom       -0.000089     -0.000153     -0.002600
    21   Atom        0.000003     -0.000056      0.000029
    22   Atom       -0.000041     -0.000153      0.000178
    23   Atom       -0.000124     -0.000193      0.000375
    24   Atom       -0.000243     -0.000222      0.000895
    25   Atom        0.000274      0.000291      0.002637
    26   Atom        0.000045      0.000346      0.000270
    27   Atom        0.000071      0.000285      0.000109
    28   Atom        0.000070      0.000318      0.000044
    29   Atom        0.000016      0.000509      0.000011
    30   Atom       -0.000187      0.001689     -0.000035
    31   Atom       -0.000060      0.000357     -0.000290
    32   Atom       -0.000044      0.000115     -0.000297
    33   Atom        0.000026     -0.000029     -0.000458
    34   Atom        0.000310     -0.000273     -0.001075
    35   Atom        0.000128     -0.000046     -0.003932
    36   Atom        0.000115     -0.018024     -0.002508
 --------------------------------------------------------


 ---------------------------------------------------------------------------------
              Anisotropic Spin Dipole Couplings in Principal Axis System
 ---------------------------------------------------------------------------------

       Atom             a.u.   MegaHertz   Gauss  10(-4) cm-1        Axes

              Baa    -0.0236     1.706     0.609     0.569 -0.2886  0.9542  0.0783
     1 O(17)  Bbb    -0.0217     1.569     0.560     0.523  0.7751  0.2808 -0.5660
              Bcc     0.0453    -3.275    -1.169    -1.093  0.5621  0.1027  0.8207
 
              Baa    -0.0125    -2.698    -0.963    -0.900  0.9646  0.2376  0.1146
     2 P(31)  Bbb    -0.0113    -2.449    -0.874    -0.817 -0.2404  0.9706  0.0107
              Bcc     0.0238     5.147     1.837     1.717 -0.1086 -0.0379  0.9934
 
              Baa    -0.0013    -0.174    -0.062    -0.058  0.9984 -0.0436 -0.0364
     3 C(13)  Bbb    -0.0010    -0.133    -0.047    -0.044  0.0323  0.9633 -0.2664
              Bcc     0.0023     0.307     0.109     0.102  0.0467  0.2648  0.9632
 
              Baa    -0.0007    -0.089    -0.032    -0.030 -0.2770  0.9431 -0.1839
     4 C(13)  Bbb    -0.0003    -0.046    -0.016    -0.015  0.9584  0.2849  0.0173
              Bcc     0.0010     0.135     0.048     0.045 -0.0687  0.1715  0.9828
 
              Baa    -0.0004    -0.058    -0.021    -0.019  0.2021  0.9530 -0.2258
     5 C(13)  Bbb    -0.0003    -0.042    -0.015    -0.014  0.9561 -0.1421  0.2563
              Bcc     0.0007     0.100     0.036     0.033 -0.2121  0.2677  0.9399
 
              Baa    -0.0005    -0.066    -0.024    -0.022 -0.2729  0.8222 -0.4995
     6 C(13)  Bbb    -0.0003    -0.037    -0.013    -0.012  0.9448  0.3270  0.0221
              Bcc     0.0008     0.103     0.037     0.034 -0.1815  0.4659  0.8660
 
              Baa    -0.0008    -0.101    -0.036    -0.034  0.2683  0.8140 -0.5151
     7 C(13)  Bbb    -0.0005    -0.071    -0.025    -0.024  0.9470 -0.1249  0.2960
              Bcc     0.0013     0.172     0.061     0.057 -0.1766  0.5673  0.8044
 
              Baa    -0.0016    -0.218    -0.078    -0.073  0.6514  0.6763 -0.3441
     8 C(13)  Bbb    -0.0015    -0.202    -0.072    -0.067  0.7587 -0.5749  0.3064
              Bcc     0.0031     0.421     0.150     0.140 -0.0094  0.4606  0.8876
 
              Baa    -0.0020    -0.265    -0.095    -0.088 -0.2786  0.9599 -0.0314
     9 C(13)  Bbb    -0.0012    -0.158    -0.056    -0.053 -0.5690 -0.1386  0.8106
              Bcc     0.0032     0.423     0.151     0.141  0.7737  0.2437  0.5848
 
              Baa    -0.0009    -0.116    -0.042    -0.039  0.8995 -0.0562 -0.4333
    10 C(13)  Bbb    -0.0003    -0.041    -0.015    -0.014 -0.1944  0.8366 -0.5122
              Bcc     0.0012     0.157     0.056     0.052  0.3913  0.5449  0.7416
 
              Baa    -0.0006    -0.079    -0.028    -0.026  0.0452  0.9528 -0.3001
    11 C(13)  Bbb    -0.0002    -0.029    -0.010    -0.010  0.7178 -0.2399 -0.6537
              Bcc     0.0008     0.108     0.039     0.036  0.6948  0.1859  0.6947
 
              Baa    -0.0005    -0.071    -0.025    -0.024 -0.6708  0.2712  0.6903
    12 C(13)  Bbb     0.0001     0.017     0.006     0.006  0.2833  0.9539 -0.0994
              Bcc     0.0004     0.053     0.019     0.018  0.6854 -0.1289  0.7166
 
              Baa    -0.0006    -0.086    -0.031    -0.029  0.1003  0.9589 -0.2653
    13 C(13)  Bbb    -0.0003    -0.044    -0.016    -0.015 -0.5982  0.2712  0.7541
              Bcc     0.0010     0.130     0.046     0.043  0.7951  0.0830  0.6008
 
              Baa    -0.0011    -0.146    -0.052    -0.049 -0.4633  0.6800  0.5683
    14 C(13)  Bbb    -0.0007    -0.095    -0.034    -0.032  0.5485  0.7237 -0.4188
              Bcc     0.0018     0.241     0.086     0.080  0.6960 -0.1177  0.7083
 
              Baa    -0.0014    -0.194    -0.069    -0.065  0.7286 -0.6022 -0.3263
    15 C(13)  Bbb    -0.0007    -0.095    -0.034    -0.032  0.6581  0.7475  0.0900
              Bcc     0.0022     0.289     0.103     0.096  0.1897 -0.2803  0.9410
 
              Baa    -0.0006    -0.087    -0.031    -0.029  0.6750  0.7281  0.1193
    16 C(13)  Bbb    -0.0002    -0.027    -0.010    -0.009  0.7262 -0.6271 -0.2819
              Bcc     0.0008     0.114     0.041     0.038  0.1304 -0.2769  0.9520
 
              Baa    -0.0006    -0.080    -0.029    -0.027  0.8029 -0.4295 -0.4134
    17 C(13)  Bbb    -0.0003    -0.035    -0.012    -0.012  0.5709  0.7536  0.3258
              Bcc     0.0009     0.115     0.041     0.038  0.1716 -0.4976  0.8503
 
              Baa    -0.0006    -0.085    -0.030    -0.028  0.5493  0.6835  0.4808
    18 C(13)  Bbb    -0.0001    -0.007    -0.002    -0.002  0.8278 -0.3666 -0.4246
              Bcc     0.0007     0.092     0.033     0.031  0.1140 -0.6313  0.7671
 
              Baa    -0.0010    -0.138    -0.049    -0.046  0.8998 -0.3422 -0.2705
    19 C(13)  Bbb    -0.0006    -0.083    -0.030    -0.028  0.4344  0.6461  0.6276
              Bcc     0.0016     0.221     0.079     0.074 -0.0400 -0.6822  0.7300
 
              Baa    -0.0025    -0.338    -0.121    -0.113  0.7648  0.5862  0.2673
    20 C(13)  Bbb    -0.0022    -0.299    -0.107    -0.100 -0.6441  0.7051  0.2966
              Bcc     0.0048     0.638     0.228     0.213 -0.0146 -0.3990  0.9168
 
              Baa    -0.0005    -0.257    -0.092    -0.086 -0.2335  0.9719 -0.0289
    21 H(1)   Bbb    -0.0005    -0.247    -0.088    -0.082  0.9715  0.2345  0.0341
              Bcc     0.0009     0.505     0.180     0.168 -0.0399  0.0202  0.9990
 
              Baa    -0.0003    -0.149    -0.053    -0.050  0.4668  0.8771 -0.1130
    22 H(1)   Bbb    -0.0003    -0.143    -0.051    -0.048  0.8621 -0.4229  0.2793
              Bcc     0.0005     0.292     0.104     0.097 -0.1972  0.2278  0.9535
 
              Baa    -0.0003    -0.162    -0.058    -0.054  0.4021  0.8300 -0.3865
    23 H(1)   Bbb    -0.0003    -0.158    -0.056    -0.053  0.8762 -0.2264  0.4255
              Bcc     0.0006     0.319     0.114     0.106 -0.2656  0.5098  0.8183
 
              Baa    -0.0006    -0.338    -0.120    -0.113  0.8111  0.5031 -0.2982
    24 H(1)   Bbb    -0.0006    -0.323    -0.115    -0.108  0.5565 -0.5072  0.6580
              Bcc     0.0012     0.660     0.236     0.220 -0.1798  0.6997  0.6914
 
              Baa    -0.0020    -1.059    -0.378    -0.353  0.9548 -0.2739  0.1157
    25 H(1)   Bbb    -0.0018    -0.958    -0.342    -0.320  0.2892  0.7650 -0.5754
              Bcc     0.0038     2.017     0.720     0.673  0.0691  0.5829  0.8096
 
              Baa    -0.0005    -0.245    -0.087    -0.082  0.4822  0.8059 -0.3436
    26 H(1)   Bbb    -0.0004    -0.199    -0.071    -0.066  0.8247 -0.5499 -0.1324
              Bcc     0.0008     0.444     0.158     0.148  0.2956  0.2195  0.9297
 
              Baa    -0.0002    -0.124    -0.044    -0.041 -0.0690  0.9790 -0.1916
    27 H(1)   Bbb    -0.0002    -0.110    -0.039    -0.037  0.8363 -0.0479 -0.5462
              Bcc     0.0004     0.234     0.083     0.078  0.5439  0.1979  0.8154
 
              Baa    -0.0002    -0.122    -0.044    -0.041 -0.5982  0.4641  0.6533
    28 H(1)   Bbb    -0.0002    -0.111    -0.040    -0.037  0.2044  0.8766 -0.4356
              Bcc     0.0004     0.233     0.083     0.078  0.7749  0.1270  0.6192
 
              Baa    -0.0004    -0.216    -0.077    -0.072  0.0224  0.9972 -0.0713
    29 H(1)   Bbb    -0.0004    -0.206    -0.073    -0.069 -0.4998  0.0729  0.8631
              Bcc     0.0008     0.422     0.150     0.141  0.8658  0.0163  0.5001
 
              Baa    -0.0013    -0.706    -0.252    -0.235  0.2673  0.9180 -0.2930
    30 H(1)   Bbb    -0.0011    -0.584    -0.209    -0.195 -0.5280  0.3939  0.7524
              Bcc     0.0024     1.290     0.460     0.430  0.8061 -0.0464  0.5900
 
              Baa    -0.0005    -0.247    -0.088    -0.082 -0.6160  0.6961  0.3687
    31 H(1)   Bbb    -0.0004    -0.215    -0.077    -0.072  0.7318  0.6790 -0.0594
              Bcc     0.0009     0.462     0.165     0.154  0.2917 -0.2332  0.9276
 
              Baa    -0.0003    -0.142    -0.051    -0.047  0.8295 -0.4183 -0.3700
    32 H(1)   Bbb    -0.0002    -0.126    -0.045    -0.042  0.5338  0.7886  0.3051
              Bcc     0.0005     0.268     0.096     0.089  0.1642 -0.4507  0.8775
 
              Baa    -0.0003    -0.166    -0.059    -0.055 -0.0482  0.7537  0.6555
    33 H(1)   Bbb    -0.0003    -0.162    -0.058    -0.054  0.9980  0.0087  0.0633
              Bcc     0.0006     0.328     0.117     0.109 -0.0420 -0.6572  0.7526
 
              Baa    -0.0008    -0.407    -0.145    -0.136  0.8377 -0.4746 -0.2703
    34 H(1)   Bbb    -0.0007    -0.390    -0.139    -0.130  0.5132  0.5147  0.6869
              Bcc     0.0015     0.797     0.284     0.266  0.1869  0.7141 -0.6747
 
              Baa    -0.0032    -1.696    -0.605    -0.566 -0.2844  0.8363  0.4688
    35 H(1)   Bbb    -0.0029    -1.522    -0.543    -0.508  0.9586  0.2422  0.1495
              Bcc     0.0060     3.218     1.148     1.073 -0.0115 -0.4919  0.8706
 
              Baa    -0.0312     0.678     0.242     0.226  0.4301  0.0468  0.9016
    36 Ag(107 Bbb     0.0143    -0.311    -0.111    -0.104  0.7595 -0.5587 -0.3333
              Bcc     0.0169    -0.367    -0.131    -0.122  0.4881  0.8281 -0.2758
 

 ---------------------------------------------------------------------------------

 No NMR shielding tensors so no spin-rotation constants.
 Leave Link  601 at Sat Sep 12 00:20:24 2026, MaxMem=  6442450944 cpu:               4.0 elap:               3.7
 (Enter C:\G16W\l9999.exe)
 Unable to Open any file for archive entry.
 1|1|UNPC-DESKTOP-2JKEGCA|SP|UPBE1PBE|def2SVP|C18H15Ag1O1P1(2)|JHKIM|12
 -Sep-2026|0||#P PBE1PBE/Def2SVP EmpiricalDispersion=GD3BJ SP SCF=(XQC,
 MaxCycle=128) NoSymm Guess=Read||Ph3P=O t=0.250 dz=+0.40 class=toface|
 |0,2|O,0,0.157203,-0.100492,2.626991|P,0,0.069607,-0.044493,1.163304|C
 ,0,1.166792,-1.236526,0.327247|C,0,1.691956,-1.034741,-0.941876|C,0,2.
 506392,-1.999945,-1.50715|C,0,2.795669,-3.162547,-0.810599|C,0,2.27647
 4,-3.361367,0.458551|C,0,1.463446,-2.397796,1.027112|C,0,-1.601084,-0.
 398148,0.524976|C,0,-1.842527,-0.947129,-0.727028|C,0,-3.145051,-1.169
 9,-1.137226|C,0,-4.203253,-0.845855,-0.303131|C,0,-3.962206,-0.303544,
 0.948922|C,0,-2.661381,-0.081191,1.362634|C,0,0.513641,1.583938,0.4742
 47|C,0,0.007445,2.073442,-0.722137|C,0,0.409889,3.31619,-1.178293|C,0,
 1.314314,4.068046,-0.445332|C,0,1.814986,3.5822,0.751795|C,0,1.413441,
 2.341123,1.211398|H,0,1.473765,-0.121933,-1.478618|H,0,2.919456,-1.844
 342,-2.493424|H,0,3.432355,-3.912319,-1.257069|H,0,2.507467,-4.265374,
 1.002736|H,0,1.05567,-2.521752,2.020234|H,0,-1.014865,-1.209302,-1.371
 357|H,0,-3.33617,-1.600225,-2.109779|H,0,-5.217949,-1.022428,-0.628822
 |H,0,-4.787714,-0.056885,1.600396|H,0,-2.444807,0.328765,2.338833|H,0,
 -0.706462,1.489685,-1.286482|H,0,0.015119,3.701451,-2.107435|H,0,1.624
 492,5.037702,-0.806466|H,0,2.515351,4.171781,1.325042|H,0,1.778541,1.9
 43911,2.147808|Ag,0,1.26228289,0.01112465,4.99701771||Version=EM64W-G1
 6RevC.01|HF=-1256.8491237|S2=0.751553|S2-1=0.|S2A=0.750002|RMSD=6.741e
 -009|Dipole=-0.5092547,0.0081778,-2.5471778|Quadrupole=7.6790596,9.455
 9811,-17.1350407,-0.0919453,-5.9702352,0.0288425|PG=C01 [X(C18H15Ag1O1
 P1)]||@
 The archive entry for this job was punched.


 WE SHOULD BE CAREFUL TO GET OUT OF AN EXPERIENCE ONLY THE WISDOM
 THAT IS IN IT -- AND STOP THERE;
 LEST WE BE LIKE THE CAT THAT SITS DOWN ON A HOT STOVE-LID.
 SHE WILL NEVER SIT DOWN ON A HOT STOVE LID AGAIN;
 BUT ALSO SHE WILL NEVER SIT DOWN ON A COLD ONE ANY MORE.

                                                     -- MARK TWAIN
 Job cpu time:       0 days  0 hours  6 minutes 34.0 seconds.
 Elapsed time:       0 days  0 hours  6 minutes 32.4 seconds.
 File lengths (MBytes):  RWF=    145 Int=      0 D2E=      0 Chk=     12 Scr=      1
 Normal termination of Gaussian 16 at Sat Sep 12 00:20:24 2026.
