 Entering Gaussian System, Link 0=C:\G16W\g16.exe
 Input=PhCN_t0_z0_ref.gjf
 Output=PhCN_t0_z0_ref.out
 Initial command:
 C:\G16W\l1.exe ".\Gau-92816.inp" "PhCN_t0_z0_ref.out" /scrdir=".\"
 Entering Link 1 = C:\G16W\l1.exe PID=     62136.
  
 Copyright (c) 1988-2019, Gaussian, Inc.  All Rights Reserved.
  
 This is part of the Gaussian(R) 16 program.  It is based on
 the Gaussian(R) 09 system (copyright 2009, Gaussian, Inc.),
 the Gaussian(R) 03 system (copyright 2003, Gaussian, Inc.),
 the Gaussian(R) 98 system (copyright 1998, Gaussian, Inc.),
 the Gaussian(R) 94 system (copyright 1995, Gaussian, Inc.),
 the Gaussian 92(TM) system (copyright 1992, Gaussian, Inc.),
 the Gaussian 90(TM) system (copyright 1990, Gaussian, Inc.),
 the Gaussian 88(TM) system (copyright 1988, Gaussian, Inc.),
 the Gaussian 86(TM) system (copyright 1986, Carnegie Mellon
 University), and the Gaussian 82(TM) system (copyright 1983,
 Carnegie Mellon University). Gaussian is a federally registered
 trademark of Gaussian, Inc.
  
 This software contains proprietary and confidential information,
 including trade secrets, belonging to Gaussian, Inc.
  
 This software is provided under written license and may be
 used, copied, transmitted, or stored only in accord with that
 written license.
  
 The following legend is applicable only to US Government
 contracts under FAR:
  
                    RESTRICTED RIGHTS LEGEND
  
 Use, reproduction and disclosure by the US Government is
 subject to restrictions as set forth in subparagraphs (a)
 and (c) of the Commercial Computer Software - Restricted
 Rights clause in FAR 52.227-19.
  
 Gaussian, Inc.
 340 Quinnipiac St., Bldg. 40, Wallingford CT 06492
  
  
 ---------------------------------------------------------------
 Warning -- This program may not be used in any manner that
 competes with the business of Gaussian, Inc. or will provide
 assistance to any competitor of Gaussian, Inc.  The licensee
 of this program is prohibited from giving any competitor of
 Gaussian, Inc. access to this program.  By using this program,
 the user acknowledges that Gaussian, Inc. is engaged in the
 business of creating and licensing software in the field of
 computational chemistry and represents and warrants to the
 licensee that it is not a competitor of Gaussian, Inc. and that
 it will not use this program in any manner prohibited above.
 ---------------------------------------------------------------
  

 Cite this work as:
 Gaussian 16, Revision C.01,
 M. J. Frisch, G. W. Trucks, H. B. Schlegel, G. E. Scuseria, 
 M. A. Robb, J. R. Cheeseman, G. Scalmani, V. Barone, 
 G. A. Petersson, H. Nakatsuji, X. Li, M. Caricato, A. V. Marenich, 
 J. Bloino, B. G. Janesko, R. Gomperts, B. Mennucci, H. P. Hratchian, 
 J. V. Ortiz, A. F. Izmaylov, J. L. Sonnenberg, D. Williams-Young, 
 F. Ding, F. Lipparini, F. Egidi, J. Goings, B. Peng, A. Petrone, 
 T. Henderson, D. Ranasinghe, V. G. Zakrzewski, J. Gao, N. Rega, 
 G. Zheng, W. Liang, M. Hada, M. Ehara, K. Toyota, R. Fukuda, 
 J. Hasegawa, M. Ishida, T. Nakajima, Y. Honda, O. Kitao, H. Nakai, 
 T. Vreven, K. Throssell, J. A. Montgomery, Jr., J. E. Peralta, 
 F. Ogliaro, M. J. Bearpark, J. J. Heyd, E. N. Brothers, K. N. Kudin, 
 V. N. Staroverov, T. A. Keith, R. Kobayashi, J. Normand, 
 K. Raghavachari, A. P. Rendell, J. C. Burant, S. S. Iyengar, 
 J. Tomasi, M. Cossi, J. M. Millam, M. Klene, C. Adamo, R. Cammi, 
 J. W. Ochterski, R. L. Martin, K. Morokuma, O. Farkas, 
 J. B. Foresman, and D. J. Fox, Gaussian, Inc., Wallingford CT, 2019.
 
 ******************************************
 Gaussian 16:  EM64W-G16RevC.01 30-May-2019
                12-Sep-2026 
 ******************************************
 %Chk=PhCN.chk
 %NProcShared=8
 Will use up to    8 processors via shared memory.
 %Mem=48GB
 ----------------------------------------------------------------------
 #P PBE1PBE/Def2SVP EmpiricalDispersion=GD3BJ SP SCF=(XQC,MaxCycle=128)
  NoSymm Guess=Read
 ----------------------------------------------------------------------
 1/38=1,172=1/1;
 2/12=2,15=1,17=6,18=5,40=1/2;
 3/5=43,7=101,11=2,25=1,30=1,74=-13,116=-2,124=41/1,2,3;
 4/5=1/1;
 5/5=2,7=128,8=3,13=1,38=6/2,8;
 6/7=2,8=2,9=2,10=2,28=1/1;
 99/5=1,9=1/99;
 Leave Link    1 at Sat Sep 12 00:35:39 2026, MaxMem=  6442450944 cpu:               0.0 elap:               0.3
 (Enter C:\G16W\l101.exe)
 ----------------------------------
 PhCN t=0.000 dz=+0.00 class=toface
 ----------------------------------
 Symbolic Z-matrix:
 Charge =  0 Multiplicity = 2
 N                     3.47389   0.99866  -0.07824 
 C                     2.3724    0.68202  -0.05343 
 C                     1.01333   0.29131  -0.02282 
 C                     0.01391   1.25989   0.07419 
 C                    -1.31163   0.87087   0.10357 
 C                    -1.6455   -0.47304   0.03706 
 C                    -0.65228  -1.43545  -0.05934 
 C                     0.67746  -1.06113  -0.08976 
 H                     0.28562   2.30401   0.12537 
 H                    -2.08781   1.61777   0.17859 
 H                    -2.68303  -0.77131   0.06043 
 H                    -0.91594  -2.48128  -0.11094 
 H                     1.45956  -1.80231  -0.16468 
 Ag                    5.68385   1.63395  -0.12801 
 
 ITRead=  0  0  0  0  0  0  0  0  0  0  0  0  0  0
 MicOpt= -1 -1 -1 -1 -1 -1 -1 -1 -1 -1 -1 -1 -1 -1
 NAtoms=     14 NQM=       14 NQMF=       0 NMMI=      0 NMMIF=      0
                NMic=       0 NMicF=      0.
                    Isotopes and Nuclear Properties:
 (Nuclear quadrupole moments (NQMom) in fm**2, nuclear magnetic moments (NMagM)
  in nuclear magnetons)

  Atom         1           2           3           4           5           6           7           8           9          10
 IAtWgt=          14          12          12          12          12          12          12          12           1           1
 AtmWgt=  14.0030740  12.0000000  12.0000000  12.0000000  12.0000000  12.0000000  12.0000000  12.0000000   1.0078250   1.0078250
 NucSpn=           2           0           0           0           0           0           0           0           1           1
 AtZEff=   0.0000000   0.0000000   0.0000000   0.0000000   0.0000000   0.0000000   0.0000000   0.0000000   0.0000000   0.0000000
 NQMom=    2.0440000   0.0000000   0.0000000   0.0000000   0.0000000   0.0000000   0.0000000   0.0000000   0.0000000   0.0000000
 NMagM=    0.4037610   0.0000000   0.0000000   0.0000000   0.0000000   0.0000000   0.0000000   0.0000000   2.7928460   2.7928460
 AtZNuc=   7.0000000   6.0000000   6.0000000   6.0000000   6.0000000   6.0000000   6.0000000   6.0000000   1.0000000   1.0000000

  Atom        11          12          13          14
 IAtWgt=           1           1           1         107
 AtmWgt=   1.0078250   1.0078250   1.0078250 106.9050900
 NucSpn=           1           1           1           1
 AtZEff=   0.0000000   0.0000000   0.0000000   0.0000000
 NQMom=    0.0000000   0.0000000   0.0000000   0.0000000
 NMagM=    2.7928460   2.7928460   2.7928460  -0.1135700
 AtZNuc=   1.0000000   1.0000000   1.0000000  47.0000000
 Leave Link  101 at Sat Sep 12 00:35:39 2026, MaxMem=  6442450944 cpu:               0.0 elap:               0.3
 (Enter C:\G16W\l202.exe)
                          Input orientation:                          
 ---------------------------------------------------------------------
 Center     Atomic      Atomic             Coordinates (Angstroms)
 Number     Number       Type             X           Y           Z
 ---------------------------------------------------------------------
      1          7           0        3.473893    0.998659   -0.078238
      2          6           0        2.372396    0.682016   -0.053433
      3          6           0        1.013334    0.291313   -0.022822
      4          6           0        0.013910    1.259886    0.074188
      5          6           0       -1.311627    0.870874    0.103569
      6          6           0       -1.645495   -0.473044    0.037059
      7          6           0       -0.652276   -1.435453   -0.059338
      8          6           0        0.677460   -1.061130   -0.089757
      9          1           0        0.285615    2.304007    0.125373
     10          1           0       -2.087806    1.617773    0.178593
     11          1           0       -2.683025   -0.771312    0.060425
     12          1           0       -0.915936   -2.481283   -0.110943
     13          1           0        1.459559   -1.802305   -0.164676
     14         47           0        5.683854    1.633949   -0.128006
 ---------------------------------------------------------------------
                    Distance matrix (angstroms):
                    1          2          3          4          5
     1  N    0.000000
     2  C    1.146374   0.000000
     3  C    2.560812   1.414438   0.000000
     4  C    3.473177   2.431600   1.395132   0.000000
     5  C    4.790677   3.692200   2.399439   1.381753   0.000000
     6  C    5.327977   4.181603   2.767164   2.399594   1.386365
     7  C    4.790671   3.692201   2.399440   2.779656   2.404252
     8  C    3.473169   2.431601   1.395132   2.419564   2.779655
     9  H    3.451160   2.649053   2.145338   1.080107   2.146049
    10  H    5.601943   4.563209   3.378925   2.134524   1.079787
    11  H    6.407782   5.261407   3.846969   3.376302   2.139946
    12  H    5.601934   4.563211   3.378925   3.859434   3.382239
    13  H    3.451147   2.649056   2.145338   3.394697   3.859704
    14  Ag   2.300000   3.446374   4.860812   5.685866   7.040786
                    6          7          8          9         10
     6  C    0.000000
     7  C    1.386365   0.000000
     8  C    2.399593   1.381753   0.000000
     9  H    3.383637   3.859704   3.394697   0.000000
    10  H    2.141772   3.382240   3.859434   2.471210   0.000000
    11  H    1.079805   2.139946   3.376301   4.274883   2.464950
    12  H    2.141771   1.079787   2.134524   4.939491   4.273098
    13  H    3.383636   2.146048   1.080107   4.280662   4.939490
    14  Ag   7.627976   7.040773   5.685850   5.445564   7.777722
                   11         12         13         14
    11  H    0.000000
    12  H    2.464949   0.000000
    13  H    4.274882   2.471209   0.000000
    14  Ag   8.707781   7.777702   5.445535   0.000000
 Symmetry turned off by external request.
 Stoichiometry    C7H5AgN(2)
 Framework group  C1[X(C7H5AgN)]
 Deg. of freedom    36
 Full point group                 C1      NOp   1
 Rotational constants (GHZ):           5.7271179           0.2724344           0.2600634
 Leave Link  202 at Sat Sep 12 00:35:40 2026, MaxMem=  6442450944 cpu:               0.0 elap:               0.1
 (Enter C:\G16W\l301.exe)
 Standard basis: def2SVP (5D, 7F)
 Ernie: Thresh=  0.10000D-02 Tol=  0.10000D-05 Strict=F.
   168 basis functions,   300 primitive gaussians,   181 cartesian basis functions
    37 alpha electrons       36 beta electrons
       nuclear repulsion energy       416.0861391839 Hartrees.
 IExCor= 1009 DFT=T Ex+Corr=PBE1PBE ExCW=0 ScaHFX=  0.250000
 ScaDFX=  0.750000  0.750000  1.000000  1.000000 ScalE2=  1.000000  1.000000
 IRadAn=      5 IRanWt=     -1 IRanGd=            0 ICorTp=0 IEmpDi=141
 NAtoms=   14 NActive=   14 NUniq=   14 SFac= 1.00D+00 NAtFMM=   60 NAOKFM=F Big=F
 Integral buffers will be    131072 words long.
 Raffenetti 2 integral format.
 Two-electron integral symmetry is turned off.
 R6Disp:  Grimme-D3(BJ) Dispersion energy=       -0.0135065550 Hartrees.
 Nuclear repulsion after empirical dispersion term =      416.0726326289 Hartrees.
 Leave Link  301 at Sat Sep 12 00:35:40 2026, MaxMem=  6442450944 cpu:               0.0 elap:               0.3
 (Enter C:\G16W\l302.exe)
 NPDir=0 NMtPBC=     1 NCelOv=     1 NCel=       1 NClECP=     1 NCelD=      1
         NCelK=      1 NCelE2=     1 NClLst=     1 CellRange=     0.0.
 One-electron integrals computed using PRISM.
   1 Symmetry operations used in ECPInt.
 ECPInt:  NShTT=    2775 NPrTT=   10004 LenC2=    2662 LenP2D=    7582.
 LDataN:  DoStor=T MaxTD1= 7 Len=  274
 NBasis=   168 RedAO= T EigKep=  2.81D-04  NBF=   168
 NBsUse=   168 1.00D-06 EigRej= -1.00D+00 NBFU=   168
 Precomputing XC quadrature grid using
 IXCGrd= 4 IRadAn=           5 IRanWt=          -1 IRanGd=           0 AccXCQ= 0.00D+00.
 Defaulting to unpruned grid for atomic number  47.
 Generated NRdTot=       0 NPtTot=           0 NUsed=           0 NTot=          32
 NSgBfM=   180   180   180   180   180 MxSgAt=    14 MxSgA2=    14.
 Leave Link  302 at Sat Sep 12 00:35:45 2026, MaxMem=  6442450944 cpu:               4.0 elap:               4.5
 (Enter C:\G16W\l303.exe)
 DipDrv:  MaxL=1.
 Leave Link  303 at Sat Sep 12 00:35:47 2026, MaxMem=  6442450944 cpu:               2.0 elap:               1.3
 (Enter C:\G16W\l401.exe)
 Initial guess from the checkpoint file:  "PhCN.chk"
 B after Tr=     2.973452    0.879304    0.151330
         Rot=    0.853393   -0.165087    0.494436   -0.000444 Ang= -62.83 deg.
 Guess basis will be translated and rotated to current coordinates.
 JPrj=2 DoOrth=T DoCkMO=T.
 Initial guess <Sx>= 0.0000 <Sy>= 0.0000 <Sz>= 0.5000 <S**2>= 0.7528 S= 0.5014
 Leave Link  401 at Sat Sep 12 00:35:49 2026, MaxMem=  6442450944 cpu:               2.0 elap:               2.1
 (Enter C:\G16W\l502.exe)
 Two-electron integral symmetry not used.
 UHF open shell SCF:
 Using DIIS extrapolation, IDIIS=  1040.
 NGot=  6442450944 LenX=  6442382175 LenY=  6442348973
 Requested convergence on RMS density matrix=1.00D-08 within 128 cycles.
 Requested convergence on MAX density matrix=1.00D-06.
 Requested convergence on             energy=1.00D-06.
 No special actions if energy rises.
 Fock matrices will be formed incrementally for  20 cycles.

 Cycle   1  Pass 1  IDiag  1:
 FoFJK:  IHMeth= 1 ICntrl=       0 DoSepK=F KAlg= 0 I1Cent=           0 FoldK=F
 IRaf= 930000000 NMat=       1 IRICut=       1 DoRegI=T DoRafI=F ISym2E= 0 IDoP0=0 IntGTp=1.
 FoFCou: FMM=F IPFlag=           0 FMFlag=      100000 FMFlg1=           0
         NFxFlg=           0 DoJE=F BraDBF=F KetDBF=F FulRan=T
         wScrn=  0.000000 ICntrl=         0 IOpCl=  1 I1Cent=           0 NGrid=           0
         NMat0=    1 NMatS0=      1 NMatT0=    0 NMatD0=    1 NMtDS0=    0 NMtDT0=    0
 Symmetry not used in FoFCou.
 Defaulting to unpruned grid for atomic number  47.
 Defaulting to unpruned grid for atomic number  47.
 Defaulting to unpruned grid for atomic number  47.
 Defaulting to unpruned grid for atomic number  47.
 Defaulting to unpruned grid for atomic number  47.
 Defaulting to unpruned grid for atomic number  47.
 Defaulting to unpruned grid for atomic number  47.
 Defaulting to unpruned grid for atomic number  47.
 E= -466.803790320984    
 DIIS: error= 9.80D-02 at cycle   1 NSaved=   1.
 NSaved= 1 IEnMin= 1 EnMin= -466.803790320984     IErMin= 1 ErrMin= 9.80D-02
 ErrMax= 9.80D-02  0.00D+00 EMaxC= 1.00D-01 BMatC= 9.80D+00 BMatP= 9.80D+00
 IDIUse=3 WtCom= 1.99D-02 WtEn= 9.80D-01
 Coeff-Com:  0.100D+01
 Coeff-En:   0.100D+01
 Coeff:      0.100D+01
 Gap=     1.265 Goal=   None    Shift=    0.000
 Gap=     0.437 Goal=   None    Shift=    0.000
 GapD=    0.437 DampG=2.000 DampE=0.250 DampFc=0.5000 IDamp=-1.
 Damping current iteration by 5.00D-01
 RMSDP=1.64D-02 MaxDP=3.30D-01              OVMax= 4.95D-01

 Cycle   2  Pass 1  IDiag  1:
 RMSU=  7.30D-03    CP:  8.90D-01
 E= -468.693334945305     Delta-E=       -1.889544624321 Rises=F Damp=T
 DIIS: error= 5.59D-02 at cycle   2 NSaved=   2.
 NSaved= 2 IEnMin= 2 EnMin= -468.693334945305     IErMin= 2 ErrMin= 5.59D-02
 ErrMax= 5.59D-02  0.00D+00 EMaxC= 1.00D-01 BMatC= 2.66D+00 BMatP= 9.80D+00
 IDIUse=3 WtCom= 4.41D-01 WtEn= 5.59D-01
 Coeff-Com: -0.988D+00 0.199D+01
 Coeff-En:   0.000D+00 0.100D+01
 Coeff:     -0.436D+00 0.144D+01
 Gap=     0.054 Goal=   None    Shift=    0.000
 Gap=     0.213 Goal=   None    Shift=    0.000
 RMSDP=9.09D-03 MaxDP=1.66D-01 DE=-1.89D+00 OVMax= 1.54D-01

 Cycle   3  Pass 1  IDiag  1:
 RMSU=  3.29D-03    CP:  7.74D-01  2.02D+00
 E= -470.766967621942     Delta-E=       -2.073632676637 Rises=F Damp=F
 DIIS: error= 1.91D-02 at cycle   3 NSaved=   3.
 NSaved= 3 IEnMin= 3 EnMin= -470.766967621942     IErMin= 3 ErrMin= 1.91D-02
 ErrMax= 1.91D-02  0.00D+00 EMaxC= 1.00D-01 BMatC= 1.77D-01 BMatP= 2.66D+00
 IDIUse=3 WtCom= 8.09D-01 WtEn= 1.91D-01
 Coeff-Com: -0.434D+00 0.824D+00 0.610D+00
 Coeff-En:   0.000D+00 0.000D+00 0.100D+01
 Coeff:     -0.351D+00 0.667D+00 0.684D+00
 Gap=     0.052 Goal=   None    Shift=    0.000
 Gap=     0.191 Goal=   None    Shift=    0.000
 RMSDP=1.99D-03 MaxDP=5.92D-02 DE=-2.07D+00 OVMax= 1.24D-01

 Cycle   4  Pass 1  IDiag  1:
 RMSU=  1.45D-03    CP:  7.64D-01  2.08D+00  6.19D-01
 E= -470.798115339921     Delta-E=       -0.031147717979 Rises=F Damp=F
 DIIS: error= 1.27D-02 at cycle   4 NSaved=   4.
 NSaved= 4 IEnMin= 4 EnMin= -470.798115339921     IErMin= 4 ErrMin= 1.27D-02
 ErrMax= 1.27D-02  0.00D+00 EMaxC= 1.00D-01 BMatC= 6.93D-02 BMatP= 1.77D-01
 IDIUse=3 WtCom= 8.73D-01 WtEn= 1.27D-01
 Coeff-Com: -0.769D-01 0.134D+00 0.391D+00 0.552D+00
 Coeff-En:   0.000D+00 0.000D+00 0.272D+00 0.728D+00
 Coeff:     -0.671D-01 0.117D+00 0.376D+00 0.574D+00
 Gap=     0.063 Goal=   None    Shift=    0.000
 Gap=     0.207 Goal=   None    Shift=    0.000
 RMSDP=8.99D-04 MaxDP=3.43D-02 DE=-3.11D-02 OVMax= 4.42D-02

 Cycle   5  Pass 1  IDiag  1:
 RMSU=  6.16D-04    CP:  7.64D-01  2.08D+00  7.57D-01  6.77D-01
 E= -470.811819193466     Delta-E=       -0.013703853544 Rises=F Damp=F
 DIIS: error= 6.46D-03 at cycle   5 NSaved=   5.
 NSaved= 5 IEnMin= 5 EnMin= -470.811819193466     IErMin= 5 ErrMin= 6.46D-03
 ErrMax= 6.46D-03  0.00D+00 EMaxC= 1.00D-01 BMatC= 1.62D-02 BMatP= 6.93D-02
 IDIUse=3 WtCom= 9.35D-01 WtEn= 6.46D-02
 Coeff-Com: -0.414D-02-0.133D-02 0.181D+00 0.396D+00 0.429D+00
 Coeff-En:   0.000D+00 0.000D+00 0.000D+00 0.175D+00 0.825D+00
 Coeff:     -0.387D-02-0.125D-02 0.169D+00 0.382D+00 0.454D+00
 Gap=     0.056 Goal=   None    Shift=    0.000
 Gap=     0.197 Goal=   None    Shift=    0.000
 RMSDP=3.60D-04 MaxDP=1.33D-02 DE=-1.37D-02 OVMax= 1.81D-02

 Cycle   6  Pass 1  IDiag  1:
 RMSU=  2.27D-04    CP:  7.64D-01  2.08D+00  7.77D-01  7.44D-01  5.88D-01
 E= -470.815192709603     Delta-E=       -0.003373516138 Rises=F Damp=F
 DIIS: error= 1.80D-03 at cycle   6 NSaved=   6.
 NSaved= 6 IEnMin= 6 EnMin= -470.815192709603     IErMin= 6 ErrMin= 1.80D-03
 ErrMax= 1.80D-03  0.00D+00 EMaxC= 1.00D-01 BMatC= 1.41D-03 BMatP= 1.62D-02
 IDIUse=3 WtCom= 9.82D-01 WtEn= 1.80D-02
 Coeff-Com:  0.574D-02-0.145D-01 0.543D-01 0.159D+00 0.284D+00 0.512D+00
 Coeff-En:   0.000D+00 0.000D+00 0.000D+00 0.000D+00 0.536D-01 0.946D+00
 Coeff:      0.563D-02-0.142D-01 0.533D-01 0.156D+00 0.279D+00 0.520D+00
 Gap=     0.056 Goal=   None    Shift=    0.000
 Gap=     0.198 Goal=   None    Shift=    0.000
 RMSDP=1.47D-04 MaxDP=3.02D-03 DE=-3.37D-03 OVMax= 7.89D-03

 Cycle   7  Pass 1  IDiag  1:
 RMSU=  1.04D-04    CP:  7.64D-01  2.08D+00  7.62D-01  7.76D-01  6.61D-01
                    CP:  7.19D-01
 E= -470.815513526972     Delta-E=       -0.000320817369 Rises=F Damp=F
 DIIS: error= 7.17D-04 at cycle   7 NSaved=   7.
 NSaved= 7 IEnMin= 7 EnMin= -470.815513526972     IErMin= 7 ErrMin= 7.17D-04
 ErrMax= 7.17D-04  0.00D+00 EMaxC= 1.00D-01 BMatC= 1.58D-04 BMatP= 1.41D-03
 IDIUse=3 WtCom= 9.93D-01 WtEn= 7.17D-03
 Coeff-Com:  0.307D-02-0.608D-02-0.837D-02 0.145D-02 0.699D-01 0.313D+00
 Coeff-Com:  0.627D+00
 Coeff-En:   0.000D+00 0.000D+00 0.000D+00 0.000D+00 0.000D+00 0.771D-01
 Coeff-En:   0.923D+00
 Coeff:      0.305D-02-0.603D-02-0.831D-02 0.144D-02 0.694D-01 0.311D+00
 Coeff:      0.629D+00
 Gap=     0.056 Goal=   None    Shift=    0.000
 Gap=     0.198 Goal=   None    Shift=    0.000
 RMSDP=6.19D-05 MaxDP=1.39D-03 DE=-3.21D-04 OVMax= 6.58D-03

 Cycle   8  Pass 1  IDiag  1:
 RMSU=  3.91D-05    CP:  7.64D-01  2.08D+00  7.67D-01  7.78D-01  6.96D-01
                    CP:  8.86D-01  8.97D-01
 E= -470.815563183720     Delta-E=       -0.000049656749 Rises=F Damp=F
 DIIS: error= 1.00D-04 at cycle   8 NSaved=   8.
 NSaved= 8 IEnMin= 8 EnMin= -470.815563183720     IErMin= 8 ErrMin= 1.00D-04
 ErrMax= 1.00D-04  0.00D+00 EMaxC= 1.00D-01 BMatC= 5.45D-06 BMatP= 1.58D-04
 IDIUse=3 WtCom= 9.99D-01 WtEn= 1.00D-03
 Coeff-Com:  0.815D-03-0.147D-02-0.541D-02-0.818D-02 0.122D-01 0.846D-01
 Coeff-Com:  0.229D+00 0.688D+00
 Coeff-En:   0.000D+00 0.000D+00 0.000D+00 0.000D+00 0.000D+00 0.000D+00
 Coeff-En:   0.000D+00 0.100D+01
 Coeff:      0.815D-03-0.147D-02-0.540D-02-0.817D-02 0.121D-01 0.845D-01
 Coeff:      0.229D+00 0.689D+00
 Gap=     0.056 Goal=   None    Shift=    0.000
 Gap=     0.198 Goal=   None    Shift=    0.000
 RMSDP=2.45D-05 MaxDP=7.67D-04 DE=-4.97D-05 OVMax= 3.59D-03

 Cycle   9  Pass 1  IDiag  1:
 RMSU=  1.28D-05    CP:  7.64D-01  2.08D+00  7.68D-01  7.81D-01  7.11D-01
                    CP:  9.26D-01  1.01D+00  1.27D+00
 E= -470.815566631978     Delta-E=       -0.000003448257 Rises=F Damp=F
 DIIS: error= 3.53D-05 at cycle   9 NSaved=   9.
 NSaved= 9 IEnMin= 9 EnMin= -470.815566631978     IErMin= 9 ErrMin= 3.53D-05
 ErrMax= 3.53D-05  0.00D+00 EMaxC= 1.00D-01 BMatC= 1.08D-06 BMatP= 5.45D-06
 IDIUse=1 WtCom= 1.00D+00 WtEn= 0.00D+00
 Coeff-Com: -0.321D-03 0.681D-03-0.360D-03-0.376D-02-0.968D-02-0.319D-01
 Coeff-Com: -0.433D-01 0.254D+00 0.835D+00
 Coeff:     -0.321D-03 0.681D-03-0.360D-03-0.376D-02-0.968D-02-0.319D-01
 Coeff:     -0.433D-01 0.254D+00 0.835D+00
 Gap=     0.056 Goal=   None    Shift=    0.000
 Gap=     0.198 Goal=   None    Shift=    0.000
 RMSDP=2.10D-05 MaxDP=6.94D-04 DE=-3.45D-06 OVMax= 3.27D-03

 Cycle  10  Pass 1  IDiag  1:
 RMSU=  5.68D-06    CP:  7.64D-01  2.08D+00  7.68D-01  7.82D-01  7.19D-01
                    CP:  9.68D-01  1.12D+00  1.58D+00  1.10D+00
 E= -470.815568092434     Delta-E=       -0.000001460457 Rises=F Damp=F
 DIIS: error= 2.04D-05 at cycle  10 NSaved=  10.
 NSaved=10 IEnMin=10 EnMin= -470.815568092434     IErMin=10 ErrMin= 2.04D-05
 ErrMax= 2.04D-05  0.00D+00 EMaxC= 1.00D-01 BMatC= 2.00D-07 BMatP= 1.08D-06
 IDIUse=1 WtCom= 1.00D+00 WtEn= 0.00D+00
 Coeff-Com: -0.202D-03 0.375D-03 0.108D-02 0.117D-02-0.457D-02-0.247D-01
 Coeff-Com: -0.582D-01-0.100D+00 0.180D+00 0.101D+01
 Coeff:     -0.202D-03 0.375D-03 0.108D-02 0.117D-02-0.457D-02-0.247D-01
 Coeff:     -0.582D-01-0.100D+00 0.180D+00 0.101D+01
 Gap=     0.056 Goal=   None    Shift=    0.000
 Gap=     0.198 Goal=   None    Shift=    0.000
 RMSDP=1.39D-05 MaxDP=4.67D-04 DE=-1.46D-06 OVMax= 2.21D-03

 Cycle  11  Pass 1  IDiag  1:
 RMSU=  2.46D-06    CP:  7.64D-01  2.08D+00  7.68D-01  7.84D-01  7.26D-01
                    CP:  9.94D-01  1.19D+00  1.80D+00  1.41D+00  1.27D+00
 E= -470.815568485939     Delta-E=       -0.000000393505 Rises=F Damp=F
 DIIS: error= 1.56D-05 at cycle  11 NSaved=  11.
 NSaved=11 IEnMin=11 EnMin= -470.815568485939     IErMin=11 ErrMin= 1.56D-05
 ErrMax= 1.56D-05  0.00D+00 EMaxC= 1.00D-01 BMatC= 1.02D-07 BMatP= 2.00D-07
 IDIUse=1 WtCom= 1.00D+00 WtEn= 0.00D+00
 Coeff-Com: -0.344D-04 0.466D-04 0.679D-03 0.155D-02-0.438D-03-0.708D-02
 Coeff-Com: -0.238D-01-0.117D+00-0.784D-01 0.588D+00 0.637D+00
 Coeff:     -0.344D-04 0.466D-04 0.679D-03 0.155D-02-0.438D-03-0.708D-02
 Coeff:     -0.238D-01-0.117D+00-0.784D-01 0.588D+00 0.637D+00
 Gap=     0.056 Goal=   None    Shift=    0.000
 Gap=     0.198 Goal=   None    Shift=    0.000
 RMSDP=5.04D-06 MaxDP=1.65D-04 DE=-3.94D-07 OVMax= 7.74D-04

 Cycle  12  Pass 1  IDiag  1:
 RMSU=  1.32D-06    CP:  7.64D-01  2.08D+00  7.68D-01  7.84D-01  7.28D-01
                    CP:  1.00D+00  1.21D+00  1.87D+00  1.51D+00  1.48D+00
                    CP:  8.00D-01
 E= -470.815568553176     Delta-E=       -0.000000067237 Rises=F Damp=F
 DIIS: error= 6.61D-06 at cycle  12 NSaved=  12.
 NSaved=12 IEnMin=12 EnMin= -470.815568553176     IErMin=12 ErrMin= 6.61D-06
 ErrMax= 6.61D-06  0.00D+00 EMaxC= 1.00D-01 BMatC= 1.97D-08 BMatP= 1.02D-07
 IDIUse=1 WtCom= 1.00D+00 WtEn= 0.00D+00
 Coeff-Com:  0.299D-04-0.643D-04 0.759D-04 0.549D-03 0.106D-02 0.310D-02
 Coeff-Com:  0.305D-02-0.379D-01-0.920D-01 0.539D-01 0.346D+00 0.722D+00
 Coeff:      0.299D-04-0.643D-04 0.759D-04 0.549D-03 0.106D-02 0.310D-02
 Coeff:      0.305D-02-0.379D-01-0.920D-01 0.539D-01 0.346D+00 0.722D+00
 Gap=     0.056 Goal=   None    Shift=    0.000
 Gap=     0.198 Goal=   None    Shift=    0.000
 RMSDP=1.80D-06 MaxDP=5.77D-05 DE=-6.72D-08 OVMax= 2.67D-04

 Cycle  13  Pass 1  IDiag  1:
 RMSU=  4.60D-07    CP:  7.64D-01  2.08D+00  7.68D-01  7.84D-01  7.28D-01
                    CP:  1.00D+00  1.22D+00  1.90D+00  1.54D+00  1.57D+00
                    CP:  1.03D+00  9.67D-01
 E= -470.815568564394     Delta-E=       -0.000000011217 Rises=F Damp=F
 DIIS: error= 2.57D-06 at cycle  13 NSaved=  13.
 NSaved=13 IEnMin=13 EnMin= -470.815568564394     IErMin=13 ErrMin= 2.57D-06
 ErrMax= 2.57D-06  0.00D+00 EMaxC= 1.00D-01 BMatC= 2.17D-09 BMatP= 1.97D-08
 IDIUse=1 WtCom= 1.00D+00 WtEn= 0.00D+00
 Coeff-Com:  0.108D-04-0.194D-04-0.118D-03-0.171D-03 0.367D-03 0.234D-02
 Coeff-Com:  0.560D-02 0.132D-01-0.783D-02-0.899D-01-0.208D-01 0.189D+00
 Coeff-Com:  0.908D+00
 Coeff:      0.108D-04-0.194D-04-0.118D-03-0.171D-03 0.367D-03 0.234D-02
 Coeff:      0.560D-02 0.132D-01-0.783D-02-0.899D-01-0.208D-01 0.189D+00
 Coeff:      0.908D+00
 Gap=     0.056 Goal=   None    Shift=    0.000
 Gap=     0.198 Goal=   None    Shift=    0.000
 RMSDP=3.94D-07 MaxDP=1.71D-05 DE=-1.12D-08 OVMax= 2.61D-05

 Cycle  14  Pass 1  IDiag  1:
 RMSU=  2.30D-07    CP:  7.64D-01  2.08D+00  7.68D-01  7.84D-01  7.28D-01
                    CP:  1.00D+00  1.22D+00  1.90D+00  1.54D+00  1.59D+00
                    CP:  1.08D+00  1.13D+00  1.26D+00
 E= -470.815568566565     Delta-E=       -0.000000002172 Rises=F Damp=F
 DIIS: error= 1.36D-06 at cycle  14 NSaved=  14.
 NSaved=14 IEnMin=14 EnMin= -470.815568566565     IErMin=14 ErrMin= 1.36D-06
 ErrMax= 1.36D-06  0.00D+00 EMaxC= 1.00D-01 BMatC= 4.97D-10 BMatP= 2.17D-09
 IDIUse=1 WtCom= 1.00D+00 WtEn= 0.00D+00
 Coeff-Com: -0.503D-05 0.115D-04-0.315D-04-0.136D-03-0.183D-03-0.364D-03
 Coeff-Com:  0.933D-04 0.943D-02 0.161D-01-0.240D-01-0.708D-01-0.121D+00
 Coeff-Com:  0.931D-01 0.110D+01
 Coeff:     -0.503D-05 0.115D-04-0.315D-04-0.136D-03-0.183D-03-0.364D-03
 Coeff:      0.933D-04 0.943D-02 0.161D-01-0.240D-01-0.708D-01-0.121D+00
 Coeff:      0.931D-01 0.110D+01
 Gap=     0.056 Goal=   None    Shift=    0.000
 Gap=     0.198 Goal=   None    Shift=    0.000
 RMSDP=2.82D-07 MaxDP=1.06D-05 DE=-2.17D-09 OVMax= 2.19D-05

 Cycle  15  Pass 1  IDiag  1:
 RMSU=  1.20D-07    CP:  7.64D-01  2.08D+00  7.68D-01  7.84D-01  7.28D-01
                    CP:  1.00D+00  1.22D+00  1.89D+00  1.54D+00  1.59D+00
                    CP:  1.11D+00  1.21D+00  1.60D+00  1.34D+00
 E= -470.815568567387     Delta-E=       -0.000000000822 Rises=F Damp=F
 DIIS: error= 8.14D-07 at cycle  15 NSaved=  15.
 NSaved=15 IEnMin=15 EnMin= -470.815568567387     IErMin=15 ErrMin= 8.14D-07
 ErrMax= 8.14D-07  0.00D+00 EMaxC= 1.00D-01 BMatC= 2.20D-10 BMatP= 4.97D-10
 IDIUse=1 WtCom= 1.00D+00 WtEn= 0.00D+00
 Coeff-Com: -0.456D-05 0.913D-05 0.172D-04-0.151D-04-0.167D-03-0.738D-03
 Coeff-Com: -0.131D-02 0.119D-02 0.943D-02 0.102D-01-0.260D-01-0.983D-01
 Coeff-Com: -0.196D+00 0.487D+00 0.815D+00
 Coeff:     -0.456D-05 0.913D-05 0.172D-04-0.151D-04-0.167D-03-0.738D-03
 Coeff:     -0.131D-02 0.119D-02 0.943D-02 0.102D-01-0.260D-01-0.983D-01
 Coeff:     -0.196D+00 0.487D+00 0.815D+00
 Gap=     0.056 Goal=   None    Shift=    0.000
 Gap=     0.198 Goal=   None    Shift=    0.000
 RMSDP=1.66D-07 MaxDP=5.23D-06 DE=-8.22D-10 OVMax= 1.75D-05

 Cycle  16  Pass 1  IDiag  1:
 RMSU=  6.56D-08    CP:  7.64D-01  2.08D+00  7.68D-01  7.84D-01  7.28D-01
                    CP:  1.00D+00  1.22D+00  1.89D+00  1.54D+00  1.59D+00
                    CP:  1.12D+00  1.24D+00  1.73D+00  1.67D+00  1.37D+00
 E= -470.815568567630     Delta-E=       -0.000000000242 Rises=F Damp=F
 DIIS: error= 4.72D-07 at cycle  16 NSaved=  16.
 NSaved=16 IEnMin=16 EnMin= -470.815568567630     IErMin=16 ErrMin= 4.72D-07
 ErrMax= 4.72D-07  0.00D+00 EMaxC= 1.00D-01 BMatC= 5.61D-11 BMatP= 2.20D-10
 IDIUse=1 WtCom= 1.00D+00 WtEn= 0.00D+00
 Coeff-Com:  0.129D-05-0.305D-05 0.174D-04 0.515D-04 0.274D-04-0.661D-04
 Coeff-Com: -0.424D-03-0.360D-02-0.401D-02 0.123D-01 0.223D-01 0.240D-01
 Coeff-Com: -0.971D-01-0.284D+00 0.255D+00 0.108D+01
 Coeff:      0.129D-05-0.305D-05 0.174D-04 0.515D-04 0.274D-04-0.661D-04
 Coeff:     -0.424D-03-0.360D-02-0.401D-02 0.123D-01 0.223D-01 0.240D-01
 Coeff:     -0.971D-01-0.284D+00 0.255D+00 0.108D+01
 Gap=     0.056 Goal=   None    Shift=    0.000
 Gap=     0.198 Goal=   None    Shift=    0.000
 RMSDP=1.16D-07 MaxDP=3.55D-06 DE=-2.42D-10 OVMax= 1.12D-05

 Cycle  17  Pass 1  IDiag  1:
 RMSU=  3.32D-08    CP:  7.64D-01  2.08D+00  7.68D-01  7.84D-01  7.28D-01
                    CP:  1.00D+00  1.22D+00  1.89D+00  1.54D+00  1.59D+00
                    CP:  1.12D+00  1.24D+00  1.80D+00  1.89D+00  1.93D+00
                    CP:  1.37D+00
 E= -470.815568567722     Delta-E=       -0.000000000092 Rises=F Damp=F
 DIIS: error= 2.08D-07 at cycle  17 NSaved=  17.
 NSaved=17 IEnMin=17 EnMin= -470.815568567722     IErMin=17 ErrMin= 2.08D-07
 ErrMax= 2.08D-07  0.00D+00 EMaxC= 1.00D-01 BMatC= 8.32D-12 BMatP= 5.61D-11
 IDIUse=1 WtCom= 1.00D+00 WtEn= 0.00D+00
 Coeff-Com:  0.118D-05-0.237D-05-0.293D-05 0.858D-05 0.454D-04 0.185D-03
 Coeff-Com:  0.290D-03-0.694D-03-0.310D-02-0.168D-02 0.843D-02 0.266D-01
 Coeff-Com:  0.419D-01-0.148D+00-0.157D+00 0.102D+00 0.113D+01
 Coeff:      0.118D-05-0.237D-05-0.293D-05 0.858D-05 0.454D-04 0.185D-03
 Coeff:      0.290D-03-0.694D-03-0.310D-02-0.168D-02 0.843D-02 0.266D-01
 Coeff:      0.419D-01-0.148D+00-0.157D+00 0.102D+00 0.113D+01
 Gap=     0.056 Goal=   None    Shift=    0.000
 Gap=     0.198 Goal=   None    Shift=    0.000
 RMSDP=4.85D-08 MaxDP=1.57D-06 DE=-9.23D-11 OVMax= 3.49D-06

 Cycle  18  Pass 1  IDiag  1:
 RMSU=  1.33D-08    CP:  7.64D-01  2.08D+00  7.68D-01  7.84D-01  7.28D-01
                    CP:  1.00D+00  1.22D+00  1.89D+00  1.54D+00  1.59D+00
                    CP:  1.12D+00  1.24D+00  1.82D+00  1.96D+00  2.19D+00
                    CP:  1.74D+00  1.44D+00
 E= -470.815568567741     Delta-E=       -0.000000000019 Rises=F Damp=F
 DIIS: error= 1.11D-07 at cycle  18 NSaved=  18.
 NSaved=18 IEnMin=18 EnMin= -470.815568567741     IErMin=18 ErrMin= 1.11D-07
 ErrMax= 1.11D-07  0.00D+00 EMaxC= 1.00D-01 BMatC= 2.00D-12 BMatP= 8.32D-12
 IDIUse=1 WtCom= 1.00D+00 WtEn= 0.00D+00
 Coeff-Com: -0.382D-07 0.990D-07-0.291D-05-0.574D-05 0.615D-05 0.507D-04
 Coeff-Com:  0.126D-03 0.359D-03-0.714D-04-0.198D-02-0.137D-02 0.204D-02
 Coeff-Com:  0.238D-01 0.411D-02-0.763D-01-0.131D+00 0.295D+00 0.885D+00
 Coeff:     -0.382D-07 0.990D-07-0.291D-05-0.574D-05 0.615D-05 0.507D-04
 Coeff:      0.126D-03 0.359D-03-0.714D-04-0.198D-02-0.137D-02 0.204D-02
 Coeff:      0.238D-01 0.411D-02-0.763D-01-0.131D+00 0.295D+00 0.885D+00
 Gap=     0.056 Goal=   None    Shift=    0.000
 Gap=     0.198 Goal=   None    Shift=    0.000
 RMSDP=1.68D-08 MaxDP=5.83D-07 DE=-1.88D-11 OVMax= 1.42D-06

 Cycle  19  Pass 1  IDiag  1:
 RMSU=  6.50D-09    CP:  7.64D-01  2.08D+00  7.68D-01  7.84D-01  7.28D-01
                    CP:  1.00D+00  1.22D+00  1.89D+00  1.54D+00  1.59D+00
                    CP:  1.12D+00  1.24D+00  1.82D+00  1.98D+00  2.26D+00
                    CP:  1.83D+00  1.67D+00  1.40D+00
 E= -470.815568567746     Delta-E=       -0.000000000006 Rises=F Damp=F
 DIIS: error= 6.60D-08 at cycle  19 NSaved=  19.
 NSaved=19 IEnMin=19 EnMin= -470.815568567746     IErMin=19 ErrMin= 6.60D-08
 ErrMax= 6.60D-08  0.00D+00 EMaxC= 1.00D-01 BMatC= 7.09D-13 BMatP= 2.00D-12
 IDIUse=1 WtCom= 1.00D+00 WtEn= 0.00D+00
 Coeff-Com: -0.267D-06 0.550D-06 0.868D-07-0.321D-05-0.995D-05-0.369D-04
 Coeff-Com: -0.476D-04 0.222D-03 0.766D-03 0.917D-04-0.234D-02-0.623D-02
 Coeff-Com: -0.567D-02 0.378D-01 0.256D-01-0.468D-01-0.252D+00 0.126D+00
 Coeff-Com:  0.112D+01
 Coeff:     -0.267D-06 0.550D-06 0.868D-07-0.321D-05-0.995D-05-0.369D-04
 Coeff:     -0.476D-04 0.222D-03 0.766D-03 0.917D-04-0.234D-02-0.623D-02
 Coeff:     -0.567D-02 0.378D-01 0.256D-01-0.468D-01-0.252D+00 0.126D+00
 Coeff:      0.112D+01
 Gap=     0.056 Goal=   None    Shift=    0.000
 Gap=     0.198 Goal=   None    Shift=    0.000
 RMSDP=1.21D-08 MaxDP=4.71D-07 DE=-5.68D-12 OVMax= 1.11D-06

 Cycle  20  Pass 1  IDiag  1:
 RMSU=  4.38D-09    CP:  7.64D-01  2.08D+00  7.68D-01  7.84D-01  7.28D-01
                    CP:  1.00D+00  1.22D+00  1.89D+00  1.54D+00  1.59D+00
                    CP:  1.12D+00  1.24D+00  1.83D+00  1.99D+00  2.30D+00
                    CP:  1.89D+00  1.83D+00  1.93D+00  1.55D+00
 E= -470.815568567748     Delta-E=       -0.000000000002 Rises=F Damp=F
 DIIS: error= 3.91D-08 at cycle  20 NSaved=  20.
 NSaved=20 IEnMin=20 EnMin= -470.815568567748     IErMin=20 ErrMin= 3.91D-08
 ErrMax= 3.91D-08  0.00D+00 EMaxC= 1.00D-01 BMatC= 3.48D-13 BMatP= 7.09D-13
 IDIUse=1 WtCom= 1.00D+00 WtEn= 0.00D+00
 Coeff-Com: -0.132D-06 0.264D-06 0.156D-05 0.121D-05-0.903D-05-0.482D-04
 Coeff-Com: -0.936D-04-0.440D-04 0.509D-03 0.107D-02-0.741D-03-0.483D-02
 Coeff-Com: -0.157D-01 0.194D-01 0.541D-01 0.433D-01-0.296D+00-0.382D+00
 Coeff-Com:  0.631D+00 0.949D+00
 Coeff:     -0.132D-06 0.264D-06 0.156D-05 0.121D-05-0.903D-05-0.482D-04
 Coeff:     -0.936D-04-0.440D-04 0.509D-03 0.107D-02-0.741D-03-0.483D-02
 Coeff:     -0.157D-01 0.194D-01 0.541D-01 0.433D-01-0.296D+00-0.382D+00
 Coeff:      0.631D+00 0.949D+00
 Gap=     0.056 Goal=   None    Shift=    0.000
 Gap=     0.198 Goal=   None    Shift=    0.000
 RMSDP=9.57D-09 MaxDP=3.58D-07 DE=-1.93D-12 OVMax= 8.86D-07

 SCF Done:  E(UPBE1PBE) =  -470.815568568     A.U. after   20 cycles
            NFock= 20  Conv=0.96D-08     -V/T= 2.2487
 <Sx>= 0.0000 <Sy>= 0.0000 <Sz>= 0.5000 <S**2>= 0.7518 S= 0.5009
 <L.S>= 0.000000000000E+00
 KE= 3.770593843323D+02 PE=-1.899547986708D+03 EE= 6.356004011792D+02
 Annihilation of the first spin contaminant:
 S**2 before annihilation     0.7518,   after     0.7500
 Leave Link  502 at Sat Sep 12 00:37:51 2026, MaxMem=  6442450944 cpu:             122.0 elap:             121.5
 (Enter C:\G16W\l508.exe)
 QCSCF skips out because SCF is already converged.
 Leave Link  508 at Sat Sep 12 00:37:51 2026, MaxMem=  6442450944 cpu:               0.0 elap:               0.5
 (Enter C:\G16W\l601.exe)
 Copying SCF densities to generalized density rwf, IOpCl= 1 IROHF=0.

 **********************************************************************

            Population analysis using the SCF Density.

 **********************************************************************

 Alpha  occ. eigenvalues --  -14.43260 -10.31252 -10.30660 -10.28586 -10.28585
 Alpha  occ. eigenvalues --  -10.27918 -10.27644 -10.27641  -3.72510  -2.30469
 Alpha  occ. eigenvalues --   -2.30467  -2.30415  -0.97034  -0.92705  -0.82938
 Alpha  occ. eigenvalues --   -0.81060  -0.69645  -0.66804  -0.60711  -0.54133
 Alpha  occ. eigenvalues --   -0.52300  -0.49287  -0.48026  -0.46514  -0.45392
 Alpha  occ. eigenvalues --   -0.41188  -0.41187  -0.40176  -0.38721  -0.31307
 Alpha  occ. eigenvalues --   -0.31190  -0.29839  -0.29839  -0.29704  -0.29294
 Alpha  occ. eigenvalues --   -0.28248  -0.13365
 Alpha virt. eigenvalues --   -0.07731  -0.04325  -0.00561   0.01438   0.03222
 Alpha virt. eigenvalues --    0.03472   0.06059   0.06256   0.08673   0.10071
 Alpha virt. eigenvalues --    0.12063   0.13888   0.14382   0.14820   0.19089
 Alpha virt. eigenvalues --    0.23184   0.26168   0.26415   0.27744   0.29140
 Alpha virt. eigenvalues --    0.34324   0.35748   0.35972   0.37813   0.38866
 Alpha virt. eigenvalues --    0.40607   0.40957   0.43671   0.43929   0.45887
 Alpha virt. eigenvalues --    0.46866   0.47580   0.48520   0.48522   0.50019
 Alpha virt. eigenvalues --    0.51725   0.51761   0.57798   0.58075   0.58434
 Alpha virt. eigenvalues --    0.59741   0.61747   0.62449   0.64324   0.64775
 Alpha virt. eigenvalues --    0.65217   0.66137   0.67455   0.68317   0.69840
 Alpha virt. eigenvalues --    0.72117   0.74419   0.75025   0.82122   0.84018
 Alpha virt. eigenvalues --    0.89119   0.92100   0.95855   1.00847   1.01957
 Alpha virt. eigenvalues --    1.06571   1.08972   1.12415   1.16577   1.20022
 Alpha virt. eigenvalues --    1.21129   1.23880   1.25137   1.26004   1.26690
 Alpha virt. eigenvalues --    1.30660   1.33236   1.50502   1.55870   1.58283
 Alpha virt. eigenvalues --    1.63819   1.64509   1.70271   1.71421   1.72965
 Alpha virt. eigenvalues --    1.73419   1.74543   1.75483   1.77302   1.78589
 Alpha virt. eigenvalues --    1.81982   1.89180   1.91113   1.93912   1.95820
 Alpha virt. eigenvalues --    1.95892   1.97359   2.03893   2.07303   2.07359
 Alpha virt. eigenvalues --    2.11797   2.12891   2.21194   2.22307   2.25490
 Alpha virt. eigenvalues --    2.26626   2.28956   2.29546   2.30099   2.33595
 Alpha virt. eigenvalues --    2.33966   2.51821   2.59774   2.59959   2.63375
 Alpha virt. eigenvalues --    2.65060   2.65062   2.65095   2.65096   2.65439
 Alpha virt. eigenvalues --    2.65534   2.68650   2.69811   2.73471   2.73759
 Alpha virt. eigenvalues --    2.84839   2.87903   2.93066   3.00532   3.03265
 Alpha virt. eigenvalues --    3.10344   3.16048   3.33293   3.48582   3.71497
 Alpha virt. eigenvalues --   53.84428
  Beta  occ. eigenvalues --  -14.43050 -10.31253 -10.30652 -10.28590 -10.28589
  Beta  occ. eigenvalues --  -10.27921 -10.27642 -10.27640  -3.72351  -2.30363
  Beta  occ. eigenvalues --   -2.30362  -2.30345  -0.96907  -0.92686  -0.82925
  Beta  occ. eigenvalues --   -0.81063  -0.69639  -0.66807  -0.60702  -0.54117
  Beta  occ. eigenvalues --   -0.52302  -0.49246  -0.48026  -0.45790  -0.45371
  Beta  occ. eigenvalues --   -0.41170  -0.41142  -0.40098  -0.38621  -0.31198
  Beta  occ. eigenvalues --   -0.31150  -0.29340  -0.29339  -0.29091  -0.28781
  Beta  occ. eigenvalues --   -0.27420
  Beta virt. eigenvalues --   -0.07653  -0.04332  -0.04215   0.00279   0.03667
  Beta virt. eigenvalues --    0.03941   0.05214   0.06837   0.06985   0.08723
  Beta virt. eigenvalues --    0.10942   0.13770   0.13950   0.14868   0.15287
  Beta virt. eigenvalues --    0.19364   0.23375   0.26173   0.26430   0.27762
  Beta virt. eigenvalues --    0.29212   0.35087   0.38243   0.38281   0.38975
  Beta virt. eigenvalues --    0.39560   0.40745   0.41330   0.43851   0.44050
  Beta virt. eigenvalues --    0.45926   0.47348   0.47617   0.50595   0.50597
  Beta virt. eigenvalues --    0.51744   0.51757   0.52918   0.57984   0.58187
  Beta virt. eigenvalues --    0.58431   0.60065   0.62478   0.63397   0.64426
  Beta virt. eigenvalues --    0.65156   0.65341   0.66155   0.67541   0.68325
  Beta virt. eigenvalues --    0.69844   0.72148   0.74438   0.75029   0.82129
  Beta virt. eigenvalues --    0.84055   0.89153   0.92103   0.96241   1.01089
  Beta virt. eigenvalues --    1.02174   1.06608   1.09133   1.12505   1.16595
  Beta virt. eigenvalues --    1.20019   1.21126   1.24087   1.25146   1.26008
  Beta virt. eigenvalues --    1.26688   1.31087   1.33294   1.50508   1.55850
  Beta virt. eigenvalues --    1.58251   1.63821   1.64520   1.70272   1.71449
  Beta virt. eigenvalues --    1.72965   1.73431   1.74545   1.75480   1.77325
  Beta virt. eigenvalues --    1.78627   1.81991   1.89200   1.91137   1.93938
  Beta virt. eigenvalues --    1.95871   1.95890   1.97359   2.03942   2.07304
  Beta virt. eigenvalues --    2.08583   2.11798   2.12895   2.21406   2.22321
  Beta virt. eigenvalues --    2.25741   2.26651   2.28970   2.29613   2.30128
  Beta virt. eigenvalues --    2.33598   2.33983   2.51836   2.59781   2.59972
  Beta virt. eigenvalues --    2.63374   2.65074   2.65075   2.65102   2.65105
  Beta virt. eigenvalues --    2.65603   2.65692   2.68749   2.70063   2.73478
  Beta virt. eigenvalues --    2.73763   2.84854   2.87906   2.93148   3.00716
  Beta virt. eigenvalues --    3.03319   3.10445   3.16057   3.33337   3.48734
  Beta virt. eigenvalues --    3.71528  53.84582
          Condensed to atoms (all electrons):
               1          2          3          4          5          6
     1  N    6.211070   0.791699  -0.035676  -0.002556   0.000132   0.000018
     2  C    0.791699   5.075462   0.323662  -0.091761   0.019201   0.000959
     3  C   -0.035676   0.323662   5.342086   0.295518   0.089269  -0.150051
     4  C   -0.002556  -0.091761   0.295518   5.006280   0.309388   0.082620
     5  C    0.000132   0.019201   0.089269   0.309388   5.026729   0.278916
     6  C    0.000018   0.000959  -0.150051   0.082620   0.278916   5.074739
     7  C    0.000132   0.019201   0.089268  -0.142794   0.086232   0.278914
     8  C   -0.002556  -0.091767   0.295522   0.076492  -0.142795   0.082620
     9  H   -0.000437  -0.020733  -0.060058   0.457576  -0.060247   0.013413
    10  H   -0.000003  -0.000549   0.014739  -0.068375   0.453728  -0.067015
    11  H    0.000000   0.000044  -0.001503   0.013751  -0.065929   0.450712
    12  H   -0.000003  -0.000549   0.014739  -0.001290   0.013279  -0.067015
    13  H   -0.000437  -0.020732  -0.060059   0.013164  -0.001893   0.013413
    14  Ag   0.029485  -0.006573   0.000503  -0.000233   0.000069   0.000016
               7          8          9         10         11         12
     1  N    0.000132  -0.002556  -0.000437  -0.000003   0.000000  -0.000003
     2  C    0.019201  -0.091767  -0.020733  -0.000549   0.000044  -0.000549
     3  C    0.089268   0.295522  -0.060058   0.014739  -0.001503   0.014739
     4  C   -0.142794   0.076492   0.457576  -0.068375   0.013751  -0.001290
     5  C    0.086232  -0.142795  -0.060247   0.453728  -0.065929   0.013279
     6  C    0.278914   0.082620   0.013413  -0.067015   0.450712  -0.067015
     7  C    5.026727   0.309387  -0.001893   0.013279  -0.065929   0.453729
     8  C    0.309387   5.006287   0.013164  -0.001290   0.013751  -0.068375
     9  H   -0.001893   0.013164   0.635656  -0.010984  -0.000226   0.000031
    10  H    0.013279  -0.001290  -0.010984   0.643110  -0.011738  -0.000243
    11  H   -0.065929   0.013751  -0.000226  -0.011738   0.643075  -0.011738
    12  H    0.453729  -0.068375   0.000031  -0.000243  -0.011738   0.643109
    13  H   -0.060248   0.457576  -0.000151   0.000031  -0.000226  -0.010984
    14  Ag   0.000069  -0.000233   0.000031  -0.000006   0.000000  -0.000006
              13         14
     1  N   -0.000437   0.029485
     2  C   -0.020732  -0.006573
     3  C   -0.060059   0.000503
     4  C    0.013164  -0.000233
     5  C   -0.001893   0.000069
     6  C    0.013413   0.000016
     7  C   -0.060248   0.000069
     8  C    0.457576  -0.000233
     9  H   -0.000151   0.000031
    10  H    0.000031  -0.000006
    11  H   -0.000226   0.000000
    12  H   -0.010984  -0.000006
    13  H    0.635657   0.000031
    14  Ag   0.000031  19.106792
          Atomic-Atomic Spin Densities.
               1          2          3          4          5          6
     1  N    0.156128  -0.027256   0.001163  -0.000027   0.000003   0.000000
     2  C   -0.027256   0.003969  -0.000442   0.000379  -0.000030  -0.000004
     3  C    0.001163  -0.000442   0.005901  -0.000645   0.000076   0.000043
     4  C   -0.000027   0.000379  -0.000645  -0.002100   0.000066   0.000053
     5  C    0.000003  -0.000030   0.000076   0.000066   0.001319   0.000020
     6  C    0.000000  -0.000004   0.000043   0.000053   0.000020  -0.002264
     7  C    0.000003  -0.000030   0.000076  -0.000028  -0.000006   0.000020
     8  C   -0.000027   0.000379  -0.000645   0.000039  -0.000028   0.000053
     9  H   -0.000103   0.000213  -0.000247  -0.000092  -0.000093   0.000000
    10  H    0.000000   0.000002  -0.000010  -0.000006  -0.000006   0.000003
    11  H    0.000000   0.000000   0.000000   0.000003   0.000002  -0.000035
    12  H    0.000000   0.000002  -0.000010   0.000004  -0.000003   0.000003
    13  H   -0.000103   0.000213  -0.000247   0.000034  -0.000007   0.000000
    14  Ag  -0.099104   0.012697  -0.000856   0.000007  -0.000002   0.000001
               7          8          9         10         11         12
     1  N    0.000003  -0.000027  -0.000103   0.000000   0.000000   0.000000
     2  C   -0.000030   0.000379   0.000213   0.000002   0.000000   0.000002
     3  C    0.000076  -0.000645  -0.000247  -0.000010   0.000000  -0.000010
     4  C   -0.000028   0.000039  -0.000092  -0.000006   0.000003   0.000004
     5  C   -0.000006  -0.000028  -0.000093  -0.000006   0.000002  -0.000003
     6  C    0.000020   0.000053   0.000000   0.000003  -0.000035   0.000003
     7  C    0.001320   0.000066  -0.000007  -0.000003   0.000002  -0.000006
     8  C    0.000066  -0.002100   0.000034   0.000004   0.000003  -0.000006
     9  H   -0.000007   0.000034   0.000469   0.000019   0.000000   0.000000
    10  H   -0.000003   0.000004   0.000019  -0.000051   0.000001   0.000000
    11  H    0.000002   0.000003   0.000000   0.000001   0.000124   0.000001
    12  H   -0.000006  -0.000006   0.000000   0.000000   0.000001  -0.000051
    13  H   -0.000093  -0.000092   0.000005   0.000000   0.000000   0.000019
    14  Ag  -0.000002   0.000007   0.000077   0.000000   0.000000   0.000000
              13         14
     1  N   -0.000103  -0.099104
     2  C    0.000213   0.012697
     3  C   -0.000247  -0.000856
     4  C    0.000034   0.000007
     5  C   -0.000007  -0.000002
     6  C    0.000000   0.000001
     7  C   -0.000093  -0.000002
     8  C   -0.000092   0.000007
     9  H    0.000005   0.000077
    10  H    0.000000   0.000000
    11  H    0.000000   0.000000
    12  H    0.000019   0.000000
    13  H    0.000469   0.000077
    14  Ag   0.000077   1.065727
 Mulliken charges and spin densities:
               1          2
     1  N    0.009132   0.030677
     2  C    0.002435  -0.009909
     3  C   -0.157958   0.004157
     4  C    0.052221  -0.002315
     5  C   -0.006079   0.001311
     6  C    0.007741  -0.002106
     7  C   -0.006075   0.001310
     8  C    0.052217  -0.002315
     9  H    0.034859   0.000275
    10  H    0.035316  -0.000045
    11  H    0.035958   0.000102
    12  H    0.035317  -0.000045
    13  H    0.034859   0.000275
    14  Ag  -0.129944   0.978629
 Sum of Mulliken charges =   0.00000   1.00000
 Mulliken charges and spin densities with hydrogens summed into heavy atoms:
               1          2
     1  N    0.009132   0.030677
     2  C    0.002435  -0.009909
     3  C   -0.157958   0.004157
     4  C    0.087080  -0.002040
     5  C    0.029238   0.001266
     6  C    0.043699  -0.002005
     7  C    0.029242   0.001266
     8  C    0.087076  -0.002040
    14  Ag  -0.129944   0.978629
 Electronic spatial extent (au):  <R**2>=           3393.5439
 Charge=              0.0000 electrons
 Dipole moment (field-independent basis, Debye):
    X=             -8.3544    Y=             -2.4016    Z=              0.1881  Tot=              8.6947
 Quadrupole moment (field-independent basis, Debye-Ang):
   XX=           -113.5246   YY=            -64.2608   ZZ=            -69.4438
   XY=            -15.4209   XZ=              0.8287   YZ=              0.9190
 Traceless Quadrupole moment (field-independent basis, Debye-Ang):
   XX=            -31.1149   YY=             18.1489   ZZ=             12.9660
   XY=            -15.4209   XZ=              0.8287   YZ=              0.9190
 Octapole moment (field-independent basis, Debye-Ang**2):
  XXX=           -778.0825  YYY=           -132.4176  ZZZ=              9.5818  XYY=           -172.6097
  XXY=           -140.8868  XXZ=             11.2146  XZZ=           -141.9422  YZZ=            -40.7973
  YYZ=              3.8103  XYZ=              2.1322
 Hexadecapole moment (field-independent basis, Debye-Ang**3):
 XXXX=          -7419.1471 YYYY=           -714.0173 ZZZZ=            -89.3798 XXXY=          -1344.6069
 XXXZ=            108.1041 YYYX=           -756.8171 YYYZ=             12.7700 ZZZX=             60.5720
 ZZZY=              7.8040 XXYY=          -1165.7006 XXZZ=           -892.2133 YYZZ=           -141.9472
 XXYZ=             18.3056 YYXZ=             23.4997 ZZXY=           -235.2653
 N-N= 4.160726326289D+02 E-N=-1.899547983988D+03  KE= 3.770593843323D+02
                          Isotropic Fermi Contact Couplings
        Atom                 a.u.       MegaHertz       Gauss      10(-4) cm-1
     1  N(14)              0.20936      67.64383      24.13700      22.56355
     2  C(13)              0.01601      18.00090       6.42317       6.00446
     3  C(13)              0.00341       3.82944       1.36644       1.27737
     4  C(13)             -0.00088      -0.99078      -0.35353      -0.33049
     5  C(13)              0.00026       0.29080       0.10377       0.09700
     6  C(13)             -0.00033      -0.36961      -0.13189      -0.12329
     7  C(13)              0.00026       0.29079       0.10376       0.09700
     8  C(13)             -0.00088      -0.99073      -0.35352      -0.33047
     9  H(1)               0.00003       0.15501       0.05531       0.05170
    10  H(1)              -0.00001      -0.06196      -0.02211      -0.02067
    11  H(1)               0.00003       0.12945       0.04619       0.04318
    12  H(1)              -0.00001      -0.06195      -0.02210      -0.02066
    13  H(1)               0.00003       0.15502       0.05532       0.05171
    14  Ag(107             0.00027      -0.04963      -0.01771      -0.01656
 --------------------------------------------------------
       Center         ----  Spin Dipole Couplings  ----
                      3XX-RR        3YY-RR        3ZZ-RR
 --------------------------------------------------------
     1   Atom        0.047060     -0.021653     -0.025407
     2   Atom        0.019715     -0.008978     -0.010738
     3   Atom        0.002790     -0.002604     -0.000186
     4   Atom        0.002064      0.000450     -0.002513
     5   Atom        0.000151     -0.000821      0.000669
     6   Atom        0.001435      0.000781     -0.002216
     7   Atom       -0.000054     -0.000614      0.000668
     8   Atom        0.001799      0.000716     -0.002515
     9   Atom        0.001526     -0.000822     -0.000704
    10   Atom        0.000517     -0.000280     -0.000237
    11   Atom        0.000229     -0.000035     -0.000194
    12   Atom        0.000261     -0.000023     -0.000238
    13   Atom        0.000637      0.000072     -0.000709
    14   Atom       -0.041228      0.018159      0.023069
 --------------------------------------------------------
                        XY            XZ            YZ
 --------------------------------------------------------
     1   Atom        0.021529     -0.001592     -0.000628
     2   Atom        0.008990     -0.000672     -0.000251
     3   Atom        0.001685     -0.000017     -0.000211
     4   Atom        0.000215     -0.000169      0.000168
     5   Atom        0.000073      0.000025     -0.000092
     6   Atom        0.000210     -0.000133      0.000170
     7   Atom        0.000402      0.000053     -0.000092
     8   Atom        0.000641     -0.000133      0.000167
     9   Atom       -0.000256     -0.000104      0.000003
    10   Atom       -0.000036     -0.000032     -0.000001
    11   Atom        0.000083     -0.000012      0.000006
    12   Atom        0.000375      0.000002     -0.000002
    13   Atom        0.001170      0.000016      0.000000
    14   Atom       -0.018609      0.001442      0.000444
 --------------------------------------------------------


 ---------------------------------------------------------------------------------
              Anisotropic Spin Dipole Couplings in Principal Axis System
 ---------------------------------------------------------------------------------

       Atom             a.u.   MegaHertz   Gauss  10(-4) cm-1        Axes

              Baa    -0.0279    -1.074    -0.383    -0.358 -0.2742  0.9593  0.0678
     1 N(14)  Bbb    -0.0254    -0.981    -0.350    -0.327  0.0395 -0.0592  0.9975
              Bcc     0.0533     2.055     0.733     0.686  0.9608  0.2762 -0.0216
 
              Baa    -0.0116    -1.552    -0.554    -0.518 -0.2742  0.9593  0.0678
     2 C(13)  Bbb    -0.0107    -1.442    -0.515    -0.481  0.0395 -0.0592  0.9975
              Bcc     0.0223     2.994     1.068     0.999  0.9609  0.2762 -0.0216
 
              Baa    -0.0031    -0.416    -0.148    -0.139 -0.2742  0.9593  0.0678
     3 C(13)  Bbb    -0.0002    -0.023    -0.008    -0.008  0.0395 -0.0592  0.9975
              Bcc     0.0033     0.439     0.157     0.147  0.9609  0.2762 -0.0216
 
              Baa    -0.0025    -0.340    -0.121    -0.113  0.0395 -0.0592  0.9975
     4 C(13)  Bbb     0.0004     0.058     0.021     0.019 -0.1238  0.9903  0.0636
              Bcc     0.0021     0.281     0.100     0.094  0.9915  0.1260 -0.0318
 
              Baa    -0.0008    -0.112    -0.040    -0.037 -0.0754  0.9952  0.0620
     5 C(13)  Bbb     0.0002     0.021     0.007     0.007  0.9964  0.0776 -0.0348
              Bcc     0.0007     0.091     0.032     0.030  0.0395 -0.0592  0.9975
 
              Baa    -0.0022    -0.299    -0.107    -0.100  0.0395 -0.0592  0.9975
     6 C(13)  Bbb     0.0007     0.098     0.035     0.033 -0.2742  0.9593  0.0678
              Bcc     0.0015     0.201     0.072     0.067  0.9609  0.2762 -0.0216
 
              Baa    -0.0008    -0.112    -0.040    -0.037 -0.4619  0.8841  0.0707
     7 C(13)  Bbb     0.0002     0.021     0.007     0.007  0.8861  0.4635 -0.0076
              Bcc     0.0007     0.091     0.032     0.030  0.0395 -0.0592  0.9975
 
              Baa    -0.0025    -0.340    -0.121    -0.113  0.0395 -0.0592  0.9975
     8 C(13)  Bbb     0.0004     0.058     0.021     0.019 -0.4182  0.9056  0.0703
              Bcc     0.0021     0.281     0.100     0.094  0.9075  0.4199 -0.0110
 
              Baa    -0.0009    -0.454    -0.162    -0.151  0.1094  0.9925  0.0545
     9 H(1)   Bbb    -0.0007    -0.378    -0.135    -0.126  0.0395 -0.0592  0.9975
              Bcc     0.0016     0.832     0.297     0.277  0.9932 -0.1070 -0.0457
 
              Baa    -0.0003    -0.150    -0.054    -0.050  0.0473  0.9972  0.0573
    10 H(1)   Bbb    -0.0002    -0.127    -0.045    -0.042  0.0395 -0.0592  0.9975
              Bcc     0.0005     0.277     0.099     0.093  0.9981 -0.0449 -0.0422
 
              Baa    -0.0002    -0.104    -0.037    -0.035  0.0395 -0.0592  0.9975
    11 H(1)   Bbb    -0.0001    -0.031    -0.011    -0.010 -0.2742  0.9593  0.0678
              Bcc     0.0003     0.135     0.048     0.045  0.9609  0.2762 -0.0216
 
              Baa    -0.0003    -0.150    -0.054    -0.050 -0.5670  0.8206  0.0711
    12 H(1)   Bbb    -0.0002    -0.127    -0.045    -0.042  0.0395 -0.0592  0.9975
              Bcc     0.0005     0.277     0.099     0.093  0.8228  0.5684  0.0012
 
              Baa    -0.0009    -0.454    -0.162    -0.151 -0.6172  0.7836  0.0709
    13 H(1)   Bbb    -0.0007    -0.378    -0.135    -0.126  0.0395 -0.0592  0.9975
              Bcc     0.0016     0.832     0.297     0.277  0.7858  0.6184  0.0056
 
              Baa    -0.0466     1.011     0.361     0.337  0.9609  0.2762 -0.0216
    14 Ag(107 Bbb     0.0231    -0.501    -0.179    -0.167  0.0397 -0.0599  0.9974
              Bcc     0.0235    -0.510    -0.182    -0.170 -0.2742  0.9592  0.0685
 

 ---------------------------------------------------------------------------------

 No NMR shielding tensors so no spin-rotation constants.
 Leave Link  601 at Sat Sep 12 00:37:55 2026, MaxMem=  6442450944 cpu:               4.0 elap:               3.8
 (Enter C:\G16W\l9999.exe)
 Unable to Open any file for archive entry.
 1|1|UNPC-DESKTOP-2JKEGCA|SP|UPBE1PBE|def2SVP|C7H5Ag1N1(2)|JHKIM|12-Sep
 -2026|0||#P PBE1PBE/Def2SVP EmpiricalDispersion=GD3BJ SP SCF=(XQC,MaxC
 ycle=128) NoSymm Guess=Read||PhCN t=0.000 dz=+0.00 class=toface||0,2|N
 ,0,3.473893,0.998659,-0.078238|C,0,2.372396,0.682016,-0.053433|C,0,1.0
 13334,0.291313,-0.022822|C,0,0.01391,1.259886,0.074188|C,0,-1.311627,0
 .870874,0.103569|C,0,-1.645495,-0.473044,0.037059|C,0,-0.652276,-1.435
 453,-0.059338|C,0,0.67746,-1.06113,-0.089757|H,0,0.285615,2.304007,0.1
 25373|H,0,-2.087806,1.617773,0.178593|H,0,-2.683025,-0.771312,0.060425
 |H,0,-0.915936,-2.481283,-0.110943|H,0,1.459559,-1.802305,-0.164676|Ag
 ,0,5.683854,1.633949,-0.128006||Version=EM64W-G16RevC.01|HF=-470.81556
 86|S2=0.751785|S2-1=0.|S2A=0.750003|RMSD=9.570e-009|Dipole=-3.2868587,
 -0.9448753,0.0740185|Quadrupole=-23.1331663,13.4932845,9.6398819,-11.4
 65087,0.6161456,0.6832426|PG=C01 [X(C7H5Ag1N1)]||@
 The archive entry for this job was punched.


 ... THE UNIVERSE IS NOT ONLY QUEERER THAN WE SUPPOSE,
 BUT QUEERER THAN WE CAN SUPPOSE ... 

                                   -- J. B. S. HALDANE
 Job cpu time:       0 days  0 hours  2 minutes 17.0 seconds.
 Elapsed time:       0 days  0 hours  2 minutes 15.4 seconds.
 File lengths (MBytes):  RWF=     32 Int=      0 D2E=      0 Chk=      3 Scr=      1
 Normal termination of Gaussian 16 at Sat Sep 12 00:37:56 2026.
