 Entering Gaussian System, Link 0=C:\G16W\g16.exe
 Input=PhCN_t1_z0.gjf
 Output=PhCN_t1_z0.out
 Initial command:
 C:\G16W\l1.exe ".\Gau-114328.inp" "PhCN_t1_z0.out" /scrdir=".\"
 Entering Link 1 = C:\G16W\l1.exe PID=     63828.
  
 Copyright (c) 1988-2019, Gaussian, Inc.  All Rights Reserved.
  
 This is part of the Gaussian(R) 16 program.  It is based on
 the Gaussian(R) 09 system (copyright 2009, Gaussian, Inc.),
 the Gaussian(R) 03 system (copyright 2003, Gaussian, Inc.),
 the Gaussian(R) 98 system (copyright 1998, Gaussian, Inc.),
 the Gaussian(R) 94 system (copyright 1995, Gaussian, Inc.),
 the Gaussian 92(TM) system (copyright 1992, Gaussian, Inc.),
 the Gaussian 90(TM) system (copyright 1990, Gaussian, Inc.),
 the Gaussian 88(TM) system (copyright 1988, Gaussian, Inc.),
 the Gaussian 86(TM) system (copyright 1986, Carnegie Mellon
 University), and the Gaussian 82(TM) system (copyright 1983,
 Carnegie Mellon University). Gaussian is a federally registered
 trademark of Gaussian, Inc.
  
 This software contains proprietary and confidential information,
 including trade secrets, belonging to Gaussian, Inc.
  
 This software is provided under written license and may be
 used, copied, transmitted, or stored only in accord with that
 written license.
  
 The following legend is applicable only to US Government
 contracts under FAR:
  
                    RESTRICTED RIGHTS LEGEND
  
 Use, reproduction and disclosure by the US Government is
 subject to restrictions as set forth in subparagraphs (a)
 and (c) of the Commercial Computer Software - Restricted
 Rights clause in FAR 52.227-19.
  
 Gaussian, Inc.
 340 Quinnipiac St., Bldg. 40, Wallingford CT 06492
  
  
 ---------------------------------------------------------------
 Warning -- This program may not be used in any manner that
 competes with the business of Gaussian, Inc. or will provide
 assistance to any competitor of Gaussian, Inc.  The licensee
 of this program is prohibited from giving any competitor of
 Gaussian, Inc. access to this program.  By using this program,
 the user acknowledges that Gaussian, Inc. is engaged in the
 business of creating and licensing software in the field of
 computational chemistry and represents and warrants to the
 licensee that it is not a competitor of Gaussian, Inc. and that
 it will not use this program in any manner prohibited above.
 ---------------------------------------------------------------
  

 Cite this work as:
 Gaussian 16, Revision C.01,
 M. J. Frisch, G. W. Trucks, H. B. Schlegel, G. E. Scuseria, 
 M. A. Robb, J. R. Cheeseman, G. Scalmani, V. Barone, 
 G. A. Petersson, H. Nakatsuji, X. Li, M. Caricato, A. V. Marenich, 
 J. Bloino, B. G. Janesko, R. Gomperts, B. Mennucci, H. P. Hratchian, 
 J. V. Ortiz, A. F. Izmaylov, J. L. Sonnenberg, D. Williams-Young, 
 F. Ding, F. Lipparini, F. Egidi, J. Goings, B. Peng, A. Petrone, 
 T. Henderson, D. Ranasinghe, V. G. Zakrzewski, J. Gao, N. Rega, 
 G. Zheng, W. Liang, M. Hada, M. Ehara, K. Toyota, R. Fukuda, 
 J. Hasegawa, M. Ishida, T. Nakajima, Y. Honda, O. Kitao, H. Nakai, 
 T. Vreven, K. Throssell, J. A. Montgomery, Jr., J. E. Peralta, 
 F. Ogliaro, M. J. Bearpark, J. J. Heyd, E. N. Brothers, K. N. Kudin, 
 V. N. Staroverov, T. A. Keith, R. Kobayashi, J. Normand, 
 K. Raghavachari, A. P. Rendell, J. C. Burant, S. S. Iyengar, 
 J. Tomasi, M. Cossi, J. M. Millam, M. Klene, C. Adamo, R. Cammi, 
 J. W. Ochterski, R. L. Martin, K. Morokuma, O. Farkas, 
 J. B. Foresman, and D. J. Fox, Gaussian, Inc., Wallingford CT, 2019.
 
 ******************************************
 Gaussian 16:  EM64W-G16RevC.01 30-May-2019
                12-Sep-2026 
 ******************************************
 %Chk=PhCN.chk
 %NProcShared=8
 Will use up to    8 processors via shared memory.
 %Mem=48GB
 ----------------------------------------------------------------------
 #P PBE1PBE/Def2SVP EmpiricalDispersion=GD3BJ SP SCF=(XQC,MaxCycle=128)
  NoSymm Guess=Read
 ----------------------------------------------------------------------
 1/38=1,172=1/1;
 2/12=2,15=1,17=6,18=5,40=1/2;
 3/5=43,7=101,11=2,25=1,30=1,74=-13,116=-2,124=41/1,2,3;
 4/5=1/1;
 5/5=2,7=128,8=3,13=1,38=6/2,8;
 6/7=2,8=2,9=2,10=2,28=1/1;
 99/5=1,9=1/99;
 Leave Link    1 at Sat Sep 12 00:19:02 2026, MaxMem=  6442450944 cpu:               1.0 elap:               0.3
 (Enter C:\G16W\l101.exe)
 ----------------------------------
 PhCN t=0.250 dz=+0.00 class=toface
 ----------------------------------
 Symbolic Z-matrix:
 Charge =  0 Multiplicity = 2
 N                     3.47389   0.99866  -0.07824 
 C                     2.3724    0.68202  -0.05343 
 C                     1.01333   0.29131  -0.02282 
 C                     0.01391   1.25989   0.07419 
 C                    -1.31163   0.87087   0.10357 
 C                    -1.6455   -0.47304   0.03706 
 C                    -0.65228  -1.43545  -0.05934 
 C                     0.67746  -1.06113  -0.08976 
 H                     0.28562   2.30401   0.12537 
 H                    -2.08781   1.61777   0.17859 
 H                    -2.68303  -0.77131   0.06043 
 H                    -0.91594  -2.48128  -0.11094 
 H                     1.45956  -1.80231  -0.16468 
 Ag                    5.45694   1.52988  -1.06165 
 
 ITRead=  0  0  0  0  0  0  0  0  0  0  0  0  0  0
 MicOpt= -1 -1 -1 -1 -1 -1 -1 -1 -1 -1 -1 -1 -1 -1
 NAtoms=     14 NQM=       14 NQMF=       0 NMMI=      0 NMMIF=      0
                NMic=       0 NMicF=      0.
                    Isotopes and Nuclear Properties:
 (Nuclear quadrupole moments (NQMom) in fm**2, nuclear magnetic moments (NMagM)
  in nuclear magnetons)

  Atom         1           2           3           4           5           6           7           8           9          10
 IAtWgt=          14          12          12          12          12          12          12          12           1           1
 AtmWgt=  14.0030740  12.0000000  12.0000000  12.0000000  12.0000000  12.0000000  12.0000000  12.0000000   1.0078250   1.0078250
 NucSpn=           2           0           0           0           0           0           0           0           1           1
 AtZEff=   0.0000000   0.0000000   0.0000000   0.0000000   0.0000000   0.0000000   0.0000000   0.0000000   0.0000000   0.0000000
 NQMom=    2.0440000   0.0000000   0.0000000   0.0000000   0.0000000   0.0000000   0.0000000   0.0000000   0.0000000   0.0000000
 NMagM=    0.4037610   0.0000000   0.0000000   0.0000000   0.0000000   0.0000000   0.0000000   0.0000000   2.7928460   2.7928460
 AtZNuc=   7.0000000   6.0000000   6.0000000   6.0000000   6.0000000   6.0000000   6.0000000   6.0000000   1.0000000   1.0000000

  Atom        11          12          13          14
 IAtWgt=           1           1           1         107
 AtmWgt=   1.0078250   1.0078250   1.0078250 106.9050900
 NucSpn=           1           1           1           1
 AtZEff=   0.0000000   0.0000000   0.0000000   0.0000000
 NQMom=    0.0000000   0.0000000   0.0000000   0.0000000
 NMagM=    2.7928460   2.7928460   2.7928460  -0.1135700
 AtZNuc=   1.0000000   1.0000000   1.0000000  47.0000000
 Leave Link  101 at Sat Sep 12 00:19:02 2026, MaxMem=  6442450944 cpu:               0.0 elap:               0.3
 (Enter C:\G16W\l202.exe)
                          Input orientation:                          
 ---------------------------------------------------------------------
 Center     Atomic      Atomic             Coordinates (Angstroms)
 Number     Number       Type             X           Y           Z
 ---------------------------------------------------------------------
      1          7           0        3.473893    0.998659   -0.078238
      2          6           0        2.372396    0.682016   -0.053433
      3          6           0        1.013334    0.291313   -0.022822
      4          6           0        0.013910    1.259886    0.074188
      5          6           0       -1.311627    0.870874    0.103569
      6          6           0       -1.645495   -0.473044    0.037059
      7          6           0       -0.652276   -1.435453   -0.059338
      8          6           0        0.677460   -1.061130   -0.089757
      9          1           0        0.285615    2.304007    0.125373
     10          1           0       -2.087806    1.617773    0.178593
     11          1           0       -2.683025   -0.771312    0.060425
     12          1           0       -0.915936   -2.481283   -0.110943
     13          1           0        1.459559   -1.802305   -0.164676
     14         47           0        5.456941    1.529880   -1.061647
 ---------------------------------------------------------------------
                    Distance matrix (angstroms):
                    1          2          3          4          5
     1  N    0.000000
     2  C    1.146374   0.000000
     3  C    2.560812   1.414438   0.000000
     4  C    3.473177   2.431600   1.395132   0.000000
     5  C    4.790677   3.692200   2.399439   1.381753   0.000000
     6  C    5.327977   4.181603   2.767164   2.399594   1.386365
     7  C    4.790671   3.692201   2.399440   2.779656   2.404252
     8  C    3.473169   2.431601   1.395132   2.419564   2.779655
     9  H    3.451160   2.649053   2.145338   1.080107   2.146049
    10  H    5.601943   4.563209   3.378925   2.134524   1.079787
    11  H    6.407782   5.261407   3.846969   3.376302   2.139946
    12  H    5.601934   4.563211   3.378925   3.859434   3.382239
    13  H    3.451147   2.649056   2.145338   3.394697   3.859704
    14  Ag   2.276350   3.354070   4.728514   5.566831   6.899676
                    6          7          8          9         10
     6  C    0.000000
     7  C    1.386365   0.000000
     8  C    2.399593   1.381753   0.000000
     9  H    3.383637   3.859704   3.394697   0.000000
    10  H    2.141772   3.382240   3.859434   2.471210   0.000000
    11  H    1.079805   2.139946   3.376301   4.274883   2.464950
    12  H    2.141771   1.079787   2.134524   4.939491   4.273098
    13  H    3.383636   2.146048   1.080107   4.280662   4.939490
    14  Ag   7.460795   6.864427   5.522802   5.361987   7.646511
                   11         12         13         14
    11  H    0.000000
    12  H    2.464949   0.000000
    13  H    4.274882   2.471209   0.000000
    14  Ag   8.533087   7.589916   5.280822   0.000000
 Symmetry turned off by external request.
 Stoichiometry    C7H5AgN(2)
 Framework group  C1[X(C7H5AgN)]
 Deg. of freedom    36
 Full point group                 C1      NOp   1
 Rotational constants (GHZ):           5.2302023           0.2846559           0.2723790
 Leave Link  202 at Sat Sep 12 00:19:03 2026, MaxMem=  6442450944 cpu:               1.0 elap:               0.1
 (Enter C:\G16W\l301.exe)
 Standard basis: def2SVP (5D, 7F)
 Ernie: Thresh=  0.10000D-02 Tol=  0.10000D-05 Strict=F.
   168 basis functions,   300 primitive gaussians,   181 cartesian basis functions
    37 alpha electrons       36 beta electrons
       nuclear repulsion energy       418.5098404056 Hartrees.
 IExCor= 1009 DFT=T Ex+Corr=PBE1PBE ExCW=0 ScaHFX=  0.250000
 ScaDFX=  0.750000  0.750000  1.000000  1.000000 ScalE2=  1.000000  1.000000
 IRadAn=      5 IRanWt=     -1 IRanGd=            0 ICorTp=0 IEmpDi=141
 NAtoms=   14 NActive=   14 NUniq=   14 SFac= 1.00D+00 NAtFMM=   60 NAOKFM=F Big=F
 Integral buffers will be    131072 words long.
 Raffenetti 2 integral format.
 Two-electron integral symmetry is turned off.
 R6Disp:  Grimme-D3(BJ) Dispersion energy=       -0.0135903543 Hartrees.
 Nuclear repulsion after empirical dispersion term =      418.4962500512 Hartrees.
 Leave Link  301 at Sat Sep 12 00:19:03 2026, MaxMem=  6442450944 cpu:               0.0 elap:               0.2
 (Enter C:\G16W\l302.exe)
 NPDir=0 NMtPBC=     1 NCelOv=     1 NCel=       1 NClECP=     1 NCelD=      1
         NCelK=      1 NCelE2=     1 NClLst=     1 CellRange=     0.0.
 One-electron integrals computed using PRISM.
   1 Symmetry operations used in ECPInt.
 ECPInt:  NShTT=    2775 NPrTT=   10004 LenC2=    2664 LenP2D=    7602.
 LDataN:  DoStor=T MaxTD1= 7 Len=  274
 NBasis=   168 RedAO= T EigKep=  2.81D-04  NBF=   168
 NBsUse=   168 1.00D-06 EigRej= -1.00D+00 NBFU=   168
 Precomputing XC quadrature grid using
 IXCGrd= 4 IRadAn=           5 IRanWt=          -1 IRanGd=           0 AccXCQ= 0.00D+00.
 Defaulting to unpruned grid for atomic number  47.
 Generated NRdTot=       0 NPtTot=           0 NUsed=           0 NTot=          32
 NSgBfM=   180   180   180   180   180 MxSgAt=    14 MxSgA2=    14.
 Leave Link  302 at Sat Sep 12 00:19:06 2026, MaxMem=  6442450944 cpu:               3.0 elap:               3.0
 (Enter C:\G16W\l303.exe)
 DipDrv:  MaxL=1.
 Leave Link  303 at Sat Sep 12 00:19:06 2026, MaxMem=  6442450944 cpu:               0.0 elap:               0.1
 (Enter C:\G16W\l401.exe)
 Initial guess from the checkpoint file:  "PhCN.chk"
 B after Tr=    -0.466396   -0.137287    0.056874
         Rot=    0.997344    0.020675   -0.069794    0.002431 Ang=   8.35 deg.
 Guess basis will be translated and rotated to current coordinates.
 JPrj=2 DoOrth=T DoCkMO=T.
 Initial guess <Sx>= 0.0000 <Sy>= 0.0000 <Sz>= 0.5000 <S**2>= 0.7515 S= 0.5008
 Leave Link  401 at Sat Sep 12 00:19:09 2026, MaxMem=  6442450944 cpu:               2.0 elap:               2.5
 (Enter C:\G16W\l502.exe)
 Two-electron integral symmetry not used.
 UHF open shell SCF:
 Using DIIS extrapolation, IDIIS=  1040.
 NGot=  6442450944 LenX=  6442382175 LenY=  6442348973
 Requested convergence on RMS density matrix=1.00D-08 within 128 cycles.
 Requested convergence on MAX density matrix=1.00D-06.
 Requested convergence on             energy=1.00D-06.
 No special actions if energy rises.
 Fock matrices will be formed incrementally for  20 cycles.

 Cycle   1  Pass 1  IDiag  1:
 FoFJK:  IHMeth= 1 ICntrl=       0 DoSepK=F KAlg= 0 I1Cent=           0 FoldK=F
 IRaf= 930000000 NMat=       1 IRICut=       1 DoRegI=T DoRafI=F ISym2E= 0 IDoP0=0 IntGTp=1.
 FoFCou: FMM=F IPFlag=           0 FMFlag=      100000 FMFlg1=           0
         NFxFlg=           0 DoJE=F BraDBF=F KetDBF=F FulRan=T
         wScrn=  0.000000 ICntrl=         0 IOpCl=  1 I1Cent=           0 NGrid=           0
         NMat0=    1 NMatS0=      1 NMatT0=    0 NMatD0=    1 NMtDS0=    0 NMtDT0=    0
 Symmetry not used in FoFCou.
 Defaulting to unpruned grid for atomic number  47.
 Defaulting to unpruned grid for atomic number  47.
 Defaulting to unpruned grid for atomic number  47.
 Defaulting to unpruned grid for atomic number  47.
 Defaulting to unpruned grid for atomic number  47.
 Defaulting to unpruned grid for atomic number  47.
 Defaulting to unpruned grid for atomic number  47.
 Defaulting to unpruned grid for atomic number  47.
 E= -470.747799167101    
 DIIS: error= 1.75D-02 at cycle   1 NSaved=   1.
 NSaved= 1 IEnMin= 1 EnMin= -470.747799167101     IErMin= 1 ErrMin= 1.75D-02
 ErrMax= 1.75D-02  0.00D+00 EMaxC= 1.00D-01 BMatC= 2.57D-01 BMatP= 2.57D-01
 IDIUse=3 WtCom= 8.25D-01 WtEn= 1.75D-01
 Coeff-Com:  0.100D+01
 Coeff-En:   0.100D+01
 Coeff:      0.100D+01
 Gap=     0.424 Goal=   None    Shift=    0.000
 Gap=     0.563 Goal=   None    Shift=    0.000
 GapD=    0.424 DampG=2.000 DampE=0.250 DampFc=0.5000 IDamp=-1.
 Damping current iteration by 5.00D-01
 RMSDP=2.07D-03 MaxDP=6.80D-02              OVMax= 1.39D-01

 Cycle   2  Pass 1  IDiag  1:
 RMSU=  1.03D-03    CP:  9.97D-01
 E= -470.779418274148     Delta-E=       -0.031619107048 Rises=F Damp=T
 DIIS: error= 9.91D-03 at cycle   2 NSaved=   2.
 NSaved= 2 IEnMin= 2 EnMin= -470.779418274148     IErMin= 2 ErrMin= 9.91D-03
 ErrMax= 9.91D-03  0.00D+00 EMaxC= 1.00D-01 BMatC= 7.08D-02 BMatP= 2.57D-01
 IDIUse=3 WtCom= 9.01D-01 WtEn= 9.91D-02
 Coeff-Com: -0.105D+01 0.205D+01
 Coeff-En:   0.000D+00 0.100D+01
 Coeff:     -0.946D+00 0.195D+01
 Gap=     0.064 Goal=   None    Shift=    0.000
 Gap=     0.210 Goal=   None    Shift=    0.000
 RMSDP=1.37D-03 MaxDP=3.10D-02 DE=-3.16D-02 OVMax= 5.16D-02

 Cycle   3  Pass 1  IDiag  1:
 RMSU=  4.91D-04    CP:  9.96D-01  2.23D+00
 E= -470.815118882414     Delta-E=       -0.035700608266 Rises=F Damp=F
 DIIS: error= 4.15D-03 at cycle   3 NSaved=   3.
 NSaved= 3 IEnMin= 3 EnMin= -470.815118882414     IErMin= 3 ErrMin= 4.15D-03
 ErrMax= 4.15D-03  0.00D+00 EMaxC= 1.00D-01 BMatC= 6.10D-03 BMatP= 7.08D-02
 IDIUse=3 WtCom= 9.58D-01 WtEn= 4.15D-02
 Coeff-Com: -0.589D+00 0.112D+01 0.466D+00
 Coeff-En:   0.000D+00 0.000D+00 0.100D+01
 Coeff:     -0.564D+00 0.108D+01 0.488D+00
 Gap=     0.064 Goal=   None    Shift=    0.000
 Gap=     0.203 Goal=   None    Shift=    0.000
 RMSDP=2.66D-04 MaxDP=1.20D-02 DE=-3.57D-02 OVMax= 1.59D-02

 Cycle   4  Pass 1  IDiag  1:
 RMSU=  2.20D-04    CP:  9.95D-01  2.32D+00  7.71D-01
 E= -470.816292459162     Delta-E=       -0.001173576748 Rises=F Damp=F
 DIIS: error= 1.52D-03 at cycle   4 NSaved=   4.
 NSaved= 4 IEnMin= 4 EnMin= -470.816292459162     IErMin= 4 ErrMin= 1.52D-03
 ErrMax= 1.52D-03  0.00D+00 EMaxC= 1.00D-01 BMatC= 1.25D-03 BMatP= 6.10D-03
 IDIUse=3 WtCom= 9.85D-01 WtEn= 1.52D-02
 Coeff-Com: -0.216D+00 0.406D+00 0.320D+00 0.491D+00
 Coeff-En:   0.000D+00 0.000D+00 0.143D+00 0.857D+00
 Coeff:     -0.213D+00 0.399D+00 0.317D+00 0.496D+00
 Gap=     0.063 Goal=   None    Shift=    0.000
 Gap=     0.201 Goal=   None    Shift=    0.000
 RMSDP=1.34D-04 MaxDP=4.88D-03 DE=-1.17D-03 OVMax= 1.46D-02

 Cycle   5  Pass 1  IDiag  1:
 RMSU=  1.12D-04    CP:  9.94D-01  2.36D+00  8.86D-01  9.75D-01
 E= -470.816556677089     Delta-E=       -0.000264217928 Rises=F Damp=F
 DIIS: error= 9.58D-04 at cycle   5 NSaved=   5.
 NSaved= 5 IEnMin= 5 EnMin= -470.816556677089     IErMin= 5 ErrMin= 9.58D-04
 ErrMax= 9.58D-04  0.00D+00 EMaxC= 1.00D-01 BMatC= 2.18D-04 BMatP= 1.25D-03
 IDIUse=3 WtCom= 9.90D-01 WtEn= 9.58D-03
 Coeff-Com:  0.717D-01-0.142D+00 0.567D-01 0.345D+00 0.668D+00
 Coeff-En:   0.000D+00 0.000D+00 0.000D+00 0.100D+00 0.900D+00
 Coeff:      0.710D-01-0.140D+00 0.561D-01 0.343D+00 0.670D+00
 Gap=     0.065 Goal=   None    Shift=    0.000
 Gap=     0.205 Goal=   None    Shift=    0.000
 RMSDP=8.54D-05 MaxDP=4.60D-03 DE=-2.64D-04 OVMax= 8.98D-03

 Cycle   6  Pass 1  IDiag  1:
 RMSU=  3.56D-05    CP:  9.94D-01  2.38D+00  1.00D+00  1.20D+00  8.48D-01
 E= -470.816627267698     Delta-E=       -0.000070590609 Rises=F Damp=F
 DIIS: error= 1.72D-04 at cycle   6 NSaved=   6.
 NSaved= 6 IEnMin= 6 EnMin= -470.816627267698     IErMin= 6 ErrMin= 1.72D-04
 ErrMax= 1.72D-04  0.00D+00 EMaxC= 1.00D-01 BMatC= 8.30D-06 BMatP= 2.18D-04
 IDIUse=3 WtCom= 9.98D-01 WtEn= 1.72D-03
 Coeff-Com:  0.413D-01-0.799D-01 0.326D-02 0.913D-01 0.237D+00 0.707D+00
 Coeff-En:   0.000D+00 0.000D+00 0.000D+00 0.000D+00 0.000D+00 0.100D+01
 Coeff:      0.412D-01-0.798D-01 0.325D-02 0.911D-01 0.237D+00 0.707D+00
 Gap=     0.064 Goal=   None    Shift=    0.000
 Gap=     0.205 Goal=   None    Shift=    0.000
 RMSDP=3.30D-05 MaxDP=1.06D-03 DE=-7.06D-05 OVMax= 4.73D-03

 Cycle   7  Pass 1  IDiag  1:
 RMSU=  1.47D-05    CP:  9.94D-01  2.39D+00  1.03D+00  1.27D+00  9.70D-01
                    CP:  1.09D+00
 E= -470.816633267521     Delta-E=       -0.000005999824 Rises=F Damp=F
 DIIS: error= 1.00D-04 at cycle   7 NSaved=   7.
 NSaved= 7 IEnMin= 7 EnMin= -470.816633267521     IErMin= 7 ErrMin= 1.00D-04
 ErrMax= 1.00D-04  0.00D+00 EMaxC= 1.00D-01 BMatC= 2.18D-06 BMatP= 8.30D-06
 IDIUse=3 WtCom= 9.99D-01 WtEn= 1.00D-03
 Coeff-Com: -0.859D-02 0.173D-01-0.103D-01-0.680D-01-0.139D+00 0.178D+00
 Coeff-Com:  0.103D+01
 Coeff-En:   0.000D+00 0.000D+00 0.000D+00 0.000D+00 0.000D+00 0.000D+00
 Coeff-En:   0.100D+01
 Coeff:     -0.858D-02 0.173D-01-0.103D-01-0.679D-01-0.138D+00 0.178D+00
 Coeff:      0.103D+01
 Gap=     0.065 Goal=   None    Shift=    0.000
 Gap=     0.205 Goal=   None    Shift=    0.000
 RMSDP=2.78D-05 MaxDP=9.23D-04 DE=-6.00D-06 OVMax= 3.83D-03

 Cycle   8  Pass 1  IDiag  1:
 RMSU=  9.45D-06    CP:  9.94D-01  2.40D+00  1.06D+00  1.34D+00  1.04D+00
                    CP:  1.40D+00  1.17D+00
 E= -470.816635757758     Delta-E=       -0.000002490236 Rises=F Damp=F
 DIIS: error= 1.01D-04 at cycle   8 NSaved=   8.
 NSaved= 8 IEnMin= 8 EnMin= -470.816635757758     IErMin= 7 ErrMin= 1.00D-04
 ErrMax= 1.01D-04  0.00D+00 EMaxC= 1.00D-01 BMatC= 1.49D-06 BMatP= 2.18D-06
 IDIUse=3 WtCom= 9.99D-01 WtEn= 1.00D-03
 Coeff-Com: -0.135D-01 0.267D-01-0.682D-02-0.616D-01-0.139D+00-0.204D-01
 Coeff-Com:  0.691D+00 0.523D+00
 Coeff-En:   0.000D+00 0.000D+00 0.000D+00 0.000D+00 0.000D+00 0.000D+00
 Coeff-En:   0.000D+00 0.100D+01
 Coeff:     -0.135D-01 0.266D-01-0.681D-02-0.615D-01-0.139D+00-0.204D-01
 Coeff:      0.691D+00 0.524D+00
 Gap=     0.065 Goal=   None    Shift=    0.000
 Gap=     0.205 Goal=   None    Shift=    0.000
 RMSDP=9.00D-06 MaxDP=2.99D-04 DE=-2.49D-06 OVMax= 1.03D-03

 Cycle   9  Pass 1  IDiag  1:
 RMSU=  3.71D-06    CP:  9.94D-01  2.40D+00  1.07D+00  1.35D+00  1.06D+00
                    CP:  1.48D+00  1.45D+00  8.13D-01
 E= -470.816636528594     Delta-E=       -0.000000770836 Rises=F Damp=F
 DIIS: error= 3.25D-05 at cycle   9 NSaved=   9.
 NSaved= 9 IEnMin= 9 EnMin= -470.816636528594     IErMin= 9 ErrMin= 3.25D-05
 ErrMax= 3.25D-05  0.00D+00 EMaxC= 1.00D-01 BMatC= 1.36D-07 BMatP= 1.49D-06
 IDIUse=1 WtCom= 1.00D+00 WtEn= 0.00D+00
 Coeff-Com:  0.152D-02-0.311D-02 0.232D-02 0.150D-01 0.281D-01-0.367D-01
 Coeff-Com: -0.228D+00 0.365D-02 0.122D+01
 Coeff:      0.152D-02-0.311D-02 0.232D-02 0.150D-01 0.281D-01-0.367D-01
 Coeff:     -0.228D+00 0.365D-02 0.122D+01
 Gap=     0.065 Goal=   None    Shift=    0.000
 Gap=     0.205 Goal=   None    Shift=    0.000
 RMSDP=5.21D-06 MaxDP=1.90D-04 DE=-7.71D-07 OVMax= 3.92D-04

 Cycle  10  Pass 1  IDiag  1:
 RMSU=  1.97D-06    CP:  9.94D-01  2.40D+00  1.07D+00  1.36D+00  1.07D+00
                    CP:  1.52D+00  1.59D+00  1.08D+00  1.72D+00
 E= -470.816636816186     Delta-E=       -0.000000287592 Rises=F Damp=F
 DIIS: error= 1.75D-05 at cycle  10 NSaved=  10.
 NSaved=10 IEnMin=10 EnMin= -470.816636816186     IErMin=10 ErrMin= 1.75D-05
 ErrMax= 1.75D-05  0.00D+00 EMaxC= 1.00D-01 BMatC= 5.23D-08 BMatP= 1.36D-07
 IDIUse=1 WtCom= 1.00D+00 WtEn= 0.00D+00
 Coeff-Com:  0.458D-02-0.904D-02 0.239D-02 0.222D-01 0.515D-01-0.144D-02
 Coeff-Com: -0.277D+00-0.168D+00 0.194D+00 0.118D+01
 Coeff:      0.458D-02-0.904D-02 0.239D-02 0.222D-01 0.515D-01-0.144D-02
 Coeff:     -0.277D+00-0.168D+00 0.194D+00 0.118D+01
 Gap=     0.065 Goal=   None    Shift=    0.000
 Gap=     0.205 Goal=   None    Shift=    0.000
 RMSDP=4.00D-06 MaxDP=1.45D-04 DE=-2.88D-07 OVMax= 3.21D-04

 Cycle  11  Pass 1  IDiag  1:
 RMSU=  1.13D-06    CP:  9.94D-01  2.40D+00  1.07D+00  1.36D+00  1.07D+00
                    CP:  1.54D+00  1.65D+00  1.29D+00  2.46D+00  1.63D+00
 E= -470.816636946875     Delta-E=       -0.000000130690 Rises=F Damp=F
 DIIS: error= 8.08D-06 at cycle  11 NSaved=  11.
 NSaved=11 IEnMin=11 EnMin= -470.816636946875     IErMin=11 ErrMin= 8.08D-06
 ErrMax= 8.08D-06  0.00D+00 EMaxC= 1.00D-01 BMatC= 2.12D-08 BMatP= 5.23D-08
 IDIUse=1 WtCom= 1.00D+00 WtEn= 0.00D+00
 Coeff-Com:  0.165D-02-0.322D-02 0.235D-03 0.477D-02 0.150D-01 0.189D-01
 Coeff-Com: -0.331D-01-0.807D-01-0.399D+00 0.555D+00 0.920D+00
 Coeff:      0.165D-02-0.322D-02 0.235D-03 0.477D-02 0.150D-01 0.189D-01
 Coeff:     -0.331D-01-0.807D-01-0.399D+00 0.555D+00 0.920D+00
 Gap=     0.065 Goal=   None    Shift=    0.000
 Gap=     0.205 Goal=   None    Shift=    0.000
 RMSDP=2.25D-06 MaxDP=8.05D-05 DE=-1.31D-07 OVMax= 1.84D-04

 Cycle  12  Pass 1  IDiag  1:
 RMSU=  5.89D-07    CP:  9.94D-01  2.40D+00  1.07D+00  1.36D+00  1.07D+00
                    CP:  1.55D+00  1.69D+00  1.39D+00  2.85D+00  2.20D+00
                    CP:  1.22D+00
 E= -470.816636980861     Delta-E=       -0.000000033985 Rises=F Damp=F
 DIIS: error= 3.07D-06 at cycle  12 NSaved=  12.
 NSaved=12 IEnMin=12 EnMin= -470.816636980861     IErMin=12 ErrMin= 3.07D-06
 ErrMax= 3.07D-06  0.00D+00 EMaxC= 1.00D-01 BMatC= 3.98D-09 BMatP= 2.12D-08
 IDIUse=1 WtCom= 1.00D+00 WtEn= 0.00D+00
 Coeff-Com: -0.579D-03 0.116D-02-0.601D-03-0.438D-02-0.865D-02 0.860D-02
 Coeff-Com:  0.636D-01 0.889D-02-0.227D+00-0.702D-01 0.383D+00 0.846D+00
 Coeff:     -0.579D-03 0.116D-02-0.601D-03-0.438D-02-0.865D-02 0.860D-02
 Coeff:      0.636D-01 0.889D-02-0.227D+00-0.702D-01 0.383D+00 0.846D+00
 Gap=     0.065 Goal=   None    Shift=    0.000
 Gap=     0.205 Goal=   None    Shift=    0.000
 RMSDP=8.92D-07 MaxDP=3.44D-05 DE=-3.40D-08 OVMax= 7.43D-05

 Cycle  13  Pass 1  IDiag  1:
 RMSU=  2.60D-07    CP:  9.94D-01  2.40D+00  1.07D+00  1.36D+00  1.07D+00
                    CP:  1.55D+00  1.70D+00  1.42D+00  2.99D+00  2.43D+00
                    CP:  1.50D+00  9.98D-01
 E= -470.816636985498     Delta-E=       -0.000000004637 Rises=F Damp=F
 DIIS: error= 9.08D-07 at cycle  13 NSaved=  13.
 NSaved=13 IEnMin=13 EnMin= -470.816636985498     IErMin=13 ErrMin= 9.08D-07
 ErrMax= 9.08D-07  0.00D+00 EMaxC= 1.00D-01 BMatC= 7.38D-10 BMatP= 3.98D-09
 IDIUse=1 WtCom= 1.00D+00 WtEn= 0.00D+00
 Coeff-Com: -0.454D-03 0.896D-03-0.252D-03-0.234D-02-0.583D-02 0.309D-04
 Coeff-Com:  0.272D-01 0.136D-01-0.285D-01-0.104D+00 0.201D-01 0.341D+00
 Coeff-Com:  0.739D+00
 Coeff:     -0.454D-03 0.896D-03-0.252D-03-0.234D-02-0.583D-02 0.309D-04
 Coeff:      0.272D-01 0.136D-01-0.285D-01-0.104D+00 0.201D-01 0.341D+00
 Coeff:      0.739D+00
 Gap=     0.065 Goal=   None    Shift=    0.000
 Gap=     0.205 Goal=   None    Shift=    0.000
 RMSDP=2.92D-07 MaxDP=1.01D-05 DE=-4.64D-09 OVMax= 2.13D-05

 Cycle  14  Pass 1  IDiag  1:
 RMSU=  1.41D-07    CP:  9.94D-01  2.40D+00  1.07D+00  1.36D+00  1.08D+00
                    CP:  1.55D+00  1.70D+00  1.42D+00  3.00D+00  2.48D+00
                    CP:  1.57D+00  1.15D+00  1.01D+00
 E= -470.816636985979     Delta-E=       -0.000000000481 Rises=F Damp=F
 DIIS: error= 6.89D-07 at cycle  14 NSaved=  14.
 NSaved=14 IEnMin=14 EnMin= -470.816636985979     IErMin=14 ErrMin= 6.89D-07
 ErrMax= 6.89D-07  0.00D+00 EMaxC= 1.00D-01 BMatC= 1.95D-10 BMatP= 7.38D-10
 IDIUse=1 WtCom= 1.00D+00 WtEn= 0.00D+00
 Coeff-Com: -0.120D-03 0.235D-03 0.485D-05-0.320D-03-0.138D-02-0.172D-02
 Coeff-Com:  0.193D-02 0.550D-02 0.278D-01-0.400D-01-0.624D-01 0.118D-01
 Coeff-Com:  0.384D+00 0.675D+00
 Coeff:     -0.120D-03 0.235D-03 0.485D-05-0.320D-03-0.138D-02-0.172D-02
 Coeff:      0.193D-02 0.550D-02 0.278D-01-0.400D-01-0.624D-01 0.118D-01
 Coeff:      0.384D+00 0.675D+00
 Gap=     0.065 Goal=   None    Shift=    0.000
 Gap=     0.205 Goal=   None    Shift=    0.000
 RMSDP=1.11D-07 MaxDP=4.00D-06 DE=-4.81D-10 OVMax= 7.96D-06

 Cycle  15  Pass 1  IDiag  1:
 RMSU=  6.58D-08    CP:  9.94D-01  2.40D+00  1.07D+00  1.36D+00  1.08D+00
                    CP:  1.55D+00  1.70D+00  1.42D+00  3.00D+00  2.49D+00
                    CP:  1.60D+00  1.19D+00  1.18D+00  9.09D-01
 E= -470.816636986060     Delta-E=       -0.000000000081 Rises=F Damp=F
 DIIS: error= 3.16D-07 at cycle  15 NSaved=  15.
 NSaved=15 IEnMin=15 EnMin= -470.816636986060     IErMin=15 ErrMin= 3.16D-07
 ErrMax= 3.16D-07  0.00D+00 EMaxC= 1.00D-01 BMatC= 4.90D-11 BMatP= 1.95D-10
 IDIUse=1 WtCom= 1.00D+00 WtEn= 0.00D+00
 Coeff-Com:  0.527D-04-0.105D-03 0.759D-04 0.436D-03 0.763D-03-0.980D-03
 Coeff-Com: -0.553D-02-0.816D-04 0.219D-01 0.453D-02-0.394D-01-0.845D-01
 Coeff-Com:  0.192D-01 0.385D+00 0.698D+00
 Coeff:      0.527D-04-0.105D-03 0.759D-04 0.436D-03 0.763D-03-0.980D-03
 Coeff:     -0.553D-02-0.816D-04 0.219D-01 0.453D-02-0.394D-01-0.845D-01
 Coeff:      0.192D-01 0.385D+00 0.698D+00
 Gap=     0.065 Goal=   None    Shift=    0.000
 Gap=     0.205 Goal=   None    Shift=    0.000
 RMSDP=4.19D-08 MaxDP=1.71D-06 DE=-8.07D-11 OVMax= 3.11D-06

 Cycle  16  Pass 1  IDiag  1:
 RMSU=  2.23D-08    CP:  9.94D-01  2.40D+00  1.07D+00  1.36D+00  1.08D+00
                    CP:  1.55D+00  1.70D+00  1.42D+00  3.00D+00  2.49D+00
                    CP:  1.60D+00  1.22D+00  1.22D+00  1.07D+00  8.74D-01
 E= -470.816636986083     Delta-E=       -0.000000000023 Rises=F Damp=F
 DIIS: error= 8.47D-08 at cycle  16 NSaved=  16.
 NSaved=16 IEnMin=16 EnMin= -470.816636986083     IErMin=16 ErrMin= 8.47D-08
 ErrMax= 8.47D-08  0.00D+00 EMaxC= 1.00D-01 BMatC= 3.05D-12 BMatP= 4.90D-11
 IDIUse=1 WtCom= 1.00D+00 WtEn= 0.00D+00
 Coeff-Com:  0.276D-04-0.545D-04 0.148D-04 0.131D-03 0.352D-03-0.983D-04
 Coeff-Com: -0.144D-02-0.645D-03 0.125D-02 0.638D-02-0.458D-03-0.213D-01
 Coeff-Com: -0.453D-01-0.414D-03 0.151D+00 0.910D+00
 Coeff:      0.276D-04-0.545D-04 0.148D-04 0.131D-03 0.352D-03-0.983D-04
 Coeff:     -0.144D-02-0.645D-03 0.125D-02 0.638D-02-0.458D-03-0.213D-01
 Coeff:     -0.453D-01-0.414D-03 0.151D+00 0.910D+00
 Gap=     0.065 Goal=   None    Shift=    0.000
 Gap=     0.205 Goal=   None    Shift=    0.000
 RMSDP=1.45D-08 MaxDP=6.37D-07 DE=-2.33D-11 OVMax= 1.00D-06

 Cycle  17  Pass 1  IDiag  1:
 RMSU=  9.03D-09    CP:  9.94D-01  2.40D+00  1.07D+00  1.36D+00  1.08D+00
                    CP:  1.55D+00  1.70D+00  1.42D+00  3.00D+00  2.49D+00
                    CP:  1.60D+00  1.22D+00  1.25D+00  1.10D+00  9.43D-01
                    CP:  1.19D+00
 E= -470.816636986082     Delta-E=        0.000000000001 Rises=F Damp=F
 DIIS: error= 4.96D-08 at cycle  17 NSaved=  17.
 NSaved=17 IEnMin=16 EnMin= -470.816636986083     IErMin=17 ErrMin= 4.96D-08
 ErrMax= 4.96D-08  0.00D+00 EMaxC= 1.00D-01 BMatC= 7.83D-13 BMatP= 3.05D-12
 IDIUse=1 WtCom= 1.00D+00 WtEn= 0.00D+00
 Coeff-Com: -0.298D-05 0.614D-05-0.109D-04-0.479D-04-0.556D-04 0.162D-03
 Coeff-Com:  0.693D-03-0.166D-03-0.374D-02 0.529D-03 0.715D-02 0.117D-01
 Coeff-Com: -0.139D-01-0.745D-01-0.991D-01 0.221D+00 0.950D+00
 Coeff:     -0.298D-05 0.614D-05-0.109D-04-0.479D-04-0.556D-04 0.162D-03
 Coeff:      0.693D-03-0.166D-03-0.374D-02 0.529D-03 0.715D-02 0.117D-01
 Coeff:     -0.139D-01-0.745D-01-0.991D-01 0.221D+00 0.950D+00
 Gap=     0.065 Goal=   None    Shift=    0.000
 Gap=     0.205 Goal=   None    Shift=    0.000
 RMSDP=7.79D-09 MaxDP=3.52D-07 DE= 1.36D-12 OVMax= 5.54D-07

 SCF Done:  E(UPBE1PBE) =  -470.816636986     A.U. after   17 cycles
            NFock= 17  Conv=0.78D-08     -V/T= 2.2486
 <Sx>= 0.0000 <Sy>= 0.0000 <Sz>= 0.5000 <S**2>= 0.7519 S= 0.5009
 <L.S>= 0.000000000000E+00
 KE= 3.770694716152D+02 PE=-1.904533902463D+03 EE= 6.381515438107D+02
 Annihilation of the first spin contaminant:
 S**2 before annihilation     0.7519,   after     0.7500
 Leave Link  502 at Sat Sep 12 00:20:46 2026, MaxMem=  6442450944 cpu:              97.0 elap:              96.5
 (Enter C:\G16W\l508.exe)
 QCSCF skips out because SCF is already converged.
 Leave Link  508 at Sat Sep 12 00:20:46 2026, MaxMem=  6442450944 cpu:               0.0 elap:               0.1
 (Enter C:\G16W\l601.exe)
 Copying SCF densities to generalized density rwf, IOpCl= 1 IROHF=0.

 **********************************************************************

            Population analysis using the SCF Density.

 **********************************************************************

 Alpha  occ. eigenvalues --  -14.42863 -10.30753 -10.30146 -10.28077 -10.28074
 Alpha  occ. eigenvalues --  -10.27387 -10.27181 -10.27177  -3.73126  -2.31109
 Alpha  occ. eigenvalues --   -2.31081  -2.31021  -0.96647  -0.92228  -0.82453
 Alpha  occ. eigenvalues --   -0.80591  -0.69180  -0.66338  -0.60253  -0.53681
 Alpha  occ. eigenvalues --   -0.51818  -0.48860  -0.47574  -0.46363  -0.44919
 Alpha  occ. eigenvalues --   -0.40787  -0.40732  -0.39883  -0.38358  -0.31340
 Alpha  occ. eigenvalues --   -0.30767  -0.30439  -0.30434  -0.30270  -0.29645
 Alpha  occ. eigenvalues --   -0.28571  -0.13810
 Alpha virt. eigenvalues --   -0.07351  -0.03890  -0.00410   0.01299   0.03200
 Alpha virt. eigenvalues --    0.03716   0.05905   0.06380   0.09004   0.10395
 Alpha virt. eigenvalues --    0.12219   0.14215   0.14602   0.15502   0.19496
 Alpha virt. eigenvalues --    0.23720   0.26593   0.26837   0.28125   0.29539
 Alpha virt. eigenvalues --    0.34511   0.35466   0.35654   0.38648   0.39253
 Alpha virt. eigenvalues --    0.40910   0.41268   0.43430   0.44213   0.46202
 Alpha virt. eigenvalues --    0.46578   0.47981   0.48109   0.48128   0.49867
 Alpha virt. eigenvalues --    0.51071   0.52177   0.57632   0.58467   0.58859
 Alpha virt. eigenvalues --    0.60438   0.62816   0.62916   0.65023   0.65776
 Alpha virt. eigenvalues --    0.66267   0.66559   0.68372   0.69043   0.70266
 Alpha virt. eigenvalues --    0.72508   0.74889   0.75536   0.82571   0.84500
 Alpha virt. eigenvalues --    0.89473   0.92513   0.93666   1.01054   1.01522
 Alpha virt. eigenvalues --    1.07262   1.08747   1.13191   1.15761   1.20499
 Alpha virt. eigenvalues --    1.20850   1.21569   1.26187   1.26390   1.27139
 Alpha virt. eigenvalues --    1.28131   1.39175   1.50819   1.56321   1.58776
 Alpha virt. eigenvalues --    1.64250   1.65070   1.70725   1.71872   1.73419
 Alpha virt. eigenvalues --    1.73964   1.74994   1.75915   1.77744   1.79002
 Alpha virt. eigenvalues --    1.82366   1.89517   1.91616   1.94280   1.96309
 Alpha virt. eigenvalues --    1.96326   1.97794   2.04350   2.06571   2.07730
 Alpha virt. eigenvalues --    2.12247   2.13336   2.21986   2.22677   2.26570
 Alpha virt. eigenvalues --    2.27275   2.29538   2.30116   2.30556   2.34061
 Alpha virt. eigenvalues --    2.34420   2.52300   2.60219   2.60402   2.63853
 Alpha virt. eigenvalues --    2.64418   2.64421   2.64496   2.64499   2.64806
 Alpha virt. eigenvalues --    2.64955   2.68973   2.69363   2.73907   2.74161
 Alpha virt. eigenvalues --    2.85250   2.88361   2.93180   3.01567   3.03737
 Alpha virt. eigenvalues --    3.10624   3.16507   3.33779   3.48943   3.71961
 Alpha virt. eigenvalues --   53.83542
  Beta  occ. eigenvalues --  -14.42686 -10.30703 -10.30150 -10.28056 -10.28053
  Beta  occ. eigenvalues --  -10.27361 -10.27193 -10.27188  -3.72984  -2.31037
  Beta  occ. eigenvalues --   -2.30990  -2.30952  -0.96520  -0.92196  -0.82414
  Beta  occ. eigenvalues --   -0.80569  -0.69101  -0.66332  -0.60229  -0.53625
  Beta  occ. eigenvalues --   -0.51806  -0.48808  -0.47569  -0.45809  -0.44692
  Beta  occ. eigenvalues --   -0.40731  -0.40703  -0.39666  -0.38264  -0.31029
  Beta  occ. eigenvalues --   -0.30701  -0.29951  -0.29945  -0.29682  -0.29149
  Beta  occ. eigenvalues --   -0.27867
  Beta virt. eigenvalues --   -0.07342  -0.04565  -0.03853   0.00600   0.03627
  Beta virt. eigenvalues --    0.04284   0.04975   0.06647   0.07200   0.09052
  Beta virt. eigenvalues --    0.11205   0.13829   0.14286   0.14834   0.16264
  Beta virt. eigenvalues --    0.19778   0.23909   0.26600   0.26876   0.28173
  Beta virt. eigenvalues --    0.29643   0.35555   0.37385   0.37991   0.39326
  Beta virt. eigenvalues --    0.40460   0.41081   0.41773   0.43915   0.44354
  Beta virt. eigenvalues --    0.46280   0.47113   0.48082   0.50071   0.50113
  Beta virt. eigenvalues --    0.51495   0.51992   0.52217   0.57873   0.58565
  Beta virt. eigenvalues --    0.58880   0.61114   0.62929   0.63624   0.65310
  Beta virt. eigenvalues --    0.65922   0.66548   0.66651   0.68533   0.69370
  Beta virt. eigenvalues --    0.70297   0.72546   0.74919   0.75568   0.82610
  Beta virt. eigenvalues --    0.84544   0.89556   0.92527   0.94146   1.01294
  Beta virt. eigenvalues --    1.01750   1.07299   1.08863   1.13297   1.15852
  Beta virt. eigenvalues --    1.20533   1.21028   1.21588   1.26232   1.26401
  Beta virt. eigenvalues --    1.27158   1.28226   1.39438   1.50843   1.56428
  Beta virt. eigenvalues --    1.58932   1.64257   1.65111   1.70735   1.71906
  Beta virt. eigenvalues --    1.73447   1.74016   1.75021   1.75962   1.77760
  Beta virt. eigenvalues --    1.79060   1.82401   1.89575   1.91676   1.94335
  Beta virt. eigenvalues --    1.96341   1.96438   1.97798   2.04379   2.07719
  Beta virt. eigenvalues --    2.07732   2.12263   2.13378   2.22174   2.22697
  Beta virt. eigenvalues --    2.26819   2.27337   2.29601   2.30217   2.30588
  Beta virt. eigenvalues --    2.34087   2.34444   2.52347   2.60255   2.60428
  Beta virt. eigenvalues --    2.63893   2.64431   2.64435   2.64500   2.64503
  Beta virt. eigenvalues --    2.64948   2.65091   2.69103   2.69549   2.73915
  Beta virt. eigenvalues --    2.74166   2.85276   2.88381   2.93279   3.01816
  Beta virt. eigenvalues --    3.03797   3.10726   3.16520   3.33830   3.49102
  Beta virt. eigenvalues --    3.72001  53.83689
          Condensed to atoms (all electrons):
               1          2          3          4          5          6
     1  N    6.239946   0.777074  -0.036090  -0.002411   0.000131   0.000019
     2  C    0.777074   5.073567   0.333471  -0.092872   0.019243   0.001017
     3  C   -0.036090   0.333471   5.337040   0.293424   0.089220  -0.149699
     4  C   -0.002411  -0.092872   0.293424   5.011542   0.310727   0.081722
     5  C    0.000131   0.019243   0.089220   0.310727   5.026565   0.278669
     6  C    0.000019   0.001017  -0.149699   0.081722   0.278669   5.080695
     7  C    0.000132   0.019231   0.089319  -0.142884   0.086311   0.278738
     8  C   -0.002479  -0.092833   0.293255   0.077561  -0.142871   0.081668
     9  H   -0.000429  -0.020949  -0.060412   0.457442  -0.060714   0.013504
    10  H   -0.000003  -0.000556   0.014816  -0.068743   0.453514  -0.067385
    11  H    0.000000   0.000044  -0.001505   0.013841  -0.066331   0.450668
    12  H   -0.000003  -0.000557   0.014806  -0.001286   0.013356  -0.067376
    13  H   -0.000425  -0.021037  -0.060446   0.013261  -0.001898   0.013494
    14  Ag   0.047068  -0.014330  -0.000440  -0.000126   0.000079   0.000019
               7          8          9         10         11         12
     1  N    0.000132  -0.002479  -0.000429  -0.000003   0.000000  -0.000003
     2  C    0.019231  -0.092833  -0.020949  -0.000556   0.000044  -0.000557
     3  C    0.089319   0.293255  -0.060412   0.014816  -0.001505   0.014806
     4  C   -0.142884   0.077561   0.457442  -0.068743   0.013841  -0.001286
     5  C    0.086311  -0.142871  -0.060714   0.453514  -0.066331   0.013356
     6  C    0.278738   0.081668   0.013504  -0.067385   0.450668  -0.067376
     7  C    5.026530   0.310727  -0.001901   0.013356  -0.066334   0.453508
     8  C    0.310727   5.011525   0.013289  -0.001286   0.013843  -0.068724
     9  H   -0.001901   0.013289   0.639488  -0.011090  -0.000231   0.000032
    10  H    0.013356  -0.001286  -0.011090   0.646336  -0.011841  -0.000248
    11  H   -0.066334   0.013843  -0.000231  -0.011841   0.646399  -0.011840
    12  H    0.453508  -0.068724   0.000032  -0.000248  -0.011840   0.646240
    13  H   -0.060761   0.457627  -0.000154   0.000031  -0.000231  -0.011070
    14  Ag   0.000083  -0.000123   0.000044  -0.000007  -0.000001  -0.000007
              13         14
     1  N   -0.000425   0.047068
     2  C   -0.021037  -0.014330
     3  C   -0.060446  -0.000440
     4  C    0.013261  -0.000126
     5  C   -0.001898   0.000079
     6  C    0.013494   0.000019
     7  C   -0.060761   0.000083
     8  C    0.457627  -0.000123
     9  H   -0.000154   0.000044
    10  H    0.000031  -0.000007
    11  H   -0.000231  -0.000001
    12  H   -0.011070  -0.000007
    13  H    0.639154   0.000084
    14  Ag   0.000084  19.061917
          Atomic-Atomic Spin Densities.
               1          2          3          4          5          6
     1  N    0.133755  -0.025820   0.001200   0.000014   0.000003   0.000000
     2  C   -0.025820   0.037896   0.003737  -0.001811  -0.000040   0.000018
     3  C    0.001200   0.003737  -0.001144  -0.003599   0.000391   0.000169
     4  C    0.000014  -0.001811  -0.003599   0.018943   0.000526  -0.000900
     5  C    0.000003  -0.000040   0.000391   0.000526  -0.008655  -0.001615
     6  C    0.000000   0.000018   0.000169  -0.000900  -0.001615   0.023897
     7  C    0.000004  -0.000048   0.000455  -0.000034   0.000267  -0.001579
     8  C   -0.000025  -0.001623  -0.003974   0.001175  -0.000038  -0.000903
     9  H   -0.000093   0.000237  -0.000290   0.000150  -0.000127  -0.000003
    10  H    0.000000   0.000003   0.000004  -0.000056   0.000006  -0.000036
    11  H    0.000000   0.000000  -0.000005  -0.000008  -0.000057   0.000318
    12  H    0.000000   0.000003   0.000001   0.000002   0.000007  -0.000039
    13  H   -0.000093   0.000163  -0.000322   0.000021  -0.000009  -0.000002
    14  Ag  -0.086198   0.006558  -0.001554   0.000120  -0.000001  -0.000004
               7          8          9         10         11         12
     1  N    0.000004  -0.000025  -0.000093   0.000000   0.000000   0.000000
     2  C   -0.000048  -0.001623   0.000237   0.000003   0.000000   0.000003
     3  C    0.000455  -0.003974  -0.000290   0.000004  -0.000005   0.000001
     4  C   -0.000034   0.001175   0.000150  -0.000056  -0.000008   0.000002
     5  C    0.000267  -0.000038  -0.000127   0.000006  -0.000057   0.000007
     6  C   -0.001579  -0.000903  -0.000003  -0.000036   0.000318  -0.000039
     7  C   -0.008545   0.000361  -0.000013   0.000006  -0.000059  -0.000016
     8  C    0.000361   0.019323   0.000040   0.000002  -0.000006  -0.000048
     9  H   -0.000013   0.000040  -0.000523   0.000019   0.000001   0.000000
    10  H    0.000006   0.000002   0.000019   0.000381   0.000013   0.000000
    11  H   -0.000059  -0.000006   0.000001   0.000013  -0.001181   0.000013
    12  H   -0.000016  -0.000048   0.000000   0.000000   0.000013   0.000408
    13  H   -0.000175   0.000251   0.000006   0.000000   0.000001   0.000026
    14  Ag  -0.000003   0.000156   0.000094   0.000000   0.000000   0.000000
              13         14
     1  N   -0.000093  -0.086198
     2  C    0.000163   0.006558
     3  C   -0.000322  -0.001554
     4  C    0.000021   0.000120
     5  C   -0.000009  -0.000001
     6  C   -0.000002  -0.000004
     7  C   -0.000175  -0.000003
     8  C    0.000251   0.000156
     9  H    0.000006   0.000094
    10  H    0.000000   0.000000
    11  H    0.000001   0.000000
    12  H    0.000026   0.000000
    13  H   -0.000495   0.000124
    14  Ag   0.000124   1.015062
 Mulliken charges and spin densities:
               1          2
     1  N   -0.022529   0.022747
     2  C    0.019486   0.019273
     3  C   -0.156760  -0.004932
     4  C    0.048802   0.014544
     5  C   -0.006001  -0.009343
     6  C    0.004248   0.019322
     7  C   -0.006055  -0.009379
     8  C    0.048820   0.014690
     9  H    0.032082  -0.000502
    10  H    0.033106   0.000341
    11  H    0.033519  -0.000969
    12  H    0.033169   0.000357
    13  H    0.032371  -0.000505
    14  Ag  -0.094259   0.934354
 Sum of Mulliken charges =   0.00000   1.00000
 Mulliken charges and spin densities with hydrogens summed into heavy atoms:
               1          2
     1  N   -0.022529   0.022747
     2  C    0.019486   0.019273
     3  C   -0.156760  -0.004932
     4  C    0.080885   0.014042
     5  C    0.027104  -0.009002
     6  C    0.037768   0.018352
     7  C    0.027114  -0.009022
     8  C    0.081191   0.014185
    14  Ag  -0.094259   0.934354
 Electronic spatial extent (au):  <R**2>=           3267.2740
 Charge=              0.0000 electrons
 Dipole moment (field-independent basis, Debye):
    X=             -6.9933    Y=             -1.9601    Z=              1.5033  Tot=              7.4167
 Quadrupole moment (field-independent basis, Debye-Ang):
   XX=           -101.6054   YY=            -63.0793   ZZ=            -72.0978
   XY=            -11.6537   XZ=              9.4859   YZ=              3.2931
 Traceless Quadrupole moment (field-independent basis, Debye-Ang):
   XX=            -22.6779   YY=             15.8482   ZZ=              6.8297
   XY=            -11.6537   XZ=              9.4859   YZ=              3.2931
 Octapole moment (field-independent basis, Debye-Ang**2):
  XXX=           -660.4033  YYY=           -120.9075  ZZZ=             77.1271  XYY=           -156.3249
  XXY=           -108.0566  XXZ=             87.2058  XZZ=           -152.2815  YZZ=            -42.7372
  YYZ=             28.9931  XYZ=             17.3158
 Hexadecapole moment (field-independent basis, Debye-Ang**3):
 XXXX=          -6263.9567 YYYY=           -656.3699 ZZZZ=           -254.6521 XXXY=          -1045.1573
 XXXZ=            799.3718 YYYX=           -660.6587 YYYZ=            116.9494 ZZZX=            435.6566
 ZZZY=            112.3968 XXYY=          -1018.1594 XXZZ=           -953.9789 YYZZ=           -167.9144
 XXYZ=            145.5423 YYXZ=            165.6381 ZZXY=           -239.6353
 N-N= 4.184962500512D+02 E-N=-1.904533899233D+03  KE= 3.770694716152D+02
                          Isotropic Fermi Contact Couplings
        Atom                 a.u.       MegaHertz       Gauss      10(-4) cm-1
     1  N(14)              0.19769      63.87504      22.79220      21.30642
     2  C(13)              0.01787      20.08452       7.16666       6.69948
     3  C(13)              0.00009       0.10271       0.03665       0.03426
     4  C(13)              0.00221       2.48815       0.88783       0.82996
     5  C(13)             -0.00221      -2.48509      -0.88674      -0.82894
     6  C(13)              0.00334       3.75869       1.34120       1.25377
     7  C(13)             -0.00218      -2.44843      -0.87366      -0.81671
     8  C(13)              0.00223       2.50444       0.89365       0.83539
     9  H(1)              -0.00021      -0.95763      -0.34171      -0.31943
    10  H(1)               0.00010       0.43667       0.15581       0.14566
    11  H(1)              -0.00028      -1.26764      -0.45233      -0.42284
    12  H(1)               0.00010       0.45716       0.16313       0.15249
    13  H(1)              -0.00021      -0.96032      -0.34267      -0.32033
    14  Ag(107             0.00027      -0.04868      -0.01737      -0.01624
 --------------------------------------------------------
       Center         ----  Spin Dipole Couplings  ----
                      3XX-RR        3YY-RR        3ZZ-RR
 --------------------------------------------------------
     1   Atom        0.055861     -0.017520     -0.038341
     2   Atom       -0.001918     -0.023864      0.025782
     3   Atom        0.004802     -0.000049     -0.004753
     4   Atom       -0.005989     -0.007756      0.013745
     5   Atom        0.004102      0.003064     -0.007166
     6   Atom       -0.008344     -0.009662      0.018006
     7   Atom        0.004347      0.002883     -0.007230
     8   Atom       -0.006320     -0.007020      0.013340
     9   Atom        0.000613      0.000121     -0.000734
    10   Atom        0.000671     -0.000188     -0.000483
    11   Atom        0.001375     -0.001252     -0.000123
    12   Atom        0.000717     -0.000219     -0.000498
    13   Atom        0.000567      0.000201     -0.000768
    14   Atom       -0.020970      0.018576      0.002394
 --------------------------------------------------------
                        XY            XZ            YZ
 --------------------------------------------------------
     1   Atom        0.021621      0.053605      0.014709
     2   Atom        0.007332      0.019547      0.006735
     3   Atom        0.001999     -0.006352     -0.001688
     4   Atom        0.000214      0.000236     -0.000107
     5   Atom        0.000517     -0.000368      0.000651
     6   Atom        0.000380      0.000689     -0.001718
     7   Atom        0.000242     -0.000279      0.000603
     8   Atom        0.000549      0.000538     -0.003351
     9   Atom        0.000021     -0.000449     -0.000006
    10   Atom        0.000296     -0.000130      0.000009
    11   Atom        0.000819     -0.000113     -0.000129
    12   Atom        0.000263     -0.000124     -0.000049
    13   Atom        0.000251     -0.000424     -0.000169
    14   Atom       -0.011298      0.028800      0.007694
 --------------------------------------------------------


 ---------------------------------------------------------------------------------
              Anisotropic Spin Dipole Couplings in Principal Axis System
 ---------------------------------------------------------------------------------

       Atom             a.u.   MegaHertz   Gauss  10(-4) cm-1        Axes

              Baa    -0.0631    -2.433    -0.868    -0.812 -0.3919 -0.1089  0.9135
     1 N(14)  Bbb    -0.0234    -0.903    -0.322    -0.301 -0.2642  0.9645  0.0017
              Bcc     0.0865     3.336     1.190     1.113  0.8813  0.2407  0.4067
 
              Baa    -0.0261    -3.503    -1.250    -1.168 -0.2740  0.9615 -0.0216
     2 C(13)  Bbb    -0.0112    -1.505    -0.537    -0.502  0.8428  0.2293 -0.4870
              Bcc     0.0373     5.008     1.787     1.671  0.4633  0.1516  0.8731
 
              Baa    -0.0080    -1.070    -0.382    -0.357  0.4334  0.0818  0.8975
     3 C(13)  Bbb    -0.0007    -0.099    -0.035    -0.033 -0.2865  0.9567  0.0511
              Bcc     0.0087     1.169     0.417     0.390  0.8545  0.2793 -0.4381
 
              Baa    -0.0078    -1.044    -0.373    -0.348 -0.1192  0.9928  0.0062
     4 C(13)  Bbb    -0.0060    -0.801    -0.286    -0.267  0.9928  0.1193 -0.0113
              Bcc     0.0137     1.845     0.658     0.615  0.0119 -0.0048  0.9999
 
              Baa    -0.0072    -0.969    -0.346    -0.323  0.0354 -0.0649  0.9973
     5 C(13)  Bbb     0.0029     0.390     0.139     0.130 -0.3762  0.9236  0.0735
              Bcc     0.0043     0.579     0.207     0.193  0.9258  0.3778 -0.0083
 
              Baa    -0.0099    -1.326    -0.473    -0.442 -0.2663  0.9616  0.0658
     6 C(13)  Bbb    -0.0082    -1.106    -0.395    -0.369  0.9636  0.2674 -0.0078
              Bcc     0.0181     2.433     0.868     0.811  0.0251 -0.0613  0.9978
 
              Baa    -0.0073    -0.976    -0.348    -0.326  0.0252 -0.0598  0.9979
     7 C(13)  Bbb     0.0029     0.387     0.138     0.129 -0.1515  0.9864  0.0630
              Bcc     0.0044     0.589     0.210     0.196  0.9881  0.1528 -0.0158
 
              Baa    -0.0078    -1.050    -0.374    -0.350 -0.3875  0.9090  0.1538
     8 C(13)  Bbb    -0.0061    -0.814    -0.290    -0.272  0.9216  0.3859  0.0411
              Bcc     0.0139     1.864     0.665     0.622  0.0220 -0.1576  0.9873
 
              Baa    -0.0009    -0.464    -0.166    -0.155  0.2898 -0.0005  0.9571
     9 H(1)   Bbb     0.0001     0.064     0.023     0.021 -0.0325  0.9994  0.0103
              Bcc     0.0007     0.400     0.143     0.133  0.9565  0.0341 -0.2896
 
              Baa    -0.0005    -0.269    -0.096    -0.090  0.1505 -0.1681  0.9742
    10 H(1)   Bbb    -0.0003    -0.144    -0.051    -0.048 -0.2684  0.9415  0.2039
              Bcc     0.0008     0.414     0.148     0.138  0.9515  0.2921 -0.0966
 
              Baa    -0.0015    -0.796    -0.284    -0.266 -0.2715  0.9600  0.0679
    11 H(1)   Bbb    -0.0001    -0.069    -0.024    -0.023  0.0982 -0.0426  0.9943
              Bcc     0.0016     0.865     0.309     0.289  0.9574  0.2766 -0.0827
 
              Baa    -0.0005    -0.274    -0.098    -0.091  0.0794  0.0958  0.9922
    12 H(1)   Bbb    -0.0003    -0.153    -0.055    -0.051 -0.2606  0.9627 -0.0721
              Bcc     0.0008     0.427     0.152     0.142  0.9622  0.2529 -0.1014
 
              Baa    -0.0009    -0.480    -0.171    -0.160  0.2627  0.0873  0.9609
    13 H(1)   Bbb     0.0001     0.040     0.014     0.013 -0.4299  0.9022  0.0356
              Bcc     0.0008     0.440     0.157     0.147  0.8638  0.4224 -0.2745
 
              Baa    -0.0434     0.941     0.336     0.314  0.8098  0.2154 -0.5457
    14 Ag(107 Bbb     0.0216    -0.468    -0.167    -0.156 -0.3371  0.9321 -0.1323
              Bcc     0.0218    -0.473    -0.169    -0.158  0.4801  0.2911  0.8275
 

 ---------------------------------------------------------------------------------

 No NMR shielding tensors so no spin-rotation constants.
 Leave Link  601 at Sat Sep 12 00:20:49 2026, MaxMem=  6442450944 cpu:               3.0 elap:               2.7
 (Enter C:\G16W\l9999.exe)
 Unable to Open any file for archive entry.
 1|1|UNPC-DESKTOP-2JKEGCA|SP|UPBE1PBE|def2SVP|C7H5Ag1N1(2)|JHKIM|12-Sep
 -2026|0||#P PBE1PBE/Def2SVP EmpiricalDispersion=GD3BJ SP SCF=(XQC,MaxC
 ycle=128) NoSymm Guess=Read||PhCN t=0.250 dz=+0.00 class=toface||0,2|N
 ,0,3.473893,0.998659,-0.078238|C,0,2.372396,0.682016,-0.053433|C,0,1.0
 13334,0.291313,-0.022822|C,0,0.01391,1.259886,0.074188|C,0,-1.311627,0
 .870874,0.103569|C,0,-1.645495,-0.473044,0.037059|C,0,-0.652276,-1.435
 453,-0.059338|C,0,0.67746,-1.06113,-0.089757|H,0,0.285615,2.304007,0.1
 25373|H,0,-2.087806,1.617773,0.178593|H,0,-2.683025,-0.771312,0.060425
 |H,0,-0.915936,-2.481283,-0.110943|H,0,1.459559,-1.802305,-0.164676|Ag
 ,0,5.45694103,1.52987989,-1.06164714||Version=EM64W-G16RevC.01|HF=-470
 .816637|S2=0.751856|S2-1=0.|S2A=0.750003|RMSD=7.791e-009|Dipole=-2.751
 3603,-0.7711453,0.591461|Quadrupole=-16.8604371,11.7827271,5.07771,-8.
 6642484,7.052529,2.4483533|PG=C01 [X(C7H5Ag1N1)]||@
 The archive entry for this job was punched.


 THERE IS NO SUBJECT, HOWEVER COMPLEX,
 WHICH, IF STUDIED WITH PATIENCE AND INTELLIGIENCE
 WILL NOT BECOME
 MORE COMPLEX
                        QUOTED BY D. GORDON ROHMAN
 Job cpu time:       0 days  0 hours  1 minutes 48.0 seconds.
 Elapsed time:       0 days  0 hours  1 minutes 46.1 seconds.
 File lengths (MBytes):  RWF=     32 Int=      0 D2E=      0 Chk=      3 Scr=      1
 Normal termination of Gaussian 16 at Sat Sep 12 00:20:49 2026.
