 Entering Gaussian System, Link 0=C:\G16W\g16.exe
 Input=PhCz_t1_z1.gjf
 Output=PhCz_t1_z1.out
 Initial command:
 C:\G16W\l1.exe ".\Gau-136276.inp" "PhCz_t1_z1.out" /scrdir=".\"
 Entering Link 1 = C:\G16W\l1.exe PID=     96220.
  
 Copyright (c) 1988-2019, Gaussian, Inc.  All Rights Reserved.
  
 This is part of the Gaussian(R) 16 program.  It is based on
 the Gaussian(R) 09 system (copyright 2009, Gaussian, Inc.),
 the Gaussian(R) 03 system (copyright 2003, Gaussian, Inc.),
 the Gaussian(R) 98 system (copyright 1998, Gaussian, Inc.),
 the Gaussian(R) 94 system (copyright 1995, Gaussian, Inc.),
 the Gaussian 92(TM) system (copyright 1992, Gaussian, Inc.),
 the Gaussian 90(TM) system (copyright 1990, Gaussian, Inc.),
 the Gaussian 88(TM) system (copyright 1988, Gaussian, Inc.),
 the Gaussian 86(TM) system (copyright 1986, Carnegie Mellon
 University), and the Gaussian 82(TM) system (copyright 1983,
 Carnegie Mellon University). Gaussian is a federally registered
 trademark of Gaussian, Inc.
  
 This software contains proprietary and confidential information,
 including trade secrets, belonging to Gaussian, Inc.
  
 This software is provided under written license and may be
 used, copied, transmitted, or stored only in accord with that
 written license.
  
 The following legend is applicable only to US Government
 contracts under FAR:
  
                    RESTRICTED RIGHTS LEGEND
  
 Use, reproduction and disclosure by the US Government is
 subject to restrictions as set forth in subparagraphs (a)
 and (c) of the Commercial Computer Software - Restricted
 Rights clause in FAR 52.227-19.
  
 Gaussian, Inc.
 340 Quinnipiac St., Bldg. 40, Wallingford CT 06492
  
  
 ---------------------------------------------------------------
 Warning -- This program may not be used in any manner that
 competes with the business of Gaussian, Inc. or will provide
 assistance to any competitor of Gaussian, Inc.  The licensee
 of this program is prohibited from giving any competitor of
 Gaussian, Inc. access to this program.  By using this program,
 the user acknowledges that Gaussian, Inc. is engaged in the
 business of creating and licensing software in the field of
 computational chemistry and represents and warrants to the
 licensee that it is not a competitor of Gaussian, Inc. and that
 it will not use this program in any manner prohibited above.
 ---------------------------------------------------------------
  

 Cite this work as:
 Gaussian 16, Revision C.01,
 M. J. Frisch, G. W. Trucks, H. B. Schlegel, G. E. Scuseria, 
 M. A. Robb, J. R. Cheeseman, G. Scalmani, V. Barone, 
 G. A. Petersson, H. Nakatsuji, X. Li, M. Caricato, A. V. Marenich, 
 J. Bloino, B. G. Janesko, R. Gomperts, B. Mennucci, H. P. Hratchian, 
 J. V. Ortiz, A. F. Izmaylov, J. L. Sonnenberg, D. Williams-Young, 
 F. Ding, F. Lipparini, F. Egidi, J. Goings, B. Peng, A. Petrone, 
 T. Henderson, D. Ranasinghe, V. G. Zakrzewski, J. Gao, N. Rega, 
 G. Zheng, W. Liang, M. Hada, M. Ehara, K. Toyota, R. Fukuda, 
 J. Hasegawa, M. Ishida, T. Nakajima, Y. Honda, O. Kitao, H. Nakai, 
 T. Vreven, K. Throssell, J. A. Montgomery, Jr., J. E. Peralta, 
 F. Ogliaro, M. J. Bearpark, J. J. Heyd, E. N. Brothers, K. N. Kudin, 
 V. N. Staroverov, T. A. Keith, R. Kobayashi, J. Normand, 
 K. Raghavachari, A. P. Rendell, J. C. Burant, S. S. Iyengar, 
 J. Tomasi, M. Cossi, J. M. Millam, M. Klene, C. Adamo, R. Cammi, 
 J. W. Ochterski, R. L. Martin, K. Morokuma, O. Farkas, 
 J. B. Foresman, and D. J. Fox, Gaussian, Inc., Wallingford CT, 2019.
 
 ******************************************
 Gaussian 16:  EM64W-G16RevC.01 30-May-2019
                12-Sep-2026 
 ******************************************
 %Chk=PhCz.chk
 %NProcShared=8
 Will use up to    8 processors via shared memory.
 %Mem=48GB
 ----------------------------------------------------------------------
 #P PBE1PBE/Def2SVP EmpiricalDispersion=GD3BJ SP SCF=(XQC,MaxCycle=128)
  NoSymm Guess=Read
 ----------------------------------------------------------------------
 1/38=1,172=1/1;
 2/12=2,15=1,17=6,18=5,40=1/2;
 3/5=43,7=101,11=2,25=1,30=1,74=-13,116=-2,124=41/1,2,3;
 4/5=1/1;
 5/5=2,7=128,8=3,13=1,38=6/2,8;
 6/7=2,8=2,9=2,10=2,28=1/1;
 99/5=1,9=1/99;
 Leave Link    1 at Sat Sep 12 01:04:10 2026, MaxMem=  6442450944 cpu:               0.0 elap:               0.3
 (Enter C:\G16W\l101.exe)
 ----------------------------------
 PhCz t=0.250 dz=+0.40 class=toface
 ----------------------------------
 Symbolic Z-matrix:
 Charge =  0 Multiplicity = 2
 C                     4.31868  -0.42455   0.264 
 C                     3.62657   0.36558   1.1667 
 C                     2.25401   0.4986    1.06858 
 C                     1.56317  -0.15368   0.05123 
 N                     0.17225  -0.01694  -0.05619 
 C                    -0.73443  -1.05127  -0.17885 
 C                    -0.51848  -2.42199  -0.17641 
 C                    -1.61948  -3.24892  -0.29043 
 C                    -2.90947  -2.73333  -0.39566 
 C                    -3.13306  -1.37141  -0.37293 
 C                    -2.04217  -0.51967  -0.25915 
 C                    -1.90755   0.90797  -0.18487 
 C                    -2.81728   1.95639  -0.2256 
 C                    -2.34036   3.24945  -0.14877 
 C                    -0.97425   3.5039   -0.04887 
 C                    -0.04988   2.47786  -0.00646 
 C                    -0.52493   1.17507  -0.05739 
 C                     2.26118  -0.9425   -0.85887 
 C                     3.63218  -1.07917  -0.74514 
 H                     5.38989  -0.52987   0.34673 
 H                     4.15721   0.87482   1.95764 
 H                     1.70834   1.0949    1.78455 
 H                     0.47519  -2.83241  -0.07701 
 H                    -1.47684  -4.3196   -0.29446 
 H                    -3.74357  -3.41322  -0.48653 
 H                    -4.1338   -0.97148  -0.43785 
 H                    -3.87451   1.75879  -0.31962 
 H                    -3.03097   4.07923  -0.17565 
 H                    -0.62933   4.52666  -0.00718 
 H                     1.00778   2.68661   0.05256 
 H                     1.72574  -1.43252  -1.65834 
 H                     4.16817  -1.69328  -1.4537 
 Ag                   -0.12802   0.48559  -3.28386 
 
 ITRead=  0  0  0  0  0  0  0  0  0  0  0  0  0  0  0  0  0  0  0  0
 ITRead=  0  0  0  0  0  0  0  0  0  0  0  0  0
 MicOpt= -1 -1 -1 -1 -1 -1 -1 -1 -1 -1 -1 -1 -1 -1 -1 -1 -1 -1 -1 -1
 MicOpt= -1 -1 -1 -1 -1 -1 -1 -1 -1 -1 -1 -1 -1
 NAtoms=     33 NQM=       33 NQMF=       0 NMMI=      0 NMMIF=      0
                NMic=       0 NMicF=      0.
                    Isotopes and Nuclear Properties:
 (Nuclear quadrupole moments (NQMom) in fm**2, nuclear magnetic moments (NMagM)
  in nuclear magnetons)

  Atom         1           2           3           4           5           6           7           8           9          10
 IAtWgt=          12          12          12          12          14          12          12          12          12          12
 AtmWgt=  12.0000000  12.0000000  12.0000000  12.0000000  14.0030740  12.0000000  12.0000000  12.0000000  12.0000000  12.0000000
 NucSpn=           0           0           0           0           2           0           0           0           0           0
 AtZEff=   0.0000000   0.0000000   0.0000000   0.0000000   0.0000000   0.0000000   0.0000000   0.0000000   0.0000000   0.0000000
 NQMom=    0.0000000   0.0000000   0.0000000   0.0000000   2.0440000   0.0000000   0.0000000   0.0000000   0.0000000   0.0000000
 NMagM=    0.0000000   0.0000000   0.0000000   0.0000000   0.4037610   0.0000000   0.0000000   0.0000000   0.0000000   0.0000000
 AtZNuc=   6.0000000   6.0000000   6.0000000   6.0000000   7.0000000   6.0000000   6.0000000   6.0000000   6.0000000   6.0000000

  Atom        11          12          13          14          15          16          17          18          19          20
 IAtWgt=          12          12          12          12          12          12          12          12          12           1
 AtmWgt=  12.0000000  12.0000000  12.0000000  12.0000000  12.0000000  12.0000000  12.0000000  12.0000000  12.0000000   1.0078250
 NucSpn=           0           0           0           0           0           0           0           0           0           1
 AtZEff=   0.0000000   0.0000000   0.0000000   0.0000000   0.0000000   0.0000000   0.0000000   0.0000000   0.0000000   0.0000000
 NQMom=    0.0000000   0.0000000   0.0000000   0.0000000   0.0000000   0.0000000   0.0000000   0.0000000   0.0000000   0.0000000
 NMagM=    0.0000000   0.0000000   0.0000000   0.0000000   0.0000000   0.0000000   0.0000000   0.0000000   0.0000000   2.7928460
 AtZNuc=   6.0000000   6.0000000   6.0000000   6.0000000   6.0000000   6.0000000   6.0000000   6.0000000   6.0000000   1.0000000

  Atom        21          22          23          24          25          26          27          28          29          30
 IAtWgt=           1           1           1           1           1           1           1           1           1           1
 AtmWgt=   1.0078250   1.0078250   1.0078250   1.0078250   1.0078250   1.0078250   1.0078250   1.0078250   1.0078250   1.0078250
 NucSpn=           1           1           1           1           1           1           1           1           1           1
 AtZEff=   0.0000000   0.0000000   0.0000000   0.0000000   0.0000000   0.0000000   0.0000000   0.0000000   0.0000000   0.0000000
 NQMom=    0.0000000   0.0000000   0.0000000   0.0000000   0.0000000   0.0000000   0.0000000   0.0000000   0.0000000   0.0000000
 NMagM=    2.7928460   2.7928460   2.7928460   2.7928460   2.7928460   2.7928460   2.7928460   2.7928460   2.7928460   2.7928460
 AtZNuc=   1.0000000   1.0000000   1.0000000   1.0000000   1.0000000   1.0000000   1.0000000   1.0000000   1.0000000   1.0000000

  Atom        31          32          33
 IAtWgt=           1           1         107
 AtmWgt=   1.0078250   1.0078250 106.9050900
 NucSpn=           1           1           1
 AtZEff=   0.0000000   0.0000000   0.0000000
 NQMom=    0.0000000   0.0000000   0.0000000
 NMagM=    2.7928460   2.7928460  -0.1135700
 AtZNuc=   1.0000000   1.0000000  47.0000000
 Leave Link  101 at Sat Sep 12 01:04:11 2026, MaxMem=  6442450944 cpu:               1.0 elap:               0.6
 (Enter C:\G16W\l202.exe)
                          Input orientation:                          
 ---------------------------------------------------------------------
 Center     Atomic      Atomic             Coordinates (Angstroms)
 Number     Number       Type             X           Y           Z
 ---------------------------------------------------------------------
      1          6           0        4.318681   -0.424553    0.264001
      2          6           0        3.626574    0.365579    1.166695
      3          6           0        2.254007    0.498601    1.068576
      4          6           0        1.563174   -0.153683    0.051229
      5          7           0        0.172251   -0.016940   -0.056185
      6          6           0       -0.734425   -1.051271   -0.178854
      7          6           0       -0.518475   -2.421994   -0.176413
      8          6           0       -1.619480   -3.248918   -0.290429
      9          6           0       -2.909474   -2.733333   -0.395662
     10          6           0       -3.133061   -1.371405   -0.372927
     11          6           0       -2.042171   -0.519671   -0.259151
     12          6           0       -1.907553    0.907967   -0.184867
     13          6           0       -2.817276    1.956387   -0.225601
     14          6           0       -2.340360    3.249447   -0.148769
     15          6           0       -0.974249    3.503904   -0.048870
     16          6           0       -0.049884    2.477861   -0.006462
     17          6           0       -0.524929    1.175071   -0.057385
     18          6           0        2.261179   -0.942496   -0.858872
     19          6           0        3.632181   -1.079171   -0.745140
     20          1           0        5.389886   -0.529870    0.346731
     21          1           0        4.157205    0.874820    1.957636
     22          1           0        1.708338    1.094903    1.784553
     23          1           0        0.475194   -2.832412   -0.077007
     24          1           0       -1.476844   -4.319604   -0.294462
     25          1           0       -3.743566   -3.413223   -0.486532
     26          1           0       -4.133797   -0.971480   -0.437847
     27          1           0       -3.874509    1.758786   -0.319619
     28          1           0       -3.030974    4.079234   -0.175651
     29          1           0       -0.629333    4.526657   -0.007181
     30          1           0        1.007776    2.686607    0.052557
     31          1           0        1.725742   -1.432517   -1.658335
     32          1           0        4.168173   -1.693284   -1.453698
     33         47           0       -0.128016    0.485589   -3.283861
 ---------------------------------------------------------------------
                    Distance matrix (angstroms):
                    1          2          3          4          5
     1  C    0.000000
     2  C    1.384983   0.000000
     3  C    2.400507   1.382484   0.000000
     4  C    2.776952   2.402398   1.392020   0.000000
     5  N    4.178702   3.684305   2.421689   1.401750   0.000000
     6  C    5.111045   4.778732   3.590113   2.477411   1.380923
     7  C    5.251839   5.172614   4.215036   3.087121   2.505163
     8  C    6.598953   6.535203   5.558300   4.452695   3.702817
     9  C    7.616551   7.400280   6.265056   5.182556   4.122022
    10  C    7.538612   7.147042   5.881782   4.870049   3.586083
    11  C    6.383038   5.911969   4.610519   3.637141   2.279824
    12  C    6.383031   5.722540   4.365465   3.637140   2.279824
    13  C    7.538599   6.781767   5.433042   4.870049   3.586083
    14  C    7.616527   6.756585   5.491565   5.182554   4.122023
    15  C    6.598922   5.700373   4.549964   4.452693   3.702818
    16  C    5.251811   4.399361   3.221970   3.087120   2.505164
    17  C    5.111032   4.403252   3.073741   2.477410   1.380924
    18  C    2.400505   2.770972   2.406630   1.392020   2.421690
    19  C    1.384981   2.396340   2.770973   2.402399   3.684306
    20  H    1.079544   2.140897   3.378247   3.856496   5.258246
    21  H    2.140758   1.080039   2.134041   3.379527   4.553083
    22  H    3.381526   2.143197   1.079793   2.141133   2.642740
    23  H    4.548237   4.658877   3.946161   2.894086   2.831800
    24  H    7.005099   7.080310   6.244375   5.168763   4.614023
    25  H    8.631065   8.445796   7.327456   6.251022   5.201304
    26  H    8.499183   8.036519   6.725659   5.776112   4.427060
    27  H    8.499173   7.772799   6.408889   5.776111   4.427061
    28  H    8.631038   7.740547   6.503849   6.251020   5.201304
    29  H    7.005060   6.066737   5.069136   5.168760   4.614023
    30  H    4.548199   3.672408   2.715282   2.894083   2.831800
    31  H    3.381523   3.850598   3.382946   2.141134   2.642740
    32  H    2.140752   3.376197   3.851007   3.379526   4.553083
    33  Ag   5.760972   5.823985   4.961644   3.793629   3.280334
                    6          7          8          9         10
     6  C    0.000000
     7  C    1.387632   0.000000
     8  C    2.371798   1.381671   0.000000
     9  C    2.758111   2.421132   1.393193   0.000000
    10  C    2.427675   2.824609   2.413045   1.380346   0.000000
    11  C    1.413947   2.438714   2.761962   2.381417   1.388682
    12  C    2.283611   3.608081   4.168192   3.782505   2.594759
    13  C    3.658751   4.945415   5.341734   4.693708   3.345986
    14  C    4.590872   5.956952   6.539762   6.014857   4.693708
    15  C    4.563335   5.944768   6.787877   6.539762   5.341734
    16  C    3.599040   4.925144   5.944768   5.956952   4.945415
    17  C    2.239474   3.599040   4.563335   4.590872   3.658751
    18  C    3.073744   3.221978   4.549970   5.491567   5.433041
    19  C    4.403261   4.399383   5.700395   6.756600   6.781773
    20  H    6.168896   6.225957   7.545224   8.618919   8.594575
    21  H    5.674721   6.106155   7.445072   8.276154   7.976530
    22  H    3.798437   4.601375   5.852239   6.382234   5.846070
    23  H    2.155461   1.079677   2.146319   3.401079   3.904051
    24  H    3.353588   2.129162   1.080153   2.139842   3.382468
    25  H    3.837761   3.388203   2.139438   1.079915   2.134161
    26  H    3.410157   3.904215   3.395622   2.145897   1.079642
    27  H    4.216202   5.363058   5.492095   4.595238   3.217248
    28  H    5.621052   6.969836   7.463732   6.817201   5.455163
    29  H    5.581559   6.951595   7.843481   7.619542   6.417909
    30  H    4.130442   5.336635   6.500044   6.702350   5.813349
    31  H    2.895969   2.865601   4.044872   4.977117   5.026328
    32  H    5.106161   4.911939   6.104926   7.231475   7.387807
    33  Ag   3.517206   4.273491   5.013147   5.141951   4.577364
                   11         12         13         14         15
    11  C    0.000000
    12  C    1.435894   0.000000
    13  C    2.594759   1.388683   0.000000
    14  C    3.782506   2.381418   1.380346   0.000000
    15  C    4.168193   2.761963   2.413046   1.393193   0.000000
    16  C    3.608082   2.438715   2.824609   2.421131   1.381670
    17  C    2.283612   1.413947   2.427675   2.758111   2.371798
    18  C    4.365463   4.610512   5.881774   6.265045   5.558288
    19  C    5.722543   5.911960   7.147029   7.400259   6.535179
    20  H    7.456720   7.456714   8.594565   8.618901   7.545200
    21  H    6.729860   6.432162   7.387807   7.231469   6.104914
    22  H    4.566168   4.121678   5.026336   4.977123   4.044873
    23  H    3.423313   4.436164   5.813350   6.702351   6.500044
    24  H    3.841918   5.246429   6.417910   7.619542   7.843481
    25  H    3.364386   4.704745   5.455164   6.817202   7.463733
    26  H    2.147315   2.924463   3.217247   4.595237   5.492095
    27  H    2.924463   2.147316   1.079642   2.145897   3.395622
    28  H    4.704746   3.364386   2.134161   1.079915   2.139438
    29  H    5.246430   3.841918   3.382468   2.139843   1.080152
    30  H    4.436165   3.423313   3.904051   3.401079   2.146319
    31  H    4.121671   4.566159   5.846059   6.382222   5.852229
    32  H    6.432160   6.729850   7.976517   8.276136   7.445053
    33  Ag   3.717984   3.598461   4.329933   4.728867   4.504609
                   16         17         18         19         20
    16  C    0.000000
    17  C    1.387632   0.000000
    18  C    4.215028   3.590107   0.000000
    19  C    5.172594   4.778721   1.382484   0.000000
    20  H    6.225937   6.168887   3.378246   2.140897   0.000000
    21  H    4.911926   5.106157   3.851009   3.376200   2.467321
    22  H    2.865598   2.895970   3.382946   3.850599   4.273291
    23  H    5.336636   4.130442   2.715297   3.672441   5.443845
    24  H    6.951596   5.581559   5.069145   6.066766   7.869256
    25  H    6.969837   5.621053   6.503852   7.740563   9.613948
    26  H    5.363058   4.216202   6.408886   7.772801   9.566144
    27  H    3.904215   3.410158   6.725651   8.036508   9.566137
    28  H    3.388203   3.837761   7.327445   8.445774   9.613928
    29  H    2.129161   3.353588   6.244363   7.080282   7.869226
    30  H    1.079677   2.155461   3.946151   4.658852   5.443818
    31  H    4.601368   3.798431   1.079794   2.143196   4.273291
    32  H    6.106140   5.674712   2.134040   1.080035   2.467318
    33  Ag   3.836222   3.323112   3.691646   4.799235   6.682784
                   21         22         23         24         25
    21  H    0.000000
    22  H    2.464821   0.000000
    23  H    5.607187   4.517727   0.000000
    24  H    7.987271   6.616991   2.463631   0.000000
    25  H    9.315764   7.429959   4.278199   2.448764   0.000000
    26  H    8.825411   6.583277   4.983580   4.276668   2.473208
    27  H    8.394982   6.003038   6.329129   6.534237   5.176358
    28  H    8.154085   5.933777   7.750729   8.542243   7.532685
    29  H    6.333038   4.522383   7.441825   8.891408   8.542243
    30  H    4.102536   2.454408   5.546170   7.441824   7.750729
    31  H    4.930625   4.271022   2.454419   4.522386   5.933772
    32  H    4.269951   4.930623   4.102558   6.333056   8.154092
    33  Ag   6.781439   5.425153   4.653698   5.817708   6.008160
                   26         27         28         29         30
    26  H    0.000000
    27  H    2.745098   0.000000
    28  H    5.176358   2.473208   0.000000
    29  H    6.534237   4.276669   2.448765   0.000000
    30  H    6.329129   4.983580   4.278199   2.463631   0.000000
    31  H    6.003028   6.583266   7.429946   6.616981   4.517722
    32  H    8.394978   8.825398   9.315744   7.987249   5.607170
    33  Ag   5.125342   4.944085   5.567982   5.226680   4.155261
                   31         32         33
    31  H    0.000000
    32  H    2.464821   0.000000
    33  Ag   3.123761   5.153079   0.000000
 Symmetry turned off by external request.
 Stoichiometry    C18H13AgN(2)
 Framework group  C1[X(C18H13AgN)]
 Deg. of freedom    93
 Full point group                 C1      NOp   1
 Rotational constants (GHZ):           0.2999949           0.2325200           0.2216291
 Leave Link  202 at Sat Sep 12 01:04:12 2026, MaxMem=  6442450944 cpu:               1.0 elap:               0.5
 (Enter C:\G16W\l301.exe)
 Standard basis: def2SVP (5D, 7F)
 Ernie: Thresh=  0.10000D-02 Tol=  0.10000D-05 Strict=F.
   362 basis functions,   631 primitive gaussians,   386 cartesian basis functions
    74 alpha electrons       73 beta electrons
       nuclear repulsion energy      1589.8308562811 Hartrees.
 IExCor= 1009 DFT=T Ex+Corr=PBE1PBE ExCW=0 ScaHFX=  0.250000
 ScaDFX=  0.750000  0.750000  1.000000  1.000000 ScalE2=  1.000000  1.000000
 IRadAn=      5 IRanWt=     -1 IRanGd=            0 ICorTp=0 IEmpDi=141
 NAtoms=   33 NActive=   33 NUniq=   33 SFac= 1.00D+00 NAtFMM=   60 NAOKFM=F Big=F
 Integral buffers will be    131072 words long.
 Raffenetti 2 integral format.
 Two-electron integral symmetry is turned off.
 R6Disp:  Grimme-D3(BJ) Dispersion energy=       -0.0480387037 Hartrees.
 Nuclear repulsion after empirical dispersion term =     1589.7828175774 Hartrees.
 Leave Link  301 at Sat Sep 12 01:04:12 2026, MaxMem=  6442450944 cpu:               0.0 elap:               0.2
 (Enter C:\G16W\l302.exe)
 NPDir=0 NMtPBC=     1 NCelOv=     1 NCel=       1 NClECP=     1 NCelD=      1
         NCelK=      1 NCelE2=     1 NClLst=     1 CellRange=     0.0.
 One-electron integrals computed using PRISM.
   1 Symmetry operations used in ECPInt.
 ECPInt:  NShTT=   13530 NPrTT=   49129 LenC2=   12710 LenP2D=   32962.
 LDataN:  DoStor=T MaxTD1= 7 Len=  274
 NBasis=   362 RedAO= T EigKep=  2.12D-04  NBF=   362
 NBsUse=   362 1.00D-06 EigRej= -1.00D+00 NBFU=   362
 Precomputing XC quadrature grid using
 IXCGrd= 4 IRadAn=           5 IRanWt=          -1 IRanGd=           0 AccXCQ= 0.00D+00.
 Defaulting to unpruned grid for atomic number  47.
 Generated NRdTot=       0 NPtTot=           0 NUsed=           0 NTot=          32
 NSgBfM=   385   385   385   385   385 MxSgAt=    33 MxSgA2=    33.
 Leave Link  302 at Sat Sep 12 01:04:21 2026, MaxMem=  6442450944 cpu:               9.0 elap:               8.4
 (Enter C:\G16W\l303.exe)
 DipDrv:  MaxL=1.
 Leave Link  303 at Sat Sep 12 01:04:23 2026, MaxMem=  6442450944 cpu:               2.0 elap:               2.2
 (Enter C:\G16W\l401.exe)
 Initial guess from the checkpoint file:  "PhCz.chk"
 B after Tr=    -0.067546    0.073084   -0.145963
         Rot=    0.999897   -0.011010   -0.009085   -0.001582 Ang=  -1.65 deg.
 Guess basis will be translated and rotated to current coordinates.
 JPrj=2 DoOrth=T DoCkMO=T.
 Initial guess <Sx>= 0.0000 <Sy>= 0.0000 <Sz>= 0.5000 <S**2>= 0.7516 S= 0.5008
 Leave Link  401 at Sat Sep 12 01:04:49 2026, MaxMem=  6442450944 cpu:              26.0 elap:              25.4
 (Enter C:\G16W\l502.exe)
 Two-electron integral symmetry not used.
 UHF open shell SCF:
 Using DIIS extrapolation, IDIIS=  1040.
 NGot=  6442450944 LenX=  6442146052 LenY=  6441996615
 Requested convergence on RMS density matrix=1.00D-08 within 128 cycles.
 Requested convergence on MAX density matrix=1.00D-06.
 Requested convergence on             energy=1.00D-06.
 No special actions if energy rises.
 Fock matrices will be formed incrementally for  20 cycles.

 Cycle   1  Pass 1  IDiag  1:
 FoFJK:  IHMeth= 1 ICntrl=       0 DoSepK=F KAlg= 0 I1Cent=           0 FoldK=F
 IRaf= 880000000 NMat=       1 IRICut=       1 DoRegI=T DoRafI=F ISym2E= 0 IDoP0=0 IntGTp=1.
 FoFCou: FMM=F IPFlag=           0 FMFlag=      100000 FMFlg1=           0
         NFxFlg=           0 DoJE=F BraDBF=F KetDBF=F FulRan=T
         wScrn=  0.000000 ICntrl=         0 IOpCl=  1 I1Cent=           0 NGrid=           0
         NMat0=    1 NMatS0=      1 NMatT0=    0 NMatD0=    1 NMtDS0=    0 NMtDT0=    0
 Symmetry not used in FoFCou.
 Defaulting to unpruned grid for atomic number  47.
 Defaulting to unpruned grid for atomic number  47.
 Defaulting to unpruned grid for atomic number  47.
 Defaulting to unpruned grid for atomic number  47.
 Defaulting to unpruned grid for atomic number  47.
 Defaulting to unpruned grid for atomic number  47.
 Defaulting to unpruned grid for atomic number  47.
 Defaulting to unpruned grid for atomic number  47.
 E= -894.091907016063    
 DIIS: error= 2.47D-03 at cycle   1 NSaved=   1.
 NSaved= 1 IEnMin= 1 EnMin= -894.091907016063     IErMin= 1 ErrMin= 2.47D-03
 ErrMax= 2.47D-03  0.00D+00 EMaxC= 1.00D-01 BMatC= 1.70D-02 BMatP= 1.70D-02
 IDIUse=3 WtCom= 9.75D-01 WtEn= 2.47D-02
 Coeff-Com:  0.100D+01
 Coeff-En:   0.100D+01
 Coeff:      0.100D+01
 Gap=     0.166 Goal=   None    Shift=    0.000
 Gap=     0.151 Goal=   None    Shift=    0.000
 GapD=    0.151 DampG=1.000 DampE=1.000 DampFc=1.0000 IDamp=-1.
 RMSDP=4.28D-04 MaxDP=1.66D-02              OVMax= 2.43D-02

 Cycle   2  Pass 1  IDiag  1:
 RMSU=  4.28D-04    CP:  9.99D-01
 E= -894.097477520106     Delta-E=       -0.005570504043 Rises=F Damp=F
 DIIS: error= 6.01D-04 at cycle   2 NSaved=   2.
 NSaved= 2 IEnMin= 2 EnMin= -894.097477520106     IErMin= 2 ErrMin= 6.01D-04
 ErrMax= 6.01D-04  0.00D+00 EMaxC= 1.00D-01 BMatC= 5.97D-04 BMatP= 1.70D-02
 IDIUse=3 WtCom= 9.94D-01 WtEn= 6.01D-03
 Coeff-Com: -0.377D-02 0.100D+01
 Coeff-En:   0.000D+00 0.100D+01
 Coeff:     -0.375D-02 0.100D+01
 Gap=     0.141 Goal=   None    Shift=    0.000
 Gap=     0.133 Goal=   None    Shift=    0.000
 RMSDP=1.37D-04 MaxDP=5.31D-03 DE=-5.57D-03 OVMax= 1.16D-02

 Cycle   3  Pass 1  IDiag  1:
 RMSU=  1.36D-04    CP:  1.00D+00  9.68D-01
 E= -894.097124245621     Delta-E=        0.000353274486 Rises=F Damp=F
 DIIS: error= 1.32D-03 at cycle   3 NSaved=   3.
 NSaved= 3 IEnMin= 2 EnMin= -894.097477520106     IErMin= 2 ErrMin= 6.01D-04
 ErrMax= 1.32D-03  0.00D+00 EMaxC= 1.00D-01 BMatC= 2.18D-03 BMatP= 5.97D-04
 IDIUse=3 WtCom= 2.16D-01 WtEn= 7.84D-01
 Coeff-Com: -0.353D-01 0.691D+00 0.344D+00
 Coeff-En:   0.000D+00 0.714D+00 0.286D+00
 Coeff:     -0.761D-02 0.709D+00 0.299D+00
 Gap=     0.141 Goal=   None    Shift=    0.000
 Gap=     0.132 Goal=   None    Shift=    0.000
 RMSDP=8.07D-05 MaxDP=3.31D-03 DE= 3.53D-04 OVMax= 7.65D-03

 Cycle   4  Pass 1  IDiag  1:
 RMSU=  2.70D-05    CP:  9.99D-01  1.03D+00  4.73D-01
 E= -894.097699451546     Delta-E=       -0.000575205926 Rises=F Damp=F
 DIIS: error= 1.23D-04 at cycle   4 NSaved=   4.
 NSaved= 4 IEnMin= 4 EnMin= -894.097699451546     IErMin= 4 ErrMin= 1.23D-04
 ErrMax= 1.23D-04  0.00D+00 EMaxC= 1.00D-01 BMatC= 2.28D-05 BMatP= 5.97D-04
 IDIUse=3 WtCom= 9.99D-01 WtEn= 1.23D-03
 Coeff-Com: -0.162D-01 0.224D+00 0.735D-01 0.719D+00
 Coeff-En:   0.000D+00 0.000D+00 0.000D+00 0.100D+01
 Coeff:     -0.161D-01 0.223D+00 0.734D-01 0.719D+00
 Gap=     0.141 Goal=   None    Shift=    0.000
 Gap=     0.132 Goal=   None    Shift=    0.000
 RMSDP=1.34D-05 MaxDP=1.35D-03 DE=-5.75D-04 OVMax= 7.91D-04

 Cycle   5  Pass 1  IDiag  1:
 RMSU=  1.16D-05    CP:  9.99D-01  1.04D+00  4.54D-01  9.58D-01
 E= -894.097704381465     Delta-E=       -0.000004929919 Rises=F Damp=F
 DIIS: error= 5.17D-05 at cycle   5 NSaved=   5.
 NSaved= 5 IEnMin= 5 EnMin= -894.097704381465     IErMin= 5 ErrMin= 5.17D-05
 ErrMax= 5.17D-05  0.00D+00 EMaxC= 1.00D-01 BMatC= 4.33D-06 BMatP= 2.28D-05
 IDIUse=1 WtCom= 1.00D+00 WtEn= 0.00D+00
 Coeff-Com: -0.581D-03-0.317D-01-0.376D-01 0.308D+00 0.762D+00
 Coeff:     -0.581D-03-0.317D-01-0.376D-01 0.308D+00 0.762D+00
 Gap=     0.141 Goal=   None    Shift=    0.000
 Gap=     0.132 Goal=   None    Shift=    0.000
 RMSDP=5.50D-06 MaxDP=3.49D-04 DE=-4.93D-06 OVMax= 4.64D-04

 Cycle   6  Pass 1  IDiag  1:
 RMSU=  3.60D-06    CP:  9.99D-01  1.04D+00  4.51D-01  1.10D+00  8.78D-01
 E= -894.097705634958     Delta-E=       -0.000001253493 Rises=F Damp=F
 DIIS: error= 2.10D-05 at cycle   6 NSaved=   6.
 NSaved= 6 IEnMin= 6 EnMin= -894.097705634958     IErMin= 6 ErrMin= 2.10D-05
 ErrMax= 2.10D-05  0.00D+00 EMaxC= 1.00D-01 BMatC= 6.41D-07 BMatP= 4.33D-06
 IDIUse=1 WtCom= 1.00D+00 WtEn= 0.00D+00
 Coeff-Com:  0.661D-03-0.288D-01-0.229D-01 0.109D+00 0.399D+00 0.544D+00
 Coeff:      0.661D-03-0.288D-01-0.229D-01 0.109D+00 0.399D+00 0.544D+00
 Gap=     0.141 Goal=   None    Shift=    0.000
 Gap=     0.132 Goal=   None    Shift=    0.000
 RMSDP=1.82D-06 MaxDP=1.10D-04 DE=-1.25D-06 OVMax= 1.84D-04

 Cycle   7  Pass 1  IDiag  1:
 RMSU=  1.46D-06    CP:  9.99D-01  1.04D+00  4.55D-01  1.11D+00  9.18D-01
                    CP:  7.94D-01
 E= -894.097705823638     Delta-E=       -0.000000188680 Rises=F Damp=F
 DIIS: error= 9.81D-06 at cycle   7 NSaved=   7.
 NSaved= 7 IEnMin= 7 EnMin= -894.097705823638     IErMin= 7 ErrMin= 9.81D-06
 ErrMax= 9.81D-06  0.00D+00 EMaxC= 1.00D-01 BMatC= 6.58D-08 BMatP= 6.41D-07
 IDIUse=1 WtCom= 1.00D+00 WtEn= 0.00D+00
 Coeff-Com:  0.335D-03-0.779D-02-0.484D-02 0.508D-02 0.796D-01 0.244D+00
 Coeff-Com:  0.684D+00
 Coeff:      0.335D-03-0.779D-02-0.484D-02 0.508D-02 0.796D-01 0.244D+00
 Coeff:      0.684D+00
 Gap=     0.141 Goal=   None    Shift=    0.000
 Gap=     0.132 Goal=   None    Shift=    0.000
 RMSDP=8.12D-07 MaxDP=8.32D-05 DE=-1.89D-07 OVMax= 1.03D-04

 Cycle   8  Pass 1  IDiag  1:
 RMSU=  6.59D-07    CP:  9.99D-01  1.04D+00  4.56D-01  1.12D+00  9.35D-01
                    CP:  8.98D-01  1.00D+00
 E= -894.097705858220     Delta-E=       -0.000000034582 Rises=F Damp=F
 DIIS: error= 5.97D-06 at cycle   8 NSaved=   8.
 NSaved= 8 IEnMin= 8 EnMin= -894.097705858220     IErMin= 8 ErrMin= 5.97D-06
 ErrMax= 5.97D-06  0.00D+00 EMaxC= 1.00D-01 BMatC= 2.25D-08 BMatP= 6.58D-08
 IDIUse=1 WtCom= 1.00D+00 WtEn= 0.00D+00
 Coeff-Com: -0.133D-04 0.470D-02 0.444D-02-0.339D-01-0.807D-01-0.238D-01
 Coeff-Com:  0.369D+00 0.760D+00
 Coeff:     -0.133D-04 0.470D-02 0.444D-02-0.339D-01-0.807D-01-0.238D-01
 Coeff:      0.369D+00 0.760D+00
 Gap=     0.141 Goal=   None    Shift=    0.000
 Gap=     0.132 Goal=   None    Shift=    0.000
 RMSDP=6.30D-07 MaxDP=6.75D-05 DE=-3.46D-08 OVMax= 8.25D-05

 Cycle   9  Pass 1  IDiag  1:
 RMSU=  4.03D-07    CP:  9.99D-01  1.04D+00  4.56D-01  1.12D+00  9.51D-01
                    CP:  9.58D-01  1.25D+00  1.09D+00
 E= -894.097705876498     Delta-E=       -0.000000018278 Rises=F Damp=F
 DIIS: error= 3.86D-06 at cycle   9 NSaved=   9.
 NSaved= 9 IEnMin= 9 EnMin= -894.097705876498     IErMin= 9 ErrMin= 3.86D-06
 ErrMax= 3.86D-06  0.00D+00 EMaxC= 1.00D-01 BMatC= 7.94D-09 BMatP= 2.25D-08
 IDIUse=1 WtCom= 1.00D+00 WtEn= 0.00D+00
 Coeff-Com: -0.103D-03 0.490D-02 0.376D-02-0.207D-01-0.680D-01-0.794D-01
 Coeff-Com:  0.187D-01 0.432D+00 0.709D+00
 Coeff:     -0.103D-03 0.490D-02 0.376D-02-0.207D-01-0.680D-01-0.794D-01
 Coeff:      0.187D-01 0.432D+00 0.709D+00
 Gap=     0.141 Goal=   None    Shift=    0.000
 Gap=     0.132 Goal=   None    Shift=    0.000
 RMSDP=3.77D-07 MaxDP=2.91D-05 DE=-1.83D-08 OVMax= 5.58D-05

 Cycle  10  Pass 1  IDiag  1:
 RMSU=  2.27D-07    CP:  9.99D-01  1.04D+00  4.56D-01  1.12D+00  9.54D-01
                    CP:  1.00D+00  1.35D+00  1.39D+00  1.06D+00
 E= -894.097705884306     Delta-E=       -0.000000007808 Rises=F Damp=F
 DIIS: error= 2.83D-06 at cycle  10 NSaved=  10.
 NSaved=10 IEnMin=10 EnMin= -894.097705884306     IErMin=10 ErrMin= 2.83D-06
 ErrMax= 2.83D-06  0.00D+00 EMaxC= 1.00D-01 BMatC= 2.73D-09 BMatP= 7.94D-09
 IDIUse=1 WtCom= 1.00D+00 WtEn= 0.00D+00
 Coeff-Com: -0.506D-04 0.662D-03 0.947D-04 0.366D-02-0.240D-02-0.312D-01
 Coeff-Com: -0.132D+00-0.739D-01 0.352D+00 0.883D+00
 Coeff:     -0.506D-04 0.662D-03 0.947D-04 0.366D-02-0.240D-02-0.312D-01
 Coeff:     -0.132D+00-0.739D-01 0.352D+00 0.883D+00
 Gap=     0.141 Goal=   None    Shift=    0.000
 Gap=     0.132 Goal=   None    Shift=    0.000
 RMSDP=2.83D-07 MaxDP=1.40D-05 DE=-7.81D-09 OVMax= 5.28D-05

 Cycle  11  Pass 1  IDiag  1:
 RMSU=  1.39D-07    CP:  9.99D-01  1.04D+00  4.56D-01  1.12D+00  9.55D-01
                    CP:  1.02D+00  1.42D+00  1.56D+00  1.45D+00  1.41D+00
 E= -894.097705888334     Delta-E=       -0.000000004029 Rises=F Damp=F
 DIIS: error= 1.61D-06 at cycle  11 NSaved=  11.
 NSaved=11 IEnMin=11 EnMin= -894.097705888334     IErMin=11 ErrMin= 1.61D-06
 ErrMax= 1.61D-06  0.00D+00 EMaxC= 1.00D-01 BMatC= 8.81D-10 BMatP= 2.73D-09
 IDIUse=1 WtCom= 1.00D+00 WtEn= 0.00D+00
 Coeff-Com:  0.278D-04-0.203D-02-0.159D-02 0.113D-01 0.294D-01 0.181D-01
 Coeff-Com: -0.684D-01-0.225D+00-0.202D+00 0.334D+00 0.111D+01
 Coeff:      0.278D-04-0.203D-02-0.159D-02 0.113D-01 0.294D-01 0.181D-01
 Coeff:     -0.684D-01-0.225D+00-0.202D+00 0.334D+00 0.111D+01
 Gap=     0.141 Goal=   None    Shift=    0.000
 Gap=     0.132 Goal=   None    Shift=    0.000
 RMSDP=2.63D-07 MaxDP=1.41D-05 DE=-4.03D-09 OVMax= 4.85D-05

 Cycle  12  Pass 1  IDiag  1:
 RMSU=  8.35D-08    CP:  9.99D-01  1.04D+00  4.56D-01  1.12D+00  9.57D-01
                    CP:  1.03D+00  1.46D+00  1.72D+00  1.79D+00  2.10D+00
                    CP:  1.36D+00
 E= -894.097705890270     Delta-E=       -0.000000001936 Rises=F Damp=F
 DIIS: error= 4.84D-07 at cycle  12 NSaved=  12.
 NSaved=12 IEnMin=12 EnMin= -894.097705890270     IErMin=12 ErrMin= 4.84D-07
 ErrMax= 4.84D-07  0.00D+00 EMaxC= 1.00D-01 BMatC= 3.29D-10 BMatP= 8.81D-10
 IDIUse=1 WtCom= 1.00D+00 WtEn= 0.00D+00
 Coeff-Com:  0.268D-04-0.129D-02-0.882D-03 0.557D-02 0.169D-01 0.159D-01
 Coeff-Com: -0.942D-02-0.103D+00-0.191D+00-0.298D-01 0.629D+00 0.668D+00
 Coeff:      0.268D-04-0.129D-02-0.882D-03 0.557D-02 0.169D-01 0.159D-01
 Coeff:     -0.942D-02-0.103D+00-0.191D+00-0.298D-01 0.629D+00 0.668D+00
 Gap=     0.141 Goal=   None    Shift=    0.000
 Gap=     0.132 Goal=   None    Shift=    0.000
 RMSDP=9.26D-08 MaxDP=5.13D-06 DE=-1.94D-09 OVMax= 1.52D-05

 Cycle  13  Pass 1  IDiag  1:
 RMSU=  3.72D-08    CP:  9.99D-01  1.04D+00  4.56D-01  1.12D+00  9.56D-01
                    CP:  1.03D+00  1.47D+00  1.76D+00  1.89D+00  2.31D+00
                    CP:  1.71D+00  1.01D+00
 E= -894.097705890529     Delta-E=       -0.000000000258 Rises=F Damp=F
 DIIS: error= 2.06D-07 at cycle  13 NSaved=  13.
 NSaved=13 IEnMin=13 EnMin= -894.097705890529     IErMin=13 ErrMin= 2.06D-07
 ErrMax= 2.06D-07  0.00D+00 EMaxC= 1.00D-01 BMatC= 7.10D-11 BMatP= 3.29D-10
 IDIUse=1 WtCom= 1.00D+00 WtEn= 0.00D+00
 Coeff-Com:  0.640D-05-0.911D-04-0.553D-06-0.341D-03 0.410D-03 0.337D-02
 Coeff-Com:  0.166D-01 0.154D-01-0.446D-01-0.127D+00 0.123D-01 0.373D+00
 Coeff-Com:  0.751D+00
 Coeff:      0.640D-05-0.911D-04-0.553D-06-0.341D-03 0.410D-03 0.337D-02
 Coeff:      0.166D-01 0.154D-01-0.446D-01-0.127D+00 0.123D-01 0.373D+00
 Coeff:      0.751D+00
 Gap=     0.141 Goal=   None    Shift=    0.000
 Gap=     0.132 Goal=   None    Shift=    0.000
 RMSDP=4.22D-08 MaxDP=4.21D-06 DE=-2.58D-10 OVMax= 5.85D-06

 Cycle  14  Pass 1  IDiag  1:
 RMSU=  1.62D-08    CP:  9.99D-01  1.04D+00  4.56D-01  1.12D+00  9.56D-01
                    CP:  1.02D+00  1.47D+00  1.78D+00  1.92D+00  2.42D+00
                    CP:  1.83D+00  1.21D+00  7.96D-01
 E= -894.097705890584     Delta-E=       -0.000000000055 Rises=F Damp=F
 DIIS: error= 6.48D-08 at cycle  14 NSaved=  14.
 NSaved=14 IEnMin=14 EnMin= -894.097705890584     IErMin=14 ErrMin= 6.48D-08
 ErrMax= 6.48D-08  0.00D+00 EMaxC= 1.00D-01 BMatC= 1.08D-11 BMatP= 7.10D-11
 IDIUse=1 WtCom= 1.00D+00 WtEn= 0.00D+00
 Coeff-Com: -0.432D-06 0.133D-03 0.121D-03-0.984D-03-0.217D-02-0.421D-03
 Coeff-Com:  0.102D-01 0.227D-01 0.433D-02-0.618D-01-0.865D-01 0.986D-01
 Coeff-Com:  0.394D+00 0.621D+00
 Coeff:     -0.432D-06 0.133D-03 0.121D-03-0.984D-03-0.217D-02-0.421D-03
 Coeff:      0.102D-01 0.227D-01 0.433D-02-0.618D-01-0.865D-01 0.986D-01
 Coeff:      0.394D+00 0.621D+00
 Gap=     0.141 Goal=   None    Shift=    0.000
 Gap=     0.132 Goal=   None    Shift=    0.000
 RMSDP=1.09D-08 MaxDP=1.32D-06 DE=-5.50D-11 OVMax= 1.55D-06

 Cycle  15  Pass 1  IDiag  1:
 RMSU=  5.77D-09    CP:  9.99D-01  1.04D+00  4.56D-01  1.12D+00  9.56D-01
                    CP:  1.02D+00  1.47D+00  1.78D+00  1.93D+00  2.43D+00
                    CP:  1.86D+00  1.26D+00  9.25D-01  8.97D-01
 E= -894.097705890519     Delta-E=        0.000000000065 Rises=F Damp=F
 DIIS: error= 1.94D-08 at cycle  15 NSaved=  15.
 NSaved=15 IEnMin=14 EnMin= -894.097705890584     IErMin=15 ErrMin= 1.94D-08
 ErrMax= 1.94D-08  0.00D+00 EMaxC= 1.00D-01 BMatC= 1.07D-12 BMatP= 1.08D-11
 IDIUse=1 WtCom= 1.00D+00 WtEn= 0.00D+00
 Coeff-Com: -0.916D-06 0.655D-04 0.469D-04-0.370D-03-0.936D-03-0.575D-03
 Coeff-Com:  0.198D-02 0.689D-02 0.749D-02-0.836D-02-0.387D-01-0.343D-02
 Coeff-Com:  0.811D-01 0.261D+00 0.694D+00
 Coeff:     -0.916D-06 0.655D-04 0.469D-04-0.370D-03-0.936D-03-0.575D-03
 Coeff:      0.198D-02 0.689D-02 0.749D-02-0.836D-02-0.387D-01-0.343D-02
 Coeff:      0.811D-01 0.261D+00 0.694D+00
 Gap=     0.141 Goal=   None    Shift=    0.000
 Gap=     0.132 Goal=   None    Shift=    0.000
 RMSDP=3.37D-09 MaxDP=3.12D-07 DE= 6.50D-11 OVMax= 3.78D-07

 SCF Done:  E(UPBE1PBE) =  -894.097705891     A.U. after   15 cycles
            NFock= 15  Conv=0.34D-08     -V/T= 2.1230
 <Sx>= 0.0000 <Sy>= 0.0000 <Sz>= 0.5000 <S**2>= 0.7514 S= 0.5007
 <L.S>= 0.000000000000E+00
 KE= 7.961393524871D+02 PE=-5.227070750081D+03 EE= 1.947050874126D+03
 Annihilation of the first spin contaminant:
 S**2 before annihilation     0.7514,   after     0.7500
 Leave Link  502 at Sat Sep 12 01:10:27 2026, MaxMem=  6442450944 cpu:             338.0 elap:             338.3
 (Enter C:\G16W\l508.exe)
 QCSCF skips out because SCF is already converged.
 Leave Link  508 at Sat Sep 12 01:10:28 2026, MaxMem=  6442450944 cpu:               0.0 elap:               0.1
 (Enter C:\G16W\l601.exe)
 Copying SCF densities to generalized density rwf, IOpCl= 1 IROHF=0.

 **********************************************************************

            Population analysis using the SCF Density.

 **********************************************************************

 Alpha  occ. eigenvalues --  -14.45143 -10.29149 -10.27771 -10.27646 -10.24995
 Alpha  occ. eigenvalues --  -10.24991 -10.24944 -10.24931 -10.24627 -10.23942
 Alpha  occ. eigenvalues --  -10.23921 -10.23882 -10.23857 -10.23800 -10.23792
 Alpha  occ. eigenvalues --  -10.23706 -10.23623 -10.23106 -10.23022  -3.74637
 Alpha  occ. eigenvalues --   -2.32630  -2.32603  -2.32589  -1.03248  -0.90443
 Alpha  occ. eigenvalues --   -0.87596  -0.87233  -0.81642  -0.78528  -0.78062
 Alpha  occ. eigenvalues --   -0.77345  -0.74007  -0.73925  -0.67520  -0.64859
 Alpha  occ. eigenvalues --   -0.64082  -0.62438  -0.60126  -0.59555  -0.56571
 Alpha  occ. eigenvalues --   -0.54039  -0.53590  -0.51228  -0.50079  -0.48494
 Alpha  occ. eigenvalues --   -0.47545  -0.46720  -0.46069  -0.45483  -0.45231
 Alpha  occ. eigenvalues --   -0.44631  -0.44332  -0.43507  -0.40314  -0.39320
 Alpha  occ. eigenvalues --   -0.38347  -0.38174  -0.37711  -0.37625  -0.35825
 Alpha  occ. eigenvalues --   -0.35345  -0.35119  -0.32263  -0.32215  -0.32202
 Alpha  occ. eigenvalues --   -0.32157  -0.32063  -0.30267  -0.28415  -0.28241
 Alpha  occ. eigenvalues --   -0.27381  -0.23320  -0.21860  -0.17551
 Alpha virt. eigenvalues --   -0.03422  -0.02366  -0.01949   0.00056   0.00365
 Alpha virt. eigenvalues --    0.00825   0.02031   0.03131   0.03927   0.07022
 Alpha virt. eigenvalues --    0.07946   0.08550   0.10477   0.10869   0.12022
 Alpha virt. eigenvalues --    0.12678   0.13727   0.14030   0.14306   0.15417
 Alpha virt. eigenvalues --    0.16076   0.16493   0.16830   0.17853   0.19465
 Alpha virt. eigenvalues --    0.19804   0.21167   0.22866   0.24993   0.25212
 Alpha virt. eigenvalues --    0.26556   0.27354   0.27985   0.28982   0.29999
 Alpha virt. eigenvalues --    0.30409   0.31011   0.31243   0.31966   0.32678
 Alpha virt. eigenvalues --    0.33301   0.33768   0.35609   0.35721   0.36593
 Alpha virt. eigenvalues --    0.36668   0.37257   0.37954   0.40027   0.40326
 Alpha virt. eigenvalues --    0.42319   0.42647   0.43495   0.44137   0.44492
 Alpha virt. eigenvalues --    0.45315   0.45879   0.46963   0.47163   0.47792
 Alpha virt. eigenvalues --    0.48307   0.49197   0.49402   0.49893   0.50424
 Alpha virt. eigenvalues --    0.50615   0.51517   0.51820   0.52636   0.53680
 Alpha virt. eigenvalues --    0.53809   0.55310   0.55681   0.56633   0.57544
 Alpha virt. eigenvalues --    0.57904   0.58596   0.58871   0.59090   0.61399
 Alpha virt. eigenvalues --    0.62425   0.63388   0.65393   0.65774   0.66398
 Alpha virt. eigenvalues --    0.66466   0.66846   0.67470   0.67884   0.68781
 Alpha virt. eigenvalues --    0.69243   0.69689   0.70550   0.70587   0.71576
 Alpha virt. eigenvalues --    0.72272   0.72894   0.73207   0.73348   0.74787
 Alpha virt. eigenvalues --    0.75024   0.75444   0.75732   0.76431   0.77057
 Alpha virt. eigenvalues --    0.77371   0.78796   0.78998   0.79827   0.80133
 Alpha virt. eigenvalues --    0.80699   0.82087   0.84595   0.85277   0.86154
 Alpha virt. eigenvalues --    0.87238   0.87431   0.88932   0.92662   0.93227
 Alpha virt. eigenvalues --    0.94731   0.95590   0.96962   0.97537   0.98680
 Alpha virt. eigenvalues --    1.01717   1.02806   1.09286   1.10220   1.10976
 Alpha virt. eigenvalues --    1.14253   1.15163   1.19686   1.20764   1.21071
 Alpha virt. eigenvalues --    1.21422   1.22813   1.23651   1.24053   1.24306
 Alpha virt. eigenvalues --    1.25852   1.26377   1.26850   1.28010   1.28539
 Alpha virt. eigenvalues --    1.29427   1.30074   1.30261   1.32362   1.32730
 Alpha virt. eigenvalues --    1.33648   1.34511   1.38441   1.38552   1.39053
 Alpha virt. eigenvalues --    1.44683   1.44983   1.51865   1.57256   1.58911
 Alpha virt. eigenvalues --    1.63283   1.66246   1.67489   1.68240   1.68814
 Alpha virt. eigenvalues --    1.68914   1.71256   1.71563   1.72278   1.73161
 Alpha virt. eigenvalues --    1.73498   1.74423   1.74761   1.75903   1.76373
 Alpha virt. eigenvalues --    1.76627   1.77508   1.78245   1.78350   1.79109
 Alpha virt. eigenvalues --    1.80155   1.80490   1.81824   1.81970   1.82871
 Alpha virt. eigenvalues --    1.83276   1.83539   1.85121   1.85608   1.87205
 Alpha virt. eigenvalues --    1.90662   1.92037   1.93138   1.95172   1.96416
 Alpha virt. eigenvalues --    1.96782   1.97422   1.97747   1.98947   1.99798
 Alpha virt. eigenvalues --    2.00885   2.01629   2.04374   2.05107   2.06663
 Alpha virt. eigenvalues --    2.08117   2.08321   2.09121   2.10227   2.11615
 Alpha virt. eigenvalues --    2.13650   2.14981   2.15381   2.16191   2.17512
 Alpha virt. eigenvalues --    2.18811   2.19496   2.20908   2.21353   2.21461
 Alpha virt. eigenvalues --    2.22473   2.23837   2.26064   2.30275   2.30799
 Alpha virt. eigenvalues --    2.30954   2.31262   2.32306   2.32821   2.34939
 Alpha virt. eigenvalues --    2.35219   2.35683   2.36942   2.38459   2.42677
 Alpha virt. eigenvalues --    2.42756   2.43408   2.48016   2.51346   2.54021
 Alpha virt. eigenvalues --    2.55301   2.58645   2.60960   2.61578   2.62735
 Alpha virt. eigenvalues --    2.62785   2.62794   2.62861   2.62870   2.63094
 Alpha virt. eigenvalues --    2.63826   2.64257   2.64607   2.64843   2.65192
 Alpha virt. eigenvalues --    2.69694   2.71493   2.75144   2.75538   2.76081
 Alpha virt. eigenvalues --    2.77141   2.77299   2.77469   2.79011   2.80181
 Alpha virt. eigenvalues --    2.81812   2.83510   2.90330   2.90575   2.91528
 Alpha virt. eigenvalues --    2.92294   2.94628   3.00433   3.02446   3.06341
 Alpha virt. eigenvalues --    3.08137   3.13466   3.15881   3.17277   3.17492
 Alpha virt. eigenvalues --    3.24759   3.36101   3.39872   3.47253   3.61896
 Alpha virt. eigenvalues --    3.72025   3.76358  53.83513
  Beta  occ. eigenvalues --  -14.45137 -10.29142 -10.27764 -10.27644 -10.24992
  Beta  occ. eigenvalues --  -10.24982 -10.24941 -10.24923 -10.24629 -10.23935
  Beta  occ. eigenvalues --  -10.23915 -10.23880 -10.23853 -10.23799 -10.23790
  Beta  occ. eigenvalues --  -10.23707 -10.23624 -10.23105 -10.23021  -3.74520
  Beta  occ. eigenvalues --   -2.32598  -2.32574  -2.32568  -1.03228  -0.90430
  Beta  occ. eigenvalues --   -0.87588  -0.87225  -0.81632  -0.78515  -0.78052
  Beta  occ. eigenvalues --   -0.77335  -0.74001  -0.73918  -0.67515  -0.64844
  Beta  occ. eigenvalues --   -0.64073  -0.62427  -0.60116  -0.59548  -0.56560
  Beta  occ. eigenvalues --   -0.54034  -0.53580  -0.51217  -0.50047  -0.48485
  Beta  occ. eigenvalues --   -0.47529  -0.46710  -0.46036  -0.45459  -0.45225
  Beta  occ. eigenvalues --   -0.44624  -0.44301  -0.43503  -0.40295  -0.39312
  Beta  occ. eigenvalues --   -0.38342  -0.38154  -0.37697  -0.37607  -0.35812
  Beta  occ. eigenvalues --   -0.35339  -0.35084  -0.31639  -0.31562  -0.31550
  Beta  occ. eigenvalues --   -0.31500  -0.31424  -0.30203  -0.28380  -0.28222
  Beta  occ. eigenvalues --   -0.27358  -0.23300  -0.21817
  Beta virt. eigenvalues --   -0.08640  -0.03396  -0.02300  -0.01747   0.00095
  Beta virt. eigenvalues --    0.02795   0.03005   0.03315   0.04093   0.05051
  Beta virt. eigenvalues --    0.07204   0.07987   0.08576   0.10524   0.11026
  Beta virt. eigenvalues --    0.12504   0.12760   0.13802   0.14133   0.15150
  Beta virt. eigenvalues --    0.15517   0.16121   0.16607   0.17049   0.18021
  Beta virt. eigenvalues --    0.19473   0.19839   0.21347   0.22982   0.25108
  Beta virt. eigenvalues --    0.25585   0.26697   0.27696   0.28022   0.29024
  Beta virt. eigenvalues --    0.30102   0.30923   0.31281   0.31488   0.32957
  Beta virt. eigenvalues --    0.33604   0.34201   0.34824   0.36040   0.36526
  Beta virt. eigenvalues --    0.36822   0.37048   0.37689   0.38194   0.40120
  Beta virt. eigenvalues --    0.40587   0.42594   0.42942   0.43965   0.44467
  Beta virt. eigenvalues --    0.44703   0.45827   0.46339   0.47508   0.47728
  Beta virt. eigenvalues --    0.48327   0.48577   0.49522   0.49707   0.50086
  Beta virt. eigenvalues --    0.50711   0.51064   0.51654   0.51897   0.53276
  Beta virt. eigenvalues --    0.53721   0.53902   0.55426   0.56107   0.56814
  Beta virt. eigenvalues --    0.57603   0.58167   0.58651   0.58997   0.59376
  Beta virt. eigenvalues --    0.61558   0.62726   0.63721   0.65422   0.65915
  Beta virt. eigenvalues --    0.66460   0.66504   0.66929   0.67704   0.68074
  Beta virt. eigenvalues --    0.68789   0.69277   0.69777   0.70596   0.70663
  Beta virt. eigenvalues --    0.71778   0.72323   0.72920   0.73392   0.73579
  Beta virt. eigenvalues --    0.74815   0.75059   0.75486   0.75769   0.76576
  Beta virt. eigenvalues --    0.77073   0.77452   0.79050   0.79083   0.79835
  Beta virt. eigenvalues --    0.80436   0.80783   0.82338   0.84624   0.85324
  Beta virt. eigenvalues --    0.86200   0.87269   0.87550   0.89038   0.92744
  Beta virt. eigenvalues --    0.93237   0.94787   0.95619   0.96975   0.97565
  Beta virt. eigenvalues --    0.98716   1.01739   1.02883   1.09305   1.10264
  Beta virt. eigenvalues --    1.11011   1.14263   1.15175   1.19696   1.20777
  Beta virt. eigenvalues --    1.21082   1.21440   1.22825   1.23668   1.24076
  Beta virt. eigenvalues --    1.24315   1.25862   1.26386   1.26856   1.28024
  Beta virt. eigenvalues --    1.28552   1.29436   1.30083   1.30279   1.32370
  Beta virt. eigenvalues --    1.32745   1.33663   1.34525   1.38457   1.38582
  Beta virt. eigenvalues --    1.39079   1.44695   1.44994   1.51872   1.57273
  Beta virt. eigenvalues --    1.58921   1.63289   1.66258   1.67499   1.68249
  Beta virt. eigenvalues --    1.68822   1.68922   1.71262   1.71571   1.72285
  Beta virt. eigenvalues --    1.73173   1.73507   1.74432   1.74770   1.75907
  Beta virt. eigenvalues --    1.76383   1.76642   1.77520   1.78247   1.78366
  Beta virt. eigenvalues --    1.79127   1.80175   1.80498   1.81835   1.81978
  Beta virt. eigenvalues --    1.82880   1.83286   1.83547   1.85133   1.85621
  Beta virt. eigenvalues --    1.87230   1.90670   1.92056   1.93150   1.95178
  Beta virt. eigenvalues --    1.96427   1.96791   1.97447   1.97765   1.98970
  Beta virt. eigenvalues --    1.99803   2.00899   2.01695   2.04535   2.05114
  Beta virt. eigenvalues --    2.06885   2.08158   2.08337   2.09197   2.10590
  Beta virt. eigenvalues --    2.11627   2.13678   2.14999   2.15388   2.16235
  Beta virt. eigenvalues --    2.17636   2.18816   2.19512   2.20948   2.21364
  Beta virt. eigenvalues --    2.21474   2.22482   2.23851   2.26114   2.30285
  Beta virt. eigenvalues --    2.30810   2.30965   2.31272   2.32314   2.32839
  Beta virt. eigenvalues --    2.34951   2.35223   2.35693   2.36958   2.38473
  Beta virt. eigenvalues --    2.42686   2.42761   2.43416   2.48021   2.51354
  Beta virt. eigenvalues --    2.54032   2.55312   2.58654   2.60984   2.61586
  Beta virt. eigenvalues --    2.62769   2.62815   2.62831   2.62896   2.62906
  Beta virt. eigenvalues --    2.63130   2.63851   2.64266   2.64618   2.64853
  Beta virt. eigenvalues --    2.65205   2.69707   2.71504   2.75149   2.75544
  Beta virt. eigenvalues --    2.76091   2.77156   2.77302   2.77472   2.79012
  Beta virt. eigenvalues --    2.80188   2.81820   2.83515   2.90341   2.90582
  Beta virt. eigenvalues --    2.91539   2.92305   2.94638   3.00439   3.02451
  Beta virt. eigenvalues --    3.06349   3.08140   3.13469   3.15885   3.17288
  Beta virt. eigenvalues --    3.17497   3.24766   3.36107   3.39879   3.47260
  Beta virt. eigenvalues --    3.61899   3.72035   3.76362  53.83675
          Condensed to atoms (all electrons):
               1          2          3          4          5          6
     1  C    5.128616   0.255618   0.094866  -0.176025  -0.000416   0.000060
     2  C    0.255618   5.093310   0.257226   0.131204   0.009246  -0.000115
     3  C    0.094866   0.257226   5.154093   0.248299  -0.065888   0.003218
     4  C   -0.176025   0.131204   0.248299   5.256831   0.281428  -0.063186
     5  N   -0.000416   0.009246  -0.065888   0.281428   6.757421   0.370285
     6  C    0.000060  -0.000115   0.003218  -0.063186   0.370285   5.268175
     7  C   -0.000011  -0.000020   0.001307  -0.002103  -0.080624   0.272148
     8  C    0.000000   0.000000   0.000003  -0.000057   0.007524   0.131400
     9  C    0.000000   0.000000  -0.000002   0.000021  -0.000280  -0.161853
    10  C    0.000000   0.000000   0.000004  -0.000077   0.008363   0.035591
    11  C    0.000000   0.000000  -0.000485   0.009478  -0.092821   0.220281
    12  C    0.000000  -0.000001   0.000688   0.008781  -0.089401  -0.054997
    13  C    0.000000   0.000000  -0.000020  -0.000086   0.008699   0.016316
    14  C    0.000000   0.000000  -0.000009   0.000026  -0.000307   0.000228
    15  C    0.000000   0.000002   0.000055  -0.000016   0.007973  -0.001085
    16  C   -0.000006  -0.000741  -0.002045  -0.002120  -0.084979   0.008697
    17  C    0.000063   0.000106  -0.010263  -0.060166   0.355183  -0.144269
    18  C    0.096479  -0.159939   0.068286   0.231241  -0.074299  -0.006579
    19  C    0.256024   0.110423  -0.155084   0.130246   0.009420   0.000213
    20  H    0.452998  -0.070738   0.015093  -0.001808   0.000010   0.000001
    21  H   -0.071293   0.449596  -0.067147   0.015931  -0.000173   0.000004
    22  H    0.014906  -0.067646   0.458600  -0.071884  -0.011260  -0.000360
    23  H   -0.000050   0.000021  -0.000366   0.003466  -0.011552  -0.077055
    24  H    0.000000   0.000000   0.000001  -0.000017  -0.000148   0.015028
    25  H    0.000000   0.000000   0.000000   0.000000   0.000013  -0.001140
    26  H    0.000000   0.000000   0.000000   0.000013  -0.000116   0.018419
    27  H    0.000000   0.000000   0.000000   0.000013  -0.000123  -0.000931
    28  H    0.000000   0.000000   0.000000   0.000000   0.000013   0.000017
    29  H    0.000000  -0.000002   0.000006  -0.000019  -0.000147   0.000013
    30  H   -0.000049   0.000497   0.004682   0.003351  -0.011989  -0.000204
    31  H    0.015019  -0.002577   0.015696  -0.075785  -0.011819   0.002198
    32  H   -0.072552   0.014361  -0.001794   0.016394  -0.000163  -0.000029
    33  Ag  -0.000537   0.000115  -0.001772  -0.003765  -0.009100   0.003871
               7          8          9         10         11         12
     1  C   -0.000011   0.000000   0.000000   0.000000   0.000000   0.000000
     2  C   -0.000020   0.000000   0.000000   0.000000   0.000000  -0.000001
     3  C    0.001307   0.000003  -0.000002   0.000004  -0.000485   0.000688
     4  C   -0.002103  -0.000057   0.000021  -0.000077   0.009478   0.008781
     5  N   -0.080624   0.007524  -0.000280   0.008363  -0.092821  -0.089401
     6  C    0.272148   0.131400  -0.161853   0.035591   0.220281  -0.054997
     7  C    5.156147   0.276322   0.082256  -0.121039   0.048852   0.018374
     8  C    0.276322   5.083102   0.270829   0.080695  -0.157463   0.001491
     9  C    0.082256   0.270829   5.082705   0.306420   0.092553   0.016660
    10  C   -0.121039   0.080695   0.306420   5.072774   0.342290  -0.095070
    11  C    0.048852  -0.157463   0.092553   0.342290   5.437627   0.254873
    12  C    0.018374   0.001491   0.016660  -0.095070   0.254873   5.447240
    13  C   -0.000515   0.000095  -0.000372  -0.008979  -0.096237   0.341588
    14  C    0.000002   0.000002  -0.000006  -0.000366   0.016855   0.093967
    15  C    0.000005  -0.000001   0.000002   0.000094   0.001279  -0.157818
    16  C   -0.000291   0.000006   0.000002  -0.000513   0.019695   0.046901
    17  C    0.009357  -0.001153   0.000254   0.015900  -0.055050   0.208832
    18  C   -0.002295   0.000127  -0.000012  -0.000023   0.000399  -0.000521
    19  C   -0.000670   0.000003   0.000000   0.000000  -0.000009   0.000001
    20  H    0.000000   0.000000   0.000000   0.000000   0.000000   0.000000
    21  H    0.000000   0.000000   0.000000   0.000000   0.000000   0.000000
    22  H   -0.000017  -0.000001   0.000000   0.000000   0.000041  -0.000530
    23  H    0.463937  -0.074906   0.014563  -0.002367   0.018547  -0.000668
    24  H   -0.067202   0.446508  -0.069224   0.014307  -0.001060   0.000019
    25  H    0.014851  -0.071035   0.447068  -0.068316   0.015444  -0.000521
    26  H   -0.002389   0.014617  -0.074838   0.452325  -0.059367  -0.025831
    27  H    0.000029  -0.000013   0.000107   0.005178  -0.025483  -0.059059
    28  H    0.000000   0.000000   0.000000  -0.000001  -0.000522   0.015506
    29  H    0.000000   0.000000   0.000000   0.000000   0.000017  -0.001126
    30  H    0.000010   0.000001   0.000000   0.000008  -0.000603   0.018563
    31  H    0.002297   0.000377  -0.000036  -0.000017  -0.000538   0.000120
    32  H    0.000026  -0.000001   0.000000   0.000000   0.000000   0.000000
    33  Ag  -0.000332  -0.000252   0.000439  -0.000268  -0.005224  -0.005800
              13         14         15         16         17         18
     1  C    0.000000   0.000000   0.000000  -0.000006   0.000063   0.096479
     2  C    0.000000   0.000000   0.000002  -0.000741   0.000106  -0.159939
     3  C   -0.000020  -0.000009   0.000055  -0.002045  -0.010263   0.068286
     4  C   -0.000086   0.000026  -0.000016  -0.002120  -0.060166   0.231241
     5  N    0.008699  -0.000307   0.007973  -0.084979   0.355183  -0.074299
     6  C    0.016316   0.000228  -0.001085   0.008697  -0.144269  -0.006579
     7  C   -0.000515   0.000002   0.000005  -0.000291   0.009357  -0.002295
     8  C    0.000095   0.000002  -0.000001   0.000006  -0.001153   0.000127
     9  C   -0.000372  -0.000006   0.000002   0.000002   0.000254  -0.000012
    10  C   -0.008979  -0.000366   0.000094  -0.000513   0.015900  -0.000023
    11  C   -0.096237   0.016855   0.001279   0.019695  -0.055050   0.000399
    12  C    0.341588   0.093967  -0.157818   0.046901   0.208832  -0.000521
    13  C    5.077137   0.303601   0.082586  -0.123487   0.035336  -0.000002
    14  C    0.303601   5.086820   0.267953   0.085365  -0.164888  -0.000001
    15  C    0.082586   0.267953   5.088865   0.268921   0.132782  -0.000004
    16  C   -0.123487   0.085365   0.268921   5.171795   0.264450   0.001369
    17  C    0.035336  -0.164888   0.132782   0.264450   5.314348   0.004380
    18  C   -0.000002  -0.000001  -0.000004   0.001369   0.004380   5.183106
    19  C    0.000000   0.000000   0.000000  -0.000023  -0.000209   0.257314
    20  H    0.000000   0.000000   0.000000   0.000000   0.000001   0.015218
    21  H    0.000000   0.000000   0.000000   0.000028  -0.000028  -0.001670
    22  H   -0.000013  -0.000019   0.000473   0.002701   0.001866   0.016501
    23  H    0.000008   0.000000   0.000001   0.000010  -0.000160   0.004102
    24  H    0.000000   0.000000   0.000000   0.000000   0.000012   0.000005
    25  H   -0.000001   0.000000   0.000000   0.000000   0.000018   0.000000
    26  H    0.005149   0.000111  -0.000014   0.000030  -0.000923   0.000000
    27  H    0.451681  -0.074840   0.014562  -0.002360   0.018545   0.000000
    28  H   -0.068360   0.447154  -0.071114   0.014908  -0.001131   0.000000
    29  H    0.014365  -0.069602   0.447198  -0.067808   0.015403   0.000001
    30  H   -0.002497   0.014744  -0.076104   0.466107  -0.077634  -0.000358
    31  H    0.000002   0.000000   0.000000  -0.000004  -0.000673   0.458499
    32  H    0.000000   0.000000   0.000000   0.000000   0.000005  -0.067332
    33  Ag   0.000794  -0.000301   0.000568   0.003634   0.003064  -0.001665
              19         20         21         22         23         24
     1  C    0.256024   0.452998  -0.071293   0.014906  -0.000050   0.000000
     2  C    0.110423  -0.070738   0.449596  -0.067646   0.000021   0.000000
     3  C   -0.155084   0.015093  -0.067147   0.458600  -0.000366   0.000001
     4  C    0.130246  -0.001808   0.015931  -0.071884   0.003466  -0.000017
     5  N    0.009420   0.000010  -0.000173  -0.011260  -0.011552  -0.000148
     6  C    0.000213   0.000001   0.000004  -0.000360  -0.077055   0.015028
     7  C   -0.000670   0.000000   0.000000  -0.000017   0.463937  -0.067202
     8  C    0.000003   0.000000   0.000000  -0.000001  -0.074906   0.446508
     9  C    0.000000   0.000000   0.000000   0.000000   0.014563  -0.069224
    10  C    0.000000   0.000000   0.000000   0.000000  -0.002367   0.014307
    11  C   -0.000009   0.000000   0.000000   0.000041   0.018547  -0.001060
    12  C    0.000001   0.000000   0.000000  -0.000530  -0.000668   0.000019
    13  C    0.000000   0.000000   0.000000  -0.000013   0.000008   0.000000
    14  C    0.000000   0.000000   0.000000  -0.000019   0.000000   0.000000
    15  C    0.000000   0.000000   0.000000   0.000473   0.000001   0.000000
    16  C   -0.000023   0.000000   0.000028   0.002701   0.000010   0.000000
    17  C   -0.000209   0.000001  -0.000028   0.001866  -0.000160   0.000012
    18  C    0.257314   0.015218  -0.001670   0.016501   0.004102   0.000005
    19  C    5.083453  -0.070517   0.014217  -0.002519   0.000375  -0.000002
    20  H   -0.070517   0.665562  -0.012260  -0.000232  -0.000001   0.000000
    21  H    0.014217  -0.012260   0.664677  -0.012347  -0.000002   0.000000
    22  H   -0.002519  -0.000232  -0.012347   0.651050  -0.000030   0.000000
    23  H    0.000375  -0.000001  -0.000002  -0.000030   0.670763  -0.012601
    24  H   -0.000002   0.000000   0.000000   0.000000  -0.012601   0.673699
    25  H    0.000000   0.000000   0.000000   0.000000  -0.000243  -0.012883
    26  H    0.000000   0.000000   0.000000   0.000000   0.000024  -0.000289
    27  H    0.000000   0.000000   0.000000  -0.000001   0.000000   0.000000
    28  H    0.000000   0.000000   0.000000   0.000000   0.000000   0.000000
    29  H    0.000000   0.000000   0.000000   0.000004   0.000000   0.000000
    30  H    0.000004  -0.000001   0.000042  -0.001184  -0.000002   0.000000
    31  H   -0.064373  -0.000223   0.000027  -0.000143  -0.000824   0.000007
    32  H    0.451278  -0.012230  -0.000308   0.000026   0.000036   0.000000
    33  Ag   0.001265   0.000002  -0.000017  -0.000132  -0.000695  -0.000020
              25         26         27         28         29         30
     1  C    0.000000   0.000000   0.000000   0.000000   0.000000  -0.000049
     2  C    0.000000   0.000000   0.000000   0.000000  -0.000002   0.000497
     3  C    0.000000   0.000000   0.000000   0.000000   0.000006   0.004682
     4  C    0.000000   0.000013   0.000013   0.000000  -0.000019   0.003351
     5  N    0.000013  -0.000116  -0.000123   0.000013  -0.000147  -0.011989
     6  C   -0.001140   0.018419  -0.000931   0.000017   0.000013  -0.000204
     7  C    0.014851  -0.002389   0.000029   0.000000   0.000000   0.000010
     8  C   -0.071035   0.014617  -0.000013   0.000000   0.000000   0.000001
     9  C    0.447068  -0.074838   0.000107   0.000000   0.000000   0.000000
    10  C   -0.068316   0.452325   0.005178  -0.000001   0.000000   0.000008
    11  C    0.015444  -0.059367  -0.025483  -0.000522   0.000017  -0.000603
    12  C   -0.000521  -0.025831  -0.059059   0.015506  -0.001126   0.018563
    13  C   -0.000001   0.005149   0.451681  -0.068360   0.014365  -0.002497
    14  C    0.000000   0.000111  -0.074840   0.447154  -0.069602   0.014744
    15  C    0.000000  -0.000014   0.014562  -0.071114   0.447198  -0.076104
    16  C    0.000000   0.000030  -0.002360   0.014908  -0.067808   0.466107
    17  C    0.000018  -0.000923   0.018545  -0.001131   0.015403  -0.077634
    18  C    0.000000   0.000000   0.000000   0.000000   0.000001  -0.000358
    19  C    0.000000   0.000000   0.000000   0.000000   0.000000   0.000004
    20  H    0.000000   0.000000   0.000000   0.000000   0.000000  -0.000001
    21  H    0.000000   0.000000   0.000000   0.000000   0.000000   0.000042
    22  H    0.000000   0.000000  -0.000001   0.000000   0.000004  -0.001184
    23  H   -0.000243   0.000024   0.000000   0.000000   0.000000  -0.000002
    24  H   -0.012883  -0.000289   0.000000   0.000000   0.000000   0.000000
    25  H    0.679594  -0.011968   0.000004   0.000000   0.000000   0.000000
    26  H   -0.011968   0.686997   0.000375   0.000004   0.000000   0.000000
    27  H    0.000004   0.000375   0.686104  -0.011924  -0.000288   0.000024
    28  H    0.000000   0.000004  -0.011924   0.679127  -0.012857  -0.000239
    29  H    0.000000   0.000000  -0.000288  -0.012857   0.673342  -0.012712
    30  H    0.000000   0.000000   0.000024  -0.000239  -0.012712   0.670011
    31  H    0.000000   0.000000   0.000000   0.000000   0.000000  -0.000022
    32  H    0.000000   0.000000   0.000000   0.000000   0.000000  -0.000002
    33  Ag  -0.000001   0.000034   0.000114   0.000008   0.000086  -0.000527
              31         32         33
     1  C    0.015019  -0.072552  -0.000537
     2  C   -0.002577   0.014361   0.000115
     3  C    0.015696  -0.001794  -0.001772
     4  C   -0.075785   0.016394  -0.003765
     5  N   -0.011819  -0.000163  -0.009100
     6  C    0.002198  -0.000029   0.003871
     7  C    0.002297   0.000026  -0.000332
     8  C    0.000377  -0.000001  -0.000252
     9  C   -0.000036   0.000000   0.000439
    10  C   -0.000017   0.000000  -0.000268
    11  C   -0.000538   0.000000  -0.005224
    12  C    0.000120   0.000000  -0.005800
    13  C    0.000002   0.000000   0.000794
    14  C    0.000000   0.000000  -0.000301
    15  C    0.000000   0.000000   0.000568
    16  C   -0.000004   0.000000   0.003634
    17  C   -0.000673   0.000005   0.003064
    18  C    0.458499  -0.067332  -0.001665
    19  C   -0.064373   0.451278   0.001265
    20  H   -0.000223  -0.012230   0.000002
    21  H    0.000027  -0.000308  -0.000017
    22  H   -0.000143   0.000026  -0.000132
    23  H   -0.000824   0.000036  -0.000695
    24  H    0.000007   0.000000  -0.000020
    25  H    0.000000   0.000000  -0.000001
    26  H    0.000000   0.000000   0.000034
    27  H    0.000000   0.000000   0.000114
    28  H    0.000000   0.000000   0.000008
    29  H    0.000000   0.000000   0.000086
    30  H   -0.000022  -0.000002  -0.000527
    31  H    0.642728  -0.013248   0.006115
    32  H   -0.013248   0.664159   0.000405
    33  Ag   0.006115   0.000405  19.025779
          Atomic-Atomic Spin Densities.
               1          2          3          4          5          6
     1  C   -0.001254  -0.000068   0.000311  -0.000094   0.000001  -0.000007
     2  C   -0.000068   0.005467  -0.000655  -0.000222  -0.000005   0.000002
     3  C    0.000311  -0.000655  -0.001014   0.000847   0.000171  -0.000140
     4  C   -0.000094  -0.000222   0.000847   0.004656   0.001583  -0.000401
     5  N    0.000001  -0.000005   0.000171   0.001583   0.006836  -0.000923
     6  C   -0.000007   0.000002  -0.000140  -0.000401  -0.000923   0.001542
     7  C    0.000002   0.000000   0.000001   0.000109   0.000122  -0.000417
     8  C    0.000000   0.000000   0.000002   0.000001   0.000116   0.000459
     9  C    0.000000   0.000000   0.000000   0.000000  -0.000005  -0.000066
    10  C    0.000000   0.000000   0.000001   0.000007   0.000176   0.000117
    11  C    0.000000   0.000000   0.000006   0.000121   0.000768  -0.000044
    12  C    0.000000   0.000000   0.000012   0.000084   0.000692   0.000061
    13  C    0.000000   0.000000   0.000001   0.000005   0.000056  -0.000024
    14  C    0.000000   0.000000   0.000001  -0.000001   0.000010  -0.000004
    15  C    0.000000  -0.000001   0.000009   0.000031   0.000052  -0.000020
    16  C    0.000000   0.000000  -0.000053  -0.000093  -0.000155   0.000133
    17  C   -0.000005   0.000005  -0.000266  -0.000272  -0.000718   0.000310
    18  C    0.000330   0.000042   0.000026   0.000848   0.000381  -0.000150
    19  C   -0.001195  -0.000167  -0.000266   0.000303  -0.000026   0.000025
    20  H   -0.000169  -0.000010  -0.000014   0.000007   0.000000   0.000000
    21  H    0.000000   0.000071   0.000013  -0.000010   0.000000   0.000000
    22  H   -0.000026   0.000045  -0.000431  -0.000004  -0.000053   0.000043
    23  H   -0.000001   0.000000  -0.000001   0.000010  -0.000004   0.000007
    24  H    0.000000   0.000000   0.000000   0.000000   0.000001   0.000012
    25  H    0.000000   0.000000   0.000000   0.000000   0.000000   0.000002
    26  H    0.000000   0.000000   0.000000   0.000000   0.000000   0.000002
    27  H    0.000000   0.000000   0.000000   0.000000   0.000001  -0.000001
    28  H    0.000000   0.000000   0.000000   0.000000   0.000000   0.000000
    29  H    0.000000   0.000000   0.000001   0.000001   0.000001   0.000000
    30  H    0.000001   0.000005   0.000032  -0.000056   0.000028   0.000000
    31  H   -0.000040   0.000008  -0.000057   0.000386   0.000033  -0.000043
    32  H   -0.000142   0.000003  -0.000008  -0.000002   0.000000   0.000000
    33  Ag  -0.000384   0.000215  -0.001184  -0.005876  -0.010868   0.001196
               7          8          9         10         11         12
     1  C    0.000002   0.000000   0.000000   0.000000   0.000000   0.000000
     2  C    0.000000   0.000000   0.000000   0.000000   0.000000   0.000000
     3  C    0.000001   0.000002   0.000000   0.000001   0.000006   0.000012
     4  C    0.000109   0.000001   0.000000   0.000007   0.000121   0.000084
     5  N    0.000122   0.000116  -0.000005   0.000176   0.000768   0.000692
     6  C   -0.000417   0.000459  -0.000066   0.000117  -0.000044   0.000061
     7  C    0.002153  -0.000882   0.000096  -0.000206   0.000257  -0.000032
     8  C   -0.000882   0.000722  -0.000260   0.000309  -0.000276   0.000020
     9  C    0.000096  -0.000260   0.000637   0.000004  -0.000037  -0.000014
    10  C   -0.000206   0.000309   0.000004   0.000674  -0.000626   0.000099
    11  C    0.000257  -0.000276  -0.000037  -0.000626   0.002745   0.001143
    12  C   -0.000032   0.000020  -0.000014   0.000099   0.001143   0.005399
    13  C   -0.000005   0.000002   0.000000   0.000113   0.000148  -0.000319
    14  C    0.000000   0.000000   0.000000   0.000003  -0.000009  -0.000088
    15  C    0.000000   0.000000   0.000000   0.000003   0.000032   0.000006
    16  C    0.000000  -0.000001   0.000000  -0.000014  -0.000116   0.000085
    17  C    0.000039  -0.000042   0.000000  -0.000104   0.000025   0.000796
    18  C    0.000178   0.000035  -0.000001   0.000003   0.000003   0.000010
    19  C   -0.000020  -0.000002   0.000000   0.000000   0.000000   0.000000
    20  H    0.000000   0.000000   0.000000   0.000000   0.000000   0.000000
    21  H    0.000000   0.000000   0.000000   0.000000   0.000000   0.000000
    22  H    0.000000   0.000000   0.000000   0.000000  -0.000002   0.000003
    23  H    0.000011   0.000000   0.000000  -0.000001   0.000002  -0.000001
    24  H   -0.000073   0.000076  -0.000013   0.000004  -0.000006   0.000000
    25  H   -0.000008   0.000012   0.000017  -0.000006  -0.000007   0.000000
    26  H    0.000000   0.000002  -0.000008   0.000006  -0.000005  -0.000001
    27  H    0.000000   0.000000   0.000000   0.000009   0.000000  -0.000037
    28  H    0.000000   0.000000   0.000000   0.000000   0.000000  -0.000003
    29  H    0.000000   0.000000   0.000000   0.000000   0.000000  -0.000005
    30  H    0.000000   0.000000   0.000000   0.000000   0.000000  -0.000001
    31  H   -0.000068   0.000001   0.000000   0.000000  -0.000002  -0.000002
    32  H   -0.000001   0.000000   0.000000   0.000000   0.000000   0.000000
    33  Ag  -0.000168  -0.001199   0.000233  -0.001645  -0.003225  -0.005443
              13         14         15         16         17         18
     1  C    0.000000   0.000000   0.000000   0.000000  -0.000005   0.000330
     2  C    0.000000   0.000000  -0.000001   0.000000   0.000005   0.000042
     3  C    0.000001   0.000001   0.000009  -0.000053  -0.000266   0.000026
     4  C    0.000005  -0.000001   0.000031  -0.000093  -0.000272   0.000848
     5  N    0.000056   0.000010   0.000052  -0.000155  -0.000718   0.000381
     6  C   -0.000024  -0.000004  -0.000020   0.000133   0.000310  -0.000150
     7  C   -0.000005   0.000000   0.000000   0.000000   0.000039   0.000178
     8  C    0.000002   0.000000   0.000000  -0.000001  -0.000042   0.000035
     9  C    0.000000   0.000000   0.000000   0.000000   0.000000  -0.000001
    10  C    0.000113   0.000003   0.000003  -0.000014  -0.000104   0.000003
    11  C    0.000148  -0.000009   0.000032  -0.000116   0.000025   0.000003
    12  C   -0.000319  -0.000088   0.000006   0.000085   0.000796   0.000010
    13  C   -0.001128   0.000076   0.000056  -0.000016   0.000082   0.000000
    14  C    0.000076   0.001162  -0.000225  -0.000111  -0.000034   0.000000
    15  C    0.000056  -0.000225  -0.000376  -0.000028   0.000564   0.000000
    16  C   -0.000016  -0.000111  -0.000028   0.002794  -0.000269  -0.000002
    17  C    0.000082  -0.000034   0.000564  -0.000269   0.006449  -0.000083
    18  C    0.000000   0.000000   0.000000  -0.000002  -0.000083   0.004936
    19  C    0.000000   0.000000   0.000000   0.000000   0.000012  -0.001222
    20  H    0.000000   0.000000   0.000000   0.000000   0.000000  -0.000010
    21  H    0.000000   0.000000   0.000000   0.000000   0.000000  -0.000001
    22  H   -0.000001   0.000000  -0.000011   0.000082   0.000107   0.000008
    23  H    0.000000   0.000000   0.000000   0.000000   0.000002  -0.000015
    24  H    0.000000   0.000000   0.000000   0.000000   0.000000   0.000001
    25  H    0.000000   0.000000   0.000000   0.000000   0.000000   0.000000
    26  H   -0.000001   0.000000   0.000000   0.000000   0.000000   0.000000
    27  H    0.000037  -0.000001   0.000007  -0.000006   0.000009   0.000000
    28  H   -0.000024   0.000043   0.000010  -0.000013   0.000005   0.000000
    29  H   -0.000002  -0.000008   0.000082  -0.000095   0.000038   0.000000
    30  H    0.000001  -0.000009   0.000071  -0.000108   0.000184  -0.000001
    31  H    0.000000   0.000000   0.000000  -0.000001   0.000007   0.000817
    32  H    0.000000   0.000000   0.000000   0.000000   0.000000  -0.000201
    33  Ag  -0.000609   0.000239  -0.001496   0.000539  -0.004535  -0.006323
              19         20         21         22         23         24
     1  C   -0.001195  -0.000169   0.000000  -0.000026  -0.000001   0.000000
     2  C   -0.000167  -0.000010   0.000071   0.000045   0.000000   0.000000
     3  C   -0.000266  -0.000014   0.000013  -0.000431  -0.000001   0.000000
     4  C    0.000303   0.000007  -0.000010  -0.000004   0.000010   0.000000
     5  N   -0.000026   0.000000   0.000000  -0.000053  -0.000004   0.000001
     6  C    0.000025   0.000000   0.000000   0.000043   0.000007   0.000012
     7  C   -0.000020   0.000000   0.000000   0.000000   0.000011  -0.000073
     8  C   -0.000002   0.000000   0.000000   0.000000   0.000000   0.000076
     9  C    0.000000   0.000000   0.000000   0.000000   0.000000  -0.000013
    10  C    0.000000   0.000000   0.000000   0.000000  -0.000001   0.000004
    11  C    0.000000   0.000000   0.000000  -0.000002   0.000002  -0.000006
    12  C    0.000000   0.000000   0.000000   0.000003  -0.000001   0.000000
    13  C    0.000000   0.000000   0.000000  -0.000001   0.000000   0.000000
    14  C    0.000000   0.000000   0.000000   0.000000   0.000000   0.000000
    15  C    0.000000   0.000000   0.000000  -0.000011   0.000000   0.000000
    16  C    0.000000   0.000000   0.000000   0.000082   0.000000   0.000000
    17  C    0.000012   0.000000   0.000000   0.000107   0.000002   0.000000
    18  C   -0.001222  -0.000010  -0.000001   0.000008  -0.000015   0.000001
    19  C    0.007037   0.000086  -0.000010   0.000023   0.000001   0.000000
    20  H    0.000086   0.000264  -0.000002   0.000002   0.000000   0.000000
    21  H   -0.000010  -0.000002  -0.000289  -0.000006   0.000000   0.000000
    22  H    0.000023   0.000002  -0.000006   0.000324   0.000000   0.000000
    23  H    0.000001   0.000000   0.000000   0.000000  -0.000055  -0.000001
    24  H    0.000000   0.000000   0.000000   0.000000  -0.000001   0.000051
    25  H    0.000000   0.000000   0.000000   0.000000   0.000000   0.000002
    26  H    0.000000   0.000000   0.000000   0.000000   0.000000   0.000000
    27  H    0.000000   0.000000   0.000000   0.000000   0.000000   0.000000
    28  H    0.000000   0.000000   0.000000   0.000000   0.000000   0.000000
    29  H    0.000000   0.000000   0.000000  -0.000001   0.000000   0.000000
    30  H    0.000000   0.000000   0.000000   0.000000   0.000000   0.000000
    31  H    0.000035   0.000001   0.000000   0.000001  -0.000001   0.000000
    32  H    0.000220   0.000017   0.000000   0.000000   0.000001   0.000000
    33  Ag   0.000302   0.000022  -0.000004   0.000192  -0.000001  -0.000027
              25         26         27         28         29         30
     1  C    0.000000   0.000000   0.000000   0.000000   0.000000   0.000001
     2  C    0.000000   0.000000   0.000000   0.000000   0.000000   0.000005
     3  C    0.000000   0.000000   0.000000   0.000000   0.000001   0.000032
     4  C    0.000000   0.000000   0.000000   0.000000   0.000001  -0.000056
     5  N    0.000000   0.000000   0.000001   0.000000   0.000001   0.000028
     6  C    0.000002   0.000002  -0.000001   0.000000   0.000000   0.000000
     7  C   -0.000008   0.000000   0.000000   0.000000   0.000000   0.000000
     8  C    0.000012   0.000002   0.000000   0.000000   0.000000   0.000000
     9  C    0.000017  -0.000008   0.000000   0.000000   0.000000   0.000000
    10  C   -0.000006   0.000006   0.000009   0.000000   0.000000   0.000000
    11  C   -0.000007  -0.000005   0.000000   0.000000   0.000000   0.000000
    12  C    0.000000  -0.000001  -0.000037  -0.000003  -0.000005  -0.000001
    13  C    0.000000  -0.000001   0.000037  -0.000024  -0.000002   0.000001
    14  C    0.000000   0.000000  -0.000001   0.000043  -0.000008  -0.000009
    15  C    0.000000   0.000000   0.000007   0.000010   0.000082   0.000071
    16  C    0.000000   0.000000  -0.000006  -0.000013  -0.000095  -0.000108
    17  C    0.000000   0.000000   0.000009   0.000005   0.000038   0.000184
    18  C    0.000000   0.000000   0.000000   0.000000   0.000000  -0.000001
    19  C    0.000000   0.000000   0.000000   0.000000   0.000000   0.000000
    20  H    0.000000   0.000000   0.000000   0.000000   0.000000   0.000000
    21  H    0.000000   0.000000   0.000000   0.000000   0.000000   0.000000
    22  H    0.000000   0.000000   0.000000   0.000000  -0.000001   0.000000
    23  H    0.000000   0.000000   0.000000   0.000000   0.000000   0.000000
    24  H    0.000002   0.000000   0.000000   0.000000   0.000000   0.000000
    25  H   -0.000028   0.000000   0.000000   0.000000   0.000000   0.000000
    26  H    0.000000   0.000032   0.000000   0.000000   0.000000   0.000000
    27  H    0.000000   0.000000   0.000077   0.000001   0.000000   0.000000
    28  H    0.000000   0.000000   0.000001  -0.000047   0.000005   0.000000
    29  H    0.000000   0.000000   0.000000   0.000005   0.000103   0.000004
    30  H    0.000000   0.000000   0.000000   0.000000   0.000004  -0.000184
    31  H    0.000000   0.000000   0.000000   0.000000   0.000000   0.000000
    32  H    0.000000   0.000000   0.000000   0.000000   0.000000   0.000000
    33  Ag  -0.000011   0.000005  -0.000041  -0.000033  -0.000093  -0.000114
              31         32         33
     1  C   -0.000040  -0.000142  -0.000384
     2  C    0.000008   0.000003   0.000215
     3  C   -0.000057  -0.000008  -0.001184
     4  C    0.000386  -0.000002  -0.005876
     5  N    0.000033   0.000000  -0.010868
     6  C   -0.000043   0.000000   0.001196
     7  C   -0.000068  -0.000001  -0.000168
     8  C    0.000001   0.000000  -0.001199
     9  C    0.000000   0.000000   0.000233
    10  C    0.000000   0.000000  -0.001645
    11  C   -0.000002   0.000000  -0.003225
    12  C   -0.000002   0.000000  -0.005443
    13  C    0.000000   0.000000  -0.000609
    14  C    0.000000   0.000000   0.000239
    15  C    0.000000   0.000000  -0.001496
    16  C   -0.000001   0.000000   0.000539
    17  C    0.000007   0.000000  -0.004535
    18  C    0.000817  -0.000201  -0.006323
    19  C    0.000035   0.000220   0.000302
    20  H    0.000001   0.000017   0.000022
    21  H    0.000000   0.000000  -0.000004
    22  H    0.000001   0.000000   0.000192
    23  H   -0.000001   0.000001  -0.000001
    24  H    0.000000   0.000000  -0.000027
    25  H    0.000000   0.000000  -0.000011
    26  H    0.000000   0.000000   0.000005
    27  H    0.000000   0.000000  -0.000041
    28  H    0.000000   0.000000  -0.000033
    29  H    0.000000   0.000000  -0.000093
    30  H    0.000000   0.000000  -0.000114
    31  H   -0.001320   0.000016   0.000154
    32  H    0.000016  -0.000132   0.000144
    33  Ag   0.000154   0.000144   1.027902
 Mulliken charges and spin densities:
               1          2
     1  C    0.006291  -0.002738
     2  C   -0.019946   0.004734
     3  C   -0.017249  -0.002657
     4  C    0.120394   0.001967
     5  N   -0.269970  -0.001730
     6  C    0.145641   0.001672
     7  C   -0.068411   0.001089
     8  C   -0.008222  -0.000905
     9  C   -0.007255   0.000584
    10  C   -0.036915  -0.001074
    11  C    0.016632   0.000895
    12  C    0.017738   0.002466
    13  C   -0.036790  -0.001548
    14  C   -0.006489   0.001043
    15  C   -0.007163  -0.001234
    16  C   -0.070246   0.002553
    17  C    0.136642   0.002307
    18  C   -0.022327  -0.000390
    19  C   -0.020829   0.005135
    20  H    0.019126   0.000194
    21  H    0.020724  -0.000237
    22  H    0.022150   0.000295
    23  H    0.005669  -0.000045
    24  H    0.013861   0.000027
    25  H    0.009118  -0.000028
    26  H   -0.002365   0.000031
    27  H   -0.001714   0.000055
    28  H    0.009412  -0.000056
    29  H    0.014127   0.000033
    30  H    0.006085  -0.000148
    31  H    0.027198  -0.000074
    32  H    0.020970  -0.000086
    33  Ag  -0.015886   0.987869
 Sum of Mulliken charges =   0.00000   1.00000
 Mulliken charges and spin densities with hydrogens summed into heavy atoms:
               1          2
     1  C    0.025417  -0.002544
     2  C    0.000778   0.004497
     3  C    0.004901  -0.002362
     4  C    0.120394   0.001967
     5  N   -0.269970  -0.001730
     6  C    0.145641   0.001672
     7  C   -0.062742   0.001045
     8  C    0.005639  -0.000878
     9  C    0.001863   0.000556
    10  C   -0.039279  -0.001042
    11  C    0.016632   0.000895
    12  C    0.017738   0.002466
    13  C   -0.038504  -0.001493
    14  C    0.002923   0.000987
    15  C    0.006964  -0.001201
    16  C   -0.064161   0.002404
    17  C    0.136642   0.002307
    18  C    0.004871  -0.000464
    19  C    0.000140   0.005049
    33  Ag  -0.015886   0.987869
 Electronic spatial extent (au):  <R**2>=           5533.4227
 Charge=              0.0000 electrons
 Dipole moment (field-independent basis, Debye):
    X=              1.4062    Y=             -0.1409    Z=              1.0958  Tot=              1.7883
 Quadrupole moment (field-independent basis, Debye-Ang):
   XX=           -114.7905   YY=           -121.7245   ZZ=           -137.3656
   XY=             -1.2093   XZ=              2.0622   YZ=              4.1321
 Traceless Quadrupole moment (field-independent basis, Debye-Ang):
   XX=              9.8363   YY=              2.9024   ZZ=            -12.7387
   XY=             -1.2093   XZ=              2.0622   YZ=              4.1321
 Octapole moment (field-independent basis, Debye-Ang**2):
  XXX=             41.6462  YYY=            -28.8773  ZZZ=            251.7419  XYY=              1.7891
  XXY=            -15.1260  XXZ=             74.7010  XZZ=             25.7415  YZZ=            -12.2847
  YYZ=             72.2998  XYZ=             11.1394
 Hexadecapole moment (field-independent basis, Debye-Ang**3):
 XXXX=          -3413.6040 YYYY=          -2360.6689 ZZZZ=          -1762.5089 XXXY=             36.2141
 XXXZ=           -123.9997 YYYX=             80.5551 YYYZ=             19.7702 ZZZX=           -172.4145
 ZZZY=             21.6067 XXYY=          -1016.5226 XXZZ=           -928.0611 YYZZ=           -747.6051
 XXYZ=             44.0044 YYXZ=            -57.1964 ZZXY=             26.2811
 N-N= 1.589782817577D+03 E-N=-5.227070746513D+03  KE= 7.961393524871D+02
                          Isotropic Fermi Contact Couplings
        Atom                 a.u.       MegaHertz       Gauss      10(-4) cm-1
     1  C(13)             -0.00025      -0.28016      -0.09997      -0.09345
     2  C(13)              0.00076       0.85067       0.30354       0.28375
     3  C(13)             -0.00019      -0.20889      -0.07454      -0.06968
     4  C(13)              0.00132       1.48051       0.52828       0.49384
     5  N(14)              0.00383       1.23867       0.44199       0.41317
     6  C(13)              0.00196       2.20030       0.78512       0.73394
     7  C(13)              0.00082       0.92447       0.32987       0.30837
     8  C(13)             -0.00013      -0.14131      -0.05042      -0.04714
     9  C(13)              0.00007       0.08225       0.02935       0.02744
    10  C(13)              0.00008       0.08631       0.03080       0.02879
    11  C(13)              0.00162       1.82180       0.65006       0.60769
    12  C(13)              0.00269       3.02029       1.07772       1.00746
    13  C(13)             -0.00005      -0.05482      -0.01956      -0.01829
    14  C(13)              0.00016       0.17499       0.06244       0.05837
    15  C(13)             -0.00016      -0.17905      -0.06389      -0.05972
    16  C(13)              0.00241       2.70798       0.96627       0.90328
    17  C(13)              0.00252       2.83642       1.01210       0.94613
    18  C(13)              0.00779       8.75394       3.12362       2.92000
    19  C(13)              0.00079       0.89026       0.31767       0.29696
    20  H(1)               0.00006       0.25350       0.09045       0.08456
    21  H(1)              -0.00007      -0.30038      -0.10718      -0.10020
    22  H(1)               0.00002       0.10860       0.03875       0.03622
    23  H(1)              -0.00002      -0.07017      -0.02504      -0.02341
    24  H(1)               0.00001       0.04247       0.01515       0.01417
    25  H(1)              -0.00001      -0.03278      -0.01170      -0.01093
    26  H(1)               0.00000       0.02127       0.00759       0.00710
    27  H(1)               0.00002       0.08683       0.03098       0.02896
    28  H(1)              -0.00001      -0.06240      -0.02227      -0.02081
    29  H(1)               0.00002       0.07872       0.02809       0.02626
    30  H(1)               0.00003       0.12507       0.04463       0.04172
    31  H(1)               0.00026       1.15363       0.41164       0.38481
    32  H(1)              -0.00005      -0.22434      -0.08005      -0.07483
    33  Ag(107             0.00034      -0.06202      -0.02213      -0.02069
 --------------------------------------------------------
       Center         ----  Spin Dipole Couplings  ----
                      3XX-RR        3YY-RR        3ZZ-RR
 --------------------------------------------------------
     1   Atom        0.001417     -0.001609      0.000192
     2   Atom       -0.002028      0.001374      0.000654
     3   Atom        0.000675     -0.002243      0.001568
     4   Atom       -0.003287      0.000068      0.003219
     5   Atom       -0.004461     -0.004890      0.009351
     6   Atom       -0.002649     -0.001181      0.003829
     7   Atom       -0.002415      0.000005      0.002410
     8   Atom       -0.000584      0.000860     -0.000277
     9   Atom       -0.000300     -0.000051      0.000351
    10   Atom        0.000603     -0.000491     -0.000112
    11   Atom       -0.002035     -0.003155      0.005190
    12   Atom       -0.003096     -0.005195      0.008291
    13   Atom        0.000744     -0.000515     -0.000229
    14   Atom       -0.000763     -0.000309      0.001072
    15   Atom       -0.001093      0.000712      0.000381
    16   Atom       -0.003965     -0.001964      0.005929
    17   Atom       -0.005034     -0.004522      0.009556
    18   Atom        0.001137     -0.004827      0.003689
    19   Atom       -0.000325      0.000899     -0.000574
    20   Atom        0.000427     -0.000439      0.000012
    21   Atom       -0.000090     -0.000391      0.000482
    22   Atom       -0.000452     -0.000899      0.001351
    23   Atom       -0.001199      0.000567      0.000632
    24   Atom       -0.000576      0.000693     -0.000117
    25   Atom        0.000045      0.000138     -0.000183
    26   Atom        0.000817     -0.000784     -0.000033
    27   Atom        0.000736     -0.000856      0.000119
    28   Atom       -0.000182      0.000177      0.000005
    29   Atom       -0.000931      0.000739      0.000193
    30   Atom       -0.001140     -0.000528      0.001668
    31   Atom       -0.000099     -0.000880      0.000980
    32   Atom        0.001010     -0.000500     -0.000510
    33   Atom        0.002022      0.003302     -0.005324
 --------------------------------------------------------
                        XY            XZ            YZ
 --------------------------------------------------------
     1   Atom       -0.000406      0.001404      0.001428
     2   Atom        0.000430      0.000798     -0.003018
     3   Atom       -0.000474      0.001842      0.001278
     4   Atom       -0.000629      0.002545     -0.004081
     5   Atom       -0.000259      0.002562     -0.002211
     6   Atom        0.000623     -0.001430     -0.003173
     7   Atom        0.000350     -0.000498     -0.003175
     8   Atom        0.000736     -0.000553     -0.001431
     9   Atom        0.001031     -0.000983     -0.001037
    10   Atom        0.001163     -0.001768     -0.001103
    11   Atom        0.001130     -0.003437     -0.002233
    12   Atom       -0.000365     -0.004977      0.000792
    13   Atom       -0.001104     -0.001979      0.001275
    14   Atom       -0.001072     -0.001182      0.001365
    15   Atom       -0.000609     -0.000531      0.001995
    16   Atom        0.000083     -0.000290      0.004277
    17   Atom       -0.000130     -0.000720      0.000949
    18   Atom       -0.000370      0.007326      0.002336
    19   Atom        0.001081      0.000099     -0.003658
    20   Atom       -0.000176      0.000659     -0.000020
    21   Atom        0.000218      0.000828      0.000133
    22   Atom        0.000124      0.000869      0.000302
    23   Atom       -0.000383      0.000353     -0.001973
    24   Atom        0.000433     -0.000260     -0.000917
    25   Atom        0.000772     -0.000555     -0.000588
    26   Atom        0.000691     -0.001310     -0.000457
    27   Atom       -0.000698     -0.001492      0.000498
    28   Atom       -0.000835     -0.000695      0.000850
    29   Atom       -0.000258     -0.000175      0.001375
    30   Atom        0.000895      0.001237      0.002276
    31   Atom       -0.003571      0.005692     -0.003258
    32   Atom       -0.001201      0.000702     -0.000411
    33   Atom       -0.001156      0.002171     -0.001412
 --------------------------------------------------------


 ---------------------------------------------------------------------------------
              Anisotropic Spin Dipole Couplings in Principal Axis System
 ---------------------------------------------------------------------------------

       Atom             a.u.   MegaHertz   Gauss  10(-4) cm-1        Axes

              Baa    -0.0027    -0.359    -0.128    -0.120  0.2617  0.8069 -0.5296
     1 C(13)  Bbb     0.0003     0.038     0.014     0.013 -0.5464  0.5762  0.6079
              Bcc     0.0024     0.321     0.115     0.107  0.7956  0.1303  0.5916
 
              Baa    -0.0029    -0.391    -0.139    -0.130  0.7087 -0.4524 -0.5414
     2 C(13)  Bbb    -0.0011    -0.154    -0.055    -0.051  0.7047  0.4917  0.5115
              Bcc     0.0041     0.545     0.194     0.182 -0.0349  0.7440 -0.6673
 
              Baa    -0.0029    -0.396    -0.141    -0.132  0.3038  0.8771 -0.3720
     3 C(13)  Bbb    -0.0002    -0.023    -0.008    -0.008  0.7569 -0.4593 -0.4649
              Bcc     0.0031     0.418     0.149     0.140  0.5786  0.1404  0.8034
 
              Baa    -0.0044    -0.588    -0.210    -0.196  0.8551 -0.2796 -0.4365
     4 C(13)  Bbb    -0.0023    -0.302    -0.108    -0.101  0.4583  0.8013  0.3846
              Bcc     0.0066     0.890     0.318     0.297  0.2422 -0.5290  0.8133
 
              Baa    -0.0053    -0.203    -0.073    -0.068 -0.3297  0.9232  0.1974
     5 N(14)  Bbb    -0.0049    -0.188    -0.067    -0.063  0.9280  0.3554 -0.1120
              Bcc     0.0101     0.391     0.140     0.130  0.1735 -0.1463  0.9739
 
              Baa    -0.0030    -0.397    -0.142    -0.132  0.9510  0.1497  0.2704
     6 C(13)  Bbb    -0.0027    -0.363    -0.129    -0.121 -0.2480  0.8916  0.3788
              Bcc     0.0057     0.759     0.271     0.253 -0.1844 -0.4274  0.8851
 
              Baa    -0.0025    -0.331    -0.118    -0.110  0.9961 -0.0643  0.0598
     7 C(13)  Bbb    -0.0022    -0.294    -0.105    -0.098  0.0188  0.8217  0.5696
              Bcc     0.0047     0.625     0.223     0.208 -0.0858 -0.5662  0.8198
 
              Baa    -0.0013    -0.168    -0.060    -0.056  0.1124  0.5299  0.8406
     8 C(13)  Bbb    -0.0009    -0.119    -0.043    -0.040  0.9408 -0.3289  0.0816
              Bcc     0.0021     0.287     0.103     0.096  0.3197  0.7817 -0.5355
 
              Baa    -0.0012    -0.163    -0.058    -0.055  0.7814 -0.6188  0.0807
     9 C(13)  Bbb    -0.0008    -0.113    -0.040    -0.038  0.3514  0.5431  0.7626
              Bcc     0.0021     0.276     0.099     0.092 -0.5158 -0.5675  0.6418
 
              Baa    -0.0016    -0.214    -0.076    -0.071  0.5080  0.2797  0.8147
    10 C(13)  Bbb    -0.0012    -0.165    -0.059    -0.055 -0.5163  0.8559  0.0281
              Bcc     0.0028     0.379     0.135     0.126  0.6895  0.4349 -0.5792
 
              Baa    -0.0039    -0.518    -0.185    -0.173 -0.4769  0.8782  0.0356
    11 C(13)  Bbb    -0.0033    -0.444    -0.158    -0.148  0.7994  0.4166  0.4328
              Bcc     0.0072     0.962     0.343     0.321 -0.3653 -0.2349  0.9008
 
              Baa    -0.0053    -0.706    -0.252    -0.235  0.2157  0.9762  0.0222
    12 C(13)  Bbb    -0.0050    -0.664    -0.237    -0.222  0.9111 -0.2094  0.3550
              Bcc     0.0102     1.370     0.489     0.457 -0.3512  0.0564  0.9346
 
              Baa    -0.0019    -0.257    -0.092    -0.086  0.4401 -0.3891  0.8092
    13 C(13)  Bbb    -0.0011    -0.154    -0.055    -0.051  0.5673  0.8191  0.0853
              Bcc     0.0031     0.411     0.147     0.137  0.6960 -0.4215 -0.5813
 
              Baa    -0.0016    -0.219    -0.078    -0.073  0.8002  0.5978  0.0478
    14 C(13)  Bbb    -0.0010    -0.135    -0.048    -0.045  0.4274 -0.6244  0.6538
              Bcc     0.0026     0.354     0.126     0.118 -0.4207  0.5028  0.7552
 
              Baa    -0.0015    -0.196    -0.070    -0.065 -0.1088 -0.6892  0.7164
    15 C(13)  Bbb    -0.0013    -0.169    -0.060    -0.056  0.9722  0.0765  0.2212
              Bcc     0.0027     0.365     0.130     0.122 -0.2073  0.7205  0.6617
 
              Baa    -0.0041    -0.551    -0.197    -0.184  0.8144 -0.5249  0.2472
    16 C(13)  Bbb    -0.0037    -0.496    -0.177    -0.166  0.5799  0.7509 -0.3161
              Bcc     0.0078     1.048     0.374     0.349 -0.0197  0.4008  0.9160
 
              Baa    -0.0051    -0.682    -0.243    -0.228  0.9858  0.1635  0.0379
    17 C(13)  Bbb    -0.0046    -0.614    -0.219    -0.205 -0.1604  0.9843 -0.0743
              Bcc     0.0097     1.296     0.462     0.432 -0.0494  0.0672  0.9965
 
              Baa    -0.0068    -0.910    -0.325    -0.304  0.5019  0.7004 -0.5074
    18 C(13)  Bbb    -0.0032    -0.433    -0.155    -0.145 -0.5922  0.7059  0.3886
              Bcc     0.0100     1.344     0.479     0.448  0.6304  0.1054  0.7691
 
              Baa    -0.0037    -0.502    -0.179    -0.168 -0.2222  0.6350  0.7399
    19 C(13)  Bbb    -0.0003    -0.039    -0.014    -0.013  0.9586  0.0039  0.2846
              Bcc     0.0040     0.541     0.193     0.181  0.1778  0.7725 -0.6096
 
              Baa    -0.0006    -0.294    -0.105    -0.098  0.4934  0.6708 -0.5537
    20 H(1)   Bbb    -0.0004    -0.201    -0.072    -0.067 -0.3284  0.7332  0.5955
              Bcc     0.0009     0.495     0.177     0.165  0.8054 -0.1120  0.5820
 
              Baa    -0.0007    -0.382    -0.136    -0.127  0.7945 -0.3234 -0.5139
    21 H(1)   Bbb    -0.0004    -0.210    -0.075    -0.070  0.1787  0.9334 -0.3112
              Bcc     0.0011     0.592     0.211     0.197  0.5803  0.1554  0.7994
 
              Baa    -0.0009    -0.501    -0.179    -0.167 -0.0625  0.9923 -0.1069
    22 H(1)   Bbb    -0.0008    -0.428    -0.153    -0.143  0.9263  0.0178 -0.3763
              Bcc     0.0017     0.929     0.332     0.310  0.3715  0.1226  0.9203
 
              Baa    -0.0014    -0.736    -0.263    -0.245  0.2235  0.7152  0.6622
    23 H(1)   Bbb    -0.0013    -0.674    -0.241    -0.225  0.9654 -0.0688 -0.2515
              Bcc     0.0026     1.410     0.503     0.470  0.1343 -0.6955  0.7059
 
              Baa    -0.0007    -0.388    -0.139    -0.130 -0.5832  0.5585  0.5898
    24 H(1)   Bbb    -0.0007    -0.368    -0.131    -0.123  0.7743  0.1628  0.6115
              Bcc     0.0014     0.757     0.270     0.252  0.2455  0.8134 -0.5274
 
              Baa    -0.0007    -0.364    -0.130    -0.121  0.7346 -0.6783  0.0187
    25 H(1)   Bbb    -0.0006    -0.332    -0.119    -0.111  0.3119  0.3621  0.8784
              Bcc     0.0013     0.696     0.248     0.232  0.6026  0.6394 -0.4776
 
              Baa    -0.0010    -0.559    -0.200    -0.187 -0.4827  0.8412 -0.2438
    26 H(1)   Bbb    -0.0010    -0.515    -0.184    -0.172  0.4028  0.4604  0.7911
              Bcc     0.0020     1.075     0.383     0.358  0.7777  0.2836 -0.5610
 
              Baa    -0.0011    -0.613    -0.219    -0.204  0.5912  0.6844  0.4267
    27 H(1)   Bbb    -0.0010    -0.556    -0.199    -0.186 -0.2983  0.6771 -0.6727
              Bcc     0.0022     1.169     0.417     0.390  0.7494 -0.2704 -0.6044
 
              Baa    -0.0009    -0.457    -0.163    -0.153  0.7948  0.6052  0.0446
    28 H(1)   Bbb    -0.0007    -0.399    -0.142    -0.133  0.3138 -0.4729  0.8234
              Bcc     0.0016     0.857     0.306     0.286 -0.5194  0.6404  0.5658
 
              Baa    -0.0010    -0.525    -0.187    -0.175  0.8466  0.4038 -0.3466
    29 H(1)   Bbb    -0.0009    -0.490    -0.175    -0.164  0.5209 -0.4955  0.6951
              Bcc     0.0019     1.015     0.362     0.338 -0.1090  0.7690  0.6299
 
              Baa    -0.0020    -1.058    -0.378    -0.353 -0.2511  0.8573 -0.4494
    30 H(1)   Bbb    -0.0016    -0.856    -0.305    -0.286  0.9180  0.0638 -0.3913
              Bcc     0.0036     1.914     0.683     0.638  0.3068  0.5108  0.8031
 
              Baa    -0.0054    -2.859    -1.020    -0.954  0.7759  0.1785 -0.6050
    31 H(1)   Bbb    -0.0032    -1.731    -0.618    -0.578  0.1582  0.8734  0.4605
              Bcc     0.0086     4.591     1.638     1.531  0.6107 -0.4530  0.6495
 
              Baa    -0.0012    -0.621    -0.222    -0.207  0.4708  0.8809  0.0485
    32 H(1)   Bbb    -0.0008    -0.415    -0.148    -0.139 -0.2994  0.1078  0.9480
              Bcc     0.0019     1.037     0.370     0.346  0.8299 -0.4608  0.3145
 
              Baa    -0.0060     0.131     0.047     0.044 -0.2428  0.1156  0.9632
    33 Ag(107 Bbb     0.0015    -0.032    -0.012    -0.011  0.7888  0.6014  0.1266
              Bcc     0.0046    -0.099    -0.035    -0.033 -0.5647  0.7905 -0.2372
 

 ---------------------------------------------------------------------------------

 No NMR shielding tensors so no spin-rotation constants.
 Leave Link  601 at Sat Sep 12 01:10:32 2026, MaxMem=  6442450944 cpu:               4.0 elap:               4.7
 (Enter C:\G16W\l9999.exe)
 Unable to Open any file for archive entry.
 1|1|UNPC-DESKTOP-2JKEGCA|SP|UPBE1PBE|def2SVP|C18H13Ag1N1(2)|JHKIM|12-S
 ep-2026|0||#P PBE1PBE/Def2SVP EmpiricalDispersion=GD3BJ SP SCF=(XQC,Ma
 xCycle=128) NoSymm Guess=Read||PhCz t=0.250 dz=+0.40 class=toface||0,2
 |C,0,4.318681,-0.424553,0.264001|C,0,3.626574,0.365579,1.166695|C,0,2.
 254007,0.498601,1.068576|C,0,1.563174,-0.153683,0.051229|N,0,0.172251,
 -0.01694,-0.056185|C,0,-0.734425,-1.051271,-0.178854|C,0,-0.518475,-2.
 421994,-0.176413|C,0,-1.61948,-3.248918,-0.290429|C,0,-2.909474,-2.733
 333,-0.395662|C,0,-3.133061,-1.371405,-0.372927|C,0,-2.042171,-0.51967
 1,-0.259151|C,0,-1.907553,0.907967,-0.184867|C,0,-2.817276,1.956387,-0
 .225601|C,0,-2.34036,3.249447,-0.148769|C,0,-0.974249,3.503904,-0.0488
 7|C,0,-0.049884,2.477861,-0.006462|C,0,-0.524929,1.175071,-0.057385|C,
 0,2.261179,-0.942496,-0.858872|C,0,3.632181,-1.079171,-0.74514|H,0,5.3
 89886,-0.52987,0.346731|H,0,4.157205,0.87482,1.957636|H,0,1.708338,1.0
 94903,1.784553|H,0,0.475194,-2.832412,-0.077007|H,0,-1.476844,-4.31960
 4,-0.294462|H,0,-3.743566,-3.413223,-0.486532|H,0,-4.133797,-0.97148,-
 0.437847|H,0,-3.874509,1.758786,-0.319619|H,0,-3.030974,4.079234,-0.17
 5651|H,0,-0.629333,4.526657,-0.007181|H,0,1.007776,2.686607,0.052557|H
 ,0,1.725742,-1.432517,-1.658335|H,0,4.168173,-1.693284,-1.453698|Ag,0,
 -0.12801602,0.48558878,-3.28386104||Version=EM64W-G16RevC.01|HF=-894.0
 977059|S2=0.75139|S2-1=0.|S2A=0.750002|RMSD=3.375e-009|Dipole=0.553235
 ,-0.0554436,0.4311387|Quadrupole=7.3130723,2.157867,-9.4709393,-0.8990
 931,1.5332196,3.0721344|PG=C01 [X(C18H13Ag1N1)]||@
 The archive entry for this job was punched.


 IT IS A QUALITY OF REVOLUTIONS NOT TO GO BY OLD LINES OR OLD LAWS,
 BUT TO BREAK UP BOTH, AND MAKE NEW ONES.
                                              -- A. LINCOLN (1848)
 Job cpu time:       0 days  0 hours  6 minutes 23.0 seconds.
 Elapsed time:       0 days  0 hours  6 minutes 21.1 seconds.
 File lengths (MBytes):  RWF=    126 Int=      0 D2E=      0 Chk=     10 Scr=      1
 Normal termination of Gaussian 16 at Sat Sep 12 01:10:33 2026.
