 Entering Gaussian System, Link 0=C:\G16W\g16.exe
 Input=PhCz_t3_z0.gjf
 Output=PhCz_t3_z0.out
 Initial command:
 C:\G16W\l1.exe ".\Gau-51188.inp" "PhCz_t3_z0.out" /scrdir=".\"
 Entering Link 1 = C:\G16W\l1.exe PID=     99528.
  
 Copyright (c) 1988-2019, Gaussian, Inc.  All Rights Reserved.
  
 This is part of the Gaussian(R) 16 program.  It is based on
 the Gaussian(R) 09 system (copyright 2009, Gaussian, Inc.),
 the Gaussian(R) 03 system (copyright 2003, Gaussian, Inc.),
 the Gaussian(R) 98 system (copyright 1998, Gaussian, Inc.),
 the Gaussian(R) 94 system (copyright 1995, Gaussian, Inc.),
 the Gaussian 92(TM) system (copyright 1992, Gaussian, Inc.),
 the Gaussian 90(TM) system (copyright 1990, Gaussian, Inc.),
 the Gaussian 88(TM) system (copyright 1988, Gaussian, Inc.),
 the Gaussian 86(TM) system (copyright 1986, Carnegie Mellon
 University), and the Gaussian 82(TM) system (copyright 1983,
 Carnegie Mellon University). Gaussian is a federally registered
 trademark of Gaussian, Inc.
  
 This software contains proprietary and confidential information,
 including trade secrets, belonging to Gaussian, Inc.
  
 This software is provided under written license and may be
 used, copied, transmitted, or stored only in accord with that
 written license.
  
 The following legend is applicable only to US Government
 contracts under FAR:
  
                    RESTRICTED RIGHTS LEGEND
  
 Use, reproduction and disclosure by the US Government is
 subject to restrictions as set forth in subparagraphs (a)
 and (c) of the Commercial Computer Software - Restricted
 Rights clause in FAR 52.227-19.
  
 Gaussian, Inc.
 340 Quinnipiac St., Bldg. 40, Wallingford CT 06492
  
  
 ---------------------------------------------------------------
 Warning -- This program may not be used in any manner that
 competes with the business of Gaussian, Inc. or will provide
 assistance to any competitor of Gaussian, Inc.  The licensee
 of this program is prohibited from giving any competitor of
 Gaussian, Inc. access to this program.  By using this program,
 the user acknowledges that Gaussian, Inc. is engaged in the
 business of creating and licensing software in the field of
 computational chemistry and represents and warrants to the
 licensee that it is not a competitor of Gaussian, Inc. and that
 it will not use this program in any manner prohibited above.
 ---------------------------------------------------------------
  

 Cite this work as:
 Gaussian 16, Revision C.01,
 M. J. Frisch, G. W. Trucks, H. B. Schlegel, G. E. Scuseria, 
 M. A. Robb, J. R. Cheeseman, G. Scalmani, V. Barone, 
 G. A. Petersson, H. Nakatsuji, X. Li, M. Caricato, A. V. Marenich, 
 J. Bloino, B. G. Janesko, R. Gomperts, B. Mennucci, H. P. Hratchian, 
 J. V. Ortiz, A. F. Izmaylov, J. L. Sonnenberg, D. Williams-Young, 
 F. Ding, F. Lipparini, F. Egidi, J. Goings, B. Peng, A. Petrone, 
 T. Henderson, D. Ranasinghe, V. G. Zakrzewski, J. Gao, N. Rega, 
 G. Zheng, W. Liang, M. Hada, M. Ehara, K. Toyota, R. Fukuda, 
 J. Hasegawa, M. Ishida, T. Nakajima, Y. Honda, O. Kitao, H. Nakai, 
 T. Vreven, K. Throssell, J. A. Montgomery, Jr., J. E. Peralta, 
 F. Ogliaro, M. J. Bearpark, J. J. Heyd, E. N. Brothers, K. N. Kudin, 
 V. N. Staroverov, T. A. Keith, R. Kobayashi, J. Normand, 
 K. Raghavachari, A. P. Rendell, J. C. Burant, S. S. Iyengar, 
 J. Tomasi, M. Cossi, J. M. Millam, M. Klene, C. Adamo, R. Cammi, 
 J. W. Ochterski, R. L. Martin, K. Morokuma, O. Farkas, 
 J. B. Foresman, and D. J. Fox, Gaussian, Inc., Wallingford CT, 2019.
 
 ******************************************
 Gaussian 16:  EM64W-G16RevC.01 30-May-2019
                12-Sep-2026 
 ******************************************
 %Chk=PhCz.chk
 %NProcShared=8
 Will use up to    8 processors via shared memory.
 %Mem=48GB
 ----------------------------------------------------------------------
 #P PBE1PBE/Def2SVP EmpiricalDispersion=GD3BJ SP SCF=(XQC,MaxCycle=128)
  NoSymm Guess=Read
 ----------------------------------------------------------------------
 1/38=1,172=1/1;
 2/12=2,15=1,17=6,18=5,40=1/2;
 3/5=43,7=101,11=2,25=1,30=1,74=-13,116=-2,124=41/1,2,3;
 4/5=1/1;
 5/5=2,7=128,8=3,13=1,38=6/2,8;
 6/7=2,8=2,9=2,10=2,28=1/1;
 99/5=1,9=1/99;
 Leave Link    1 at Sat Sep 12 01:23:36 2026, MaxMem=  6442450944 cpu:               0.0 elap:               0.2
 (Enter C:\G16W\l101.exe)
 ----------------------------------
 PhCz t=0.750 dz=+0.00 class=toface
 ----------------------------------
 Symbolic Z-matrix:
 Charge =  0 Multiplicity = 2
 C                     4.31868  -0.42455   0.264 
 C                     3.62657   0.36558   1.1667 
 C                     2.25401   0.4986    1.06858 
 C                     1.56317  -0.15368   0.05123 
 N                     0.17225  -0.01694  -0.05619 
 C                    -0.73443  -1.05127  -0.17885 
 C                    -0.51848  -2.42199  -0.17641 
 C                    -1.61948  -3.24892  -0.29043 
 C                    -2.90947  -2.73333  -0.39566 
 C                    -3.13306  -1.37141  -0.37293 
 C                    -2.04217  -0.51967  -0.25915 
 C                    -1.90755   0.90797  -0.18487 
 C                    -2.81728   1.95639  -0.2256 
 C                    -2.34036   3.24945  -0.14877 
 C                    -0.97425   3.5039   -0.04887 
 C                    -0.04988   2.47786  -0.00646 
 C                    -0.52493   1.17507  -0.05739 
 C                     2.26118  -0.9425   -0.85887 
 C                     3.63218  -1.07917  -0.74514 
 H                     5.38989  -0.52987   0.34673 
 H                     4.15721   0.87482   1.95764 
 H                     1.70834   1.0949    1.78455 
 H                     0.47519  -2.83241  -0.07701 
 H                    -1.47684  -4.3196   -0.29446 
 H                    -3.74357  -3.41322  -0.48653 
 H                    -4.1338   -0.97148  -0.43785 
 H                    -3.87451   1.75879  -0.31962 
 H                    -3.03097   4.07923  -0.17565 
 H                    -0.62933   4.52666  -0.00718 
 H                     1.00778   2.68661   0.05256 
 H                     1.72574  -1.43252  -1.65834 
 H                     4.16817  -1.69328  -1.4537 
 Ag                   -0.49318   0.17979  -2.77124 
 
 ITRead=  0  0  0  0  0  0  0  0  0  0  0  0  0  0  0  0  0  0  0  0
 ITRead=  0  0  0  0  0  0  0  0  0  0  0  0  0
 MicOpt= -1 -1 -1 -1 -1 -1 -1 -1 -1 -1 -1 -1 -1 -1 -1 -1 -1 -1 -1 -1
 MicOpt= -1 -1 -1 -1 -1 -1 -1 -1 -1 -1 -1 -1 -1
 NAtoms=     33 NQM=       33 NQMF=       0 NMMI=      0 NMMIF=      0
                NMic=       0 NMicF=      0.
                    Isotopes and Nuclear Properties:
 (Nuclear quadrupole moments (NQMom) in fm**2, nuclear magnetic moments (NMagM)
  in nuclear magnetons)

  Atom         1           2           3           4           5           6           7           8           9          10
 IAtWgt=          12          12          12          12          14          12          12          12          12          12
 AtmWgt=  12.0000000  12.0000000  12.0000000  12.0000000  14.0030740  12.0000000  12.0000000  12.0000000  12.0000000  12.0000000
 NucSpn=           0           0           0           0           2           0           0           0           0           0
 AtZEff=   0.0000000   0.0000000   0.0000000   0.0000000   0.0000000   0.0000000   0.0000000   0.0000000   0.0000000   0.0000000
 NQMom=    0.0000000   0.0000000   0.0000000   0.0000000   2.0440000   0.0000000   0.0000000   0.0000000   0.0000000   0.0000000
 NMagM=    0.0000000   0.0000000   0.0000000   0.0000000   0.4037610   0.0000000   0.0000000   0.0000000   0.0000000   0.0000000
 AtZNuc=   6.0000000   6.0000000   6.0000000   6.0000000   7.0000000   6.0000000   6.0000000   6.0000000   6.0000000   6.0000000

  Atom        11          12          13          14          15          16          17          18          19          20
 IAtWgt=          12          12          12          12          12          12          12          12          12           1
 AtmWgt=  12.0000000  12.0000000  12.0000000  12.0000000  12.0000000  12.0000000  12.0000000  12.0000000  12.0000000   1.0078250
 NucSpn=           0           0           0           0           0           0           0           0           0           1
 AtZEff=   0.0000000   0.0000000   0.0000000   0.0000000   0.0000000   0.0000000   0.0000000   0.0000000   0.0000000   0.0000000
 NQMom=    0.0000000   0.0000000   0.0000000   0.0000000   0.0000000   0.0000000   0.0000000   0.0000000   0.0000000   0.0000000
 NMagM=    0.0000000   0.0000000   0.0000000   0.0000000   0.0000000   0.0000000   0.0000000   0.0000000   0.0000000   2.7928460
 AtZNuc=   6.0000000   6.0000000   6.0000000   6.0000000   6.0000000   6.0000000   6.0000000   6.0000000   6.0000000   1.0000000

  Atom        21          22          23          24          25          26          27          28          29          30
 IAtWgt=           1           1           1           1           1           1           1           1           1           1
 AtmWgt=   1.0078250   1.0078250   1.0078250   1.0078250   1.0078250   1.0078250   1.0078250   1.0078250   1.0078250   1.0078250
 NucSpn=           1           1           1           1           1           1           1           1           1           1
 AtZEff=   0.0000000   0.0000000   0.0000000   0.0000000   0.0000000   0.0000000   0.0000000   0.0000000   0.0000000   0.0000000
 NQMom=    0.0000000   0.0000000   0.0000000   0.0000000   0.0000000   0.0000000   0.0000000   0.0000000   0.0000000   0.0000000
 NMagM=    2.7928460   2.7928460   2.7928460   2.7928460   2.7928460   2.7928460   2.7928460   2.7928460   2.7928460   2.7928460
 AtZNuc=   1.0000000   1.0000000   1.0000000   1.0000000   1.0000000   1.0000000   1.0000000   1.0000000   1.0000000   1.0000000

  Atom        31          32          33
 IAtWgt=           1           1         107
 AtmWgt=   1.0078250   1.0078250 106.9050900
 NucSpn=           1           1           1
 AtZEff=   0.0000000   0.0000000   0.0000000
 NQMom=    0.0000000   0.0000000   0.0000000
 NMagM=    2.7928460   2.7928460  -0.1135700
 AtZNuc=   1.0000000   1.0000000  47.0000000
 Leave Link  101 at Sat Sep 12 01:23:36 2026, MaxMem=  6442450944 cpu:               0.0 elap:               0.2
 (Enter C:\G16W\l202.exe)
                          Input orientation:                          
 ---------------------------------------------------------------------
 Center     Atomic      Atomic             Coordinates (Angstroms)
 Number     Number       Type             X           Y           Z
 ---------------------------------------------------------------------
      1          6           0        4.318681   -0.424553    0.264001
      2          6           0        3.626574    0.365579    1.166695
      3          6           0        2.254007    0.498601    1.068576
      4          6           0        1.563174   -0.153683    0.051229
      5          7           0        0.172251   -0.016940   -0.056185
      6          6           0       -0.734425   -1.051271   -0.178854
      7          6           0       -0.518475   -2.421994   -0.176413
      8          6           0       -1.619480   -3.248918   -0.290429
      9          6           0       -2.909474   -2.733333   -0.395662
     10          6           0       -3.133061   -1.371405   -0.372927
     11          6           0       -2.042171   -0.519671   -0.259151
     12          6           0       -1.907553    0.907967   -0.184867
     13          6           0       -2.817276    1.956387   -0.225601
     14          6           0       -2.340360    3.249447   -0.148769
     15          6           0       -0.974249    3.503904   -0.048870
     16          6           0       -0.049884    2.477861   -0.006462
     17          6           0       -0.524929    1.175071   -0.057385
     18          6           0        2.261179   -0.942496   -0.858872
     19          6           0        3.632181   -1.079171   -0.745140
     20          1           0        5.389886   -0.529870    0.346731
     21          1           0        4.157205    0.874820    1.957636
     22          1           0        1.708338    1.094903    1.784553
     23          1           0        0.475194   -2.832412   -0.077007
     24          1           0       -1.476844   -4.319604   -0.294462
     25          1           0       -3.743566   -3.413223   -0.486532
     26          1           0       -4.133797   -0.971480   -0.437847
     27          1           0       -3.874509    1.758786   -0.319619
     28          1           0       -3.030974    4.079234   -0.175651
     29          1           0       -0.629333    4.526657   -0.007181
     30          1           0        1.007776    2.686607    0.052557
     31          1           0        1.725742   -1.432517   -1.658335
     32          1           0        4.168173   -1.693284   -1.453698
     33         47           0       -0.493177    0.179794   -2.771242
 ---------------------------------------------------------------------
                    Distance matrix (angstroms):
                    1          2          3          4          5
     1  C    0.000000
     2  C    1.384983   0.000000
     3  C    2.400507   1.382484   0.000000
     4  C    2.776952   2.402398   1.392020   0.000000
     5  N    4.178702   3.684305   2.421689   1.401750   0.000000
     6  C    5.111045   4.778732   3.590113   2.477411   1.380923
     7  C    5.251839   5.172614   4.215036   3.087121   2.505163
     8  C    6.598953   6.535203   5.558300   4.452695   3.702817
     9  C    7.616551   7.400280   6.265056   5.182556   4.122022
    10  C    7.538612   7.147042   5.881782   4.870049   3.586083
    11  C    6.383038   5.911969   4.610519   3.637141   2.279824
    12  C    6.383031   5.722540   4.365465   3.637140   2.279824
    13  C    7.538599   6.781767   5.433042   4.870049   3.586083
    14  C    7.616527   6.756585   5.491565   5.182554   4.122023
    15  C    6.598922   5.700373   4.549964   4.452693   3.702818
    16  C    5.251811   4.399361   3.221970   3.087120   2.505164
    17  C    5.111032   4.403252   3.073741   2.477410   1.380924
    18  C    2.400505   2.770972   2.406630   1.392020   2.421690
    19  C    1.384981   2.396340   2.770973   2.402399   3.684306
    20  H    1.079544   2.140897   3.378247   3.856496   5.258246
    21  H    2.140758   1.080039   2.134041   3.379527   4.553083
    22  H    3.381526   2.143197   1.079793   2.141133   2.642740
    23  H    4.548237   4.658877   3.946161   2.894086   2.831800
    24  H    7.005099   7.080310   6.244375   5.168763   4.614023
    25  H    8.631065   8.445796   7.327456   6.251022   5.201304
    26  H    8.499183   8.036519   6.725659   5.776112   4.427060
    27  H    8.499173   7.772799   6.408889   5.776111   4.427061
    28  H    8.631038   7.740547   6.503849   6.251020   5.201304
    29  H    7.005060   6.066737   5.069136   5.168760   4.614023
    30  H    4.548199   3.672408   2.715282   2.894083   2.831800
    31  H    3.381523   3.850598   3.382946   2.141134   2.642740
    32  H    2.140752   3.376197   3.851007   3.379526   4.553083
    33  Ag   5.721181   5.702123   4.732109   3.508009   2.802326
                    6          7          8          9         10
     6  C    0.000000
     7  C    1.387632   0.000000
     8  C    2.371798   1.381671   0.000000
     9  C    2.758111   2.421132   1.393193   0.000000
    10  C    2.427675   2.824609   2.413045   1.380346   0.000000
    11  C    1.413947   2.438714   2.761962   2.381417   1.388682
    12  C    2.283611   3.608081   4.168192   3.782505   2.594759
    13  C    3.658751   4.945415   5.341734   4.693708   3.345986
    14  C    4.590872   5.956952   6.539762   6.014857   4.693708
    15  C    4.563335   5.944768   6.787877   6.539762   5.341734
    16  C    3.599040   4.925144   5.944768   5.956952   4.945415
    17  C    2.239474   3.599040   4.563335   4.590872   3.658751
    18  C    3.073744   3.221978   4.549970   5.491567   5.433041
    19  C    4.403261   4.399383   5.700395   6.756600   6.781773
    20  H    6.168896   6.225957   7.545224   8.618919   8.594575
    21  H    5.674721   6.106155   7.445072   8.276154   7.976530
    22  H    3.798437   4.601375   5.852239   6.382234   5.846070
    23  H    2.155461   1.079677   2.146319   3.401079   3.904051
    24  H    3.353588   2.129162   1.080153   2.139842   3.382468
    25  H    3.837761   3.388203   2.139438   1.079915   2.134161
    26  H    3.410157   3.904215   3.395622   2.145897   1.079642
    27  H    4.216202   5.363058   5.492095   4.595238   3.217248
    28  H    5.621052   6.969836   7.463732   6.817201   5.455163
    29  H    5.581559   6.951595   7.843481   7.619542   6.417909
    30  H    4.130442   5.336635   6.500044   6.702350   5.813349
    31  H    2.895969   2.865601   4.044872   4.977117   5.026328
    32  H    5.106161   4.911939   6.104926   7.231475   7.387807
    33  Ag   2.879965   3.674653   4.379390   4.468577   3.889360
                   11         12         13         14         15
    11  C    0.000000
    12  C    1.435894   0.000000
    13  C    2.594759   1.388683   0.000000
    14  C    3.782506   2.381418   1.380346   0.000000
    15  C    4.168193   2.761963   2.413046   1.393193   0.000000
    16  C    3.608082   2.438715   2.824609   2.421131   1.381670
    17  C    2.283612   1.413947   2.427675   2.758111   2.371798
    18  C    4.365463   4.610512   5.881774   6.265045   5.558288
    19  C    5.722543   5.911960   7.147029   7.400259   6.535179
    20  H    7.456720   7.456714   8.594565   8.618901   7.545200
    21  H    6.729860   6.432162   7.387807   7.231469   6.104914
    22  H    4.566168   4.121678   5.026336   4.977123   4.044873
    23  H    3.423313   4.436164   5.813350   6.702351   6.500044
    24  H    3.841918   5.246429   6.417910   7.619542   7.843481
    25  H    3.364386   4.704745   5.455164   6.817202   7.463733
    26  H    2.147315   2.924463   3.217247   4.595237   5.492095
    27  H    2.924463   2.147316   1.079642   2.145897   3.395622
    28  H    4.704746   3.364386   2.134161   1.079915   2.139438
    29  H    5.246430   3.841918   3.382468   2.139843   1.080152
    30  H    4.436165   3.423313   3.904051   3.401079   2.146319
    31  H    4.121671   4.566159   5.846059   6.382222   5.852229
    32  H    6.432160   6.729850   7.976517   8.276136   7.445053
    33  Ag   3.033024   3.036450   3.877887   4.439844   4.323476
                   16         17         18         19         20
    16  C    0.000000
    17  C    1.387632   0.000000
    18  C    4.215028   3.590107   0.000000
    19  C    5.172594   4.778721   1.382484   0.000000
    20  H    6.225937   6.168887   3.378246   2.140897   0.000000
    21  H    4.911926   5.106157   3.851009   3.376200   2.467321
    22  H    2.865598   2.895970   3.382946   3.850599   4.273291
    23  H    5.336636   4.130442   2.715297   3.672441   5.443845
    24  H    6.951596   5.581559   5.069145   6.066766   7.869256
    25  H    6.969837   5.621053   6.503852   7.740563   9.613948
    26  H    5.363058   4.216202   6.408886   7.772801   9.566144
    27  H    3.904215   3.410158   6.725651   8.036508   9.566137
    28  H    3.388203   3.837761   7.327445   8.445774   9.613928
    29  H    2.129161   3.353588   6.244363   7.080282   7.869226
    30  H    1.079677   2.155461   3.946151   4.658852   5.443818
    31  H    4.601368   3.798431   1.079794   2.143196   4.273291
    32  H    6.106140   5.674712   2.134040   1.080035   2.467318
    33  Ag   3.622379   2.890779   3.535982   4.765361   6.695955
                   21         22         23         24         25
    21  H    0.000000
    22  H    2.464821   0.000000
    23  H    5.607187   4.517727   0.000000
    24  H    7.987271   6.616991   2.463631   0.000000
    25  H    9.315764   7.429959   4.278199   2.448764   0.000000
    26  H    8.825411   6.583277   4.983580   4.276668   2.473208
    27  H    8.394982   6.003038   6.329129   6.534237   5.176358
    28  H    8.154085   5.933777   7.750729   8.542243   7.532685
    29  H    6.333038   4.522383   7.441825   8.891408   8.542243
    30  H    4.102536   2.454408   5.546170   7.441824   7.750729
    31  H    4.930625   4.271022   2.454419   4.522386   5.933772
    32  H    4.269951   4.930623   4.102558   6.333056   8.154092
    33  Ag   6.668688   5.141922   4.155723   5.229400   5.356743
                   26         27         28         29         30
    26  H    0.000000
    27  H    2.745098   0.000000
    28  H    5.176358   2.473208   0.000000
    29  H    6.534237   4.276669   2.448765   0.000000
    30  H    6.329129   4.983580   4.278199   2.463631   0.000000
    31  H    6.003028   6.583266   7.429946   6.616981   4.517722
    32  H    8.394978   8.825398   9.315744   7.987249   5.607170
    33  Ag   4.474849   4.465095   5.327583   5.153037   4.063350
                   31         32         33
    31  H    0.000000
    32  H    2.464821   0.000000
    33  Ag   2.960019   5.193508   0.000000
 Symmetry turned off by external request.
 Stoichiometry    C18H13AgN(2)
 Framework group  C1[X(C18H13AgN)]
 Deg. of freedom    93
 Full point group                 C1      NOp   1
 Rotational constants (GHZ):           0.3534788           0.2569072           0.2209006
 Leave Link  202 at Sat Sep 12 01:23:36 2026, MaxMem=  6442450944 cpu:               0.0 elap:               0.1
 (Enter C:\G16W\l301.exe)
 Standard basis: def2SVP (5D, 7F)
 Ernie: Thresh=  0.10000D-02 Tol=  0.10000D-05 Strict=F.
   362 basis functions,   631 primitive gaussians,   386 cartesian basis functions
    74 alpha electrons       73 beta electrons
       nuclear repulsion energy      1623.4512693931 Hartrees.
 IExCor= 1009 DFT=T Ex+Corr=PBE1PBE ExCW=0 ScaHFX=  0.250000
 ScaDFX=  0.750000  0.750000  1.000000  1.000000 ScalE2=  1.000000  1.000000
 IRadAn=      5 IRanWt=     -1 IRanGd=            0 ICorTp=0 IEmpDi=141
 NAtoms=   33 NActive=   33 NUniq=   33 SFac= 1.00D+00 NAtFMM=   60 NAOKFM=F Big=F
 Integral buffers will be    131072 words long.
 Raffenetti 2 integral format.
 Two-electron integral symmetry is turned off.
 R6Disp:  Grimme-D3(BJ) Dispersion energy=       -0.0486726895 Hartrees.
 Nuclear repulsion after empirical dispersion term =     1623.4025967036 Hartrees.
 Leave Link  301 at Sat Sep 12 01:23:37 2026, MaxMem=  6442450944 cpu:               1.0 elap:               0.7
 (Enter C:\G16W\l302.exe)
 NPDir=0 NMtPBC=     1 NCelOv=     1 NCel=       1 NClECP=     1 NCelD=      1
         NCelK=      1 NCelE2=     1 NClLst=     1 CellRange=     0.0.
 One-electron integrals computed using PRISM.
   1 Symmetry operations used in ECPInt.
 ECPInt:  NShTT=   13530 NPrTT=   49129 LenC2=   12729 LenP2D=   33162.
 LDataN:  DoStor=T MaxTD1= 7 Len=  274
 NBasis=   362 RedAO= T EigKep=  2.11D-04  NBF=   362
 NBsUse=   362 1.00D-06 EigRej= -1.00D+00 NBFU=   362
 Precomputing XC quadrature grid using
 IXCGrd= 4 IRadAn=           5 IRanWt=          -1 IRanGd=           0 AccXCQ= 0.00D+00.
 Defaulting to unpruned grid for atomic number  47.
 Generated NRdTot=       0 NPtTot=           0 NUsed=           0 NTot=          32
 NSgBfM=   385   385   385   385   385 MxSgAt=    33 MxSgA2=    33.
 Leave Link  302 at Sat Sep 12 01:23:47 2026, MaxMem=  6442450944 cpu:              10.0 elap:               9.1
 (Enter C:\G16W\l303.exe)
 DipDrv:  MaxL=1.
 Leave Link  303 at Sat Sep 12 01:23:49 2026, MaxMem=  6442450944 cpu:               2.0 elap:               1.8
 (Enter C:\G16W\l401.exe)
 Initial guess from the checkpoint file:  "PhCz.chk"
 B after Tr=    -0.018000   -0.072849    0.249247
         Rot=    0.999913    0.010839   -0.007441   -0.000720 Ang=   1.51 deg.
 Guess basis will be translated and rotated to current coordinates.
 JPrj=2 DoOrth=T DoCkMO=T.
 Initial guess <Sx>= 0.0000 <Sy>= 0.0000 <Sz>= 0.5000 <S**2>= 0.7514 S= 0.5007
 Leave Link  401 at Sat Sep 12 01:24:07 2026, MaxMem=  6442450944 cpu:              18.0 elap:              18.1
 (Enter C:\G16W\l502.exe)
 Two-electron integral symmetry not used.
 UHF open shell SCF:
 Using DIIS extrapolation, IDIIS=  1040.
 NGot=  6442450944 LenX=  6442146052 LenY=  6441996615
 Requested convergence on RMS density matrix=1.00D-08 within 128 cycles.
 Requested convergence on MAX density matrix=1.00D-06.
 Requested convergence on             energy=1.00D-06.
 No special actions if energy rises.
 Fock matrices will be formed incrementally for  20 cycles.

 Cycle   1  Pass 1  IDiag  1:
 FoFJK:  IHMeth= 1 ICntrl=       0 DoSepK=F KAlg= 0 I1Cent=           0 FoldK=F
 IRaf= 890000000 NMat=       1 IRICut=       1 DoRegI=T DoRafI=F ISym2E= 0 IDoP0=0 IntGTp=1.
 FoFCou: FMM=F IPFlag=           0 FMFlag=      100000 FMFlg1=           0
         NFxFlg=           0 DoJE=F BraDBF=F KetDBF=F FulRan=T
         wScrn=  0.000000 ICntrl=         0 IOpCl=  1 I1Cent=           0 NGrid=           0
         NMat0=    1 NMatS0=      1 NMatT0=    0 NMatD0=    1 NMtDS0=    0 NMtDT0=    0
 Symmetry not used in FoFCou.
 Defaulting to unpruned grid for atomic number  47.
 Defaulting to unpruned grid for atomic number  47.
 Defaulting to unpruned grid for atomic number  47.
 Defaulting to unpruned grid for atomic number  47.
 Defaulting to unpruned grid for atomic number  47.
 Defaulting to unpruned grid for atomic number  47.
 Defaulting to unpruned grid for atomic number  47.
 Defaulting to unpruned grid for atomic number  47.
 E= -894.084606321866    
 DIIS: error= 8.86D-03 at cycle   1 NSaved=   1.
 NSaved= 1 IEnMin= 1 EnMin= -894.084606321866     IErMin= 1 ErrMin= 8.86D-03
 ErrMax= 8.86D-03  0.00D+00 EMaxC= 1.00D-01 BMatC= 4.17D-02 BMatP= 4.17D-02
 IDIUse=3 WtCom= 9.11D-01 WtEn= 8.86D-02
 Coeff-Com:  0.100D+01
 Coeff-En:   0.100D+01
 Coeff:      0.100D+01
 Gap=     0.149 Goal=   None    Shift=    0.000
 Gap=     0.179 Goal=   None    Shift=    0.000
 GapD=    0.149 DampG=1.000 DampE=1.000 DampFc=1.0000 IDamp=-1.
 RMSDP=7.82D-04 MaxDP=3.85D-02              OVMax= 3.70D-02

 Cycle   2  Pass 1  IDiag  1:
 RMSU=  7.82D-04    CP:  1.00D+00
 E= -894.091432595368     Delta-E=       -0.006826273502 Rises=F Damp=F
 DIIS: error= 9.64D-04 at cycle   2 NSaved=   2.
 NSaved= 2 IEnMin= 2 EnMin= -894.091432595368     IErMin= 2 ErrMin= 9.64D-04
 ErrMax= 9.64D-04  0.00D+00 EMaxC= 1.00D-01 BMatC= 2.25D-03 BMatP= 4.17D-02
 IDIUse=3 WtCom= 9.90D-01 WtEn= 9.64D-03
 Coeff-Com:  0.592D-01 0.941D+00
 Coeff-En:   0.000D+00 0.100D+01
 Coeff:      0.586D-01 0.941D+00
 Gap=     0.120 Goal=   None    Shift=    0.000
 Gap=     0.149 Goal=   None    Shift=    0.000
 RMSDP=2.46D-04 MaxDP=1.08D-02 DE=-6.83D-03 OVMax= 2.00D-02

 Cycle   3  Pass 1  IDiag  1:
 RMSU=  2.26D-04    CP:  1.00D+00  8.76D-01
 E= -894.090718699709     Delta-E=        0.000713895659 Rises=F Damp=F
 DIIS: error= 1.66D-03 at cycle   3 NSaved=   3.
 NSaved= 3 IEnMin= 2 EnMin= -894.091432595368     IErMin= 2 ErrMin= 9.64D-04
 ErrMax= 1.66D-03  0.00D+00 EMaxC= 1.00D-01 BMatC= 5.32D-03 BMatP= 2.25D-03
 IDIUse=3 WtCom= 1.97D-01 WtEn= 8.03D-01
 Coeff-Com: -0.794D-02 0.615D+00 0.393D+00
 Coeff-En:   0.000D+00 0.664D+00 0.336D+00
 Coeff:     -0.157D-02 0.655D+00 0.347D+00
 Gap=     0.120 Goal=   None    Shift=    0.000
 Gap=     0.151 Goal=   None    Shift=    0.000
 RMSDP=1.41D-04 MaxDP=4.39D-03 DE= 7.14D-04 OVMax= 1.09D-02

 Cycle   4  Pass 1  IDiag  1:
 RMSU=  5.78D-05    CP:  1.00D+00  9.73D-01  5.39D-01
 E= -894.092042701700     Delta-E=       -0.001324001991 Rises=F Damp=F
 DIIS: error= 3.21D-04 at cycle   4 NSaved=   4.
 NSaved= 4 IEnMin= 4 EnMin= -894.092042701700     IErMin= 4 ErrMin= 3.21D-04
 ErrMax= 3.21D-04  0.00D+00 EMaxC= 1.00D-01 BMatC= 1.61D-04 BMatP= 2.25D-03
 IDIUse=3 WtCom= 9.97D-01 WtEn= 3.21D-03
 Coeff-Com: -0.926D-02 0.304D+00 0.176D+00 0.530D+00
 Coeff-En:   0.000D+00 0.000D+00 0.000D+00 0.100D+01
 Coeff:     -0.923D-02 0.303D+00 0.175D+00 0.531D+00
 Gap=     0.119 Goal=   None    Shift=    0.000
 Gap=     0.152 Goal=   None    Shift=    0.000
 RMSDP=3.28D-05 MaxDP=3.98D-03 DE=-1.32D-03 OVMax= 1.77D-03

 Cycle   5  Pass 1  IDiag  1:
 RMSU=  2.40D-05    CP:  1.00D+00  9.93D-01  5.35D-01  7.29D-01
 E= -894.092078734629     Delta-E=       -0.000036032929 Rises=F Damp=F
 DIIS: error= 9.03D-05 at cycle   5 NSaved=   5.
 NSaved= 5 IEnMin= 5 EnMin= -894.092078734629     IErMin= 5 ErrMin= 9.03D-05
 ErrMax= 9.03D-05  0.00D+00 EMaxC= 1.00D-01 BMatC= 1.14D-05 BMatP= 1.61D-04
 IDIUse=1 WtCom= 1.00D+00 WtEn= 0.00D+00
 Coeff-Com: -0.221D-02 0.211D-01-0.111D-02 0.188D+00 0.794D+00
 Coeff:     -0.221D-02 0.211D-01-0.111D-02 0.188D+00 0.794D+00
 Gap=     0.120 Goal=   None    Shift=    0.000
 Gap=     0.151 Goal=   None    Shift=    0.000
 RMSDP=1.25D-05 MaxDP=1.05D-03 DE=-3.60D-05 OVMax= 1.15D-03

 Cycle   6  Pass 1  IDiag  1:
 RMSU=  1.01D-05    CP:  1.00D+00  9.98D-01  5.37D-01  8.32D-01  1.01D+00
 E= -894.092081753877     Delta-E=       -0.000003019248 Rises=F Damp=F
 DIIS: error= 5.30D-05 at cycle   6 NSaved=   6.
 NSaved= 6 IEnMin= 6 EnMin= -894.092081753877     IErMin= 6 ErrMin= 5.30D-05
 ErrMax= 5.30D-05  0.00D+00 EMaxC= 1.00D-01 BMatC= 5.16D-06 BMatP= 1.14D-05
 IDIUse=1 WtCom= 1.00D+00 WtEn= 0.00D+00
 Coeff-Com:  0.137D-03-0.363D-01-0.311D-01 0.314D-01 0.505D+00 0.530D+00
 Coeff:      0.137D-03-0.363D-01-0.311D-01 0.314D-01 0.505D+00 0.530D+00
 Gap=     0.119 Goal=   None    Shift=    0.000
 Gap=     0.151 Goal=   None    Shift=    0.000
 RMSDP=6.27D-06 MaxDP=4.71D-04 DE=-3.02D-06 OVMax= 5.20D-04

 Cycle   7  Pass 1  IDiag  1:
 RMSU=  4.49D-06    CP:  1.00D+00  9.99D-01  5.41D-01  8.64D-01  1.11D+00
                    CP:  7.15D-01
 E= -894.092083237271     Delta-E=       -0.000001483394 Rises=F Damp=F
 DIIS: error= 1.81D-05 at cycle   7 NSaved=   7.
 NSaved= 7 IEnMin= 7 EnMin= -894.092083237271     IErMin= 7 ErrMin= 1.81D-05
 ErrMax= 1.81D-05  0.00D+00 EMaxC= 1.00D-01 BMatC= 5.53D-07 BMatP= 5.16D-06
 IDIUse=1 WtCom= 1.00D+00 WtEn= 0.00D+00
 Coeff-Com:  0.308D-03-0.200D-01-0.158D-01-0.504D-02 0.181D+00 0.297D+00
 Coeff-Com:  0.563D+00
 Coeff:      0.308D-03-0.200D-01-0.158D-01-0.504D-02 0.181D+00 0.297D+00
 Coeff:      0.563D+00
 Gap=     0.119 Goal=   None    Shift=    0.000
 Gap=     0.152 Goal=   None    Shift=    0.000
 RMSDP=2.18D-06 MaxDP=2.42D-04 DE=-1.48D-06 OVMax= 2.42D-04

 Cycle   8  Pass 1  IDiag  1:
 RMSU=  1.54D-06    CP:  1.00D+00  9.99D-01  5.44D-01  8.76D-01  1.13D+00
                    CP:  7.89D-01  8.27D-01
 E= -894.092083425393     Delta-E=       -0.000000188122 Rises=F Damp=F
 DIIS: error= 6.06D-06 at cycle   8 NSaved=   8.
 NSaved= 8 IEnMin= 8 EnMin= -894.092083425393     IErMin= 8 ErrMin= 6.06D-06
 ErrMax= 6.06D-06  0.00D+00 EMaxC= 1.00D-01 BMatC= 7.07D-08 BMatP= 5.53D-07
 IDIUse=1 WtCom= 1.00D+00 WtEn= 0.00D+00
 Coeff-Com:  0.121D-03-0.969D-03-0.612D-04-0.131D-01-0.422D-01 0.915D-02
 Coeff-Com:  0.254D+00 0.793D+00
 Coeff:      0.121D-03-0.969D-03-0.612D-04-0.131D-01-0.422D-01 0.915D-02
 Coeff:      0.254D+00 0.793D+00
 Gap=     0.119 Goal=   None    Shift=    0.000
 Gap=     0.152 Goal=   None    Shift=    0.000
 RMSDP=1.24D-06 MaxDP=1.99D-04 DE=-1.88D-07 OVMax= 1.71D-04

 Cycle   9  Pass 1  IDiag  1:
 RMSU=  6.79D-07    CP:  1.00D+00  9.99D-01  5.44D-01  8.79D-01  1.16D+00
                    CP:  8.33D-01  9.69D-01  9.53D-01
 E= -894.092083461898     Delta-E=       -0.000000036504 Rises=F Damp=F
 DIIS: error= 3.82D-06 at cycle   9 NSaved=   9.
 NSaved= 9 IEnMin= 9 EnMin= -894.092083461898     IErMin= 9 ErrMin= 3.82D-06
 ErrMax= 3.82D-06  0.00D+00 EMaxC= 1.00D-01 BMatC= 1.34D-08 BMatP= 7.07D-08
 IDIUse=1 WtCom= 1.00D+00 WtEn= 0.00D+00
 Coeff-Com:  0.942D-05 0.281D-02 0.244D-02-0.586D-02-0.522D-01-0.424D-01
 Coeff-Com:  0.395D-01 0.378D+00 0.678D+00
 Coeff:      0.942D-05 0.281D-02 0.244D-02-0.586D-02-0.522D-01-0.424D-01
 Coeff:      0.395D-01 0.378D+00 0.678D+00
 Gap=     0.119 Goal=   None    Shift=    0.000
 Gap=     0.152 Goal=   None    Shift=    0.000
 RMSDP=4.75D-07 MaxDP=7.24D-05 DE=-3.65D-08 OVMax= 6.18D-05

 Cycle  10  Pass 1  IDiag  1:
 RMSU=  2.79D-07    CP:  1.00D+00  1.00D+00  5.45D-01  8.81D-01  1.16D+00
                    CP:  8.54D-01  1.01D+00  1.08D+00  9.41D-01
 E= -894.092083468266     Delta-E=       -0.000000006369 Rises=F Damp=F
 DIIS: error= 2.72D-06 at cycle  10 NSaved=  10.
 NSaved=10 IEnMin=10 EnMin= -894.092083468266     IErMin=10 ErrMin= 2.72D-06
 ErrMax= 2.72D-06  0.00D+00 EMaxC= 1.00D-01 BMatC= 4.04D-09 BMatP= 1.34D-08
 IDIUse=1 WtCom= 1.00D+00 WtEn= 0.00D+00
 Coeff-Com: -0.187D-04 0.195D-02 0.143D-02-0.528D-03-0.223D-01-0.251D-01
 Coeff-Com: -0.200D-01 0.697D-01 0.391D+00 0.604D+00
 Coeff:     -0.187D-04 0.195D-02 0.143D-02-0.528D-03-0.223D-01-0.251D-01
 Coeff:     -0.200D-01 0.697D-01 0.391D+00 0.604D+00
 Gap=     0.119 Goal=   None    Shift=    0.000
 Gap=     0.152 Goal=   None    Shift=    0.000
 RMSDP=1.85D-07 MaxDP=2.07D-05 DE=-6.37D-09 OVMax= 2.35D-05

 Cycle  11  Pass 1  IDiag  1:
 RMSU=  1.35D-07    CP:  1.00D+00  1.00D+00  5.45D-01  8.82D-01  1.16D+00
                    CP:  8.55D-01  1.03D+00  1.12D+00  1.04D+00  8.79D-01
 E= -894.092083470391     Delta-E=       -0.000000002125 Rises=F Damp=F
 DIIS: error= 1.17D-06 at cycle  11 NSaved=  11.
 NSaved=11 IEnMin=11 EnMin= -894.092083470391     IErMin=11 ErrMin= 1.17D-06
 ErrMax= 1.17D-06  0.00D+00 EMaxC= 1.00D-01 BMatC= 5.34D-10 BMatP= 4.04D-09
 IDIUse=1 WtCom= 1.00D+00 WtEn= 0.00D+00
 Coeff-Com: -0.401D-05-0.317D-03-0.298D-03 0.120D-02 0.707D-02 0.470D-02
 Coeff-Com: -0.100D-01-0.652D-01-0.866D-01 0.792D-01 0.107D+01
 Coeff:     -0.401D-05-0.317D-03-0.298D-03 0.120D-02 0.707D-02 0.470D-02
 Coeff:     -0.100D-01-0.652D-01-0.866D-01 0.792D-01 0.107D+01
 Gap=     0.119 Goal=   None    Shift=    0.000
 Gap=     0.152 Goal=   None    Shift=    0.000
 RMSDP=1.34D-07 MaxDP=8.51D-06 DE=-2.13D-09 OVMax= 1.75D-05

 Cycle  12  Pass 1  IDiag  1:
 RMSU=  7.61D-08    CP:  1.00D+00  1.00D+00  5.45D-01  8.82D-01  1.16D+00
                    CP:  8.56D-01  1.03D+00  1.13D+00  1.12D+00  1.13D+00
                    CP:  1.40D+00
 E= -894.092083471248     Delta-E=       -0.000000000856 Rises=F Damp=F
 DIIS: error= 7.38D-07 at cycle  12 NSaved=  12.
 NSaved=12 IEnMin=12 EnMin= -894.092083471248     IErMin=12 ErrMin= 7.38D-07
 ErrMax= 7.38D-07  0.00D+00 EMaxC= 1.00D-01 BMatC= 3.02D-10 BMatP= 5.34D-10
 IDIUse=1 WtCom= 1.00D+00 WtEn= 0.00D+00
 Coeff-Com:  0.573D-05-0.997D-03-0.730D-03 0.792D-03 0.130D-01 0.124D-01
 Coeff-Com:  0.160D-02-0.616D-01-0.207D+00-0.217D+00 0.571D+00 0.889D+00
 Coeff:      0.573D-05-0.997D-03-0.730D-03 0.792D-03 0.130D-01 0.124D-01
 Coeff:      0.160D-02-0.616D-01-0.207D+00-0.217D+00 0.571D+00 0.889D+00
 Gap=     0.119 Goal=   None    Shift=    0.000
 Gap=     0.152 Goal=   None    Shift=    0.000
 RMSDP=1.08D-07 MaxDP=6.64D-06 DE=-8.56D-10 OVMax= 1.44D-05

 Cycle  13  Pass 1  IDiag  1:
 RMSU=  4.47D-08    CP:  1.00D+00  1.00D+00  5.45D-01  8.82D-01  1.16D+00
                    CP:  8.56D-01  1.03D+00  1.14D+00  1.17D+00  1.28D+00
                    CP:  1.93D+00  1.50D+00
 E= -894.092083471700     Delta-E=       -0.000000000452 Rises=F Damp=F
 DIIS: error= 4.40D-07 at cycle  13 NSaved=  13.
 NSaved=13 IEnMin=13 EnMin= -894.092083471700     IErMin=13 ErrMin= 4.40D-07
 ErrMax= 4.40D-07  0.00D+00 EMaxC= 1.00D-01 BMatC= 1.03D-10 BMatP= 3.02D-10
 IDIUse=1 WtCom= 1.00D+00 WtEn= 0.00D+00
 Coeff-Com:  0.446D-05-0.380D-03-0.246D-03-0.115D-03 0.403D-02 0.458D-02
 Coeff-Com:  0.466D-02-0.269D-02-0.724D-01-0.157D+00-0.147D+00 0.486D+00
 Coeff-Com:  0.880D+00
 Coeff:      0.446D-05-0.380D-03-0.246D-03-0.115D-03 0.403D-02 0.458D-02
 Coeff:      0.466D-02-0.269D-02-0.724D-01-0.157D+00-0.147D+00 0.486D+00
 Coeff:      0.880D+00
 Gap=     0.119 Goal=   None    Shift=    0.000
 Gap=     0.152 Goal=   None    Shift=    0.000
 RMSDP=7.34D-08 MaxDP=3.95D-06 DE=-4.52D-10 OVMax= 9.48D-06

 Cycle  14  Pass 1  IDiag  1:
 RMSU=  2.78D-08    CP:  1.00D+00  1.00D+00  5.45D-01  8.82D-01  1.16D+00
                    CP:  8.56D-01  1.03D+00  1.15D+00  1.18D+00  1.39D+00
                    CP:  2.27D+00  2.00D+00  1.08D+00
 E= -894.092083471927     Delta-E=       -0.000000000227 Rises=F Damp=F
 DIIS: error= 1.90D-07 at cycle  14 NSaved=  14.
 NSaved=14 IEnMin=14 EnMin= -894.092083471927     IErMin=14 ErrMin= 1.90D-07
 ErrMax= 1.90D-07  0.00D+00 EMaxC= 1.00D-01 BMatC= 2.40D-11 BMatP= 1.03D-10
 IDIUse=1 WtCom= 1.00D+00 WtEn= 0.00D+00
 Coeff-Com:  0.931D-06 0.497D-04 0.444D-04-0.256D-03-0.108D-02-0.615D-03
 Coeff-Com:  0.199D-02 0.132D-01 0.146D-01-0.245D-01-0.216D+00 0.187D-01
 Coeff-Com:  0.448D+00 0.747D+00
 Coeff:      0.931D-06 0.497D-04 0.444D-04-0.256D-03-0.108D-02-0.615D-03
 Coeff:      0.199D-02 0.132D-01 0.146D-01-0.245D-01-0.216D+00 0.187D-01
 Coeff:      0.448D+00 0.747D+00
 Gap=     0.119 Goal=   None    Shift=    0.000
 Gap=     0.152 Goal=   None    Shift=    0.000
 RMSDP=2.89D-08 MaxDP=2.00D-06 DE=-2.27D-10 OVMax= 3.63D-06

 Cycle  15  Pass 1  IDiag  1:
 RMSU=  1.24D-08    CP:  1.00D+00  1.00D+00  5.45D-01  8.82D-01  1.16D+00
                    CP:  8.56D-01  1.03D+00  1.15D+00  1.19D+00  1.41D+00
                    CP:  2.38D+00  2.21D+00  1.36D+00  1.07D+00
 E= -894.092083471935     Delta-E=       -0.000000000009 Rises=F Damp=F
 DIIS: error= 7.81D-08 at cycle  15 NSaved=  15.
 NSaved=15 IEnMin=15 EnMin= -894.092083471935     IErMin=15 ErrMin= 7.81D-08
 ErrMax= 7.81D-08  0.00D+00 EMaxC= 1.00D-01 BMatC= 6.42D-12 BMatP= 2.40D-11
 IDIUse=1 WtCom= 1.00D+00 WtEn= 0.00D+00
 Coeff-Com: -0.338D-06 0.999D-04 0.676D-04-0.120D-03-0.138D-02-0.121D-02
 Coeff-Com:  0.238D-03 0.719D-02 0.222D-01 0.191D-01-0.905D-01-0.893D-01
 Coeff-Com:  0.773D-01 0.417D+00 0.639D+00
 Coeff:     -0.338D-06 0.999D-04 0.676D-04-0.120D-03-0.138D-02-0.121D-02
 Coeff:      0.238D-03 0.719D-02 0.222D-01 0.191D-01-0.905D-01-0.893D-01
 Coeff:      0.773D-01 0.417D+00 0.639D+00
 Gap=     0.119 Goal=   None    Shift=    0.000
 Gap=     0.152 Goal=   None    Shift=    0.000
 RMSDP=1.00D-08 MaxDP=8.49D-07 DE=-8.64D-12 OVMax= 1.16D-06

 Cycle  16  Pass 1  IDiag  1:
 RMSU=  4.84D-09    CP:  1.00D+00  1.00D+00  5.45D-01  8.82D-01  1.16D+00
                    CP:  8.56D-01  1.03D+00  1.15D+00  1.19D+00  1.41D+00
                    CP:  2.39D+00  2.28D+00  1.43D+00  1.23D+00  8.99D-01
 E= -894.092083471924     Delta-E=        0.000000000011 Rises=F Damp=F
 DIIS: error= 2.86D-08 at cycle  16 NSaved=  16.
 NSaved=16 IEnMin=15 EnMin= -894.092083471935     IErMin=16 ErrMin= 2.86D-08
 ErrMax= 2.86D-08  0.00D+00 EMaxC= 1.00D-01 BMatC= 8.73D-13 BMatP= 6.42D-12
 IDIUse=1 WtCom= 1.00D+00 WtEn= 0.00D+00
 Coeff-Com: -0.359D-06 0.333D-04 0.192D-04 0.765D-05-0.360D-03-0.389D-03
 Coeff-Com: -0.323D-03-0.123D-03 0.635D-02 0.148D-01 0.967D-02-0.422D-01
 Coeff-Com: -0.651D-01 0.105D-02 0.240D+00 0.837D+00
 Coeff:     -0.359D-06 0.333D-04 0.192D-04 0.765D-05-0.360D-03-0.389D-03
 Coeff:     -0.323D-03-0.123D-03 0.635D-02 0.148D-01 0.967D-02-0.422D-01
 Coeff:     -0.651D-01 0.105D-02 0.240D+00 0.837D+00
 Gap=     0.119 Goal=   None    Shift=    0.000
 Gap=     0.152 Goal=   None    Shift=    0.000
 RMSDP=4.47D-09 MaxDP=4.29D-07 DE= 1.09D-11 OVMax= 5.01D-07

 SCF Done:  E(UPBE1PBE) =  -894.092083472     A.U. after   16 cycles
            NFock= 16  Conv=0.45D-08     -V/T= 2.1230
 <Sx>= 0.0000 <Sy>= 0.0000 <Sz>= 0.5000 <S**2>= 0.7517 S= 0.5009
 <L.S>= 0.000000000000E+00
 KE= 7.961561561980D+02 PE=-5.293959836614D+03 EE= 1.980309000240D+03
 Annihilation of the first spin contaminant:
 S**2 before annihilation     0.7517,   after     0.7500
 Leave Link  502 at Sat Sep 12 01:30:24 2026, MaxMem=  6442450944 cpu:             377.0 elap:             376.9
 (Enter C:\G16W\l508.exe)
 QCSCF skips out because SCF is already converged.
 Leave Link  508 at Sat Sep 12 01:30:24 2026, MaxMem=  6442450944 cpu:               0.0 elap:               0.1
 (Enter C:\G16W\l601.exe)
 Copying SCF densities to generalized density rwf, IOpCl= 1 IROHF=0.

 **********************************************************************

            Population analysis using the SCF Density.

 **********************************************************************

 Alpha  occ. eigenvalues --  -14.45809 -10.29363 -10.28390 -10.28382 -10.25174
 Alpha  occ. eigenvalues --  -10.25100 -10.25082 -10.25028 -10.24759 -10.24594
 Alpha  occ. eigenvalues --  -10.24567 -10.24300 -10.24289 -10.24266 -10.24259
 Alpha  occ. eigenvalues --  -10.24064 -10.24045 -10.23479 -10.23460  -3.73848
 Alpha  occ. eigenvalues --   -2.31841  -2.31812  -2.31794  -1.04012  -0.90780
 Alpha  occ. eigenvalues --   -0.88084  -0.87619  -0.82110  -0.78799  -0.78437
 Alpha  occ. eigenvalues --   -0.77696  -0.74497  -0.74309  -0.67948  -0.65160
 Alpha  occ. eigenvalues --   -0.64487  -0.62832  -0.60443  -0.60015  -0.56896
 Alpha  occ. eigenvalues --   -0.54486  -0.53932  -0.51563  -0.50631  -0.48893
 Alpha  occ. eigenvalues --   -0.48070  -0.46967  -0.46682  -0.45786  -0.45573
 Alpha  occ. eigenvalues --   -0.45107  -0.44781  -0.43951  -0.40566  -0.39560
 Alpha  occ. eigenvalues --   -0.38796  -0.38714  -0.38119  -0.37903  -0.36385
 Alpha  occ. eigenvalues --   -0.35808  -0.35726  -0.32323  -0.31702  -0.31454
 Alpha  occ. eigenvalues --   -0.31358  -0.31015  -0.29932  -0.28534  -0.28372
 Alpha  occ. eigenvalues --   -0.27603  -0.23690  -0.22278  -0.15856
 Alpha virt. eigenvalues --   -0.03917  -0.02573  -0.02019  -0.00434   0.01447
 Alpha virt. eigenvalues --    0.02001   0.02370   0.03442   0.04485   0.06919
 Alpha virt. eigenvalues --    0.07738   0.08304   0.10275   0.10941   0.12199
 Alpha virt. eigenvalues --    0.12548   0.13576   0.13854   0.14658   0.15302
 Alpha virt. eigenvalues --    0.15840   0.16399   0.16751   0.17874   0.19196
 Alpha virt. eigenvalues --    0.19283   0.21162   0.22606   0.24740   0.25110
 Alpha virt. eigenvalues --    0.26340   0.26996   0.27625   0.28748   0.29714
 Alpha virt. eigenvalues --    0.30432   0.30766   0.31589   0.31673   0.32651
 Alpha virt. eigenvalues --    0.33372   0.33447   0.35258   0.35504   0.36617
 Alpha virt. eigenvalues --    0.37419   0.37686   0.38004   0.39833   0.40404
 Alpha virt. eigenvalues --    0.42400   0.43089   0.44255   0.44529   0.45520
 Alpha virt. eigenvalues --    0.45957   0.46106   0.47397   0.48085   0.48430
 Alpha virt. eigenvalues --    0.48975   0.49289   0.49844   0.50302   0.50689
 Alpha virt. eigenvalues --    0.51573   0.51986   0.52624   0.53549   0.53839
 Alpha virt. eigenvalues --    0.55186   0.55363   0.57021   0.57425   0.57928
 Alpha virt. eigenvalues --    0.58310   0.59417   0.59582   0.60470   0.61493
 Alpha virt. eigenvalues --    0.64310   0.65386   0.65802   0.66244   0.66731
 Alpha virt. eigenvalues --    0.66997   0.67436   0.67571   0.68333   0.68663
 Alpha virt. eigenvalues --    0.69043   0.69625   0.70516   0.70738   0.71618
 Alpha virt. eigenvalues --    0.72376   0.72917   0.73637   0.74660   0.74873
 Alpha virt. eigenvalues --    0.75231   0.75275   0.76673   0.76849   0.77061
 Alpha virt. eigenvalues --    0.78489   0.79548   0.79844   0.80302   0.81431
 Alpha virt. eigenvalues --    0.82410   0.84799   0.85507   0.85953   0.87132
 Alpha virt. eigenvalues --    0.87892   0.89994   0.91542   0.93350   0.94089
 Alpha virt. eigenvalues --    0.95427   0.95620   0.96877   0.98089   0.98826
 Alpha virt. eigenvalues --    1.02066   1.07024   1.09210   1.10252   1.13923
 Alpha virt. eigenvalues --    1.14714   1.16065   1.19545   1.20502   1.21202
 Alpha virt. eigenvalues --    1.21570   1.22778   1.23749   1.24033   1.24190
 Alpha virt. eigenvalues --    1.25738   1.26266   1.26822   1.27856   1.28386
 Alpha virt. eigenvalues --    1.29242   1.30105   1.30285   1.32027   1.32508
 Alpha virt. eigenvalues --    1.33545   1.34273   1.37729   1.38695   1.39218
 Alpha virt. eigenvalues --    1.44590   1.45231   1.51760   1.56953   1.59031
 Alpha virt. eigenvalues --    1.62968   1.66041   1.67428   1.68045   1.68682
 Alpha virt. eigenvalues --    1.69019   1.71034   1.71359   1.72008   1.72921
 Alpha virt. eigenvalues --    1.73293   1.74102   1.74621   1.75571   1.76167
 Alpha virt. eigenvalues --    1.76544   1.77475   1.77878   1.78279   1.79176
 Alpha virt. eigenvalues --    1.80398   1.80997   1.81653   1.81788   1.82928
 Alpha virt. eigenvalues --    1.83183   1.83264   1.85053   1.85522   1.87292
 Alpha virt. eigenvalues --    1.90423   1.92140   1.92866   1.95036   1.96157
 Alpha virt. eigenvalues --    1.96867   1.97320   1.97681   1.98902   1.99481
 Alpha virt. eigenvalues --    2.00707   2.01893   2.04548   2.04730   2.07065
 Alpha virt. eigenvalues --    2.07967   2.08088   2.09236   2.11454   2.13110
 Alpha virt. eigenvalues --    2.14083   2.15168   2.15268   2.16656   2.18121
 Alpha virt. eigenvalues --    2.18458   2.20030   2.20993   2.21502   2.21703
 Alpha virt. eigenvalues --    2.22298   2.23995   2.26721   2.30163   2.30572
 Alpha virt. eigenvalues --    2.30757   2.31262   2.32014   2.32489   2.34862
 Alpha virt. eigenvalues --    2.34970   2.35281   2.36851   2.38410   2.42436
 Alpha virt. eigenvalues --    2.42522   2.43116   2.47678   2.51061   2.53658
 Alpha virt. eigenvalues --    2.55085   2.58300   2.59878   2.61266   2.62834
 Alpha virt. eigenvalues --    2.63109   2.63697   2.63737   2.63964   2.64343
 Alpha virt. eigenvalues --    2.65124   2.65729   2.66221   2.66863   2.67216
 Alpha virt. eigenvalues --    2.70189   2.71057   2.74778   2.75279   2.75746
 Alpha virt. eigenvalues --    2.76973   2.77120   2.77462   2.78899   2.80214
 Alpha virt. eigenvalues --    2.81776   2.83233   2.90200   2.90398   2.91585
 Alpha virt. eigenvalues --    2.92378   2.94542   3.00166   3.02187   3.06161
 Alpha virt. eigenvalues --    3.07695   3.13252   3.15478   3.17151   3.17182
 Alpha virt. eigenvalues --    3.24615   3.35825   3.39404   3.46803   3.61532
 Alpha virt. eigenvalues --    3.71839   3.75898  53.88528
  Beta  occ. eigenvalues --  -14.45795 -10.29356 -10.28383 -10.28377 -10.25176
  Beta  occ. eigenvalues --  -10.25086 -10.25076 -10.25019 -10.24762 -10.24578
  Beta  occ. eigenvalues --  -10.24551 -10.24295 -10.24288 -10.24262 -10.24252
  Beta  occ. eigenvalues --  -10.24066 -10.24049 -10.23478 -10.23457  -3.73729
  Beta  occ. eigenvalues --   -2.31813  -2.31783  -2.31756  -1.03968  -0.90759
  Beta  occ. eigenvalues --   -0.88067  -0.87602  -0.82089  -0.78782  -0.78420
  Beta  occ. eigenvalues --   -0.77680  -0.74485  -0.74292  -0.67934  -0.65138
  Beta  occ. eigenvalues --   -0.64471  -0.62813  -0.60428  -0.60002  -0.56880
  Beta  occ. eigenvalues --   -0.54476  -0.53916  -0.51544  -0.50545  -0.48877
  Beta  occ. eigenvalues --   -0.48033  -0.46953  -0.46612  -0.45752  -0.45561
  Beta  occ. eigenvalues --   -0.45095  -0.44738  -0.43941  -0.40536  -0.39547
  Beta  occ. eigenvalues --   -0.38738  -0.38706  -0.38100  -0.37867  -0.36344
  Beta  occ. eigenvalues --   -0.35795  -0.35671  -0.31947  -0.31129  -0.30845
  Beta  occ. eigenvalues --   -0.30739  -0.30411  -0.29601  -0.28496  -0.28323
  Beta  occ. eigenvalues --   -0.27528  -0.23632  -0.22201
  Beta virt. eigenvalues --   -0.07049  -0.03869  -0.02511  -0.01821  -0.00384
  Beta virt. eigenvalues --    0.02484   0.03241   0.04041   0.04401   0.06803
  Beta virt. eigenvalues --    0.07461   0.07840   0.08343   0.10337   0.11054
  Beta virt. eigenvalues --    0.12390   0.12663   0.13615   0.13887   0.15383
  Beta virt. eigenvalues --    0.15415   0.15899   0.16516   0.17156   0.18098
  Beta virt. eigenvalues --    0.19225   0.19338   0.21374   0.22775   0.24842
  Beta virt. eigenvalues --    0.25516   0.26604   0.27515   0.27713   0.28822
  Beta virt. eigenvalues --    0.29802   0.30873   0.31059   0.31812   0.32555
  Beta virt. eigenvalues --    0.33631   0.33891   0.34607   0.35690   0.35958
  Beta virt. eigenvalues --    0.36956   0.37519   0.38104   0.38439   0.39925
  Beta virt. eigenvalues --    0.40655   0.42534   0.43300   0.44377   0.44658
  Beta virt. eigenvalues --    0.45762   0.46525   0.46876   0.47716   0.48386
  Beta virt. eigenvalues --    0.48632   0.49304   0.49478   0.49998   0.50555
  Beta virt. eigenvalues --    0.50890   0.51754   0.52142   0.52815   0.53640
  Beta virt. eigenvalues --    0.54266   0.55518   0.56120   0.57178   0.57506
  Beta virt. eigenvalues --    0.58293   0.58354   0.59696   0.59884   0.60838
  Beta virt. eigenvalues --    0.61659   0.64617   0.65475   0.65912   0.66354
  Beta virt. eigenvalues --    0.66907   0.67207   0.67743   0.68018   0.68410
  Beta virt. eigenvalues --    0.68986   0.69280   0.69758   0.70607   0.70800
  Beta virt. eigenvalues --    0.71806   0.72446   0.72970   0.73856   0.74705
  Beta virt. eigenvalues --    0.74936   0.75271   0.75415   0.76800   0.76891
  Beta virt. eigenvalues --    0.77177   0.78616   0.79572   0.79902   0.80504
  Beta virt. eigenvalues --    0.81640   0.82612   0.84899   0.85559   0.86044
  Beta virt. eigenvalues --    0.87191   0.87991   0.90342   0.91817   0.93423
  Beta virt. eigenvalues --    0.94244   0.95599   0.95738   0.96947   0.98202
  Beta virt. eigenvalues --    0.98925   1.02178   1.07124   1.09253   1.10296
  Beta virt. eigenvalues --    1.13953   1.14768   1.16342   1.19562   1.20528
  Beta virt. eigenvalues --    1.21242   1.21633   1.22832   1.23787   1.24074
  Beta virt. eigenvalues --    1.24210   1.25763   1.26286   1.26845   1.27896
  Beta virt. eigenvalues --    1.28427   1.29269   1.30127   1.30315   1.32061
  Beta virt. eigenvalues --    1.32542   1.33582   1.34309   1.37767   1.38732
  Beta virt. eigenvalues --    1.39278   1.44612   1.45259   1.51776   1.56988
  Beta virt. eigenvalues --    1.59080   1.62982   1.66074   1.67458   1.68073
  Beta virt. eigenvalues --    1.68699   1.69034   1.71041   1.71379   1.72024
  Beta virt. eigenvalues --    1.72939   1.73307   1.74118   1.74635   1.75576
  Beta virt. eigenvalues --    1.76184   1.76562   1.77485   1.77884   1.78299
  Beta virt. eigenvalues --    1.79188   1.80414   1.81046   1.81671   1.81798
  Beta virt. eigenvalues --    1.82950   1.83206   1.83279   1.85078   1.85549
  Beta virt. eigenvalues --    1.87320   1.90435   1.92169   1.92885   1.95045
  Beta virt. eigenvalues --    1.96164   1.96877   1.97325   1.97703   1.98927
  Beta virt. eigenvalues --    1.99493   2.00721   2.01937   2.04619   2.04742
  Beta virt. eigenvalues --    2.07150   2.07982   2.08112   2.09258   2.11478
  Beta virt. eigenvalues --    2.13230   2.14303   2.15186   2.15337   2.16698
  Beta virt. eigenvalues --    2.18447   2.18470   2.20110   2.21054   2.21541
  Beta virt. eigenvalues --    2.21791   2.22337   2.24033   2.26882   2.30175
  Beta virt. eigenvalues --    2.30587   2.30773   2.31331   2.32026   2.32510
  Beta virt. eigenvalues --    2.34875   2.34991   2.35299   2.36871   2.38434
  Beta virt. eigenvalues --    2.42449   2.42540   2.43137   2.47686   2.51080
  Beta virt. eigenvalues --    2.53680   2.55101   2.58316   2.59924   2.61281
  Beta virt. eigenvalues --    2.62861   2.63137   2.63710   2.63751   2.63978
  Beta virt. eigenvalues --    2.64375   2.65160   2.65751   2.66267   2.66889
  Beta virt. eigenvalues --    2.67252   2.70216   2.71078   2.74788   2.75298
  Beta virt. eigenvalues --    2.75758   2.76988   2.77130   2.77474   2.78903
  Beta virt. eigenvalues --    2.80233   2.81790   2.83244   2.90217   2.90416
  Beta virt. eigenvalues --    2.91604   2.92400   2.94559   3.00181   3.02197
  Beta virt. eigenvalues --    3.06172   3.07704   3.13258   3.15486   3.17157
  Beta virt. eigenvalues --    3.17199   3.24626   3.35839   3.39419   3.46817
  Beta virt. eigenvalues --    3.61538   3.71854   3.75907  53.88689
          Condensed to atoms (all electrons):
               1          2          3          4          5          6
     1  C    5.127085   0.257041   0.094749  -0.176092  -0.000413   0.000070
     2  C    0.257041   5.090930   0.258833   0.130856   0.009143  -0.000055
     3  C    0.094749   0.258833   5.153807   0.246653  -0.063271   0.003180
     4  C   -0.176092   0.130856   0.246653   5.271260   0.278324  -0.067770
     5  N   -0.000413   0.009143  -0.063271   0.278324   6.840651   0.336705
     6  C    0.000070  -0.000055   0.003180  -0.067770   0.336705   5.384877
     7  C   -0.000011  -0.000026   0.001152  -0.002062  -0.082926   0.270003
     8  C    0.000000   0.000000   0.000003  -0.000025   0.008089   0.137181
     9  C    0.000000   0.000000  -0.000002   0.000019  -0.000282  -0.167869
    10  C    0.000000   0.000000   0.000005  -0.000037   0.009444   0.036142
    11  C    0.000001   0.000000  -0.000503   0.010777  -0.093010   0.186053
    12  C    0.000000   0.000000   0.000965   0.008876  -0.091632  -0.057373
    13  C    0.000000   0.000000  -0.000020  -0.000040   0.009564   0.016214
    14  C    0.000000   0.000000  -0.000005   0.000025  -0.000329   0.000259
    15  C    0.000000   0.000001   0.000028   0.000056   0.008361  -0.001264
    16  C   -0.000003  -0.000763  -0.002057  -0.001867  -0.084555   0.010029
    17  C    0.000066   0.000144  -0.011748  -0.061632   0.328887  -0.154244
    18  C    0.095322  -0.159662   0.069098   0.230639  -0.074859  -0.005581
    19  C    0.257064   0.109469  -0.154792   0.129021   0.009283   0.000116
    20  H    0.452809  -0.070778   0.015046  -0.001766   0.000011   0.000001
    21  H   -0.071120   0.449643  -0.067196   0.015995  -0.000174   0.000003
    22  H    0.014877  -0.067248   0.458486  -0.072481  -0.011305  -0.000289
    23  H   -0.000035   0.000012  -0.000387   0.003278  -0.011718  -0.077921
    24  H    0.000000   0.000000   0.000001  -0.000018  -0.000154   0.015174
    25  H    0.000000   0.000000   0.000000   0.000000   0.000014  -0.001116
    26  H    0.000000   0.000000   0.000000   0.000014  -0.000136   0.019139
    27  H    0.000000   0.000000   0.000000   0.000013  -0.000136  -0.000858
    28  H    0.000000   0.000000   0.000000   0.000000   0.000013   0.000017
    29  H    0.000000  -0.000002   0.000006  -0.000020  -0.000151   0.000013
    30  H   -0.000045   0.000496   0.004705   0.003326  -0.012291  -0.000091
    31  H    0.014958  -0.002583   0.015679  -0.076407  -0.012455   0.002562
    32  H   -0.072725   0.014295  -0.001769   0.016402  -0.000162  -0.000029
    33  Ag  -0.000781   0.000301  -0.002653  -0.012752  -0.029253   0.008077
               7          8          9         10         11         12
     1  C   -0.000011   0.000000   0.000000   0.000000   0.000001   0.000000
     2  C   -0.000026   0.000000   0.000000   0.000000   0.000000   0.000000
     3  C    0.001152   0.000003  -0.000002   0.000005  -0.000503   0.000965
     4  C   -0.002062  -0.000025   0.000019  -0.000037   0.010777   0.008876
     5  N   -0.082926   0.008089  -0.000282   0.009444  -0.093010  -0.091632
     6  C    0.270003   0.137181  -0.167869   0.036142   0.186053  -0.057373
     7  C    5.149651   0.271334   0.086147  -0.122808   0.047727   0.019281
     8  C    0.271334   5.084945   0.264796   0.084263  -0.160157   0.001425
     9  C    0.086147   0.264796   5.086223   0.301733   0.098104   0.017563
    10  C   -0.122808   0.084263   0.301733   5.071703   0.340827  -0.098595
    11  C    0.047727  -0.160157   0.098104   0.340827   5.516875   0.228672
    12  C    0.019281   0.001425   0.017563  -0.098595   0.228672   5.524611
    13  C   -0.000561   0.000114  -0.000413  -0.007730  -0.100126   0.338857
    14  C    0.000003   0.000002  -0.000005  -0.000401   0.017802   0.099015
    15  C    0.000002  -0.000001   0.000001   0.000112   0.001332  -0.160790
    16  C   -0.000218   0.000004   0.000003  -0.000526   0.020161   0.046409
    17  C    0.010615  -0.001231   0.000235   0.016000  -0.058742   0.178330
    18  C   -0.001773   0.000151  -0.000008  -0.000024   0.000290  -0.000574
    19  C   -0.000632   0.000006   0.000000   0.000000  -0.000023   0.000002
    20  H    0.000000   0.000000   0.000000   0.000000   0.000000   0.000000
    21  H    0.000000   0.000000   0.000000   0.000000   0.000000  -0.000001
    22  H   -0.000013  -0.000002   0.000000   0.000000   0.000022  -0.000466
    23  H    0.466340  -0.074914   0.014623  -0.002415   0.018803  -0.000683
    24  H   -0.066815   0.446447  -0.068867   0.014235  -0.001098   0.000019
    25  H    0.014670  -0.070612   0.447190  -0.067911   0.015536  -0.000538
    26  H   -0.002398   0.014652  -0.075324   0.453051  -0.059139  -0.026190
    27  H    0.000030  -0.000012   0.000102   0.005159  -0.026075  -0.059162
    28  H    0.000000   0.000000   0.000000  -0.000002  -0.000537   0.015598
    29  H    0.000000   0.000000   0.000000   0.000000   0.000015  -0.001119
    30  H    0.000014   0.000001   0.000000   0.000007  -0.000630   0.018715
    31  H    0.001910   0.000254  -0.000029  -0.000018  -0.000577   0.000205
    32  H    0.000023   0.000000   0.000000   0.000000   0.000000   0.000000
    33  Ag  -0.001665  -0.001477   0.000151  -0.002133  -0.019576  -0.022149
              13         14         15         16         17         18
     1  C    0.000000   0.000000   0.000000  -0.000003   0.000066   0.095322
     2  C    0.000000   0.000000   0.000001  -0.000763   0.000144  -0.159662
     3  C   -0.000020  -0.000005   0.000028  -0.002057  -0.011748   0.069098
     4  C   -0.000040   0.000025   0.000056  -0.001867  -0.061632   0.230639
     5  N    0.009564  -0.000329   0.008361  -0.084555   0.328887  -0.074859
     6  C    0.016214   0.000259  -0.001264   0.010029  -0.154244  -0.005581
     7  C   -0.000561   0.000003   0.000002  -0.000218   0.010615  -0.001773
     8  C    0.000114   0.000002  -0.000001   0.000004  -0.001231   0.000151
     9  C   -0.000413  -0.000005   0.000001   0.000003   0.000235  -0.000008
    10  C   -0.007730  -0.000401   0.000112  -0.000526   0.016000  -0.000024
    11  C   -0.100126   0.017802   0.001332   0.020161  -0.058742   0.000290
    12  C    0.338857   0.099015  -0.160790   0.046409   0.178330  -0.000574
    13  C    5.075662   0.300148   0.085247  -0.124343   0.036222  -0.000004
    14  C    0.300148   5.088196   0.263943   0.087613  -0.168639  -0.000001
    15  C    0.085247   0.263943   5.088885   0.268082   0.136402  -0.000008
    16  C   -0.124343   0.087613   0.268082   5.155415   0.267916   0.001484
    17  C    0.036222  -0.168639   0.136402   0.267916   5.398879   0.005300
    18  C   -0.000004  -0.000001  -0.000008   0.001484   0.005300   5.177983
    19  C    0.000000   0.000000   0.000000  -0.000022  -0.000270   0.264678
    20  H    0.000000   0.000000   0.000000   0.000000   0.000001   0.015216
    21  H    0.000000   0.000000   0.000000   0.000029  -0.000031  -0.001630
    22  H   -0.000014  -0.000017   0.000453   0.002886   0.001708   0.016476
    23  H    0.000006   0.000000   0.000001   0.000012  -0.000086   0.004608
    24  H    0.000000   0.000000   0.000000   0.000000   0.000012   0.000005
    25  H   -0.000002   0.000000   0.000000   0.000000   0.000017   0.000000
    26  H    0.005118   0.000106  -0.000013   0.000031  -0.000861   0.000000
    27  H    0.452788  -0.075096   0.014605  -0.002379   0.019068   0.000000
    28  H   -0.068058   0.447302  -0.070721   0.014780  -0.001131   0.000000
    29  H    0.014268  -0.069177   0.446861  -0.067068   0.015397   0.000000
    30  H   -0.002534   0.014741  -0.075886   0.467038  -0.077139  -0.000302
    31  H    0.000004   0.000000   0.000000  -0.000006  -0.000886   0.457620
    32  H    0.000000   0.000000   0.000000   0.000000   0.000006  -0.066784
    33  Ag  -0.000048  -0.001187  -0.000293  -0.000594   0.011945  -0.007315
              19         20         21         22         23         24
     1  C    0.257064   0.452809  -0.071120   0.014877  -0.000035   0.000000
     2  C    0.109469  -0.070778   0.449643  -0.067248   0.000012   0.000000
     3  C   -0.154792   0.015046  -0.067196   0.458486  -0.000387   0.000001
     4  C    0.129021  -0.001766   0.015995  -0.072481   0.003278  -0.000018
     5  N    0.009283   0.000011  -0.000174  -0.011305  -0.011718  -0.000154
     6  C    0.000116   0.000001   0.000003  -0.000289  -0.077921   0.015174
     7  C   -0.000632   0.000000   0.000000  -0.000013   0.466340  -0.066815
     8  C    0.000006   0.000000   0.000000  -0.000002  -0.074914   0.446447
     9  C    0.000000   0.000000   0.000000   0.000000   0.014623  -0.068867
    10  C    0.000000   0.000000   0.000000   0.000000  -0.002415   0.014235
    11  C   -0.000023   0.000000   0.000000   0.000022   0.018803  -0.001098
    12  C    0.000002   0.000000  -0.000001  -0.000466  -0.000683   0.000019
    13  C    0.000000   0.000000   0.000000  -0.000014   0.000006   0.000000
    14  C    0.000000   0.000000   0.000000  -0.000017   0.000000   0.000000
    15  C    0.000000   0.000000   0.000000   0.000453   0.000001   0.000000
    16  C   -0.000022   0.000000   0.000029   0.002886   0.000012   0.000000
    17  C   -0.000270   0.000001  -0.000031   0.001708  -0.000086   0.000012
    18  C    0.264678   0.015216  -0.001630   0.016476   0.004608   0.000005
    19  C    5.073505  -0.070185   0.014149  -0.002487   0.000368  -0.000002
    20  H   -0.070185   0.664626  -0.012234  -0.000230  -0.000001   0.000000
    21  H    0.014149  -0.012234   0.664010  -0.012346  -0.000002   0.000000
    22  H   -0.002487  -0.000230  -0.012346   0.652261  -0.000029   0.000000
    23  H    0.000368  -0.000001  -0.000002  -0.000029   0.667475  -0.012470
    24  H   -0.000002   0.000000   0.000000   0.000000  -0.012470   0.670430
    25  H    0.000000   0.000000   0.000000   0.000000  -0.000239  -0.012726
    26  H    0.000000   0.000000   0.000000   0.000000   0.000022  -0.000281
    27  H    0.000000   0.000000   0.000000  -0.000001   0.000000   0.000000
    28  H    0.000000   0.000000   0.000000   0.000000   0.000000   0.000000
    29  H    0.000000   0.000000   0.000000   0.000002   0.000000   0.000000
    30  H   -0.000001  -0.000001   0.000043  -0.001200  -0.000001   0.000000
    31  H   -0.061535  -0.000223   0.000027  -0.000129  -0.000542   0.000001
    32  H    0.451394  -0.012154  -0.000307   0.000026   0.000030   0.000000
    33  Ag   0.001961   0.000014  -0.000029  -0.000098  -0.001762   0.000081
              25         26         27         28         29         30
     1  C    0.000000   0.000000   0.000000   0.000000   0.000000  -0.000045
     2  C    0.000000   0.000000   0.000000   0.000000  -0.000002   0.000496
     3  C    0.000000   0.000000   0.000000   0.000000   0.000006   0.004705
     4  C    0.000000   0.000014   0.000013   0.000000  -0.000020   0.003326
     5  N    0.000014  -0.000136  -0.000136   0.000013  -0.000151  -0.012291
     6  C   -0.001116   0.019139  -0.000858   0.000017   0.000013  -0.000091
     7  C    0.014670  -0.002398   0.000030   0.000000   0.000000   0.000014
     8  C   -0.070612   0.014652  -0.000012   0.000000   0.000000   0.000001
     9  C    0.447190  -0.075324   0.000102   0.000000   0.000000   0.000000
    10  C   -0.067911   0.453051   0.005159  -0.000002   0.000000   0.000007
    11  C    0.015536  -0.059139  -0.026075  -0.000537   0.000015  -0.000630
    12  C   -0.000538  -0.026190  -0.059162   0.015598  -0.001119   0.018715
    13  C   -0.000002   0.005118   0.452788  -0.068058   0.014268  -0.002534
    14  C    0.000000   0.000106  -0.075096   0.447302  -0.069177   0.014741
    15  C    0.000000  -0.000013   0.014605  -0.070721   0.446861  -0.075886
    16  C    0.000000   0.000031  -0.002379   0.014780  -0.067068   0.467038
    17  C    0.000017  -0.000861   0.019068  -0.001131   0.015397  -0.077139
    18  C    0.000000   0.000000   0.000000   0.000000   0.000000  -0.000302
    19  C    0.000000   0.000000   0.000000   0.000000   0.000000  -0.000001
    20  H    0.000000   0.000000   0.000000   0.000000   0.000000  -0.000001
    21  H    0.000000   0.000000   0.000000   0.000000   0.000000   0.000043
    22  H    0.000000   0.000000  -0.000001   0.000000   0.000002  -0.001200
    23  H   -0.000239   0.000022   0.000000   0.000000   0.000000  -0.000001
    24  H   -0.012726  -0.000281   0.000000   0.000000   0.000000   0.000000
    25  H    0.676092  -0.011875   0.000003   0.000000   0.000000   0.000000
    26  H   -0.011875   0.684157   0.000387   0.000003   0.000000   0.000000
    27  H    0.000003   0.000387   0.683720  -0.011853  -0.000281   0.000023
    28  H    0.000000   0.000003  -0.011853   0.676081  -0.012721  -0.000235
    29  H    0.000000   0.000000  -0.000281  -0.012721   0.670335  -0.012557
    30  H    0.000000   0.000000   0.000023  -0.000235  -0.012557   0.667192
    31  H    0.000000   0.000000   0.000000   0.000000   0.000000  -0.000022
    32  H    0.000000   0.000000   0.000000   0.000000   0.000000  -0.000002
    33  Ag   0.000109   0.000020   0.000073   0.000079   0.000119  -0.001322
              31         32         33
     1  C    0.014958  -0.072725  -0.000781
     2  C   -0.002583   0.014295   0.000301
     3  C    0.015679  -0.001769  -0.002653
     4  C   -0.076407   0.016402  -0.012752
     5  N   -0.012455  -0.000162  -0.029253
     6  C    0.002562  -0.000029   0.008077
     7  C    0.001910   0.000023  -0.001665
     8  C    0.000254   0.000000  -0.001477
     9  C   -0.000029   0.000000   0.000151
    10  C   -0.000018   0.000000  -0.002133
    11  C   -0.000577   0.000000  -0.019576
    12  C    0.000205   0.000000  -0.022149
    13  C    0.000004   0.000000  -0.000048
    14  C    0.000000   0.000000  -0.001187
    15  C    0.000000   0.000000  -0.000293
    16  C   -0.000006   0.000000  -0.000594
    17  C   -0.000886   0.000006   0.011945
    18  C    0.457620  -0.066784  -0.007315
    19  C   -0.061535   0.451394   0.001961
    20  H   -0.000223  -0.012154   0.000014
    21  H    0.000027  -0.000307  -0.000029
    22  H   -0.000129   0.000026  -0.000098
    23  H   -0.000542   0.000030  -0.001762
    24  H    0.000001   0.000000   0.000081
    25  H    0.000000   0.000000   0.000109
    26  H    0.000000   0.000000   0.000020
    27  H    0.000000   0.000000   0.000073
    28  H    0.000000   0.000000   0.000079
    29  H    0.000000   0.000000   0.000119
    30  H   -0.000022  -0.000002  -0.001322
    31  H    0.638247  -0.013268   0.006356
    32  H   -0.013268   0.662446   0.000504
    33  Ag   0.006356   0.000504  19.108322
          Atomic-Atomic Spin Densities.
               1          2          3          4          5          6
     1  C   -0.001099  -0.000223   0.000427  -0.000188  -0.000002  -0.000008
     2  C   -0.000223   0.006450  -0.000867  -0.000249   0.000003   0.000004
     3  C    0.000427  -0.000867  -0.001154   0.001360   0.000118  -0.000130
     4  C   -0.000188  -0.000249   0.001360   0.007075   0.003659  -0.000706
     5  N   -0.000002   0.000003   0.000118   0.003659   0.017812  -0.000242
     6  C   -0.000008   0.000004  -0.000130  -0.000706  -0.000242   0.004491
     7  C    0.000002  -0.000001  -0.000008   0.000275   0.000364  -0.000375
     8  C    0.000000   0.000000   0.000002   0.000017   0.000191   0.001106
     9  C    0.000000   0.000000   0.000000   0.000001   0.000000  -0.000275
    10  C    0.000000   0.000000   0.000001   0.000014   0.000288   0.000586
    11  C    0.000000   0.000000   0.000011   0.000349   0.002844   0.002071
    12  C    0.000000   0.000000   0.000017   0.000374   0.002839  -0.000317
    13  C    0.000000   0.000000   0.000001   0.000012   0.000156  -0.000028
    14  C    0.000000   0.000000   0.000001   0.000001   0.000018  -0.000009
    15  C    0.000000  -0.000001   0.000011   0.000045   0.000094  -0.000033
    16  C    0.000001  -0.000004   0.000002   0.000103   0.000165   0.000091
    17  C   -0.000007   0.000013  -0.000330  -0.000875  -0.001089   0.001140
    18  C    0.000559  -0.000005   0.000327   0.000985   0.000609  -0.000126
    19  C   -0.001398  -0.000179  -0.000415   0.000525  -0.000022   0.000026
    20  H   -0.000274  -0.000029  -0.000032   0.000014   0.000000   0.000000
    21  H    0.000000   0.000070   0.000048  -0.000013   0.000000   0.000000
    22  H   -0.000033   0.000122  -0.000700  -0.000183  -0.000047   0.000094
    23  H    0.000002   0.000000   0.000002   0.000024   0.000048   0.000040
    24  H    0.000000   0.000000   0.000000   0.000000   0.000002   0.000042
    25  H    0.000000   0.000000   0.000000   0.000000   0.000000   0.000006
    26  H    0.000000   0.000000   0.000000   0.000000   0.000001   0.000013
    27  H    0.000000   0.000000   0.000000   0.000000   0.000002  -0.000001
    28  H    0.000000   0.000000   0.000000   0.000000   0.000000   0.000000
    29  H    0.000000   0.000000   0.000001   0.000001   0.000002  -0.000001
    30  H    0.000002  -0.000002   0.000063   0.000004   0.000047  -0.000006
    31  H   -0.000005   0.000005  -0.000048   0.000246   0.000034  -0.000008
    32  H   -0.000256   0.000001  -0.000014   0.000010  -0.000001   0.000000
    33  Ag  -0.000554   0.000302  -0.001690  -0.012365  -0.031934  -0.006153
               7          8          9         10         11         12
     1  C    0.000002   0.000000   0.000000   0.000000   0.000000   0.000000
     2  C   -0.000001   0.000000   0.000000   0.000000   0.000000   0.000000
     3  C   -0.000008   0.000002   0.000000   0.000001   0.000011   0.000017
     4  C    0.000275   0.000017   0.000001   0.000014   0.000349   0.000374
     5  N    0.000364   0.000191   0.000000   0.000288   0.002844   0.002839
     6  C   -0.000375   0.001106  -0.000275   0.000586   0.002071  -0.000317
     7  C    0.006634  -0.001401  -0.000017  -0.000140   0.000433  -0.000046
     8  C   -0.001401  -0.000755  -0.000130   0.000406  -0.000248   0.000069
     9  C   -0.000017  -0.000130   0.002865  -0.000371  -0.000182  -0.000036
    10  C   -0.000140   0.000406  -0.000371  -0.000061   0.000257   0.000720
    11  C    0.000433  -0.000248  -0.000182   0.000257   0.010567   0.005402
    12  C   -0.000046   0.000069  -0.000036   0.000720   0.005402   0.010116
    13  C   -0.000009   0.000004   0.000000   0.000219   0.000624  -0.000041
    14  C    0.000000   0.000000   0.000000   0.000003  -0.000013  -0.000082
    15  C    0.000000   0.000000   0.000000   0.000004   0.000068  -0.000060
    16  C    0.000000   0.000000   0.000000  -0.000012  -0.000078   0.000281
    17  C    0.000081  -0.000060  -0.000005  -0.000101  -0.000415   0.002282
    18  C    0.000300   0.000048  -0.000002   0.000005   0.000057   0.000015
    19  C   -0.000027  -0.000002   0.000000   0.000000  -0.000001  -0.000001
    20  H    0.000000   0.000000   0.000000   0.000000   0.000000   0.000000
    21  H    0.000000   0.000000   0.000000   0.000000   0.000000   0.000000
    22  H    0.000002  -0.000001   0.000000  -0.000001  -0.000006  -0.000003
    23  H    0.000039   0.000094  -0.000002   0.000002   0.000016   0.000002
    24  H   -0.000149   0.000153  -0.000035   0.000006  -0.000007   0.000001
    25  H   -0.000020   0.000025   0.000070  -0.000021  -0.000008   0.000000
    26  H   -0.000005   0.000008   0.000008   0.000048  -0.000029   0.000002
    27  H    0.000000   0.000000   0.000000   0.000020   0.000004  -0.000038
    28  H    0.000000   0.000000   0.000000   0.000000   0.000001  -0.000001
    29  H    0.000000   0.000000   0.000000   0.000000   0.000001  -0.000003
    30  H    0.000000   0.000000   0.000000   0.000000   0.000002   0.000023
    31  H   -0.000092   0.000007  -0.000001   0.000001   0.000015  -0.000011
    32  H   -0.000001   0.000000   0.000000   0.000000   0.000000   0.000000
    33  Ag  -0.001593  -0.002670   0.000711  -0.005029  -0.019355  -0.019937
              13         14         15         16         17         18
     1  C    0.000000   0.000000   0.000000   0.000001  -0.000007   0.000559
     2  C    0.000000   0.000000  -0.000001  -0.000004   0.000013  -0.000005
     3  C    0.000001   0.000001   0.000011   0.000002  -0.000330   0.000327
     4  C    0.000012   0.000001   0.000045   0.000103  -0.000875   0.000985
     5  N    0.000156   0.000018   0.000094   0.000165  -0.001089   0.000609
     6  C   -0.000028  -0.000009  -0.000033   0.000091   0.001140  -0.000126
     7  C   -0.000009   0.000000   0.000000   0.000000   0.000081   0.000300
     8  C    0.000004   0.000000   0.000000   0.000000  -0.000060   0.000048
     9  C    0.000000   0.000000   0.000000   0.000000  -0.000005  -0.000002
    10  C    0.000219   0.000003   0.000004  -0.000012  -0.000101   0.000005
    11  C    0.000624  -0.000013   0.000068  -0.000078  -0.000415   0.000057
    12  C   -0.000041  -0.000082  -0.000060   0.000281   0.002282   0.000015
    13  C   -0.001417  -0.000086   0.000193  -0.000035   0.000241   0.000001
    14  C   -0.000086   0.002031  -0.000205  -0.000041  -0.000160   0.000000
    15  C    0.000193  -0.000205  -0.001167  -0.000293   0.000768   0.000000
    16  C   -0.000035  -0.000041  -0.000293   0.004127  -0.000229   0.000003
    17  C    0.000241  -0.000160   0.000768  -0.000229   0.006422  -0.000165
    18  C    0.000001   0.000000   0.000000   0.000003  -0.000165   0.009113
    19  C    0.000000   0.000000   0.000000  -0.000001   0.000021  -0.002282
    20  H    0.000000   0.000000   0.000000   0.000000   0.000000  -0.000021
    21  H    0.000000   0.000000   0.000000   0.000000  -0.000001   0.000001
    22  H   -0.000002  -0.000001  -0.000019   0.000084   0.000217  -0.000002
    23  H    0.000000   0.000000   0.000000   0.000000  -0.000007   0.000097
    24  H    0.000000   0.000000   0.000000   0.000000   0.000000   0.000002
    25  H    0.000000   0.000000   0.000000   0.000000   0.000000   0.000000
    26  H    0.000009   0.000000   0.000000   0.000000   0.000000   0.000000
    27  H    0.000055   0.000019   0.000010  -0.000007   0.000014   0.000000
    28  H   -0.000038   0.000069   0.000018  -0.000017   0.000005   0.000000
    29  H   -0.000002  -0.000021   0.000110  -0.000122   0.000048   0.000000
    30  H   -0.000001  -0.000003   0.000070  -0.000019   0.000133  -0.000002
    31  H    0.000000   0.000000   0.000000   0.000001   0.000019   0.001357
    32  H    0.000000   0.000000   0.000000   0.000000   0.000000  -0.000311
    33  Ag  -0.002615   0.000147  -0.001937  -0.001135  -0.005090  -0.009808
              19         20         21         22         23         24
     1  C   -0.001398  -0.000274   0.000000  -0.000033   0.000002   0.000000
     2  C   -0.000179  -0.000029   0.000070   0.000122   0.000000   0.000000
     3  C   -0.000415  -0.000032   0.000048  -0.000700   0.000002   0.000000
     4  C    0.000525   0.000014  -0.000013  -0.000183   0.000024   0.000000
     5  N   -0.000022   0.000000   0.000000  -0.000047   0.000048   0.000002
     6  C    0.000026   0.000000   0.000000   0.000094   0.000040   0.000042
     7  C   -0.000027   0.000000   0.000000   0.000002   0.000039  -0.000149
     8  C   -0.000002   0.000000   0.000000  -0.000001   0.000094   0.000153
     9  C    0.000000   0.000000   0.000000   0.000000  -0.000002  -0.000035
    10  C    0.000000   0.000000   0.000000  -0.000001   0.000002   0.000006
    11  C   -0.000001   0.000000   0.000000  -0.000006   0.000016  -0.000007
    12  C   -0.000001   0.000000   0.000000  -0.000003   0.000002   0.000001
    13  C    0.000000   0.000000   0.000000  -0.000002   0.000000   0.000000
    14  C    0.000000   0.000000   0.000000  -0.000001   0.000000   0.000000
    15  C    0.000000   0.000000   0.000000  -0.000019   0.000000   0.000000
    16  C   -0.000001   0.000000   0.000000   0.000084   0.000000   0.000000
    17  C    0.000021   0.000000  -0.000001   0.000217  -0.000007   0.000000
    18  C   -0.002282  -0.000021   0.000001  -0.000002   0.000097   0.000002
    19  C    0.008105   0.000144  -0.000019   0.000039  -0.000019   0.000000
    20  H    0.000144   0.000394  -0.000008   0.000004   0.000000   0.000000
    21  H   -0.000019  -0.000008  -0.000327  -0.000018   0.000000   0.000000
    22  H    0.000039   0.000004  -0.000018   0.000532  -0.000001   0.000000
    23  H   -0.000019   0.000000   0.000000  -0.000001  -0.000213   0.000008
    24  H    0.000000   0.000000   0.000000   0.000000   0.000008   0.000191
    25  H    0.000000   0.000000   0.000000   0.000000   0.000000   0.000006
    26  H    0.000000   0.000000   0.000000   0.000000   0.000000   0.000000
    27  H    0.000000   0.000000   0.000000   0.000000   0.000000   0.000000
    28  H    0.000000   0.000000   0.000000   0.000000   0.000000   0.000000
    29  H    0.000000   0.000000   0.000000  -0.000001   0.000000   0.000000
    30  H   -0.000001   0.000000   0.000000  -0.000019   0.000000   0.000000
    31  H   -0.000032   0.000000   0.000000   0.000000  -0.000004   0.000000
    32  H    0.000316   0.000033  -0.000001   0.000001   0.000000   0.000000
    33  Ag   0.000814   0.000035  -0.000009   0.000419  -0.000403  -0.000110
              25         26         27         28         29         30
     1  C    0.000000   0.000000   0.000000   0.000000   0.000000   0.000002
     2  C    0.000000   0.000000   0.000000   0.000000   0.000000  -0.000002
     3  C    0.000000   0.000000   0.000000   0.000000   0.000001   0.000063
     4  C    0.000000   0.000000   0.000000   0.000000   0.000001   0.000004
     5  N    0.000000   0.000001   0.000002   0.000000   0.000002   0.000047
     6  C    0.000006   0.000013  -0.000001   0.000000  -0.000001  -0.000006
     7  C   -0.000020  -0.000005   0.000000   0.000000   0.000000   0.000000
     8  C    0.000025   0.000008   0.000000   0.000000   0.000000   0.000000
     9  C    0.000070   0.000008   0.000000   0.000000   0.000000   0.000000
    10  C   -0.000021   0.000048   0.000020   0.000000   0.000000   0.000000
    11  C   -0.000008  -0.000029   0.000004   0.000001   0.000001   0.000002
    12  C    0.000000   0.000002  -0.000038  -0.000001  -0.000003   0.000023
    13  C    0.000000   0.000009   0.000055  -0.000038  -0.000002  -0.000001
    14  C    0.000000   0.000000   0.000019   0.000069  -0.000021  -0.000003
    15  C    0.000000   0.000000   0.000010   0.000018   0.000110   0.000070
    16  C    0.000000   0.000000  -0.000007  -0.000017  -0.000122  -0.000019
    17  C    0.000000   0.000000   0.000014   0.000005   0.000048   0.000133
    18  C    0.000000   0.000000   0.000000   0.000000   0.000000  -0.000002
    19  C    0.000000   0.000000   0.000000   0.000000   0.000000  -0.000001
    20  H    0.000000   0.000000   0.000000   0.000000   0.000000   0.000000
    21  H    0.000000   0.000000   0.000000   0.000000   0.000000   0.000000
    22  H    0.000000   0.000000   0.000000   0.000000  -0.000001  -0.000019
    23  H    0.000000   0.000000   0.000000   0.000000   0.000000   0.000000
    24  H    0.000006   0.000000   0.000000   0.000000   0.000000   0.000000
    25  H   -0.000131   0.000002   0.000000   0.000000   0.000000   0.000000
    26  H    0.000002   0.000073   0.000000   0.000000   0.000000   0.000000
    27  H    0.000000   0.000000   0.000116   0.000003   0.000000   0.000000
    28  H    0.000000   0.000000   0.000003  -0.000074   0.000007   0.000000
    29  H    0.000000   0.000000   0.000000   0.000007   0.000188   0.000008
    30  H    0.000000   0.000000   0.000000   0.000000   0.000008  -0.000164
    31  H    0.000000   0.000000   0.000000   0.000000   0.000000   0.000000
    32  H    0.000000   0.000000   0.000000   0.000000   0.000000   0.000000
    33  Ag  -0.000058  -0.000082  -0.000136  -0.000064  -0.000131  -0.000385
              31         32         33
     1  C   -0.000005  -0.000256  -0.000554
     2  C    0.000005   0.000001   0.000302
     3  C   -0.000048  -0.000014  -0.001690
     4  C    0.000246   0.000010  -0.012365
     5  N    0.000034  -0.000001  -0.031934
     6  C   -0.000008   0.000000  -0.006153
     7  C   -0.000092  -0.000001  -0.001593
     8  C    0.000007   0.000000  -0.002670
     9  C   -0.000001   0.000000   0.000711
    10  C    0.000001   0.000000  -0.005029
    11  C    0.000015   0.000000  -0.019355
    12  C   -0.000011   0.000000  -0.019937
    13  C    0.000000   0.000000  -0.002615
    14  C    0.000000   0.000000   0.000147
    15  C    0.000000   0.000000  -0.001937
    16  C    0.000001   0.000000  -0.001135
    17  C    0.000019   0.000000  -0.005090
    18  C    0.001357  -0.000311  -0.009808
    19  C   -0.000032   0.000316   0.000814
    20  H    0.000000   0.000033   0.000035
    21  H    0.000000  -0.000001  -0.000009
    22  H    0.000000   0.000001   0.000419
    23  H   -0.000004   0.000000  -0.000403
    24  H    0.000000   0.000000  -0.000110
    25  H    0.000000   0.000000  -0.000058
    26  H    0.000000   0.000000  -0.000082
    27  H    0.000000   0.000000  -0.000136
    28  H    0.000000   0.000000  -0.000064
    29  H    0.000000   0.000000  -0.000131
    30  H    0.000000   0.000000  -0.000385
    31  H   -0.001198  -0.000009  -0.000761
    32  H   -0.000009  -0.000032   0.000229
    33  Ag  -0.000761   0.000229   1.111556
 Mulliken charges and spin densities:
               1          2
     1  C    0.007182  -0.003054
     2  C   -0.020047   0.005409
     3  C   -0.017991  -0.002998
     4  C    0.127436   0.000515
     5  N   -0.269275  -0.004041
     6  C    0.108646   0.001292
     7  C   -0.056994   0.004246
     8  C   -0.005234  -0.003137
     9  C   -0.004090   0.002600
    10  C   -0.030081  -0.003156
    11  C    0.017195   0.002379
    12  C    0.020731   0.001566
    13  C   -0.030320  -0.002761
    14  C   -0.004298   0.001668
    15  C   -0.005398  -0.002323
    16  C   -0.057489   0.002864
    17  C    0.109489   0.002870
    18  C   -0.020345   0.000754
    19  C   -0.021067   0.005590
    20  H    0.019849   0.000262
    21  H    0.021170  -0.000277
    22  H    0.021158   0.000478
    23  H    0.007626  -0.000277
    24  H    0.016028   0.000108
    25  H    0.011389  -0.000128
    26  H   -0.000483   0.000048
    27  H   -0.000117   0.000062
    28  H    0.011384  -0.000090
    29  H    0.016081   0.000088
    30  H    0.007960  -0.000247
    31  H    0.030856  -0.000483
    32  H    0.022074  -0.000035
    33  Ag  -0.033025   0.990207
 Sum of Mulliken charges =   0.00000   1.00000
 Mulliken charges and spin densities with hydrogens summed into heavy atoms:
               1          2
     1  C    0.027031  -0.002791
     2  C    0.001123   0.005132
     3  C    0.003168  -0.002520
     4  C    0.127436   0.000515
     5  N   -0.269275  -0.004041
     6  C    0.108646   0.001292
     7  C   -0.049368   0.003969
     8  C    0.010793  -0.003029
     9  C    0.007298   0.002471
    10  C   -0.030564  -0.003108
    11  C    0.017195   0.002379
    12  C    0.020731   0.001566
    13  C   -0.030438  -0.002699
    14  C    0.007086   0.001578
    15  C    0.010683  -0.002234
    16  C   -0.049529   0.002616
    17  C    0.109489   0.002870
    18  C    0.010511   0.000271
    19  C    0.001007   0.005556
    33  Ag  -0.033025   0.990207
 Electronic spatial extent (au):  <R**2>=           5325.3940
 Charge=              0.0000 electrons
 Dipole moment (field-independent basis, Debye):
    X=              1.2622    Y=             -0.1815    Z=              2.0932  Tot=              2.4510
 Quadrupole moment (field-independent basis, Debye-Ang):
   XX=           -113.4927   YY=           -120.3377   ZZ=           -141.3824
   XY=             -1.1300   XZ=              1.3995   YZ=              4.2144
 Traceless Quadrupole moment (field-independent basis, Debye-Ang):
   XX=             11.5783   YY=              4.7332   ZZ=            -16.3115
   XY=             -1.1300   XZ=              1.3995   YZ=              4.2144
 Octapole moment (field-independent basis, Debye-Ang**2):
  XXX=             62.1876  YYY=            -10.0522  ZZZ=            236.8585  XYY=              6.7806
  XXY=             -9.6015  XXZ=             65.1021  XZZ=             36.3841  YZZ=             -5.9641
  YYZ=             62.9877  XYZ=             11.0006
 Hexadecapole moment (field-independent basis, Debye-Ang**3):
 XXXX=          -3418.8121 YYYY=          -2312.2007 ZZZZ=          -1448.7609 XXXY=             38.5154
 XXXZ=           -183.3846 YYYX=             82.5553 YYYZ=            -46.0699 ZZZX=           -245.2269
 ZZZY=            -46.8769 XXYY=          -1008.4854 XXZZ=           -874.5798 YYZZ=           -685.6412
 XXYZ=             22.7607 YYXZ=            -76.3907 ZZXY=             27.4601
 N-N= 1.623402596704D+03 E-N=-5.293959833342D+03  KE= 7.961561561980D+02
                          Isotropic Fermi Contact Couplings
        Atom                 a.u.       MegaHertz       Gauss      10(-4) cm-1
     1  C(13)             -0.00014      -0.15255      -0.05443      -0.05088
     2  C(13)              0.00086       0.96236       0.34339       0.32101
     3  C(13)              0.00009       0.09851       0.03515       0.03286
     4  C(13)              0.00158       1.77445       0.63317       0.59189
     5  N(14)              0.00931       3.00895       1.07367       1.00368
     6  C(13)              0.00511       5.74742       2.05082       1.91713
     7  C(13)              0.00276       3.10423       1.10767       1.03546
     8  C(13)             -0.00054      -0.60314      -0.21522      -0.20119
     9  C(13)              0.00036       0.40313       0.14385       0.13447
    10  C(13)              0.00049       0.54708       0.19521       0.18249
    11  C(13)              0.00594       6.68194       2.38428       2.22885
    12  C(13)              0.00585       6.58008       2.34794       2.19488
    13  C(13)              0.00031       0.34390       0.12271       0.11471
    14  C(13)              0.00025       0.28260       0.10084       0.09426
    15  C(13)             -0.00039      -0.43663      -0.15580      -0.14564
    16  C(13)              0.00304       3.41831       1.21974       1.14023
    17  C(13)              0.00357       4.01771       1.43362       1.34016
    18  C(13)              0.00932      10.47490       3.73770       3.49405
    19  C(13)              0.00091       1.02700       0.36646       0.34257
    20  H(1)               0.00007       0.33133       0.11823       0.11052
    21  H(1)              -0.00008      -0.34981      -0.12482      -0.11668
    22  H(1)               0.00002       0.10906       0.03892       0.03638
    23  H(1)              -0.00006      -0.26329      -0.09395      -0.08782
    24  H(1)               0.00004       0.17861       0.06373       0.05958
    25  H(1)              -0.00003      -0.14717      -0.05251      -0.04909
    26  H(1)               0.00002       0.07615       0.02717       0.02540
    27  H(1)               0.00003       0.13618       0.04859       0.04542
    28  H(1)              -0.00002      -0.09850      -0.03515      -0.03286
    29  H(1)               0.00004       0.16513       0.05892       0.05508
    30  H(1)               0.00000      -0.00439      -0.00157      -0.00147
    31  H(1)               0.00006       0.29035       0.10361       0.09685
    32  H(1)              -0.00004      -0.16562      -0.05910      -0.05524
    33  Ag(107             0.00033      -0.06048      -0.02158      -0.02018
 --------------------------------------------------------
       Center         ----  Spin Dipole Couplings  ----
                      3XX-RR        3YY-RR        3ZZ-RR
 --------------------------------------------------------
     1   Atom        0.001661     -0.001919      0.000259
     2   Atom       -0.002194      0.001683      0.000510
     3   Atom        0.001190     -0.002549      0.001359
     4   Atom       -0.002606     -0.000170      0.002776
     5   Atom       -0.006545     -0.008368      0.014914
     6   Atom       -0.004275     -0.002018      0.006293
     7   Atom       -0.005203     -0.001524      0.006727
     8   Atom       -0.000118      0.001979     -0.001861
     9   Atom       -0.001094     -0.000670      0.001764
    10   Atom        0.000941     -0.000760     -0.000181
    11   Atom       -0.005224     -0.006887      0.012111
    12   Atom       -0.005038     -0.006657      0.011695
    13   Atom        0.000570     -0.000224     -0.000346
    14   Atom       -0.001252     -0.000075      0.001327
    15   Atom       -0.000733      0.001688     -0.000955
    16   Atom       -0.004462     -0.001549      0.006011
    17   Atom       -0.005282     -0.003910      0.009192
    18   Atom        0.002279     -0.003937      0.001658
    19   Atom        0.000131      0.000912     -0.001043
    20   Atom        0.000510     -0.000452     -0.000059
    21   Atom       -0.000018     -0.000377      0.000395
    22   Atom       -0.000305     -0.000942      0.001248
    23   Atom       -0.001183      0.000514      0.000669
    24   Atom       -0.000705      0.000911     -0.000206
    25   Atom        0.000069      0.000173     -0.000242
    26   Atom        0.001288     -0.001167     -0.000121
    27   Atom        0.000852     -0.000859      0.000007
    28   Atom       -0.000326      0.000433     -0.000107
    29   Atom       -0.000897      0.000923     -0.000026
    30   Atom       -0.000866     -0.000168      0.001033
    31   Atom        0.002118     -0.002468      0.000349
    32   Atom        0.001262     -0.000650     -0.000613
    33   Atom        0.008426      0.008397     -0.016823
 --------------------------------------------------------
                        XY            XZ            YZ
 --------------------------------------------------------
     1   Atom       -0.000449      0.001495      0.001695
     2   Atom        0.000452      0.000877     -0.003382
     3   Atom       -0.000488      0.002198      0.001583
     4   Atom       -0.000856      0.003474     -0.003609
     5   Atom       -0.000256      0.006679     -0.001593
     6   Atom        0.000369     -0.000804     -0.004203
     7   Atom        0.000090     -0.000609     -0.005730
     8   Atom        0.000934     -0.000456     -0.001899
     9   Atom        0.001466     -0.001470     -0.001409
    10   Atom        0.001703     -0.002877     -0.001912
    11   Atom        0.001419     -0.006074     -0.003570
    12   Atom       -0.001067     -0.006236      0.002636
    13   Atom       -0.001647     -0.002333      0.002132
    14   Atom       -0.001214     -0.001148      0.001571
    15   Atom       -0.000478     -0.000223      0.002157
    16   Atom        0.000536      0.000433      0.005291
    17   Atom        0.000026      0.000648      0.002331
    18   Atom        0.001622      0.007970      0.004959
    19   Atom        0.001582     -0.000256     -0.003677
    20   Atom       -0.000118      0.000617      0.000040
    21   Atom        0.000288      0.000871      0.000180
    22   Atom        0.000245      0.001076      0.000469
    23   Atom       -0.000998      0.000747     -0.002419
    24   Atom        0.000502     -0.000257     -0.001145
    25   Atom        0.001117     -0.000694     -0.000740
    26   Atom        0.000867     -0.001749     -0.000501
    27   Atom       -0.001120     -0.001713      0.000744
    28   Atom       -0.000934     -0.000627      0.000924
    29   Atom       -0.000162     -0.000056      0.001302
    30   Atom        0.001252      0.001397      0.002295
    31   Atom       -0.004322      0.007026     -0.002641
    32   Atom       -0.001079      0.000508     -0.000244
    33   Atom       -0.002131      0.004578      0.000743
 --------------------------------------------------------


 ---------------------------------------------------------------------------------
              Anisotropic Spin Dipole Couplings in Principal Axis System
 ---------------------------------------------------------------------------------

       Atom             a.u.   MegaHertz   Gauss  10(-4) cm-1        Axes

              Baa    -0.0031    -0.419    -0.149    -0.140  0.2391  0.8213 -0.5180
     1 C(13)  Bbb     0.0004     0.058     0.021     0.019 -0.5546  0.5534  0.6214
              Bcc     0.0027     0.360     0.129     0.120  0.7970  0.1386  0.5878
 
              Baa    -0.0032    -0.434    -0.155    -0.145  0.6816 -0.4562 -0.5721
     2 C(13)  Bbb    -0.0013    -0.175    -0.062    -0.058  0.7309  0.4601  0.5040
              Bcc     0.0045     0.609     0.217     0.203 -0.0332  0.7617 -0.6471
 
              Baa    -0.0035    -0.465    -0.166    -0.155  0.2857  0.8645 -0.4136
     3 C(13)  Bbb    -0.0001    -0.016    -0.006    -0.005  0.7009 -0.4828 -0.5250
              Bcc     0.0036     0.481     0.172     0.161  0.6535  0.1399  0.7439
 
              Baa    -0.0045    -0.609    -0.217    -0.203  0.8118 -0.2690 -0.5182
     4 C(13)  Bbb    -0.0019    -0.259    -0.092    -0.086  0.4654  0.8341  0.2961
              Bcc     0.0065     0.868     0.310     0.290  0.3526 -0.4816  0.8024
 
              Baa    -0.0087    -0.334    -0.119    -0.111 -0.6537  0.7197  0.2339
     5 N(14)  Bbb    -0.0083    -0.319    -0.114    -0.106  0.7054  0.6914 -0.1557
              Bcc     0.0169     0.653     0.233     0.218  0.2738 -0.0632  0.9597
 
              Baa    -0.0043    -0.582    -0.208    -0.194  0.9960 -0.0768  0.0449
     6 C(13)  Bbb    -0.0038    -0.506    -0.181    -0.169  0.0534  0.9199  0.3885
              Bcc     0.0081     1.088     0.388     0.363 -0.0712 -0.3845  0.9204
 
              Baa    -0.0053    -0.708    -0.253    -0.236  0.9712  0.1921  0.1410
     7 C(13)  Bbb    -0.0044    -0.592    -0.211    -0.197 -0.2351  0.8695  0.4345
              Bcc     0.0097     1.300     0.464     0.434 -0.0391 -0.4551  0.8896
 
              Baa    -0.0026    -0.355    -0.127    -0.118  0.0287  0.3748  0.9267
     8 C(13)  Bbb    -0.0005    -0.061    -0.022    -0.020  0.9511 -0.2953  0.0900
              Bcc     0.0031     0.415     0.148     0.139  0.3074  0.8788 -0.3650
 
              Baa    -0.0024    -0.319    -0.114    -0.106  0.7839 -0.6171  0.0683
     9 C(13)  Bbb    -0.0009    -0.123    -0.044    -0.041  0.4631  0.6546  0.5975
              Bcc     0.0033     0.442     0.158     0.147 -0.4134 -0.4368  0.7989
 
              Baa    -0.0027    -0.365    -0.130    -0.122  0.4473  0.3942  0.8028
    10 C(13)  Bbb    -0.0018    -0.242    -0.086    -0.081 -0.5808  0.8106 -0.0745
              Bcc     0.0045     0.607     0.217     0.203  0.6802  0.4330 -0.5915
 
              Baa    -0.0077    -1.033    -0.369    -0.345 -0.4661  0.8846  0.0165
    11 C(13)  Bbb    -0.0070    -0.940    -0.335    -0.314  0.8329  0.4324  0.3454
              Bcc     0.0147     1.974     0.704     0.658 -0.2984 -0.1747  0.9383
 
              Baa    -0.0073    -0.974    -0.348    -0.325  0.7531  0.6385  0.1590
    12 C(13)  Bbb    -0.0069    -0.925    -0.330    -0.308 -0.5787  0.7577 -0.3016
              Bcc     0.0142     1.899     0.678     0.633 -0.3130  0.1352  0.9401
 
              Baa    -0.0026    -0.351    -0.125    -0.117  0.3399 -0.4849  0.8058
    13 C(13)  Bbb    -0.0015    -0.200    -0.071    -0.067  0.7021  0.7009  0.1256
              Bcc     0.0041     0.551     0.197     0.184  0.6257 -0.5231 -0.5787
 
              Baa    -0.0020    -0.271    -0.097    -0.091  0.8710  0.4863  0.0703
    14 C(13)  Bbb    -0.0010    -0.128    -0.046    -0.043 -0.3332  0.6896 -0.6429
              Bcc     0.0030     0.399     0.142     0.133 -0.3611  0.5366  0.7627
 
              Baa    -0.0022    -0.290    -0.104    -0.097 -0.0282 -0.4910  0.8707
    15 C(13)  Bbb    -0.0008    -0.108    -0.039    -0.036  0.9897  0.1088  0.0934
              Bcc     0.0030     0.399     0.142     0.133 -0.1405  0.8643  0.4829
 
              Baa    -0.0047    -0.628    -0.224    -0.210  0.8264 -0.5173  0.2225
    16 C(13)  Bbb    -0.0041    -0.548    -0.195    -0.183  0.5611  0.7230 -0.4030
              Bcc     0.0088     1.176     0.420     0.392  0.0476  0.4579  0.8877
 
              Baa    -0.0053    -0.714    -0.255    -0.238  0.9955  0.0755 -0.0566
    17 C(13)  Bbb    -0.0043    -0.578    -0.206    -0.193 -0.0839  0.9826 -0.1657
              Bcc     0.0096     1.291     0.461     0.431  0.0431  0.1697  0.9846
 
              Baa    -0.0081    -1.080    -0.386    -0.360 -0.4086 -0.6323  0.6583
    18 C(13)  Bbb    -0.0033    -0.444    -0.159    -0.148 -0.6310  0.7167  0.2968
              Bcc     0.0114     1.525     0.544     0.509  0.6594  0.2941  0.6918
 
              Baa    -0.0040    -0.539    -0.192    -0.180 -0.1917  0.6255  0.7563
    19 C(13)  Bbb    -0.0002    -0.029    -0.010    -0.010  0.9242 -0.1442  0.3535
              Bcc     0.0042     0.568     0.203     0.189  0.3302  0.7668 -0.5504
 
              Baa    -0.0006    -0.294    -0.105    -0.098  0.4104  0.7110 -0.5710
    20 H(1)   Bbb    -0.0004    -0.191    -0.068    -0.064 -0.3476  0.7008  0.6229
              Bcc     0.0009     0.485     0.173     0.162  0.8431 -0.0572  0.5347
 
              Baa    -0.0007    -0.399    -0.142    -0.133  0.7730 -0.3406 -0.5352
    21 H(1)   Bbb    -0.0004    -0.215    -0.077    -0.072  0.1488  0.9174 -0.3690
              Bcc     0.0012     0.614     0.219     0.205  0.6167  0.2056  0.7599
 
              Baa    -0.0010    -0.555    -0.198    -0.185 -0.1043  0.9828 -0.1522
    22 H(1)   Bbb    -0.0009    -0.457    -0.163    -0.152  0.8879  0.0231 -0.4594
              Bcc     0.0019     1.012     0.361     0.338  0.4480  0.1830  0.8751
 
              Baa    -0.0019    -1.024    -0.365    -0.342  0.4160  0.7212  0.5539
    23 H(1)   Bbb    -0.0014    -0.762    -0.272    -0.254  0.8706 -0.1399 -0.4716
              Bcc     0.0033     1.786     0.637     0.596  0.2627 -0.6784  0.6861
 
              Baa    -0.0009    -0.502    -0.179    -0.168 -0.3877  0.5584  0.7334
    24 H(1)   Bbb    -0.0008    -0.434    -0.155    -0.145  0.8945  0.0357  0.4457
              Bcc     0.0018     0.936     0.334     0.312  0.2227  0.8288 -0.5133
 
              Baa    -0.0010    -0.532    -0.190    -0.177  0.7138 -0.6997 -0.0294
    25 H(1)   Bbb    -0.0008    -0.404    -0.144    -0.135  0.3360  0.3053  0.8910
              Bcc     0.0018     0.936     0.334     0.312  0.6145  0.6459 -0.4530
 
              Baa    -0.0015    -0.775    -0.277    -0.259 -0.4151  0.8847 -0.2122
    26 H(1)   Bbb    -0.0013    -0.679    -0.242    -0.226  0.4236  0.3943  0.8155
              Bcc     0.0027     1.454     0.519     0.485  0.8052  0.2486 -0.5384
 
              Baa    -0.0014    -0.773    -0.276    -0.258  0.6086  0.7108  0.3527
    27 H(1)   Bbb    -0.0013    -0.667    -0.238    -0.223  0.2806 -0.6085  0.7423
              Bcc     0.0027     1.440     0.514     0.480  0.7422 -0.3527 -0.5698
 
              Baa    -0.0010    -0.509    -0.182    -0.170  0.8350  0.5499  0.0183
    28 H(1)   Bbb    -0.0008    -0.418    -0.149    -0.139  0.2719 -0.4414  0.8552
              Bcc     0.0017     0.927     0.331     0.309 -0.4783  0.7091  0.5180
 
              Baa    -0.0010    -0.519    -0.185    -0.173 -0.5850 -0.4927  0.6442
    29 H(1)   Bbb    -0.0009    -0.466    -0.166    -0.155  0.8088 -0.2957  0.5083
              Bcc     0.0018     0.984     0.351     0.328 -0.0600  0.8184  0.5715
 
              Baa    -0.0020    -1.060    -0.378    -0.354 -0.3289  0.8191 -0.4700
    30 H(1)   Bbb    -0.0016    -0.856    -0.305    -0.285  0.8613  0.0560 -0.5051
              Bcc     0.0036     1.916     0.684     0.639  0.3874  0.5709  0.7239
 
              Baa    -0.0062    -3.321    -1.185    -1.108  0.7029  0.3909 -0.5942
    31 H(1)   Bbb    -0.0041    -2.161    -0.771    -0.721 -0.0175  0.8447  0.5350
              Bcc     0.0103     5.482     1.956     1.829  0.7111 -0.3656  0.6006
 
              Baa    -0.0011    -0.606    -0.216    -0.202  0.4042  0.9140  0.0338
    32 H(1)   Bbb    -0.0007    -0.395    -0.141    -0.132 -0.2155  0.0592  0.9747
              Bcc     0.0019     1.001     0.357     0.334  0.8889 -0.4013  0.2209
 
              Baa    -0.0177     0.383     0.137     0.128 -0.1760 -0.0424  0.9835
    33 Ag(107 Bbb     0.0068    -0.148    -0.053    -0.049  0.6184  0.7725  0.1440
              Bcc     0.0108    -0.235    -0.084    -0.078  0.7659 -0.6336  0.1097
 

 ---------------------------------------------------------------------------------

 No NMR shielding tensors so no spin-rotation constants.
 Leave Link  601 at Sat Sep 12 01:30:25 2026, MaxMem=  6442450944 cpu:               1.0 elap:               0.8
 (Enter C:\G16W\l9999.exe)
 Unable to Open any file for archive entry.
 1|1|UNPC-DESKTOP-2JKEGCA|SP|UPBE1PBE|def2SVP|C18H13Ag1N1(2)|JHKIM|12-S
 ep-2026|0||#P PBE1PBE/Def2SVP EmpiricalDispersion=GD3BJ SP SCF=(XQC,Ma
 xCycle=128) NoSymm Guess=Read||PhCz t=0.750 dz=+0.00 class=toface||0,2
 |C,0,4.318681,-0.424553,0.264001|C,0,3.626574,0.365579,1.166695|C,0,2.
 254007,0.498601,1.068576|C,0,1.563174,-0.153683,0.051229|N,0,0.172251,
 -0.01694,-0.056185|C,0,-0.734425,-1.051271,-0.178854|C,0,-0.518475,-2.
 421994,-0.176413|C,0,-1.61948,-3.248918,-0.290429|C,0,-2.909474,-2.733
 333,-0.395662|C,0,-3.133061,-1.371405,-0.372927|C,0,-2.042171,-0.51967
 1,-0.259151|C,0,-1.907553,0.907967,-0.184867|C,0,-2.817276,1.956387,-0
 .225601|C,0,-2.34036,3.249447,-0.148769|C,0,-0.974249,3.503904,-0.0488
 7|C,0,-0.049884,2.477861,-0.006462|C,0,-0.524929,1.175071,-0.057385|C,
 0,2.261179,-0.942496,-0.858872|C,0,3.632181,-1.079171,-0.74514|H,0,5.3
 89886,-0.52987,0.346731|H,0,4.157205,0.87482,1.957636|H,0,1.708338,1.0
 94903,1.784553|H,0,0.475194,-2.832412,-0.077007|H,0,-1.476844,-4.31960
 4,-0.294462|H,0,-3.743566,-3.413223,-0.486532|H,0,-4.133797,-0.97148,-
 0.437847|H,0,-3.874509,1.758786,-0.319619|H,0,-3.030974,4.079234,-0.17
 5651|H,0,-0.629333,4.526657,-0.007181|H,0,1.007776,2.686607,0.052557|H
 ,0,1.725742,-1.432517,-1.658335|H,0,4.168173,-1.693284,-1.453698|Ag,0,
 -0.49317707,0.17979408,-2.77124191||Version=EM64W-G16RevC.01|HF=-894.0
 920835|S2=0.751718|S2-1=0.|S2A=0.750003|RMSD=4.466e-009|Dipole=0.49658
 43,-0.0714007,0.8235177|Quadrupole=8.6081678,3.5190173,-12.127185,-0.8
 401108,1.0404878,3.1332711|PG=C01 [X(C18H13Ag1N1)]||@
 The archive entry for this job was punched.


 DEPRESSION IS WAITING FOR YOUR SHIP TO COME IN,
 AND FINDING OUT IT'S THE TITANIC.
 Job cpu time:       0 days  0 hours  6 minutes 50.0 seconds.
 Elapsed time:       0 days  0 hours  6 minutes 48.5 seconds.
 File lengths (MBytes):  RWF=    126 Int=      0 D2E=      0 Chk=     10 Scr=      1
 Normal termination of Gaussian 16 at Sat Sep 12 01:30:26 2026.
