 Entering Gaussian System, Link 0=C:\G16W\g16.exe
 Input=PhCz_t2_z0.gjf
 Output=PhCz_t2_z0.out
 Initial command:
 C:\G16W\l1.exe ".\Gau-146188.inp" "PhCz_t2_z0.out" /scrdir=".\"
 Entering Link 1 = C:\G16W\l1.exe PID=     19200.
  
 Copyright (c) 1988-2019, Gaussian, Inc.  All Rights Reserved.
  
 This is part of the Gaussian(R) 16 program.  It is based on
 the Gaussian(R) 09 system (copyright 2009, Gaussian, Inc.),
 the Gaussian(R) 03 system (copyright 2003, Gaussian, Inc.),
 the Gaussian(R) 98 system (copyright 1998, Gaussian, Inc.),
 the Gaussian(R) 94 system (copyright 1995, Gaussian, Inc.),
 the Gaussian 92(TM) system (copyright 1992, Gaussian, Inc.),
 the Gaussian 90(TM) system (copyright 1990, Gaussian, Inc.),
 the Gaussian 88(TM) system (copyright 1988, Gaussian, Inc.),
 the Gaussian 86(TM) system (copyright 1986, Carnegie Mellon
 University), and the Gaussian 82(TM) system (copyright 1983,
 Carnegie Mellon University). Gaussian is a federally registered
 trademark of Gaussian, Inc.
  
 This software contains proprietary and confidential information,
 including trade secrets, belonging to Gaussian, Inc.
  
 This software is provided under written license and may be
 used, copied, transmitted, or stored only in accord with that
 written license.
  
 The following legend is applicable only to US Government
 contracts under FAR:
  
                    RESTRICTED RIGHTS LEGEND
  
 Use, reproduction and disclosure by the US Government is
 subject to restrictions as set forth in subparagraphs (a)
 and (c) of the Commercial Computer Software - Restricted
 Rights clause in FAR 52.227-19.
  
 Gaussian, Inc.
 340 Quinnipiac St., Bldg. 40, Wallingford CT 06492
  
  
 ---------------------------------------------------------------
 Warning -- This program may not be used in any manner that
 competes with the business of Gaussian, Inc. or will provide
 assistance to any competitor of Gaussian, Inc.  The licensee
 of this program is prohibited from giving any competitor of
 Gaussian, Inc. access to this program.  By using this program,
 the user acknowledges that Gaussian, Inc. is engaged in the
 business of creating and licensing software in the field of
 computational chemistry and represents and warrants to the
 licensee that it is not a competitor of Gaussian, Inc. and that
 it will not use this program in any manner prohibited above.
 ---------------------------------------------------------------
  

 Cite this work as:
 Gaussian 16, Revision C.01,
 M. J. Frisch, G. W. Trucks, H. B. Schlegel, G. E. Scuseria, 
 M. A. Robb, J. R. Cheeseman, G. Scalmani, V. Barone, 
 G. A. Petersson, H. Nakatsuji, X. Li, M. Caricato, A. V. Marenich, 
 J. Bloino, B. G. Janesko, R. Gomperts, B. Mennucci, H. P. Hratchian, 
 J. V. Ortiz, A. F. Izmaylov, J. L. Sonnenberg, D. Williams-Young, 
 F. Ding, F. Lipparini, F. Egidi, J. Goings, B. Peng, A. Petrone, 
 T. Henderson, D. Ranasinghe, V. G. Zakrzewski, J. Gao, N. Rega, 
 G. Zheng, W. Liang, M. Hada, M. Ehara, K. Toyota, R. Fukuda, 
 J. Hasegawa, M. Ishida, T. Nakajima, Y. Honda, O. Kitao, H. Nakai, 
 T. Vreven, K. Throssell, J. A. Montgomery, Jr., J. E. Peralta, 
 F. Ogliaro, M. J. Bearpark, J. J. Heyd, E. N. Brothers, K. N. Kudin, 
 V. N. Staroverov, T. A. Keith, R. Kobayashi, J. Normand, 
 K. Raghavachari, A. P. Rendell, J. C. Burant, S. S. Iyengar, 
 J. Tomasi, M. Cossi, J. M. Millam, M. Klene, C. Adamo, R. Cammi, 
 J. W. Ochterski, R. L. Martin, K. Morokuma, O. Farkas, 
 J. B. Foresman, and D. J. Fox, Gaussian, Inc., Wallingford CT, 2019.
 
 ******************************************
 Gaussian 16:  EM64W-G16RevC.01 30-May-2019
                12-Sep-2026 
 ******************************************
 %Chk=PhCz.chk
 %NProcShared=8
 Will use up to    8 processors via shared memory.
 %Mem=48GB
 ----------------------------------------------------------------------
 #P PBE1PBE/Def2SVP EmpiricalDispersion=GD3BJ SP SCF=(XQC,MaxCycle=128)
  NoSymm Guess=Read
 ----------------------------------------------------------------------
 1/38=1,172=1/1;
 2/12=2,15=1,17=6,18=5,40=1/2;
 3/5=43,7=101,11=2,25=1,30=1,74=-13,116=-2,124=41/1,2,3;
 4/5=1/1;
 5/5=2,7=128,8=3,13=1,38=6/2,8;
 6/7=2,8=2,9=2,10=2,28=1/1;
 99/5=1,9=1/99;
 Leave Link    1 at Sat Sep 12 01:10:33 2026, MaxMem=  6442450944 cpu:               0.0 elap:               0.3
 (Enter C:\G16W\l101.exe)
 ----------------------------------
 PhCz t=0.500 dz=+0.00 class=toface
 ----------------------------------
 Symbolic Z-matrix:
 Charge =  0 Multiplicity = 2
 C                     4.31868  -0.42455   0.264 
 C                     3.62657   0.36558   1.1667 
 C                     2.25401   0.4986    1.06858 
 C                     1.56317  -0.15368   0.05123 
 N                     0.17225  -0.01694  -0.05619 
 C                    -0.73443  -1.05127  -0.17885 
 C                    -0.51848  -2.42199  -0.17641 
 C                    -1.61948  -3.24892  -0.29043 
 C                    -2.90947  -2.73333  -0.39566 
 C                    -3.13306  -1.37141  -0.37293 
 C                    -2.04217  -0.51967  -0.25915 
 C                    -1.90755   0.90797  -0.18487 
 C                    -2.81728   1.95639  -0.2256 
 C                    -2.34036   3.24945  -0.14877 
 C                    -0.97425   3.5039   -0.04887 
 C                    -0.04988   2.47786  -0.00646 
 C                    -0.52493   1.17507  -0.05739 
 C                     2.26118  -0.9425   -0.85887 
 C                     3.63218  -1.07917  -0.74514 
 H                     5.38989  -0.52987   0.34673 
 H                     4.15721   0.87482   1.95764 
 H                     1.70834   1.0949    1.78455 
 H                     0.47519  -2.83241  -0.07701 
 H                    -1.47684  -4.3196   -0.29446 
 H                    -3.74357  -3.41322  -0.48653 
 H                    -4.1338   -0.97148  -0.43785 
 H                    -3.87451   1.75879  -0.31962 
 H                    -3.03097   4.07923  -0.17565 
 H                    -0.62933   4.52666  -0.00718 
 H                     1.00778   2.68661   0.05256 
 H                     1.72574  -1.43252  -1.65834 
 H                     4.16817  -1.69328  -1.4537 
 Ag                   -0.23754   0.24664  -2.93395 
 
 ITRead=  0  0  0  0  0  0  0  0  0  0  0  0  0  0  0  0  0  0  0  0
 ITRead=  0  0  0  0  0  0  0  0  0  0  0  0  0
 MicOpt= -1 -1 -1 -1 -1 -1 -1 -1 -1 -1 -1 -1 -1 -1 -1 -1 -1 -1 -1 -1
 MicOpt= -1 -1 -1 -1 -1 -1 -1 -1 -1 -1 -1 -1 -1
 NAtoms=     33 NQM=       33 NQMF=       0 NMMI=      0 NMMIF=      0
                NMic=       0 NMicF=      0.
                    Isotopes and Nuclear Properties:
 (Nuclear quadrupole moments (NQMom) in fm**2, nuclear magnetic moments (NMagM)
  in nuclear magnetons)

  Atom         1           2           3           4           5           6           7           8           9          10
 IAtWgt=          12          12          12          12          14          12          12          12          12          12
 AtmWgt=  12.0000000  12.0000000  12.0000000  12.0000000  14.0030740  12.0000000  12.0000000  12.0000000  12.0000000  12.0000000
 NucSpn=           0           0           0           0           2           0           0           0           0           0
 AtZEff=   0.0000000   0.0000000   0.0000000   0.0000000   0.0000000   0.0000000   0.0000000   0.0000000   0.0000000   0.0000000
 NQMom=    0.0000000   0.0000000   0.0000000   0.0000000   2.0440000   0.0000000   0.0000000   0.0000000   0.0000000   0.0000000
 NMagM=    0.0000000   0.0000000   0.0000000   0.0000000   0.4037610   0.0000000   0.0000000   0.0000000   0.0000000   0.0000000
 AtZNuc=   6.0000000   6.0000000   6.0000000   6.0000000   7.0000000   6.0000000   6.0000000   6.0000000   6.0000000   6.0000000

  Atom        11          12          13          14          15          16          17          18          19          20
 IAtWgt=          12          12          12          12          12          12          12          12          12           1
 AtmWgt=  12.0000000  12.0000000  12.0000000  12.0000000  12.0000000  12.0000000  12.0000000  12.0000000  12.0000000   1.0078250
 NucSpn=           0           0           0           0           0           0           0           0           0           1
 AtZEff=   0.0000000   0.0000000   0.0000000   0.0000000   0.0000000   0.0000000   0.0000000   0.0000000   0.0000000   0.0000000
 NQMom=    0.0000000   0.0000000   0.0000000   0.0000000   0.0000000   0.0000000   0.0000000   0.0000000   0.0000000   0.0000000
 NMagM=    0.0000000   0.0000000   0.0000000   0.0000000   0.0000000   0.0000000   0.0000000   0.0000000   0.0000000   2.7928460
 AtZNuc=   6.0000000   6.0000000   6.0000000   6.0000000   6.0000000   6.0000000   6.0000000   6.0000000   6.0000000   1.0000000

  Atom        21          22          23          24          25          26          27          28          29          30
 IAtWgt=           1           1           1           1           1           1           1           1           1           1
 AtmWgt=   1.0078250   1.0078250   1.0078250   1.0078250   1.0078250   1.0078250   1.0078250   1.0078250   1.0078250   1.0078250
 NucSpn=           1           1           1           1           1           1           1           1           1           1
 AtZEff=   0.0000000   0.0000000   0.0000000   0.0000000   0.0000000   0.0000000   0.0000000   0.0000000   0.0000000   0.0000000
 NQMom=    0.0000000   0.0000000   0.0000000   0.0000000   0.0000000   0.0000000   0.0000000   0.0000000   0.0000000   0.0000000
 NMagM=    2.7928460   2.7928460   2.7928460   2.7928460   2.7928460   2.7928460   2.7928460   2.7928460   2.7928460   2.7928460
 AtZNuc=   1.0000000   1.0000000   1.0000000   1.0000000   1.0000000   1.0000000   1.0000000   1.0000000   1.0000000   1.0000000

  Atom        31          32          33
 IAtWgt=           1           1         107
 AtmWgt=   1.0078250   1.0078250 106.9050900
 NucSpn=           1           1           1
 AtZEff=   0.0000000   0.0000000   0.0000000
 NQMom=    0.0000000   0.0000000   0.0000000
 NMagM=    2.7928460   2.7928460  -0.1135700
 AtZNuc=   1.0000000   1.0000000  47.0000000
 Leave Link  101 at Sat Sep 12 01:10:34 2026, MaxMem=  6442450944 cpu:               0.0 elap:               0.3
 (Enter C:\G16W\l202.exe)
                          Input orientation:                          
 ---------------------------------------------------------------------
 Center     Atomic      Atomic             Coordinates (Angstroms)
 Number     Number       Type             X           Y           Z
 ---------------------------------------------------------------------
      1          6           0        4.318681   -0.424553    0.264001
      2          6           0        3.626574    0.365579    1.166695
      3          6           0        2.254007    0.498601    1.068576
      4          6           0        1.563174   -0.153683    0.051229
      5          7           0        0.172251   -0.016940   -0.056185
      6          6           0       -0.734425   -1.051271   -0.178854
      7          6           0       -0.518475   -2.421994   -0.176413
      8          6           0       -1.619480   -3.248918   -0.290429
      9          6           0       -2.909474   -2.733333   -0.395662
     10          6           0       -3.133061   -1.371405   -0.372927
     11          6           0       -2.042171   -0.519671   -0.259151
     12          6           0       -1.907553    0.907967   -0.184867
     13          6           0       -2.817276    1.956387   -0.225601
     14          6           0       -2.340360    3.249447   -0.148769
     15          6           0       -0.974249    3.503904   -0.048870
     16          6           0       -0.049884    2.477861   -0.006462
     17          6           0       -0.524929    1.175071   -0.057385
     18          6           0        2.261179   -0.942496   -0.858872
     19          6           0        3.632181   -1.079171   -0.745140
     20          1           0        5.389886   -0.529870    0.346731
     21          1           0        4.157205    0.874820    1.957636
     22          1           0        1.708338    1.094903    1.784553
     23          1           0        0.475194   -2.832412   -0.077007
     24          1           0       -1.476844   -4.319604   -0.294462
     25          1           0       -3.743566   -3.413223   -0.486532
     26          1           0       -4.133797   -0.971480   -0.437847
     27          1           0       -3.874509    1.758786   -0.319619
     28          1           0       -3.030974    4.079234   -0.175651
     29          1           0       -0.629333    4.526657   -0.007181
     30          1           0        1.007776    2.686607    0.052557
     31          1           0        1.725742   -1.432517   -1.658335
     32          1           0        4.168173   -1.693284   -1.453698
     33         47           0       -0.237536    0.246642   -2.933951
 ---------------------------------------------------------------------
                    Distance matrix (angstroms):
                    1          2          3          4          5
     1  C    0.000000
     2  C    1.384983   0.000000
     3  C    2.400507   1.382484   0.000000
     4  C    2.776952   2.402398   1.392020   0.000000
     5  N    4.178702   3.684305   2.421689   1.401750   0.000000
     6  C    5.111045   4.778732   3.590113   2.477411   1.380923
     7  C    5.251839   5.172614   4.215036   3.087121   2.505163
     8  C    6.598953   6.535203   5.558300   4.452695   3.702817
     9  C    7.616551   7.400280   6.265056   5.182556   4.122022
    10  C    7.538612   7.147042   5.881782   4.870049   3.586083
    11  C    6.383038   5.911969   4.610519   3.637141   2.279824
    12  C    6.383031   5.722540   4.365465   3.637140   2.279824
    13  C    7.538599   6.781767   5.433042   4.870049   3.586083
    14  C    7.616527   6.756585   5.491565   5.182554   4.122023
    15  C    6.598922   5.700373   4.549964   4.452693   3.702818
    16  C    5.251811   4.399361   3.221970   3.087120   2.505164
    17  C    5.111032   4.403252   3.073741   2.477410   1.380924
    18  C    2.400505   2.770972   2.406630   1.392020   2.421690
    19  C    1.384981   2.396340   2.770973   2.402399   3.684306
    20  H    1.079544   2.140897   3.378247   3.856496   5.258246
    21  H    2.140758   1.080039   2.134041   3.379527   4.553083
    22  H    3.381526   2.143197   1.079793   2.141133   2.642740
    23  H    4.548237   4.658877   3.946161   2.894086   2.831800
    24  H    7.005099   7.080310   6.244375   5.168763   4.614023
    25  H    8.631065   8.445796   7.327456   6.251022   5.201304
    26  H    8.499183   8.036519   6.725659   5.776112   4.427060
    27  H    8.499173   7.772799   6.408889   5.776111   4.427061
    28  H    8.631038   7.740547   6.503849   6.251020   5.201304
    29  H    7.005060   6.066737   5.069136   5.168760   4.614023
    30  H    4.548199   3.672408   2.715282   2.894083   2.831800
    31  H    3.381523   3.850598   3.382946   2.141134   2.642740
    32  H    2.140752   3.376197   3.851007   3.379526   4.553083
    33  Ag   5.606827   5.635671   4.721387   3.509147   2.918722
                    6          7          8          9         10
     6  C    0.000000
     7  C    1.387632   0.000000
     8  C    2.371798   1.381671   0.000000
     9  C    2.758111   2.421132   1.393193   0.000000
    10  C    2.427675   2.824609   2.413045   1.380346   0.000000
    11  C    1.413947   2.438714   2.761962   2.381417   1.388682
    12  C    2.283611   3.608081   4.168192   3.782505   2.594759
    13  C    3.658751   4.945415   5.341734   4.693708   3.345986
    14  C    4.590872   5.956952   6.539762   6.014857   4.693708
    15  C    4.563335   5.944768   6.787877   6.539762   5.341734
    16  C    3.599040   4.925144   5.944768   5.956952   4.945415
    17  C    2.239474   3.599040   4.563335   4.590872   3.658751
    18  C    3.073744   3.221978   4.549970   5.491567   5.433041
    19  C    4.403261   4.399383   5.700395   6.756600   6.781773
    20  H    6.168896   6.225957   7.545224   8.618919   8.594575
    21  H    5.674721   6.106155   7.445072   8.276154   7.976530
    22  H    3.798437   4.601375   5.852239   6.382234   5.846070
    23  H    2.155461   1.079677   2.146319   3.401079   3.904051
    24  H    3.353588   2.129162   1.080153   2.139842   3.382468
    25  H    3.837761   3.388203   2.139438   1.079915   2.134161
    26  H    3.410157   3.904215   3.395622   2.145897   1.079642
    27  H    4.216202   5.363058   5.492095   4.595238   3.217248
    28  H    5.621052   6.969836   7.463732   6.817201   5.455163
    29  H    5.581559   6.951595   7.843481   7.619542   6.417909
    30  H    4.130442   5.336635   6.500044   6.702350   5.813349
    31  H    2.895969   2.865601   4.044872   4.977117   5.026328
    32  H    5.106161   4.911939   6.104926   7.231475   7.387807
    33  Ag   3.085780   3.847670   4.595315   4.739453   4.190583
                   11         12         13         14         15
    11  C    0.000000
    12  C    1.435894   0.000000
    13  C    2.594759   1.388683   0.000000
    14  C    3.782506   2.381418   1.380346   0.000000
    15  C    4.168193   2.761963   2.413046   1.393193   0.000000
    16  C    3.608082   2.438715   2.824609   2.421131   1.381670
    17  C    2.283612   1.413947   2.427675   2.758111   2.371798
    18  C    4.365463   4.610512   5.881774   6.265045   5.558288
    19  C    5.722543   5.911960   7.147029   7.400259   6.535179
    20  H    7.456720   7.456714   8.594565   8.618901   7.545200
    21  H    6.729860   6.432162   7.387807   7.231469   6.104914
    22  H    4.566168   4.121678   5.026336   4.977123   4.044873
    23  H    3.423313   4.436164   5.813350   6.702351   6.500044
    24  H    3.841918   5.246429   6.417910   7.619542   7.843481
    25  H    3.364386   4.704745   5.455164   6.817202   7.463733
    26  H    2.147315   2.924463   3.217247   4.595237   5.492095
    27  H    2.924463   2.147316   1.079642   2.145897   3.395622
    28  H    4.704746   3.364386   2.134161   1.079915   2.139438
    29  H    5.246430   3.841918   3.382468   2.139843   1.080152
    30  H    4.436165   3.423313   3.904051   3.401079   2.146319
    31  H    4.121671   4.566159   5.846059   6.382222   5.852229
    32  H    6.432160   6.729850   7.976517   8.276136   7.445053
    33  Ag   3.316399   3.283865   4.112596   4.603906   4.413184
                   16         17         18         19         20
    16  C    0.000000
    17  C    1.387632   0.000000
    18  C    4.215028   3.590107   0.000000
    19  C    5.172594   4.778721   1.382484   0.000000
    20  H    6.225937   6.168887   3.378246   2.140897   0.000000
    21  H    4.911926   5.106157   3.851009   3.376200   2.467321
    22  H    2.865598   2.895970   3.382946   3.850599   4.273291
    23  H    5.336636   4.130442   2.715297   3.672441   5.443845
    24  H    6.951596   5.581559   5.069145   6.066766   7.869256
    25  H    6.969837   5.621053   6.503852   7.740563   9.613948
    26  H    5.363058   4.216202   6.408886   7.772801   9.566144
    27  H    3.904215   3.410158   6.725651   8.036508   9.566137
    28  H    3.388203   3.837761   7.327445   8.445774   9.613928
    29  H    2.129161   3.353588   6.244363   7.080282   7.869226
    30  H    1.079677   2.155461   3.946151   4.658852   5.443818
    31  H    4.601368   3.798431   1.079794   2.143196   4.273291
    32  H    6.106140   5.674712   2.134040   1.080035   2.467318
    33  Ag   3.685613   3.036315   3.458840   4.639330   6.560009
                   21         22         23         24         25
    21  H    0.000000
    22  H    2.464821   0.000000
    23  H    5.607187   4.517727   0.000000
    24  H    7.987271   6.616991   2.463631   0.000000
    25  H    9.315764   7.429959   4.278199   2.448764   0.000000
    26  H    8.825411   6.583277   4.983580   4.276668   2.473208
    27  H    8.394982   6.003038   6.329129   6.534237   5.176358
    28  H    8.154085   5.933777   7.750729   8.542243   7.532685
    29  H    6.333038   4.522383   7.441825   8.891408   8.542243
    30  H    4.102536   2.454408   5.546170   7.441824   7.750729
    31  H    4.930625   4.271022   2.454419   4.522386   5.933772
    32  H    4.269951   4.930623   4.102558   6.333056   8.154092
    33  Ag   6.605753   5.173998   4.260362   5.417877   5.628208
                   26         27         28         29         30
    26  H    0.000000
    27  H    2.745098   0.000000
    28  H    5.176358   2.473208   0.000000
    29  H    6.534237   4.276669   2.448765   0.000000
    30  H    6.329129   4.983580   4.278199   2.463631   0.000000
    31  H    6.003028   6.583266   7.429946   6.616981   4.517722
    32  H    8.394978   8.825398   9.315744   7.987249   5.607170
    33  Ag   4.784894   4.727461   5.486372   5.199809   4.052587
                   31         32         33
    31  H    0.000000
    32  H    2.464821   0.000000
    33  Ag   2.881186   5.036341   0.000000
 Symmetry turned off by external request.
 Stoichiometry    C18H13AgN(2)
 Framework group  C1[X(C18H13AgN)]
 Deg. of freedom    93
 Full point group                 C1      NOp   1
 Rotational constants (GHZ):           0.3335574           0.2493028           0.2237334
 Leave Link  202 at Sat Sep 12 01:10:35 2026, MaxMem=  6442450944 cpu:               1.0 elap:               1.2
 (Enter C:\G16W\l301.exe)
 Standard basis: def2SVP (5D, 7F)
 Ernie: Thresh=  0.10000D-02 Tol=  0.10000D-05 Strict=F.
   362 basis functions,   631 primitive gaussians,   386 cartesian basis functions
    74 alpha electrons       73 beta electrons
       nuclear repulsion energy      1612.3639231665 Hartrees.
 IExCor= 1009 DFT=T Ex+Corr=PBE1PBE ExCW=0 ScaHFX=  0.250000
 ScaDFX=  0.750000  0.750000  1.000000  1.000000 ScalE2=  1.000000  1.000000
 IRadAn=      5 IRanWt=     -1 IRanGd=            0 ICorTp=0 IEmpDi=141
 NAtoms=   33 NActive=   33 NUniq=   33 SFac= 1.00D+00 NAtFMM=   60 NAOKFM=F Big=F
 Integral buffers will be    131072 words long.
 Raffenetti 2 integral format.
 Two-electron integral symmetry is turned off.
 R6Disp:  Grimme-D3(BJ) Dispersion energy=       -0.0491544567 Hartrees.
 Nuclear repulsion after empirical dispersion term =     1612.3147687098 Hartrees.
 Leave Link  301 at Sat Sep 12 01:10:36 2026, MaxMem=  6442450944 cpu:               0.0 elap:               0.2
 (Enter C:\G16W\l302.exe)
 NPDir=0 NMtPBC=     1 NCelOv=     1 NCel=       1 NClECP=     1 NCelD=      1
         NCelK=      1 NCelE2=     1 NClLst=     1 CellRange=     0.0.
 One-electron integrals computed using PRISM.
   1 Symmetry operations used in ECPInt.
 ECPInt:  NShTT=   13530 NPrTT=   49129 LenC2=   12726 LenP2D=   33120.
 LDataN:  DoStor=T MaxTD1= 7 Len=  274
 NBasis=   362 RedAO= T EigKep=  2.11D-04  NBF=   362
 NBsUse=   362 1.00D-06 EigRej= -1.00D+00 NBFU=   362
 Precomputing XC quadrature grid using
 IXCGrd= 4 IRadAn=           5 IRanWt=          -1 IRanGd=           0 AccXCQ= 0.00D+00.
 Defaulting to unpruned grid for atomic number  47.
 Generated NRdTot=       0 NPtTot=           0 NUsed=           0 NTot=          32
 NSgBfM=   385   385   385   385   385 MxSgAt=    33 MxSgA2=    33.
 Leave Link  302 at Sat Sep 12 01:10:47 2026, MaxMem=  6442450944 cpu:              11.0 elap:              10.9
 (Enter C:\G16W\l303.exe)
 DipDrv:  MaxL=1.
 Leave Link  303 at Sat Sep 12 01:10:47 2026, MaxMem=  6442450944 cpu:               0.0 elap:               0.3
 (Enter C:\G16W\l401.exe)
 Initial guess from the checkpoint file:  "PhCz.chk"
 B after Tr=    -0.033490   -0.077079    0.181313
         Rot=    0.999903    0.012450   -0.006205   -0.000224 Ang=   1.59 deg.
 Guess basis will be translated and rotated to current coordinates.
 JPrj=2 DoOrth=T DoCkMO=T.
 Initial guess <Sx>= 0.0000 <Sy>= 0.0000 <Sz>= 0.5000 <S**2>= 0.7514 S= 0.5007
 Leave Link  401 at Sat Sep 12 01:11:11 2026, MaxMem=  6442450944 cpu:              23.0 elap:              23.5
 (Enter C:\G16W\l502.exe)
 Two-electron integral symmetry not used.
 UHF open shell SCF:
 Using DIIS extrapolation, IDIIS=  1040.
 NGot=  6442450944 LenX=  6442146052 LenY=  6441996615
 Requested convergence on RMS density matrix=1.00D-08 within 128 cycles.
 Requested convergence on MAX density matrix=1.00D-06.
 Requested convergence on             energy=1.00D-06.
 No special actions if energy rises.
 Fock matrices will be formed incrementally for  20 cycles.

 Cycle   1  Pass 1  IDiag  1:
 FoFJK:  IHMeth= 1 ICntrl=       0 DoSepK=F KAlg= 0 I1Cent=           0 FoldK=F
 IRaf= 890000000 NMat=       1 IRICut=       1 DoRegI=T DoRafI=F ISym2E= 0 IDoP0=0 IntGTp=1.
 FoFCou: FMM=F IPFlag=           0 FMFlag=      100000 FMFlg1=           0
         NFxFlg=           0 DoJE=F BraDBF=F KetDBF=F FulRan=T
         wScrn=  0.000000 ICntrl=         0 IOpCl=  1 I1Cent=           0 NGrid=           0
         NMat0=    1 NMatS0=      1 NMatT0=    0 NMatD0=    1 NMtDS0=    0 NMtDT0=    0
 Symmetry not used in FoFCou.
 Defaulting to unpruned grid for atomic number  47.
 Defaulting to unpruned grid for atomic number  47.
 Defaulting to unpruned grid for atomic number  47.
 Defaulting to unpruned grid for atomic number  47.
 Defaulting to unpruned grid for atomic number  47.
 Defaulting to unpruned grid for atomic number  47.
 Defaulting to unpruned grid for atomic number  47.
 Defaulting to unpruned grid for atomic number  47.
 E= -894.089788694852    
 DIIS: error= 4.32D-03 at cycle   1 NSaved=   1.
 NSaved= 1 IEnMin= 1 EnMin= -894.089788694852     IErMin= 1 ErrMin= 4.32D-03
 ErrMax= 4.32D-03  0.00D+00 EMaxC= 1.00D-01 BMatC= 1.96D-02 BMatP= 1.96D-02
 IDIUse=3 WtCom= 9.57D-01 WtEn= 4.32D-02
 Coeff-Com:  0.100D+01
 Coeff-En:   0.100D+01
 Coeff:      0.100D+01
 Gap=     0.160 Goal=   None    Shift=    0.000
 Gap=     0.162 Goal=   None    Shift=    0.000
 GapD=    0.160 DampG=1.000 DampE=1.000 DampFc=1.0000 IDamp=-1.
 RMSDP=5.22D-04 MaxDP=2.60D-02              OVMax= 2.38D-02

 Cycle   2  Pass 1  IDiag  1:
 RMSU=  5.22D-04    CP:  1.00D+00
 E= -894.095339358497     Delta-E=       -0.005550663645 Rises=F Damp=F
 DIIS: error= 4.76D-04 at cycle   2 NSaved=   2.
 NSaved= 2 IEnMin= 2 EnMin= -894.095339358497     IErMin= 2 ErrMin= 4.76D-04
 ErrMax= 4.76D-04  0.00D+00 EMaxC= 1.00D-01 BMatC= 8.08D-04 BMatP= 1.96D-02
 IDIUse=3 WtCom= 9.95D-01 WtEn= 4.76D-03
 Coeff-Com:  0.185D-01 0.981D+00
 Coeff-En:   0.000D+00 0.100D+01
 Coeff:      0.184D-01 0.982D+00
 Gap=     0.129 Goal=   None    Shift=    0.000
 Gap=     0.142 Goal=   None    Shift=    0.000
 RMSDP=1.53D-04 MaxDP=6.83D-03 DE=-5.55D-03 OVMax= 1.24D-02

 Cycle   3  Pass 1  IDiag  1:
 RMSU=  1.48D-04    CP:  1.00D+00  9.27D-01
 E= -894.095052938684     Delta-E=        0.000286419813 Rises=F Damp=F
 DIIS: error= 1.08D-03 at cycle   3 NSaved=   3.
 NSaved= 3 IEnMin= 2 EnMin= -894.095339358497     IErMin= 2 ErrMin= 4.76D-04
 ErrMax= 1.08D-03  0.00D+00 EMaxC= 1.00D-01 BMatC= 2.18D-03 BMatP= 8.08D-04
 IDIUse=3 WtCom= 2.33D-01 WtEn= 7.67D-01
 Coeff-Com: -0.249D-01 0.645D+00 0.380D+00
 Coeff-En:   0.000D+00 0.670D+00 0.330D+00
 Coeff:     -0.582D-02 0.664D+00 0.342D+00
 Gap=     0.129 Goal=   None    Shift=    0.000
 Gap=     0.143 Goal=   None    Shift=    0.000
 RMSDP=9.15D-05 MaxDP=3.04D-03 DE= 2.86D-04 OVMax= 7.59D-03

 Cycle   4  Pass 1  IDiag  1:
 RMSU=  3.74D-05    CP:  1.00D+00  1.00D+00  5.06D-01
 E= -894.095603971054     Delta-E=       -0.000551032369 Rises=F Damp=F
 DIIS: error= 1.36D-04 at cycle   4 NSaved=   4.
 NSaved= 4 IEnMin= 4 EnMin= -894.095603971054     IErMin= 4 ErrMin= 1.36D-04
 ErrMax= 1.36D-04  0.00D+00 EMaxC= 1.00D-01 BMatC= 5.64D-05 BMatP= 8.08D-04
 IDIUse=3 WtCom= 9.99D-01 WtEn= 1.36D-03
 Coeff-Com: -0.164D-01 0.280D+00 0.170D+00 0.566D+00
 Coeff-En:   0.000D+00 0.000D+00 0.000D+00 0.100D+01
 Coeff:     -0.164D-01 0.279D+00 0.170D+00 0.567D+00
 Gap=     0.129 Goal=   None    Shift=    0.000
 Gap=     0.143 Goal=   None    Shift=    0.000
 RMSDP=2.01D-05 MaxDP=2.31D-03 DE=-5.51D-04 OVMax= 1.14D-03

 Cycle   5  Pass 1  IDiag  1:
 RMSU=  1.56D-05    CP:  1.00D+00  1.02D+00  5.18D-01  7.36D-01
 E= -894.095617436900     Delta-E=       -0.000013465846 Rises=F Damp=F
 DIIS: error= 5.94D-05 at cycle   5 NSaved=   5.
 NSaved= 5 IEnMin= 5 EnMin= -894.095617436900     IErMin= 5 ErrMin= 5.94D-05
 ErrMax= 5.94D-05  0.00D+00 EMaxC= 1.00D-01 BMatC= 5.76D-06 BMatP= 5.64D-05
 IDIUse=1 WtCom= 1.00D+00 WtEn= 0.00D+00
 Coeff-Com: -0.171D-02-0.121D-01-0.140D-01 0.207D+00 0.821D+00
 Coeff:     -0.171D-02-0.121D-01-0.140D-01 0.207D+00 0.821D+00
 Gap=     0.129 Goal=   None    Shift=    0.000
 Gap=     0.143 Goal=   None    Shift=    0.000
 RMSDP=7.60D-06 MaxDP=5.95D-04 DE=-1.35D-05 OVMax= 6.59D-04

 Cycle   6  Pass 1  IDiag  1:
 RMSU=  5.85D-06    CP:  1.00D+00  1.02D+00  5.16D-01  8.53D-01  9.65D-01
 E= -894.095618995879     Delta-E=       -0.000001558979 Rises=F Damp=F
 DIIS: error= 3.01D-05 at cycle   6 NSaved=   6.
 NSaved= 6 IEnMin= 6 EnMin= -894.095618995879     IErMin= 6 ErrMin= 3.01D-05
 ErrMax= 3.01D-05  0.00D+00 EMaxC= 1.00D-01 BMatC= 1.75D-06 BMatP= 5.76D-06
 IDIUse=1 WtCom= 1.00D+00 WtEn= 0.00D+00
 Coeff-Com:  0.450D-03-0.312D-01-0.238D-01 0.693D-01 0.488D+00 0.497D+00
 Coeff:      0.450D-03-0.312D-01-0.238D-01 0.693D-01 0.488D+00 0.497D+00
 Gap=     0.129 Goal=   None    Shift=    0.000
 Gap=     0.143 Goal=   None    Shift=    0.000
 RMSDP=3.32D-06 MaxDP=1.89D-04 DE=-1.56D-06 OVMax= 2.48D-04

 Cycle   7  Pass 1  IDiag  1:
 RMSU=  2.47D-06    CP:  1.00D+00  1.02D+00  5.20D-01  8.72D-01  1.03D+00
                    CP:  6.97D-01
 E= -894.095619475160     Delta-E=       -0.000000479281 Rises=F Damp=F
 DIIS: error= 1.04D-05 at cycle   7 NSaved=   7.
 NSaved= 7 IEnMin= 7 EnMin= -894.095619475160     IErMin= 7 ErrMin= 1.04D-05
 ErrMax= 1.04D-05  0.00D+00 EMaxC= 1.00D-01 BMatC= 1.76D-07 BMatP= 1.75D-06
 IDIUse=1 WtCom= 1.00D+00 WtEn= 0.00D+00
 Coeff-Com:  0.417D-03-0.142D-01-0.107D-01 0.104D-01 0.162D+00 0.274D+00
 Coeff-Com:  0.578D+00
 Coeff:      0.417D-03-0.142D-01-0.107D-01 0.104D-01 0.162D+00 0.274D+00
 Coeff:      0.578D+00
 Gap=     0.129 Goal=   None    Shift=    0.000
 Gap=     0.143 Goal=   None    Shift=    0.000
 RMSDP=1.20D-06 MaxDP=1.20D-04 DE=-4.79D-07 OVMax= 1.30D-04

 Cycle   8  Pass 1  IDiag  1:
 RMSU=  8.92D-07    CP:  1.00D+00  1.02D+00  5.23D-01  8.81D-01  1.04D+00
                    CP:  7.78D-01  8.48D-01
 E= -894.095619535581     Delta-E=       -0.000000060421 Rises=F Damp=F
 DIIS: error= 3.45D-06 at cycle   8 NSaved=   8.
 NSaved= 8 IEnMin= 8 EnMin= -894.095619535581     IErMin= 8 ErrMin= 3.45D-06
 ErrMax= 3.45D-06  0.00D+00 EMaxC= 1.00D-01 BMatC= 2.83D-08 BMatP= 1.76D-07
 IDIUse=1 WtCom= 1.00D+00 WtEn= 0.00D+00
 Coeff-Com:  0.110D-03 0.809D-03 0.470D-03-0.153D-01-0.483D-01 0.104D-01
 Coeff-Com:  0.284D+00 0.768D+00
 Coeff:      0.110D-03 0.809D-03 0.470D-03-0.153D-01-0.483D-01 0.104D-01
 Coeff:      0.284D+00 0.768D+00
 Gap=     0.129 Goal=   None    Shift=    0.000
 Gap=     0.143 Goal=   None    Shift=    0.000
 RMSDP=7.21D-07 MaxDP=1.12D-04 DE=-6.04D-08 OVMax= 1.12D-04

 Cycle   9  Pass 1  IDiag  1:
 RMSU=  4.10D-07    CP:  1.00D+00  1.02D+00  5.23D-01  8.83D-01  1.06D+00
                    CP:  8.24D-01  1.00D+00  9.81D-01
 E= -894.095619550117     Delta-E=       -0.000000014536 Rises=F Damp=F
 DIIS: error= 2.57D-06 at cycle   9 NSaved=   9.
 NSaved= 9 IEnMin= 9 EnMin= -894.095619550117     IErMin= 9 ErrMin= 2.57D-06
 ErrMax= 2.57D-06  0.00D+00 EMaxC= 1.00D-01 BMatC= 5.40D-09 BMatP= 2.83D-08
 IDIUse=1 WtCom= 1.00D+00 WtEn= 0.00D+00
 Coeff-Com: -0.241D-04 0.308D-02 0.205D-02-0.961D-02-0.547D-01-0.425D-01
 Coeff-Com:  0.407D-01 0.366D+00 0.695D+00
 Coeff:     -0.241D-04 0.308D-02 0.205D-02-0.961D-02-0.547D-01-0.425D-01
 Coeff:      0.407D-01 0.366D+00 0.695D+00
 Gap=     0.129 Goal=   None    Shift=    0.000
 Gap=     0.143 Goal=   None    Shift=    0.000
 RMSDP=3.04D-07 MaxDP=4.54D-05 DE=-1.45D-08 OVMax= 4.48D-05

 Cycle  10  Pass 1  IDiag  1:
 RMSU=  1.71D-07    CP:  1.00D+00  1.02D+00  5.23D-01  8.85D-01  1.07D+00
                    CP:  8.50D-01  1.05D+00  1.12D+00  9.43D-01
 E= -894.095619553036     Delta-E=       -0.000000002919 Rises=F Damp=F
 DIIS: error= 1.90D-06 at cycle  10 NSaved=  10.
 NSaved=10 IEnMin=10 EnMin= -894.095619553036     IErMin=10 ErrMin= 1.90D-06
 ErrMax= 1.90D-06  0.00D+00 EMaxC= 1.00D-01 BMatC= 1.56D-09 BMatP= 5.40D-09
 IDIUse=1 WtCom= 1.00D+00 WtEn= 0.00D+00
 Coeff-Com: -0.336D-04 0.160D-02 0.998D-03-0.232D-02-0.215D-01-0.234D-01
 Coeff-Com: -0.213D-01 0.666D-01 0.380D+00 0.620D+00
 Coeff:     -0.336D-04 0.160D-02 0.998D-03-0.232D-02-0.215D-01-0.234D-01
 Coeff:     -0.213D-01 0.666D-01 0.380D+00 0.620D+00
 Gap=     0.129 Goal=   None    Shift=    0.000
 Gap=     0.143 Goal=   None    Shift=    0.000
 RMSDP=1.21D-07 MaxDP=1.29D-05 DE=-2.92D-09 OVMax= 1.85D-05

 Cycle  11  Pass 1  IDiag  1:
 RMSU=  8.96D-08    CP:  1.00D+00  1.02D+00  5.23D-01  8.85D-01  1.07D+00
                    CP:  8.52D-01  1.07D+00  1.16D+00  1.05D+00  9.44D-01
 E= -894.095619553902     Delta-E=       -0.000000000867 Rises=F Damp=F
 DIIS: error= 9.78D-07 at cycle  11 NSaved=  11.
 NSaved=11 IEnMin=11 EnMin= -894.095619553902     IErMin=11 ErrMin= 9.78D-07
 ErrMax= 9.78D-07  0.00D+00 EMaxC= 1.00D-01 BMatC= 2.93D-10 BMatP= 1.56D-09
 IDIUse=1 WtCom= 1.00D+00 WtEn= 0.00D+00
 Coeff-Com:  0.122D-06-0.526D-03-0.337D-03 0.217D-02 0.101D-01 0.609D-02
 Coeff-Com: -0.157D-01-0.876D-01-0.124D+00 0.115D+00 0.109D+01
 Coeff:      0.122D-06-0.526D-03-0.337D-03 0.217D-02 0.101D-01 0.609D-02
 Coeff:     -0.157D-01-0.876D-01-0.124D+00 0.115D+00 0.109D+01
 Gap=     0.129 Goal=   None    Shift=    0.000
 Gap=     0.143 Goal=   None    Shift=    0.000
 RMSDP=1.05D-07 MaxDP=7.22D-06 DE=-8.67D-10 OVMax= 1.67D-05

 Cycle  12  Pass 1  IDiag  1:
 RMSU=  5.34D-08    CP:  1.00D+00  1.02D+00  5.23D-01  8.86D-01  1.07D+00
                    CP:  8.55D-01  1.08D+00  1.19D+00  1.15D+00  1.30D+00
                    CP:  1.45D+00
 E= -894.095619554473     Delta-E=       -0.000000000570 Rises=F Damp=F
 DIIS: error= 5.67D-07 at cycle  12 NSaved=  12.
 NSaved=12 IEnMin=12 EnMin= -894.095619554473     IErMin=12 ErrMin= 5.67D-07
 ErrMax= 5.67D-07  0.00D+00 EMaxC= 1.00D-01 BMatC= 1.59D-10 BMatP= 2.93D-10
 IDIUse=1 WtCom= 1.00D+00 WtEn= 0.00D+00
 Coeff-Com:  0.127D-04-0.882D-03-0.520D-03 0.198D-02 0.134D-01 0.115D-01
 Coeff-Com: -0.141D-02-0.682D-01-0.207D+00-0.183D+00 0.589D+00 0.846D+00
 Coeff:      0.127D-04-0.882D-03-0.520D-03 0.198D-02 0.134D-01 0.115D-01
 Coeff:     -0.141D-02-0.682D-01-0.207D+00-0.183D+00 0.589D+00 0.846D+00
 Gap=     0.129 Goal=   None    Shift=    0.000
 Gap=     0.143 Goal=   None    Shift=    0.000
 RMSDP=7.48D-08 MaxDP=3.81D-06 DE=-5.70D-10 OVMax= 1.19D-05

 Cycle  13  Pass 1  IDiag  1:
 RMSU=  3.04D-08    CP:  1.00D+00  1.02D+00  5.23D-01  8.85D-01  1.07D+00
                    CP:  8.55D-01  1.08D+00  1.20D+00  1.21D+00  1.49D+00
                    CP:  2.00D+00  1.40D+00
 E= -894.095619554764     Delta-E=       -0.000000000292 Rises=F Damp=F
 DIIS: error= 3.35D-07 at cycle  13 NSaved=  13.
 NSaved=13 IEnMin=13 EnMin= -894.095619554764     IErMin=13 ErrMin= 3.35D-07
 ErrMax= 3.35D-07  0.00D+00 EMaxC= 1.00D-01 BMatC= 5.52D-11 BMatP= 1.59D-10
 IDIUse=1 WtCom= 1.00D+00 WtEn= 0.00D+00
 Coeff-Com:  0.675D-05-0.214D-03-0.106D-03-0.359D-04 0.233D-02 0.324D-02
 Coeff-Com:  0.723D-02 0.108D-01-0.500D-01-0.170D+00-0.225D+00 0.477D+00
 Coeff-Com:  0.945D+00
 Coeff:      0.675D-05-0.214D-03-0.106D-03-0.359D-04 0.233D-02 0.324D-02
 Coeff:      0.723D-02 0.108D-01-0.500D-01-0.170D+00-0.225D+00 0.477D+00
 Coeff:      0.945D+00
 Gap=     0.129 Goal=   None    Shift=    0.000
 Gap=     0.143 Goal=   None    Shift=    0.000
 RMSDP=5.84D-08 MaxDP=2.82D-06 DE=-2.92D-10 OVMax= 8.75D-06

 Cycle  14  Pass 1  IDiag  1:
 RMSU=  1.98D-08    CP:  1.00D+00  1.02D+00  5.23D-01  8.85D-01  1.07D+00
                    CP:  8.54D-01  1.08D+00  1.20D+00  1.23D+00  1.66D+00
                    CP:  2.40D+00  1.93D+00  1.11D+00
 E= -894.095619554874     Delta-E=       -0.000000000109 Rises=F Damp=F
 DIIS: error= 1.18D-07 at cycle  14 NSaved=  14.
 NSaved=14 IEnMin=14 EnMin= -894.095619554874     IErMin=14 ErrMin= 1.18D-07
 ErrMax= 1.18D-07  0.00D+00 EMaxC= 1.00D-01 BMatC= 1.14D-11 BMatP= 5.52D-11
 IDIUse=1 WtCom= 1.00D+00 WtEn= 0.00D+00
 Coeff-Com:  0.648D-06 0.847D-04 0.525D-04-0.442D-03-0.172D-02-0.828D-03
 Coeff-Com:  0.378D-02 0.196D-01 0.211D-01-0.428D-01-0.244D+00 0.501D-01
 Coeff-Com:  0.478D+00 0.717D+00
 Coeff:      0.648D-06 0.847D-04 0.525D-04-0.442D-03-0.172D-02-0.828D-03
 Coeff:      0.378D-02 0.196D-01 0.211D-01-0.428D-01-0.244D+00 0.501D-01
 Coeff:      0.478D+00 0.717D+00
 Gap=     0.129 Goal=   None    Shift=    0.000
 Gap=     0.143 Goal=   None    Shift=    0.000
 RMSDP=1.92D-08 MaxDP=1.40D-06 DE=-1.09D-10 OVMax= 2.79D-06

 Cycle  15  Pass 1  IDiag  1:
 RMSU=  7.90D-09    CP:  1.00D+00  1.02D+00  5.23D-01  8.85D-01  1.07D+00
                    CP:  8.54D-01  1.08D+00  1.21D+00  1.24D+00  1.69D+00
                    CP:  2.51D+00  2.11D+00  1.36D+00  1.03D+00
 E= -894.095619554827     Delta-E=        0.000000000046 Rises=F Damp=F
 DIIS: error= 4.20D-08 at cycle  15 NSaved=  15.
 NSaved=15 IEnMin=14 EnMin= -894.095619554874     IErMin=15 ErrMin= 4.20D-08
 ErrMax= 4.20D-08  0.00D+00 EMaxC= 1.00D-01 BMatC= 2.49D-12 BMatP= 1.14D-11
 IDIUse=1 WtCom= 1.00D+00 WtEn= 0.00D+00
 Coeff-Com: -0.737D-06 0.786D-04 0.409D-04-0.225D-03-0.128D-02-0.953D-03
 Coeff-Com:  0.744D-03 0.783D-02 0.196D-01 0.730D-02-0.946D-01-0.535D-01
 Coeff-Com:  0.106D+00 0.383D+00 0.626D+00
 Coeff:     -0.737D-06 0.786D-04 0.409D-04-0.225D-03-0.128D-02-0.953D-03
 Coeff:      0.744D-03 0.783D-02 0.196D-01 0.730D-02-0.946D-01-0.535D-01
 Coeff:      0.106D+00 0.383D+00 0.626D+00
 Gap=     0.129 Goal=   None    Shift=    0.000
 Gap=     0.143 Goal=   None    Shift=    0.000
 RMSDP=5.68D-09 MaxDP=5.14D-07 DE= 4.64D-11 OVMax= 6.94D-07

 SCF Done:  E(UPBE1PBE) =  -894.095619555     A.U. after   15 cycles
            NFock= 15  Conv=0.57D-08     -V/T= 2.1230
 <Sx>= 0.0000 <Sy>= 0.0000 <Sz>= 0.5000 <S**2>= 0.7516 S= 0.5008
 <L.S>= 0.000000000000E+00
 KE= 7.961476148086D+02 PE=-5.271935187338D+03 EE= 1.969377184265D+03
 Annihilation of the first spin contaminant:
 S**2 before annihilation     0.7516,   after     0.7500
 Leave Link  502 at Sat Sep 12 01:17:21 2026, MaxMem=  6442450944 cpu:             370.0 elap:             369.8
 (Enter C:\G16W\l508.exe)
 QCSCF skips out because SCF is already converged.
 Leave Link  508 at Sat Sep 12 01:17:22 2026, MaxMem=  6442450944 cpu:               1.0 elap:               0.3
 (Enter C:\G16W\l601.exe)
 Copying SCF densities to generalized density rwf, IOpCl= 1 IROHF=0.

 **********************************************************************

            Population analysis using the SCF Density.

 **********************************************************************

 Alpha  occ. eigenvalues --  -14.45565 -10.29311 -10.28116 -10.28044 -10.25118
 Alpha  occ. eigenvalues --  -10.25103 -10.25048 -10.25019 -10.24726 -10.24257
 Alpha  occ. eigenvalues --  -10.24209 -10.24137 -10.24099 -10.24059 -10.24047
 Alpha  occ. eigenvalues --  -10.23901 -10.23853 -10.23310 -10.23261  -3.74178
 Alpha  occ. eigenvalues --   -2.32172  -2.32134  -2.32130  -1.03695  -0.90643
 Alpha  occ. eigenvalues --   -0.87856  -0.87454  -0.81896  -0.78698  -0.78275
 Alpha  occ. eigenvalues --   -0.77558  -0.74266  -0.74145  -0.67761  -0.65057
 Alpha  occ. eigenvalues --   -0.64307  -0.62678  -0.60312  -0.59799  -0.56770
 Alpha  occ. eigenvalues --   -0.54289  -0.53788  -0.51432  -0.50423  -0.48721
 Alpha  occ. eigenvalues --   -0.47837  -0.46878  -0.46417  -0.45672  -0.45432
 Alpha  occ. eigenvalues --   -0.44889  -0.44617  -0.43740  -0.40480  -0.39473
 Alpha  occ. eigenvalues --   -0.38555  -0.38487  -0.37945  -0.37812  -0.36133
 Alpha  occ. eigenvalues --   -0.35593  -0.35484  -0.32111  -0.31868  -0.31777
 Alpha  occ. eigenvalues --   -0.31689  -0.31428  -0.30221  -0.28515  -0.28339
 Alpha  occ. eigenvalues --   -0.27529  -0.23546  -0.22113  -0.16601
 Alpha virt. eigenvalues --   -0.03683  -0.02499  -0.02034  -0.00203   0.00914
 Alpha virt. eigenvalues --    0.01565   0.02506   0.03662   0.03723   0.06985
 Alpha virt. eigenvalues --    0.07819   0.08417   0.10349   0.10941   0.12117
 Alpha virt. eigenvalues --    0.12605   0.13638   0.13918   0.14502   0.15379
 Alpha virt. eigenvalues --    0.15953   0.16467   0.16805   0.17874   0.19326
 Alpha virt. eigenvalues --    0.19503   0.21214   0.22717   0.24825   0.25117
 Alpha virt. eigenvalues --    0.26356   0.26914   0.27787   0.28786   0.29820
 Alpha virt. eigenvalues --    0.30378   0.30872   0.31385   0.31575   0.32528
 Alpha virt. eigenvalues --    0.33358   0.33475   0.35392   0.35798   0.36380
 Alpha virt. eigenvalues --    0.37124   0.37562   0.37994   0.39978   0.40442
 Alpha virt. eigenvalues --    0.42547   0.42991   0.44097   0.44558   0.44911
 Alpha virt. eigenvalues --    0.45447   0.46319   0.47380   0.47599   0.48282
 Alpha virt. eigenvalues --    0.48722   0.49372   0.49883   0.50296   0.50924
 Alpha virt. eigenvalues --    0.51488   0.51653   0.52515   0.53644   0.53716
 Alpha virt. eigenvalues --    0.53807   0.55374   0.56812   0.56871   0.57489
 Alpha virt. eigenvalues --    0.58455   0.59010   0.59285   0.59847   0.61560
 Alpha virt. eigenvalues --    0.63732   0.65133   0.65706   0.66103   0.66326
 Alpha virt. eigenvalues --    0.66632   0.67089   0.67687   0.68460   0.68778
 Alpha virt. eigenvalues --    0.69076   0.69746   0.70567   0.70666   0.71845
 Alpha virt. eigenvalues --    0.72317   0.72907   0.73730   0.74607   0.74951
 Alpha virt. eigenvalues --    0.75155   0.75448   0.76039   0.76943   0.77116
 Alpha virt. eigenvalues --    0.77908   0.79676   0.79788   0.79855   0.81005
 Alpha virt. eigenvalues --    0.82072   0.84307   0.85575   0.85670   0.86572
 Alpha virt. eigenvalues --    0.87249   0.88056   0.90654   0.93210   0.93649
 Alpha virt. eigenvalues --    0.95397   0.95675   0.96904   0.97959   0.98884
 Alpha virt. eigenvalues --    1.01930   1.05722   1.09274   1.10426   1.12848
 Alpha virt. eigenvalues --    1.14271   1.15045   1.19585   1.20737   1.21070
 Alpha virt. eigenvalues --    1.21706   1.22666   1.23737   1.24020   1.24216
 Alpha virt. eigenvalues --    1.25765   1.26249   1.26784   1.28056   1.28437
 Alpha virt. eigenvalues --    1.29280   1.30036   1.30316   1.32138   1.32585
 Alpha virt. eigenvalues --    1.33601   1.34330   1.38032   1.38693   1.39223
 Alpha virt. eigenvalues --    1.44786   1.44871   1.51749   1.57151   1.58812
 Alpha virt. eigenvalues --    1.63097   1.66142   1.67398   1.68129   1.68755
 Alpha virt. eigenvalues --    1.68957   1.71142   1.71450   1.72105   1.73013
 Alpha virt. eigenvalues --    1.73361   1.74254   1.74649   1.75726   1.76277
 Alpha virt. eigenvalues --    1.76642   1.77519   1.78038   1.78325   1.79230
 Alpha virt. eigenvalues --    1.80452   1.80554   1.81774   1.81897   1.82900
 Alpha virt. eigenvalues --    1.83281   1.83374   1.85274   1.85471   1.87308
 Alpha virt. eigenvalues --    1.90535   1.92103   1.92923   1.95107   1.96300
 Alpha virt. eigenvalues --    1.96816   1.97422   1.97821   1.98852   1.99619
 Alpha virt. eigenvalues --    2.00783   2.01725   2.04642   2.04899   2.06869
 Alpha virt. eigenvalues --    2.08059   2.08187   2.09290   2.11506   2.12397
 Alpha virt. eigenvalues --    2.13789   2.15045   2.15272   2.16358   2.17945
 Alpha virt. eigenvalues --    2.18627   2.19969   2.21044   2.21353   2.21539
 Alpha virt. eigenvalues --    2.22390   2.23859   2.26681   2.30194   2.30675
 Alpha virt. eigenvalues --    2.30949   2.31285   2.32141   2.32747   2.34970
 Alpha virt. eigenvalues --    2.35074   2.35470   2.36964   2.38482   2.42576
 Alpha virt. eigenvalues --    2.42683   2.43276   2.47827   2.51204   2.53817
 Alpha virt. eigenvalues --    2.55180   2.58457   2.60521   2.61434   2.62947
 Alpha virt. eigenvalues --    2.63176   2.63299   2.63483   2.63612   2.63866
 Alpha virt. eigenvalues --    2.64625   2.64927   2.65279   2.65475   2.65784
 Alpha virt. eigenvalues --    2.69902   2.71230   2.74950   2.75415   2.75862
 Alpha virt. eigenvalues --    2.77068   2.77212   2.77451   2.78921   2.80139
 Alpha virt. eigenvalues --    2.81835   2.83357   2.90266   2.90443   2.91585
 Alpha virt. eigenvalues --    2.92285   2.94676   3.00256   3.02314   3.06223
 Alpha virt. eigenvalues --    3.07902   3.13341   3.15663   3.17215   3.17322
 Alpha virt. eigenvalues --    3.24664   3.35946   3.39594   3.47011   3.61699
 Alpha virt. eigenvalues --    3.71901   3.76114  53.86583
  Beta  occ. eigenvalues --  -14.45551 -10.29302 -10.28109 -10.28040 -10.25120
  Beta  occ. eigenvalues --  -10.25087 -10.25041 -10.25009 -10.24730 -10.24246
  Beta  occ. eigenvalues --  -10.24199 -10.24130 -10.24100 -10.24054 -10.24046
  Beta  occ. eigenvalues --  -10.23902 -10.23855 -10.23309 -10.23259  -3.74059
  Beta  occ. eigenvalues --   -2.32138  -2.32109  -2.32099  -1.03656  -0.90623
  Beta  occ. eigenvalues --   -0.87844  -0.87440  -0.81880  -0.78680  -0.78262
  Beta  occ. eigenvalues --   -0.77543  -0.74258  -0.74132  -0.67751  -0.65033
  Beta  occ. eigenvalues --   -0.64294  -0.62660  -0.60297  -0.59790  -0.56754
  Beta  occ. eigenvalues --   -0.54281  -0.53773  -0.51414  -0.50354  -0.48706
  Beta  occ. eigenvalues --   -0.47807  -0.46862  -0.46358  -0.45637  -0.45422
  Beta  occ. eigenvalues --   -0.44878  -0.44575  -0.43734  -0.40450  -0.39461
  Beta  occ. eigenvalues --   -0.38546  -0.38450  -0.37926  -0.37779  -0.36102
  Beta  occ. eigenvalues --   -0.35583  -0.35431  -0.31621  -0.31245  -0.31147
  Beta  occ. eigenvalues --   -0.31051  -0.30806  -0.30017  -0.28470  -0.28301
  Beta  occ. eigenvalues --   -0.27482  -0.23514  -0.22052
  Beta virt. eigenvalues --   -0.07758  -0.03647  -0.02439  -0.01804  -0.00173
  Beta virt. eigenvalues --    0.02707   0.03086   0.03853   0.04137   0.06280
  Beta virt. eigenvalues --    0.07253   0.07875   0.08450   0.10407   0.11070
  Beta virt. eigenvalues --    0.12427   0.12703   0.13692   0.13967   0.15292
  Beta virt. eigenvalues --    0.15463   0.15998   0.16606   0.17110   0.18113
  Beta virt. eigenvalues --    0.19340   0.19561   0.21432   0.22873   0.24961
  Beta virt. eigenvalues --    0.25589   0.26595   0.27417   0.27850   0.28861
  Beta virt. eigenvalues --    0.29918   0.30874   0.31103   0.31704   0.32570
  Beta virt. eigenvalues --    0.33612   0.33792   0.34533   0.35772   0.36214
  Beta virt. eigenvalues --    0.36819   0.37437   0.37668   0.38463   0.40066
  Beta virt. eigenvalues --    0.40690   0.42721   0.43260   0.44263   0.44743
  Beta virt. eigenvalues --    0.45349   0.46066   0.46817   0.47726   0.48051
  Beta virt. eigenvalues --    0.48519   0.48955   0.49480   0.49989   0.50546
  Beta virt. eigenvalues --    0.51146   0.51634   0.51920   0.52965   0.53844
  Beta virt. eigenvalues --    0.54069   0.54526   0.55658   0.57035   0.57144
  Beta virt. eigenvalues --    0.57555   0.58472   0.59252   0.59517   0.60213
  Beta virt. eigenvalues --    0.61739   0.64074   0.65313   0.65958   0.66243
  Beta virt. eigenvalues --    0.66555   0.66817   0.67166   0.67757   0.68559
  Beta virt. eigenvalues --    0.69062   0.69268   0.69851   0.70670   0.70714
  Beta virt. eigenvalues --    0.71998   0.72371   0.72949   0.73911   0.74706
  Beta virt. eigenvalues --    0.74991   0.75314   0.75498   0.76185   0.76973
  Beta virt. eigenvalues --    0.77209   0.78043   0.79699   0.79887   0.79987
  Beta virt. eigenvalues --    0.81151   0.82250   0.84380   0.85620   0.85860
  Beta virt. eigenvalues --    0.86850   0.87372   0.88163   0.90939   0.93250
  Beta virt. eigenvalues --    0.93727   0.95544   0.95754   0.96938   0.98027
  Beta virt. eigenvalues --    0.98964   1.02001   1.05884   1.09308   1.10470
  Beta virt. eigenvalues --    1.13029   1.14313   1.15091   1.19600   1.20756
  Beta virt. eigenvalues --    1.21093   1.21766   1.22688   1.23773   1.24054
  Beta virt. eigenvalues --    1.24232   1.25784   1.26265   1.26797   1.28092
  Beta virt. eigenvalues --    1.28471   1.29301   1.30054   1.30346   1.32157
  Beta virt. eigenvalues --    1.32607   1.33632   1.34357   1.38054   1.38728
  Beta virt. eigenvalues --    1.39272   1.44807   1.44891   1.51765   1.57178
  Beta virt. eigenvalues --    1.58841   1.63109   1.66169   1.67420   1.68149
  Beta virt. eigenvalues --    1.68769   1.68969   1.71149   1.71466   1.72115
  Beta virt. eigenvalues --    1.73031   1.73374   1.74267   1.74663   1.75730
  Beta virt. eigenvalues --    1.76293   1.76661   1.77531   1.78042   1.78345
  Beta virt. eigenvalues --    1.79245   1.80464   1.80601   1.81790   1.81906
  Beta virt. eigenvalues --    1.82919   1.83296   1.83390   1.85301   1.85489
  Beta virt. eigenvalues --    1.87337   1.90546   1.92133   1.92942   1.95116
  Beta virt. eigenvalues --    1.96307   1.96824   1.97427   1.97851   1.98885
  Beta virt. eigenvalues --    1.99626   2.00797   2.01774   2.04721   2.04908
  Beta virt. eigenvalues --    2.06995   2.08080   2.08206   2.09315   2.11527
  Beta virt. eigenvalues --    2.12755   2.13921   2.15082   2.15284   2.16406
  Beta virt. eigenvalues --    2.18134   2.18641   2.20043   2.21101   2.21378
  Beta virt. eigenvalues --    2.21590   2.22409   2.23881   2.26802   2.30208
  Beta virt. eigenvalues --    2.30690   2.30960   2.31327   2.32153   2.32773
  Beta virt. eigenvalues --    2.34989   2.35085   2.35483   2.36988   2.38505
  Beta virt. eigenvalues --    2.42588   2.42696   2.43290   2.47835   2.51219
  Beta virt. eigenvalues --    2.53835   2.55196   2.58471   2.60556   2.61447
  Beta virt. eigenvalues --    2.62975   2.63205   2.63322   2.63509   2.63645
  Beta virt. eigenvalues --    2.63896   2.64642   2.64961   2.65301   2.65496
  Beta virt. eigenvalues --    2.65815   2.69924   2.71247   2.74959   2.75428
  Beta virt. eigenvalues --    2.75875   2.77087   2.77218   2.77461   2.78923
  Beta virt. eigenvalues --    2.80156   2.81847   2.83367   2.90284   2.90456
  Beta virt. eigenvalues --    2.91606   2.92305   2.94693   3.00268   3.02322
  Beta virt. eigenvalues --    3.06236   3.07908   3.13346   3.15669   3.17232
  Beta virt. eigenvalues --    3.17329   3.24676   3.35957   3.39607   3.47023
  Beta virt. eigenvalues --    3.61704   3.71917   3.76121  53.86746
          Condensed to atoms (all electrons):
               1          2          3          4          5          6
     1  C    5.126892   0.256543   0.094532  -0.175841  -0.000408   0.000065
     2  C    0.256543   5.092410   0.258100   0.131168   0.009170  -0.000072
     3  C    0.094532   0.258100   5.150075   0.249578  -0.064138   0.003093
     4  C   -0.175841   0.131168   0.249578   5.268549   0.280523  -0.066569
     5  N   -0.000408   0.009170  -0.064138   0.280523   6.812326   0.349733
     6  C    0.000065  -0.000072   0.003093  -0.066569   0.349733   5.331133
     7  C   -0.000013  -0.000022   0.001203  -0.002132  -0.082385   0.270480
     8  C    0.000000   0.000000   0.000003  -0.000031   0.007889   0.133808
     9  C    0.000000   0.000000  -0.000002   0.000021  -0.000267  -0.165004
    10  C    0.000000   0.000000   0.000005  -0.000050   0.009057   0.035399
    11  C    0.000001  -0.000001  -0.000464   0.010336  -0.092901   0.209109
    12  C    0.000000   0.000000   0.000844   0.008731  -0.089880  -0.054783
    13  C    0.000000   0.000000  -0.000019  -0.000063   0.009268   0.016050
    14  C    0.000000   0.000000  -0.000007   0.000026  -0.000299   0.000279
    15  C    0.000000   0.000001   0.000042   0.000018   0.008247  -0.001202
    16  C   -0.000004  -0.000749  -0.001980  -0.002013  -0.085259   0.009699
    17  C    0.000063   0.000123  -0.011255  -0.060893   0.335408  -0.150456
    18  C    0.095307  -0.160016   0.069201   0.229303  -0.076067  -0.005571
    19  C    0.257972   0.109548  -0.154095   0.128571   0.009272   0.000200
    20  H    0.452900  -0.070821   0.015049  -0.001776   0.000011   0.000001
    21  H   -0.071178   0.449613  -0.067140   0.015974  -0.000173   0.000003
    22  H    0.014902  -0.067644   0.458795  -0.072340  -0.011285  -0.000317
    23  H   -0.000041   0.000015  -0.000374   0.003328  -0.011700  -0.077254
    24  H    0.000000   0.000000   0.000001  -0.000018  -0.000153   0.015105
    25  H    0.000000   0.000000   0.000000   0.000000   0.000014  -0.001116
    26  H    0.000000   0.000000   0.000000   0.000014  -0.000129   0.018790
    27  H    0.000000   0.000000   0.000000   0.000013  -0.000132  -0.000909
    28  H    0.000000   0.000000   0.000000   0.000000   0.000013   0.000017
    29  H    0.000000  -0.000002   0.000006  -0.000020  -0.000151   0.000013
    30  H   -0.000047   0.000500   0.004728   0.003360  -0.012250  -0.000142
    31  H    0.014956  -0.002560   0.015529  -0.077387  -0.012092   0.002426
    32  H   -0.072686   0.014307  -0.001772   0.016435  -0.000163  -0.000029
    33  Ag  -0.000865   0.000291  -0.002794  -0.009804  -0.020015   0.005595
               7          8          9         10         11         12
     1  C   -0.000013   0.000000   0.000000   0.000000   0.000001   0.000000
     2  C   -0.000022   0.000000   0.000000   0.000000  -0.000001   0.000000
     3  C    0.001203   0.000003  -0.000002   0.000005  -0.000464   0.000844
     4  C   -0.002132  -0.000031   0.000021  -0.000050   0.010336   0.008731
     5  N   -0.082385   0.007889  -0.000267   0.009057  -0.092901  -0.089880
     6  C    0.270480   0.133808  -0.165004   0.035399   0.209109  -0.054783
     7  C    5.152938   0.273497   0.084256  -0.122037   0.048394   0.018572
     8  C    0.273497   5.083194   0.268205   0.082190  -0.158053   0.001444
     9  C    0.084256   0.268205   5.084185   0.304446   0.095113   0.016986
    10  C   -0.122037   0.082190   0.304446   5.073237   0.341086  -0.096243
    11  C    0.048394  -0.158053   0.095113   0.341086   5.456535   0.249656
    12  C    0.018572   0.001444   0.016986  -0.096243   0.249656   5.468455
    13  C   -0.000554   0.000106  -0.000396  -0.008293  -0.097415   0.339862
    14  C    0.000002   0.000002  -0.000006  -0.000385   0.017186   0.096474
    15  C    0.000003  -0.000001   0.000002   0.000104   0.001295  -0.158670
    16  C   -0.000253   0.000005   0.000002  -0.000530   0.019732   0.046631
    17  C    0.010445  -0.001222   0.000285   0.015660  -0.055348   0.195440
    18  C   -0.002028   0.000138  -0.000010  -0.000025   0.000363  -0.000539
    19  C   -0.000613   0.000004   0.000000   0.000000  -0.000018   0.000003
    20  H    0.000000   0.000000   0.000000   0.000000   0.000000   0.000000
    21  H    0.000000   0.000000   0.000000   0.000000   0.000000  -0.000001
    22  H   -0.000018  -0.000002   0.000000   0.000000   0.000029  -0.000484
    23  H    0.465022  -0.074835   0.014568  -0.002384   0.018581  -0.000673
    24  H   -0.066960   0.446424  -0.069044   0.014268  -0.001086   0.000020
    25  H    0.014745  -0.070774   0.447056  -0.067994   0.015440  -0.000526
    26  H   -0.002382   0.014611  -0.075128   0.452226  -0.058848  -0.025934
    27  H    0.000030  -0.000013   0.000106   0.005151  -0.025688  -0.058807
    28  H    0.000000   0.000000   0.000000  -0.000001  -0.000526   0.015505
    29  H    0.000000   0.000000   0.000000   0.000000   0.000017  -0.001133
    30  H    0.000013   0.000001   0.000000   0.000007  -0.000613   0.018557
    31  H    0.002082   0.000268  -0.000030  -0.000019  -0.000496   0.000156
    32  H    0.000024   0.000000   0.000000   0.000000   0.000000   0.000000
    33  Ag  -0.000346  -0.000701   0.000220  -0.000926  -0.012666  -0.014476
              13         14         15         16         17         18
     1  C    0.000000   0.000000   0.000000  -0.000004   0.000063   0.095307
     2  C    0.000000   0.000000   0.000001  -0.000749   0.000123  -0.160016
     3  C   -0.000019  -0.000007   0.000042  -0.001980  -0.011255   0.069201
     4  C   -0.000063   0.000026   0.000018  -0.002013  -0.060893   0.229303
     5  N    0.009268  -0.000299   0.008247  -0.085259   0.335408  -0.076067
     6  C    0.016050   0.000279  -0.001202   0.009699  -0.150456  -0.005571
     7  C   -0.000554   0.000002   0.000003  -0.000253   0.010445  -0.002028
     8  C    0.000106   0.000002  -0.000001   0.000005  -0.001222   0.000138
     9  C   -0.000396  -0.000006   0.000002   0.000002   0.000285  -0.000010
    10  C   -0.008293  -0.000385   0.000104  -0.000530   0.015660  -0.000025
    11  C   -0.097415   0.017186   0.001295   0.019732  -0.055348   0.000363
    12  C    0.339862   0.096474  -0.158670   0.046631   0.195440  -0.000539
    13  C    5.076941   0.302247   0.083699  -0.123905   0.035238  -0.000003
    14  C    0.302247   5.087431   0.266274   0.086545  -0.167162  -0.000001
    15  C    0.083699   0.266274   5.087997   0.268781   0.134102  -0.000005
    16  C   -0.123905   0.086545   0.268781   5.162121   0.265871   0.001402
    17  C    0.035238  -0.167162   0.134102   0.265871   5.369201   0.004723
    18  C   -0.000003  -0.000001  -0.000005   0.001402   0.004723   5.185729
    19  C    0.000000   0.000000   0.000000  -0.000020  -0.000255   0.263501
    20  H    0.000000   0.000000   0.000000   0.000000   0.000001   0.015256
    21  H    0.000000   0.000000   0.000000   0.000029  -0.000030  -0.001639
    22  H   -0.000013  -0.000018   0.000467   0.002787   0.001751   0.016583
    23  H    0.000007   0.000000   0.000001   0.000011  -0.000122   0.004407
    24  H    0.000000   0.000000   0.000000   0.000000   0.000012   0.000005
    25  H   -0.000001   0.000000   0.000000   0.000000   0.000017   0.000000
    26  H    0.005120   0.000110  -0.000014   0.000031  -0.000907   0.000000
    27  H    0.451842  -0.075013   0.014566  -0.002363   0.018843   0.000000
    28  H   -0.068102   0.447165  -0.070871   0.014838  -0.001121   0.000000
    29  H    0.014318  -0.069415   0.446956  -0.067350   0.015422   0.000001
    30  H   -0.002522   0.014737  -0.075990   0.466516  -0.077157  -0.000345
    31  H    0.000004   0.000000   0.000000  -0.000003  -0.000802   0.456919
    32  H    0.000000   0.000000   0.000000   0.000000   0.000006  -0.066878
    33  Ag   0.000497  -0.000906   0.000118   0.001606   0.008476  -0.006824
              19         20         21         22         23         24
     1  C    0.257972   0.452900  -0.071178   0.014902  -0.000041   0.000000
     2  C    0.109548  -0.070821   0.449613  -0.067644   0.000015   0.000000
     3  C   -0.154095   0.015049  -0.067140   0.458795  -0.000374   0.000001
     4  C    0.128571  -0.001776   0.015974  -0.072340   0.003328  -0.000018
     5  N    0.009272   0.000011  -0.000173  -0.011285  -0.011700  -0.000153
     6  C    0.000200   0.000001   0.000003  -0.000317  -0.077254   0.015105
     7  C   -0.000613   0.000000   0.000000  -0.000018   0.465022  -0.066960
     8  C    0.000004   0.000000   0.000000  -0.000002  -0.074835   0.446424
     9  C    0.000000   0.000000   0.000000   0.000000   0.014568  -0.069044
    10  C    0.000000   0.000000   0.000000   0.000000  -0.002384   0.014268
    11  C   -0.000018   0.000000   0.000000   0.000029   0.018581  -0.001086
    12  C    0.000003   0.000000  -0.000001  -0.000484  -0.000673   0.000020
    13  C    0.000000   0.000000   0.000000  -0.000013   0.000007   0.000000
    14  C    0.000000   0.000000   0.000000  -0.000018   0.000000   0.000000
    15  C    0.000000   0.000000   0.000000   0.000467   0.000001   0.000000
    16  C   -0.000020   0.000000   0.000029   0.002787   0.000011   0.000000
    17  C   -0.000255   0.000001  -0.000030   0.001751  -0.000122   0.000012
    18  C    0.263501   0.015256  -0.001639   0.016583   0.004407   0.000005
    19  C    5.072585  -0.070298   0.014171  -0.002504   0.000386  -0.000002
    20  H   -0.070298   0.664859  -0.012240  -0.000231  -0.000001   0.000000
    21  H    0.014171  -0.012240   0.664129  -0.012336  -0.000002   0.000000
    22  H   -0.002504  -0.000231  -0.012336   0.651832  -0.000029   0.000000
    23  H    0.000386  -0.000001  -0.000002  -0.000029   0.669107  -0.012524
    24  H   -0.000002   0.000000   0.000000   0.000000  -0.012524   0.672033
    25  H    0.000000   0.000000   0.000000   0.000000  -0.000241  -0.012794
    26  H    0.000000   0.000000   0.000000   0.000000   0.000023  -0.000284
    27  H    0.000000   0.000000   0.000000  -0.000001   0.000000   0.000000
    28  H    0.000000   0.000000   0.000000   0.000000   0.000000   0.000000
    29  H    0.000000   0.000000   0.000000   0.000002   0.000000   0.000000
    30  H    0.000001  -0.000001   0.000044  -0.001199  -0.000001   0.000000
    31  H   -0.061304  -0.000224   0.000028  -0.000130  -0.000554   0.000003
    32  H    0.451307  -0.012164  -0.000307   0.000026   0.000031   0.000000
    33  Ag   0.001755   0.000016  -0.000031  -0.000131  -0.001388   0.000041
              25         26         27         28         29         30
     1  C    0.000000   0.000000   0.000000   0.000000   0.000000  -0.000047
     2  C    0.000000   0.000000   0.000000   0.000000  -0.000002   0.000500
     3  C    0.000000   0.000000   0.000000   0.000000   0.000006   0.004728
     4  C    0.000000   0.000014   0.000013   0.000000  -0.000020   0.003360
     5  N    0.000014  -0.000129  -0.000132   0.000013  -0.000151  -0.012250
     6  C   -0.001116   0.018790  -0.000909   0.000017   0.000013  -0.000142
     7  C    0.014745  -0.002382   0.000030   0.000000   0.000000   0.000013
     8  C   -0.070774   0.014611  -0.000013   0.000000   0.000000   0.000001
     9  C    0.447056  -0.075128   0.000106   0.000000   0.000000   0.000000
    10  C   -0.067994   0.452226   0.005151  -0.000001   0.000000   0.000007
    11  C    0.015440  -0.058848  -0.025688  -0.000526   0.000017  -0.000613
    12  C   -0.000526  -0.025934  -0.058807   0.015505  -0.001133   0.018557
    13  C   -0.000001   0.005120   0.451842  -0.068102   0.014318  -0.002522
    14  C    0.000000   0.000110  -0.075013   0.447165  -0.069415   0.014737
    15  C    0.000000  -0.000014   0.014566  -0.070871   0.446956  -0.075990
    16  C    0.000000   0.000031  -0.002363   0.014838  -0.067350   0.466516
    17  C    0.000017  -0.000907   0.018843  -0.001121   0.015422  -0.077157
    18  C    0.000000   0.000000   0.000000   0.000000   0.000001  -0.000345
    19  C    0.000000   0.000000   0.000000   0.000000   0.000000   0.000001
    20  H    0.000000   0.000000   0.000000   0.000000   0.000000  -0.000001
    21  H    0.000000   0.000000   0.000000   0.000000   0.000000   0.000044
    22  H    0.000000   0.000000  -0.000001   0.000000   0.000002  -0.001199
    23  H   -0.000241   0.000023   0.000000   0.000000   0.000000  -0.000001
    24  H   -0.012794  -0.000284   0.000000   0.000000   0.000000   0.000000
    25  H    0.677679  -0.011903   0.000003   0.000000   0.000000   0.000000
    26  H   -0.011903   0.685652   0.000379   0.000003   0.000000   0.000000
    27  H    0.000003   0.000379   0.684979  -0.011873  -0.000284   0.000024
    28  H    0.000000   0.000003  -0.011873   0.677441  -0.012781  -0.000237
    29  H    0.000000   0.000000  -0.000284  -0.012781   0.671818  -0.012636
    30  H    0.000000   0.000000   0.000024  -0.000237  -0.012636   0.668510
    31  H    0.000000   0.000000   0.000000   0.000000   0.000000  -0.000022
    32  H    0.000000   0.000000   0.000000   0.000000   0.000000  -0.000002
    33  Ag   0.000033   0.000059   0.000119   0.000026   0.000117  -0.000927
              31         32         33
     1  C    0.014956  -0.072686  -0.000865
     2  C   -0.002560   0.014307   0.000291
     3  C    0.015529  -0.001772  -0.002794
     4  C   -0.077387   0.016435  -0.009804
     5  N   -0.012092  -0.000163  -0.020015
     6  C    0.002426  -0.000029   0.005595
     7  C    0.002082   0.000024  -0.000346
     8  C    0.000268   0.000000  -0.000701
     9  C   -0.000030   0.000000   0.000220
    10  C   -0.000019   0.000000  -0.000926
    11  C   -0.000496   0.000000  -0.012666
    12  C    0.000156   0.000000  -0.014476
    13  C    0.000004   0.000000   0.000497
    14  C    0.000000   0.000000  -0.000906
    15  C    0.000000   0.000000   0.000118
    16  C   -0.000003   0.000000   0.001606
    17  C   -0.000802   0.000006   0.008476
    18  C    0.456919  -0.066878  -0.006824
    19  C   -0.061304   0.451307   0.001755
    20  H   -0.000224  -0.012164   0.000016
    21  H    0.000028  -0.000307  -0.000031
    22  H   -0.000130   0.000026  -0.000131
    23  H   -0.000554   0.000031  -0.001388
    24  H    0.000003   0.000000   0.000041
    25  H    0.000000   0.000000   0.000033
    26  H    0.000000   0.000000   0.000059
    27  H    0.000000   0.000000   0.000119
    28  H    0.000000   0.000000   0.000026
    29  H    0.000000   0.000000   0.000117
    30  H   -0.000022  -0.000002  -0.000927
    31  H    0.639237  -0.013426   0.007064
    32  H   -0.013426   0.662992   0.000610
    33  Ag   0.007064   0.000610  19.071048
          Atomic-Atomic Spin Densities.
               1          2          3          4          5          6
     1  C   -0.001436  -0.000260   0.000538  -0.000276  -0.000002  -0.000007
     2  C   -0.000260   0.007924  -0.001045  -0.000251   0.000002   0.000004
     3  C    0.000538  -0.001045  -0.001314   0.001143   0.000116  -0.000154
     4  C   -0.000276  -0.000251   0.001143   0.007681   0.003092  -0.000516
     5  N   -0.000002   0.000002   0.000116   0.003092   0.014935  -0.000612
     6  C   -0.000007   0.000004  -0.000154  -0.000516  -0.000612   0.004120
     7  C    0.000002  -0.000001  -0.000010   0.000194   0.000168  -0.000617
     8  C    0.000000   0.000000   0.000002   0.000007   0.000164   0.000913
     9  C    0.000000   0.000000   0.000000   0.000001  -0.000002  -0.000188
    10  C    0.000000   0.000000   0.000001   0.000011   0.000245   0.000317
    11  C    0.000000   0.000000   0.000010   0.000236   0.001738   0.000527
    12  C    0.000000   0.000000   0.000020   0.000241   0.001837  -0.000120
    13  C    0.000000   0.000000   0.000002   0.000010   0.000120  -0.000026
    14  C    0.000000   0.000000   0.000001   0.000000   0.000015  -0.000008
    15  C    0.000000  -0.000001   0.000011   0.000042   0.000080  -0.000027
    16  C    0.000001  -0.000003  -0.000017  -0.000017  -0.000045   0.000129
    17  C   -0.000007   0.000012  -0.000344  -0.000610  -0.000972   0.000686
    18  C    0.000589   0.000011   0.000324   0.000810   0.000627  -0.000108
    19  C   -0.001685  -0.000209  -0.000486   0.000730  -0.000023   0.000021
    20  H   -0.000299  -0.000028  -0.000033   0.000016   0.000000   0.000000
    21  H    0.000001   0.000091   0.000042  -0.000016   0.000000   0.000000
    22  H   -0.000034   0.000108  -0.000663  -0.000096  -0.000030   0.000072
    23  H    0.000001   0.000000   0.000001   0.000018   0.000026   0.000034
    24  H    0.000000   0.000000   0.000000   0.000000   0.000001   0.000030
    25  H    0.000000   0.000000   0.000000   0.000000   0.000000   0.000004
    26  H    0.000000   0.000000   0.000000   0.000000   0.000000   0.000008
    27  H    0.000000   0.000000   0.000000   0.000000   0.000001  -0.000001
    28  H    0.000000   0.000000   0.000000   0.000000   0.000000   0.000000
    29  H    0.000000   0.000000   0.000001   0.000001   0.000002   0.000000
    30  H    0.000002   0.000003   0.000044  -0.000032   0.000032  -0.000002
    31  H    0.000004   0.000003  -0.000042   0.000286   0.000066   0.000000
    32  H   -0.000285   0.000004  -0.000017   0.000014  -0.000001   0.000000
    33  Ag  -0.000645   0.000347  -0.001868  -0.010796  -0.024323  -0.002698
               7          8          9         10         11         12
     1  C    0.000002   0.000000   0.000000   0.000000   0.000000   0.000000
     2  C   -0.000001   0.000000   0.000000   0.000000   0.000000   0.000000
     3  C   -0.000010   0.000002   0.000000   0.000001   0.000010   0.000020
     4  C    0.000194   0.000007   0.000001   0.000011   0.000236   0.000241
     5  N    0.000168   0.000164  -0.000002   0.000245   0.001738   0.001837
     6  C   -0.000617   0.000913  -0.000188   0.000317   0.000527  -0.000120
     7  C    0.004020  -0.001141   0.000064  -0.000201   0.000302  -0.000054
     8  C   -0.001141   0.000117  -0.000260   0.000362  -0.000269   0.000045
     9  C    0.000064  -0.000260   0.001579  -0.000095  -0.000080  -0.000021
    10  C   -0.000201   0.000362  -0.000095   0.000173  -0.000415   0.000345
    11  C    0.000302  -0.000269  -0.000080  -0.000415   0.006114   0.002547
    12  C   -0.000054   0.000045  -0.000021   0.000345   0.002547   0.007434
    13  C   -0.000009   0.000004   0.000000   0.000169   0.000287  -0.000367
    14  C    0.000000   0.000000   0.000000   0.000004  -0.000005  -0.000065
    15  C    0.000000   0.000000   0.000000   0.000003   0.000047  -0.000044
    16  C    0.000001  -0.000001   0.000000  -0.000014  -0.000107   0.000126
    17  C    0.000100  -0.000054  -0.000004  -0.000104  -0.000191   0.001226
    18  C    0.000234   0.000052  -0.000002   0.000004   0.000037   0.000019
    19  C   -0.000020  -0.000002   0.000000   0.000000  -0.000001  -0.000001
    20  H    0.000000   0.000000   0.000000   0.000000   0.000000   0.000000
    21  H    0.000000   0.000000   0.000000   0.000000   0.000000   0.000000
    22  H    0.000002  -0.000001   0.000000  -0.000001  -0.000004  -0.000001
    23  H   -0.000004   0.000061  -0.000002   0.000002   0.000008   0.000000
    24  H   -0.000120   0.000121  -0.000025   0.000005  -0.000008   0.000000
    25  H   -0.000016   0.000023   0.000038  -0.000014  -0.000010   0.000000
    26  H   -0.000002   0.000004  -0.000008   0.000014  -0.000014  -0.000003
    27  H    0.000000   0.000000   0.000000   0.000014  -0.000002  -0.000044
    28  H    0.000000   0.000000   0.000000   0.000000   0.000000  -0.000004
    29  H    0.000000   0.000000   0.000000   0.000000   0.000001  -0.000005
    30  H    0.000000   0.000000   0.000000   0.000000   0.000000   0.000012
    31  H   -0.000077   0.000010  -0.000001   0.000001   0.000009  -0.000004
    32  H   -0.000001   0.000000   0.000000   0.000000   0.000000   0.000000
    33  Ag  -0.000361  -0.002127   0.000412  -0.003001  -0.009212  -0.011343
              13         14         15         16         17         18
     1  C    0.000000   0.000000   0.000000   0.000001  -0.000007   0.000589
     2  C    0.000000   0.000000  -0.000001  -0.000003   0.000012   0.000011
     3  C    0.000002   0.000001   0.000011  -0.000017  -0.000344   0.000324
     4  C    0.000010   0.000000   0.000042  -0.000017  -0.000610   0.000810
     5  N    0.000120   0.000015   0.000080  -0.000045  -0.000972   0.000627
     6  C   -0.000026  -0.000008  -0.000027   0.000129   0.000686  -0.000108
     7  C   -0.000009   0.000000   0.000000   0.000001   0.000100   0.000234
     8  C    0.000004   0.000000   0.000000  -0.000001  -0.000054   0.000052
     9  C    0.000000   0.000000   0.000000   0.000000  -0.000004  -0.000002
    10  C    0.000169   0.000004   0.000003  -0.000014  -0.000104   0.000004
    11  C    0.000287  -0.000005   0.000047  -0.000107  -0.000191   0.000037
    12  C   -0.000367  -0.000065  -0.000044   0.000126   0.001226   0.000019
    13  C   -0.001132   0.000019   0.000134  -0.000052   0.000150   0.000001
    14  C    0.000019   0.001550  -0.000279  -0.000061  -0.000107   0.000000
    15  C    0.000134  -0.000279  -0.000516  -0.000159   0.000719   0.000000
    16  C   -0.000052  -0.000061  -0.000159   0.003065  -0.000291   0.000001
    17  C    0.000150  -0.000107   0.000719  -0.000291   0.007184  -0.000156
    18  C    0.000001   0.000000   0.000000   0.000001  -0.000156   0.009550
    19  C    0.000000   0.000000   0.000000   0.000000   0.000019  -0.002090
    20  H    0.000000   0.000000   0.000000   0.000000   0.000000  -0.000018
    21  H    0.000000   0.000000   0.000000   0.000000  -0.000001   0.000000
    22  H   -0.000002  -0.000001  -0.000014   0.000085   0.000171  -0.000001
    23  H    0.000000   0.000000   0.000000   0.000000  -0.000004   0.000052
    24  H    0.000000   0.000000   0.000000   0.000000   0.000000   0.000001
    25  H    0.000000   0.000000   0.000000   0.000000   0.000000   0.000000
    26  H    0.000002   0.000000   0.000000   0.000000   0.000000   0.000000
    27  H    0.000049   0.000003   0.000009  -0.000007   0.000012   0.000000
    28  H   -0.000031   0.000054   0.000015  -0.000017   0.000006   0.000000
    29  H   -0.000002  -0.000015   0.000099  -0.000111   0.000045   0.000000
    30  H   -0.000001  -0.000004   0.000055  -0.000062   0.000165  -0.000001
    31  H    0.000000   0.000000   0.000000   0.000001   0.000007   0.001801
    32  H    0.000000   0.000000   0.000000   0.000000   0.000000  -0.000333
    33  Ag  -0.001395   0.000135  -0.001766  -0.000009  -0.004754  -0.011270
              19         20         21         22         23         24
     1  C   -0.001685  -0.000299   0.000001  -0.000034   0.000001   0.000000
     2  C   -0.000209  -0.000028   0.000091   0.000108   0.000000   0.000000
     3  C   -0.000486  -0.000033   0.000042  -0.000663   0.000001   0.000000
     4  C    0.000730   0.000016  -0.000016  -0.000096   0.000018   0.000000
     5  N   -0.000023   0.000000   0.000000  -0.000030   0.000026   0.000001
     6  C    0.000021   0.000000   0.000000   0.000072   0.000034   0.000030
     7  C   -0.000020   0.000000   0.000000   0.000002  -0.000004  -0.000120
     8  C   -0.000002   0.000000   0.000000  -0.000001   0.000061   0.000121
     9  C    0.000000   0.000000   0.000000   0.000000  -0.000002  -0.000025
    10  C    0.000000   0.000000   0.000000  -0.000001   0.000002   0.000005
    11  C   -0.000001   0.000000   0.000000  -0.000004   0.000008  -0.000008
    12  C   -0.000001   0.000000   0.000000  -0.000001   0.000000   0.000000
    13  C    0.000000   0.000000   0.000000  -0.000002   0.000000   0.000000
    14  C    0.000000   0.000000   0.000000  -0.000001   0.000000   0.000000
    15  C    0.000000   0.000000   0.000000  -0.000014   0.000000   0.000000
    16  C    0.000000   0.000000   0.000000   0.000085   0.000000   0.000000
    17  C    0.000019   0.000000  -0.000001   0.000171  -0.000004   0.000000
    18  C   -0.002090  -0.000018   0.000000  -0.000001   0.000052   0.000001
    19  C    0.009691   0.000155  -0.000019   0.000036  -0.000011   0.000000
    20  H    0.000155   0.000437  -0.000007   0.000003   0.000000   0.000000
    21  H   -0.000019  -0.000007  -0.000406  -0.000014   0.000000   0.000000
    22  H    0.000036   0.000003  -0.000014   0.000503   0.000000   0.000000
    23  H   -0.000011   0.000000   0.000000   0.000000  -0.000112   0.000004
    24  H    0.000000   0.000000   0.000000   0.000000   0.000004   0.000121
    25  H    0.000000   0.000000   0.000000   0.000000   0.000000   0.000004
    26  H    0.000000   0.000000   0.000000   0.000000   0.000000   0.000000
    27  H    0.000000   0.000000   0.000000   0.000000   0.000000   0.000000
    28  H    0.000000   0.000000   0.000000   0.000000   0.000000   0.000000
    29  H    0.000000   0.000000   0.000000  -0.000001   0.000000   0.000000
    30  H   -0.000001   0.000000   0.000000  -0.000010   0.000000   0.000000
    31  H   -0.000065   0.000000   0.000000   0.000000  -0.000003   0.000000
    32  H    0.000352   0.000035  -0.000001   0.000001   0.000000   0.000000
    33  Ag   0.000621   0.000039  -0.000009   0.000347  -0.000222  -0.000069
              25         26         27         28         29         30
     1  C    0.000000   0.000000   0.000000   0.000000   0.000000   0.000002
     2  C    0.000000   0.000000   0.000000   0.000000   0.000000   0.000003
     3  C    0.000000   0.000000   0.000000   0.000000   0.000001   0.000044
     4  C    0.000000   0.000000   0.000000   0.000000   0.000001  -0.000032
     5  N    0.000000   0.000000   0.000001   0.000000   0.000002   0.000032
     6  C    0.000004   0.000008  -0.000001   0.000000   0.000000  -0.000002
     7  C   -0.000016  -0.000002   0.000000   0.000000   0.000000   0.000000
     8  C    0.000023   0.000004   0.000000   0.000000   0.000000   0.000000
     9  C    0.000038  -0.000008   0.000000   0.000000   0.000000   0.000000
    10  C   -0.000014   0.000014   0.000014   0.000000   0.000000   0.000000
    11  C   -0.000010  -0.000014  -0.000002   0.000000   0.000001   0.000000
    12  C    0.000000  -0.000003  -0.000044  -0.000004  -0.000005   0.000012
    13  C    0.000000   0.000002   0.000049  -0.000031  -0.000002  -0.000001
    14  C    0.000000   0.000000   0.000003   0.000054  -0.000015  -0.000004
    15  C    0.000000   0.000000   0.000009   0.000015   0.000099   0.000055
    16  C    0.000000   0.000000  -0.000007  -0.000017  -0.000111  -0.000062
    17  C    0.000000   0.000000   0.000012   0.000006   0.000045   0.000165
    18  C    0.000000   0.000000   0.000000   0.000000   0.000000  -0.000001
    19  C    0.000000   0.000000   0.000000   0.000000   0.000000  -0.000001
    20  H    0.000000   0.000000   0.000000   0.000000   0.000000   0.000000
    21  H    0.000000   0.000000   0.000000   0.000000   0.000000   0.000000
    22  H    0.000000   0.000000   0.000000   0.000000  -0.000001  -0.000010
    23  H    0.000000   0.000000   0.000000   0.000000   0.000000   0.000000
    24  H    0.000004   0.000000   0.000000   0.000000   0.000000   0.000000
    25  H   -0.000067   0.000000   0.000000   0.000000   0.000000   0.000000
    26  H    0.000000   0.000061   0.000000   0.000000   0.000000   0.000000
    27  H    0.000000   0.000000   0.000094   0.000002   0.000000   0.000000
    28  H    0.000000   0.000000   0.000002  -0.000056   0.000006   0.000000
    29  H    0.000000   0.000000   0.000000   0.000006   0.000137   0.000006
    30  H    0.000000   0.000000   0.000000   0.000000   0.000006  -0.000158
    31  H    0.000000   0.000000   0.000000   0.000000   0.000000   0.000000
    32  H    0.000000   0.000000   0.000000   0.000000   0.000000   0.000000
    33  Ag  -0.000032  -0.000009  -0.000067  -0.000044  -0.000110  -0.000231
              31         32         33
     1  C    0.000004  -0.000285  -0.000645
     2  C    0.000003   0.000004   0.000347
     3  C   -0.000042  -0.000017  -0.001868
     4  C    0.000286   0.000014  -0.010796
     5  N    0.000066  -0.000001  -0.024323
     6  C    0.000000   0.000000  -0.002698
     7  C   -0.000077  -0.000001  -0.000361
     8  C    0.000010   0.000000  -0.002127
     9  C   -0.000001   0.000000   0.000412
    10  C    0.000001   0.000000  -0.003001
    11  C    0.000009   0.000000  -0.009212
    12  C   -0.000004   0.000000  -0.011343
    13  C    0.000000   0.000000  -0.001395
    14  C    0.000000   0.000000   0.000135
    15  C    0.000000   0.000000  -0.001766
    16  C    0.000001   0.000000  -0.000009
    17  C    0.000007   0.000000  -0.004754
    18  C    0.001801  -0.000333  -0.011270
    19  C   -0.000065   0.000352   0.000621
    20  H    0.000000   0.000035   0.000039
    21  H    0.000000  -0.000001  -0.000009
    22  H    0.000000   0.000001   0.000347
    23  H   -0.000003   0.000000  -0.000222
    24  H    0.000000   0.000000  -0.000069
    25  H    0.000000   0.000000  -0.000032
    26  H    0.000000   0.000000  -0.000009
    27  H    0.000000   0.000000  -0.000067
    28  H    0.000000   0.000000  -0.000044
    29  H    0.000000   0.000000  -0.000110
    30  H    0.000000   0.000000  -0.000231
    31  H   -0.001322  -0.000015  -0.001341
    32  H   -0.000015  -0.000086   0.000261
    33  Ag  -0.001341   0.000261   1.072880
 Mulliken charges and spin densities:
               1          2
     1  C    0.006949  -0.003801
     2  C   -0.019901   0.006711
     3  C   -0.016746  -0.003739
     4  C    0.122991   0.001922
     5  N   -0.271083  -0.002743
     6  C    0.122428   0.001780
     7  C   -0.061966   0.002451
     8  C   -0.006155  -0.001970
     9  C   -0.005567   0.001407
    10  C   -0.033949  -0.002174
    11  C    0.021251   0.001546
    12  C    0.024812   0.001776
    13  C   -0.033911  -0.002069
    14  C   -0.005266   0.001234
    15  C   -0.005922  -0.001592
    16  C   -0.062178   0.002436
    17  C    0.115642   0.002904
    18  C   -0.022887   0.000135
    19  C   -0.020167   0.007012
    20  H    0.019665   0.000301
    21  H    0.021087  -0.000338
    22  H    0.021508   0.000455
    23  H    0.006636  -0.000149
    24  H    0.014955   0.000065
    25  H    0.010361  -0.000068
    26  H   -0.001491   0.000054
    27  H   -0.000972   0.000063
    28  H    0.010502  -0.000068
    29  H    0.015103   0.000054
    30  H    0.007094  -0.000181
    31  H    0.030377  -0.000683
    32  H    0.021691  -0.000072
    33  Ag  -0.024891   0.987340
 Sum of Mulliken charges =   0.00000   1.00000
 Mulliken charges and spin densities with hydrogens summed into heavy atoms:
               1          2
     1  C    0.026614  -0.003500
     2  C    0.001186   0.006373
     3  C    0.004762  -0.003284
     4  C    0.122991   0.001922
     5  N   -0.271083  -0.002743
     6  C    0.122428   0.001780
     7  C   -0.055330   0.002302
     8  C    0.008800  -0.001905
     9  C    0.004795   0.001340
    10  C   -0.035440  -0.002119
    11  C    0.021251   0.001546
    12  C    0.024812   0.001776
    13  C   -0.034883  -0.002006
    14  C    0.005236   0.001167
    15  C    0.009181  -0.001538
    16  C   -0.055084   0.002255
    17  C    0.115642   0.002904
    18  C    0.007489  -0.000548
    19  C    0.001524   0.006940
    33  Ag  -0.024891   0.987340
 Electronic spatial extent (au):  <R**2>=           5377.2295
 Charge=              0.0000 electrons
 Dipole moment (field-independent basis, Debye):
    X=              1.3226    Y=             -0.1659    Z=              1.6737  Tot=              2.1397
 Quadrupole moment (field-independent basis, Debye-Ang):
   XX=           -113.9967   YY=           -120.9666   ZZ=           -139.6998
   XY=             -1.1806   XZ=              1.8790   YZ=              4.1713
 Traceless Quadrupole moment (field-independent basis, Debye-Ang):
   XX=             10.8910   YY=              3.9211   ZZ=            -14.8121
   XY=             -1.1806   XZ=              1.8790   YZ=              4.1713
 Octapole moment (field-independent basis, Debye-Ang**2):
  XXX=             47.7371  YYY=            -14.2520  ZZZ=            240.0035  XYY=              2.7100
  XXY=            -10.7290  XXZ=             68.0022  XZZ=             29.0234  YZZ=             -7.2870
  YYZ=             65.8335  XYZ=             11.0828
 Hexadecapole moment (field-independent basis, Debye-Ang**3):
 XXXX=          -3404.4773 YYYY=          -2326.4808 ZZZZ=          -1535.0893 XXXY=             36.1096
 XXXZ=           -141.1777 YYYX=             80.4669 YYYZ=            -32.6776 ZZZX=           -194.3584
 ZZZY=            -32.9097 XXYY=          -1008.9950 XXZZ=           -887.0963 YYZZ=           -702.8539
 XXYZ=             27.0286 YYXZ=            -62.6353 ZZXY=             26.6038
 N-N= 1.612314768710D+03 E-N=-5.271935190802D+03  KE= 7.961476148086D+02
                          Isotropic Fermi Contact Couplings
        Atom                 a.u.       MegaHertz       Gauss      10(-4) cm-1
     1  C(13)             -0.00025      -0.28000      -0.09991      -0.09340
     2  C(13)              0.00107       1.19998       0.42818       0.40027
     3  C(13)             -0.00006      -0.07294      -0.02603      -0.02433
     4  C(13)              0.00183       2.05565       0.73351       0.68569
     5  N(14)              0.00808       2.60919       0.93102       0.87033
     6  C(13)              0.00396       4.45021       1.58795       1.48443
     7  C(13)              0.00187       2.10019       0.74940       0.70055
     8  C(13)             -0.00030      -0.34200      -0.12203      -0.11408
     9  C(13)              0.00019       0.21879       0.07807       0.07298
    10  C(13)              0.00019       0.21382       0.07629       0.07132
    11  C(13)              0.00338       3.80334       1.35712       1.26866
    12  C(13)              0.00393       4.42077       1.57744       1.47461
    13  C(13)              0.00004       0.04887       0.01744       0.01630
    14  C(13)              0.00018       0.20635       0.07363       0.06883
    15  C(13)             -0.00025      -0.27804      -0.09921      -0.09274
    16  C(13)              0.00279       3.13701       1.11936       1.04639
    17  C(13)              0.00314       3.53225       1.26039       1.17823
    18  C(13)              0.01129      12.69178       4.52874       4.23352
    19  C(13)              0.00113       1.26680       0.45202       0.42256
    20  H(1)               0.00009       0.38425       0.13711       0.12817
    21  H(1)              -0.00010      -0.42762      -0.15259      -0.14264
    22  H(1)               0.00003       0.14502       0.05175       0.04837
    23  H(1)              -0.00003      -0.14321      -0.05110      -0.04777
    24  H(1)               0.00002       0.10837       0.03867       0.03615
    25  H(1)              -0.00002      -0.07761      -0.02769      -0.02589
    26  H(1)               0.00001       0.05209       0.01859       0.01737
    27  H(1)               0.00002       0.10484       0.03741       0.03497
    28  H(1)              -0.00002      -0.07497      -0.02675      -0.02501
    29  H(1)               0.00003       0.11291       0.04029       0.03766
    30  H(1)               0.00002       0.09064       0.03234       0.03023
    31  H(1)               0.00014       0.64216       0.22914       0.21420
    32  H(1)              -0.00005      -0.23971      -0.08554      -0.07996
    33  Ag(107             0.00034      -0.06165      -0.02200      -0.02056
 --------------------------------------------------------
       Center         ----  Spin Dipole Couplings  ----
                      3XX-RR        3YY-RR        3ZZ-RR
 --------------------------------------------------------
     1   Atom        0.001865     -0.002180      0.000315
     2   Atom       -0.002856      0.002201      0.000655
     3   Atom        0.001271     -0.002891      0.001620
     4   Atom       -0.003701      0.000478      0.003223
     5   Atom       -0.007585     -0.008748      0.016334
     6   Atom       -0.003524     -0.001676      0.005200
     7   Atom       -0.003817     -0.000563      0.004379
     8   Atom       -0.000389      0.001383     -0.000993
     9   Atom       -0.000535     -0.000334      0.000868
    10   Atom        0.001034     -0.000568     -0.000466
    11   Atom       -0.003159     -0.004916      0.008075
    12   Atom       -0.003594     -0.005716      0.009310
    13   Atom        0.000788     -0.000295     -0.000493
    14   Atom       -0.000920     -0.000124      0.001044
    15   Atom       -0.000983      0.001200     -0.000217
    16   Atom       -0.004134     -0.001361      0.005495
    17   Atom       -0.005262     -0.004131      0.009394
    18   Atom        0.002063     -0.005174      0.003111
    19   Atom       -0.000366      0.001413     -0.001047
    20   Atom        0.000492     -0.000473     -0.000019
    21   Atom       -0.000105     -0.000380      0.000485
    22   Atom       -0.000398     -0.000970      0.001368
    23   Atom       -0.001329      0.000618      0.000710
    24   Atom       -0.000653      0.000830     -0.000177
    25   Atom        0.000101      0.000134     -0.000235
    26   Atom        0.001099     -0.000976     -0.000123
    27   Atom        0.000825     -0.000819     -0.000006
    28   Atom       -0.000226      0.000323     -0.000097
    29   Atom       -0.000911      0.000888      0.000023
    30   Atom       -0.001106     -0.000177      0.001283
    31   Atom        0.001137     -0.002261      0.001124
    32   Atom        0.001240     -0.000644     -0.000596
    33   Atom        0.005208      0.006514     -0.011722
 --------------------------------------------------------
                        XY            XZ            YZ
 --------------------------------------------------------
     1   Atom       -0.000505      0.001664      0.002115
     2   Atom        0.000605      0.000829     -0.004221
     3   Atom       -0.000583      0.002307      0.001937
     4   Atom       -0.000830      0.003276     -0.004722
     5   Atom       -0.000241      0.005218     -0.002107
     6   Atom        0.000732     -0.001673     -0.003866
     7   Atom        0.000354     -0.000632     -0.004653
     8   Atom        0.000930     -0.000593     -0.001715
     9   Atom        0.001295     -0.001262     -0.001200
    10   Atom        0.001421     -0.002292     -0.001370
    11   Atom        0.001263     -0.004796     -0.002709
    12   Atom       -0.000839     -0.005716      0.001746
    13   Atom       -0.001418     -0.002088      0.001628
    14   Atom       -0.001181     -0.001146      0.001439
    15   Atom       -0.000599     -0.000408      0.002045
    16   Atom        0.000218      0.000019      0.004981
    17   Atom       -0.000227     -0.000352      0.001957
    18   Atom        0.001553      0.009294      0.005694
    19   Atom        0.002006     -0.000487     -0.004668
    20   Atom       -0.000140      0.000674      0.000049
    21   Atom        0.000328      0.000942      0.000199
    22   Atom        0.000224      0.001027      0.000464
    23   Atom       -0.000648      0.000533     -0.002362
    24   Atom        0.000529     -0.000291     -0.001064
    25   Atom        0.000956     -0.000641     -0.000652
    26   Atom        0.000758     -0.001510     -0.000443
    27   Atom       -0.000926     -0.001544      0.000617
    28   Atom       -0.000890     -0.000637      0.000854
    29   Atom       -0.000236     -0.000127      0.001315
    30   Atom        0.001082      0.001281      0.002421
    31   Atom       -0.004333      0.007620     -0.003115
    32   Atom       -0.001239      0.000555     -0.000302
    33   Atom       -0.001525      0.002601     -0.000031
 --------------------------------------------------------


 ---------------------------------------------------------------------------------
              Anisotropic Spin Dipole Couplings in Principal Axis System
 ---------------------------------------------------------------------------------

       Atom             a.u.   MegaHertz   Gauss  10(-4) cm-1        Axes

              Baa    -0.0037    -0.495    -0.177    -0.165  0.2324  0.8169 -0.5279
     1 C(13)  Bbb     0.0006     0.086     0.031     0.029 -0.5836  0.5513  0.5963
              Bcc     0.0030     0.409     0.146     0.136  0.7781  0.1695  0.6048
 
              Baa    -0.0039    -0.521    -0.186    -0.174  0.7060 -0.4497 -0.5471
     2 C(13)  Bbb    -0.0018    -0.246    -0.088    -0.082  0.7081  0.4568  0.5384
              Bcc     0.0057     0.767     0.274     0.256 -0.0078  0.7676 -0.6409
 
              Baa    -0.0040    -0.537    -0.191    -0.179  0.2767  0.8678 -0.4128
     3 C(13)  Bbb     0.0001     0.009     0.003     0.003  0.7290 -0.4695 -0.4982
              Bcc     0.0039     0.527     0.188     0.176  0.6261  0.1631  0.7625
 
              Baa    -0.0053    -0.708    -0.253    -0.236  0.8407 -0.2659 -0.4718
     4 C(13)  Bbb    -0.0024    -0.317    -0.113    -0.106  0.4703  0.7904  0.3925
              Bcc     0.0076     1.025     0.366     0.342  0.2685 -0.5519  0.7895
 
              Baa    -0.0090    -0.348    -0.124    -0.116 -0.4591  0.8726  0.1670
     5 N(14)  Bbb    -0.0086    -0.330    -0.118    -0.110  0.8649  0.4819 -0.1404
              Bcc     0.0176     0.678     0.242     0.226  0.2030 -0.0799  0.9759
 
              Baa    -0.0038    -0.514    -0.184    -0.172  0.9852 -0.0326  0.1685
     6 C(13)  Bbb    -0.0034    -0.458    -0.163    -0.153 -0.0387  0.9144  0.4030
              Bcc     0.0072     0.972     0.347     0.324 -0.1672 -0.4035  0.8996
 
              Baa    -0.0039    -0.519    -0.185    -0.173  0.9969  0.0044  0.0790
     7 C(13)  Bbb    -0.0034    -0.451    -0.161    -0.150 -0.0444  0.8578  0.5121
              Bcc     0.0072     0.969     0.346     0.323 -0.0655 -0.5140  0.8553
 
              Baa    -0.0019    -0.255    -0.091    -0.085  0.0765  0.4448  0.8924
     8 C(13)  Bbb    -0.0008    -0.104    -0.037    -0.035  0.9382 -0.3351  0.0867
              Bcc     0.0027     0.359     0.128     0.120  0.3376  0.8306 -0.4429
 
              Baa    -0.0017    -0.234    -0.083    -0.078  0.7653 -0.6392  0.0760
     9 C(13)  Bbb    -0.0009    -0.116    -0.041    -0.039  0.4138  0.5790  0.7025
              Bcc     0.0026     0.350     0.125     0.117 -0.4931 -0.5062  0.7076
 
              Baa    -0.0022    -0.297    -0.106    -0.099  0.4592  0.2994  0.8364
    10 C(13)  Bbb    -0.0014    -0.188    -0.067    -0.063 -0.5191  0.8545 -0.0209
              Bcc     0.0036     0.485     0.173     0.162  0.7209  0.4246 -0.5478
 
              Baa    -0.0056    -0.749    -0.267    -0.250 -0.3870  0.9209  0.0468
    11 C(13)  Bbb    -0.0048    -0.649    -0.232    -0.217  0.8561  0.3400  0.3893
              Bcc     0.0104     1.399     0.499     0.467 -0.3426 -0.1907  0.9199
 
              Baa    -0.0060    -0.809    -0.289    -0.270  0.5199  0.8487  0.0971
    12 C(13)  Bbb    -0.0057    -0.760    -0.271    -0.253  0.7777 -0.5173  0.3572
              Bcc     0.0117     1.569     0.560     0.523 -0.3534  0.1102  0.9289
 
              Baa    -0.0023    -0.303    -0.108    -0.101  0.3735 -0.4177  0.8283
    13 C(13)  Bbb    -0.0013    -0.168    -0.060    -0.056  0.6344  0.7665  0.1004
              Bcc     0.0035     0.471     0.168     0.157  0.6768 -0.4879 -0.5513
 
              Baa    -0.0018    -0.238    -0.085    -0.079  0.8365  0.5445  0.0621
    14 C(13)  Bbb    -0.0010    -0.128    -0.046    -0.043  0.3679 -0.6419  0.6728
              Bcc     0.0027     0.366     0.131     0.122 -0.4062  0.5399  0.7372
 
              Baa    -0.0017    -0.224    -0.080    -0.075 -0.0264 -0.5833  0.8118
    15 C(13)  Bbb    -0.0011    -0.151    -0.054    -0.050  0.9817  0.1379  0.1310
              Bcc     0.0028     0.375     0.134     0.125 -0.1883  0.8004  0.5690
 
              Baa    -0.0043    -0.571    -0.204    -0.191  0.8337 -0.4924  0.2498
    16 C(13)  Bbb    -0.0039    -0.518    -0.185    -0.173  0.5521  0.7355 -0.3928
              Bcc     0.0081     1.089     0.389     0.363  0.0097  0.4654  0.8850
 
              Baa    -0.0053    -0.712    -0.254    -0.238  0.9812  0.1928 -0.0022
    17 C(13)  Bbb    -0.0044    -0.587    -0.209    -0.196 -0.1911  0.9711 -0.1429
              Bcc     0.0097     1.299     0.464     0.433 -0.0254  0.1406  0.9897
 
              Baa    -0.0094    -1.257    -0.449    -0.419  0.4047  0.6799 -0.6115
    18 C(13)  Bbb    -0.0040    -0.539    -0.192    -0.180 -0.6607  0.6797  0.3185
              Bcc     0.0134     1.796     0.641     0.599  0.6322  0.2751  0.7243
 
              Baa    -0.0048    -0.646    -0.231    -0.216 -0.2009  0.6280  0.7518
    19 C(13)  Bbb    -0.0008    -0.107    -0.038    -0.036  0.9313 -0.1157  0.3455
              Bcc     0.0056     0.753     0.269     0.251  0.3039  0.7696 -0.5616
 
              Baa    -0.0006    -0.321    -0.114    -0.107  0.4392  0.6969 -0.5669
    20 H(1)   Bbb    -0.0004    -0.193    -0.069    -0.064 -0.3578  0.7145  0.6012
              Bcc     0.0010     0.514     0.183     0.171  0.8241 -0.0612  0.5631
 
              Baa    -0.0008    -0.453    -0.162    -0.151  0.7920 -0.3381 -0.5084
    21 H(1)   Bbb    -0.0004    -0.216    -0.077    -0.072  0.1545  0.9166 -0.3688
              Bcc     0.0013     0.669     0.239     0.223  0.5907  0.2135  0.7781
 
              Baa    -0.0011    -0.567    -0.202    -0.189 -0.1179  0.9834 -0.1381
    22 H(1)   Bbb    -0.0009    -0.464    -0.165    -0.155  0.9039  0.0487 -0.4250
              Bcc     0.0019     1.030     0.368     0.344  0.4112  0.1749  0.8946
 
              Baa    -0.0017    -0.923    -0.329    -0.308  0.3319  0.7130  0.6177
    23 H(1)   Bbb    -0.0015    -0.774    -0.276    -0.258  0.9256 -0.1198 -0.3590
              Bcc     0.0032     1.697     0.606     0.566  0.1820 -0.6909  0.6997
 
              Baa    -0.0009    -0.465    -0.166    -0.155 -0.4880  0.5667  0.6639
    24 H(1)   Bbb    -0.0008    -0.421    -0.150    -0.140  0.8357  0.0838  0.5428
              Bcc     0.0017     0.886     0.316     0.296  0.2519  0.8197 -0.5145
 
              Baa    -0.0008    -0.447    -0.160    -0.149  0.7123 -0.7019 -0.0027
    25 H(1)   Bbb    -0.0007    -0.376    -0.134    -0.125  0.3226  0.3239  0.8894
              Bcc     0.0015     0.824     0.294     0.275  0.6234  0.6344 -0.4571
 
              Baa    -0.0012    -0.660    -0.236    -0.220 -0.4569  0.8431 -0.2836
    26 H(1)   Bbb    -0.0011    -0.592    -0.211    -0.198  0.3804  0.4734  0.7944
              Bcc     0.0023     1.253     0.447     0.418  0.8041  0.2550 -0.5370
 
              Baa    -0.0013    -0.675    -0.241    -0.225  0.5982  0.6998  0.3904
    27 H(1)   Bbb    -0.0011    -0.601    -0.214    -0.200  0.2710 -0.6351  0.7233
              Bcc     0.0024     1.276     0.455     0.426  0.7541 -0.3269 -0.5696
 
              Baa    -0.0009    -0.471    -0.168    -0.157  0.8148  0.5788  0.0318
    28 H(1)   Bbb    -0.0008    -0.401    -0.143    -0.134  0.2814 -0.4430  0.8512
              Bcc     0.0016     0.872     0.311     0.291 -0.5068  0.6846  0.5239
 
              Baa    -0.0010    -0.517    -0.184    -0.172  0.7426  0.4474 -0.4983
    29 H(1)   Bbb    -0.0009    -0.479    -0.171    -0.160  0.6629 -0.3851  0.6421
              Bcc     0.0019     0.995     0.355     0.332 -0.0953  0.8072  0.5826
 
              Baa    -0.0020    -1.071    -0.382    -0.357 -0.2854  0.8216 -0.4934
    30 H(1)   Bbb    -0.0017    -0.887    -0.316    -0.296  0.8995  0.0519 -0.4339
              Bcc     0.0037     1.958     0.698     0.653  0.3309  0.5676  0.7538
 
              Baa    -0.0068    -3.608    -1.287    -1.203  0.7424  0.3004 -0.5988
    31 H(1)   Bbb    -0.0041    -2.192    -0.782    -0.731  0.0305  0.8778  0.4781
              Bcc     0.0109     5.800     2.070     1.935  0.6692 -0.3732  0.6425
 
              Baa    -0.0013    -0.672    -0.240    -0.224  0.4358  0.8989  0.0449
    32 H(1)   Bbb    -0.0007    -0.399    -0.142    -0.133 -0.2315  0.0638  0.9707
              Bcc     0.0020     1.071     0.382     0.357  0.8698 -0.4334  0.2359
 
              Baa    -0.0121     0.263     0.094     0.088 -0.1494 -0.0106  0.9887
    33 Ag(107 Bbb     0.0045    -0.097    -0.035    -0.032  0.7932  0.5957  0.1263
              Bcc     0.0076    -0.166    -0.059    -0.055 -0.5903  0.8032 -0.0806
 

 ---------------------------------------------------------------------------------

 No NMR shielding tensors so no spin-rotation constants.
 Leave Link  601 at Sat Sep 12 01:17:26 2026, MaxMem=  6442450944 cpu:               4.0 elap:               3.6
 (Enter C:\G16W\l9999.exe)
 Unable to Open any file for archive entry.
 1|1|UNPC-DESKTOP-2JKEGCA|SP|UPBE1PBE|def2SVP|C18H13Ag1N1(2)|JHKIM|12-S
 ep-2026|0||#P PBE1PBE/Def2SVP EmpiricalDispersion=GD3BJ SP SCF=(XQC,Ma
 xCycle=128) NoSymm Guess=Read||PhCz t=0.500 dz=+0.00 class=toface||0,2
 |C,0,4.318681,-0.424553,0.264001|C,0,3.626574,0.365579,1.166695|C,0,2.
 254007,0.498601,1.068576|C,0,1.563174,-0.153683,0.051229|N,0,0.172251,
 -0.01694,-0.056185|C,0,-0.734425,-1.051271,-0.178854|C,0,-0.518475,-2.
 421994,-0.176413|C,0,-1.61948,-3.248918,-0.290429|C,0,-2.909474,-2.733
 333,-0.395662|C,0,-3.133061,-1.371405,-0.372927|C,0,-2.042171,-0.51967
 1,-0.259151|C,0,-1.907553,0.907967,-0.184867|C,0,-2.817276,1.956387,-0
 .225601|C,0,-2.34036,3.249447,-0.148769|C,0,-0.974249,3.503904,-0.0488
 7|C,0,-0.049884,2.477861,-0.006462|C,0,-0.524929,1.175071,-0.057385|C,
 0,2.261179,-0.942496,-0.858872|C,0,3.632181,-1.079171,-0.74514|H,0,5.3
 89886,-0.52987,0.346731|H,0,4.157205,0.87482,1.957636|H,0,1.708338,1.0
 94903,1.784553|H,0,0.475194,-2.832412,-0.077007|H,0,-1.476844,-4.31960
 4,-0.294462|H,0,-3.743566,-3.413223,-0.486532|H,0,-4.133797,-0.97148,-
 0.437847|H,0,-3.874509,1.758786,-0.319619|H,0,-3.030974,4.079234,-0.17
 5651|H,0,-0.629333,4.526657,-0.007181|H,0,1.007776,2.686607,0.052557|H
 ,0,1.725742,-1.432517,-1.658335|H,0,4.168173,-1.693284,-1.453698|Ag,0,
 -0.23753565,0.24664187,-2.93395108||Version=EM64W-G16RevC.01|HF=-894.0
 956196|S2=0.751569|S2-1=0.|S2A=0.750002|RMSD=5.680e-009|Dipole=0.52036
 15,-0.0652518,0.6585018|Quadrupole=8.0972003,2.9152335,-11.0124338,-0.
 8777548,1.3970155,3.1012491|PG=C01 [X(C18H13Ag1N1)]||@
 The archive entry for this job was punched.


 A MATHEMATICIAN IS A MACHINE FOR TURNING COFFEE INTO THEOREMS.
     -- QUOTED BY PAUL ERDOS
 Job cpu time:       0 days  0 hours  6 minutes 53.0 seconds.
 Elapsed time:       0 days  0 hours  6 minutes 50.7 seconds.
 File lengths (MBytes):  RWF=    126 Int=      0 D2E=      0 Chk=     10 Scr=      1
 Normal termination of Gaussian 16 at Sat Sep 12 01:17:26 2026.
