 Entering Gaussian System, Link 0=C:\G16W\g16.exe
 Input=pyridine_t0_z0_ref.gjf
 Output=pyridine_t0_z0_ref.out
 Initial command:
 C:\G16W\l1.exe ".\Gau-30280.inp" "pyridine_t0_z0_ref.out" /scrdir=".\"
 Entering Link 1 = C:\G16W\l1.exe PID=     96628.
  
 Copyright (c) 1988-2019, Gaussian, Inc.  All Rights Reserved.
  
 This is part of the Gaussian(R) 16 program.  It is based on
 the Gaussian(R) 09 system (copyright 2009, Gaussian, Inc.),
 the Gaussian(R) 03 system (copyright 2003, Gaussian, Inc.),
 the Gaussian(R) 98 system (copyright 1998, Gaussian, Inc.),
 the Gaussian(R) 94 system (copyright 1995, Gaussian, Inc.),
 the Gaussian 92(TM) system (copyright 1992, Gaussian, Inc.),
 the Gaussian 90(TM) system (copyright 1990, Gaussian, Inc.),
 the Gaussian 88(TM) system (copyright 1988, Gaussian, Inc.),
 the Gaussian 86(TM) system (copyright 1986, Carnegie Mellon
 University), and the Gaussian 82(TM) system (copyright 1983,
 Carnegie Mellon University). Gaussian is a federally registered
 trademark of Gaussian, Inc.
  
 This software contains proprietary and confidential information,
 including trade secrets, belonging to Gaussian, Inc.
  
 This software is provided under written license and may be
 used, copied, transmitted, or stored only in accord with that
 written license.
  
 The following legend is applicable only to US Government
 contracts under FAR:
  
                    RESTRICTED RIGHTS LEGEND
  
 Use, reproduction and disclosure by the US Government is
 subject to restrictions as set forth in subparagraphs (a)
 and (c) of the Commercial Computer Software - Restricted
 Rights clause in FAR 52.227-19.
  
 Gaussian, Inc.
 340 Quinnipiac St., Bldg. 40, Wallingford CT 06492
  
  
 ---------------------------------------------------------------
 Warning -- This program may not be used in any manner that
 competes with the business of Gaussian, Inc. or will provide
 assistance to any competitor of Gaussian, Inc.  The licensee
 of this program is prohibited from giving any competitor of
 Gaussian, Inc. access to this program.  By using this program,
 the user acknowledges that Gaussian, Inc. is engaged in the
 business of creating and licensing software in the field of
 computational chemistry and represents and warrants to the
 licensee that it is not a competitor of Gaussian, Inc. and that
 it will not use this program in any manner prohibited above.
 ---------------------------------------------------------------
  

 Cite this work as:
 Gaussian 16, Revision C.01,
 M. J. Frisch, G. W. Trucks, H. B. Schlegel, G. E. Scuseria, 
 M. A. Robb, J. R. Cheeseman, G. Scalmani, V. Barone, 
 G. A. Petersson, H. Nakatsuji, X. Li, M. Caricato, A. V. Marenich, 
 J. Bloino, B. G. Janesko, R. Gomperts, B. Mennucci, H. P. Hratchian, 
 J. V. Ortiz, A. F. Izmaylov, J. L. Sonnenberg, D. Williams-Young, 
 F. Ding, F. Lipparini, F. Egidi, J. Goings, B. Peng, A. Petrone, 
 T. Henderson, D. Ranasinghe, V. G. Zakrzewski, J. Gao, N. Rega, 
 G. Zheng, W. Liang, M. Hada, M. Ehara, K. Toyota, R. Fukuda, 
 J. Hasegawa, M. Ishida, T. Nakajima, Y. Honda, O. Kitao, H. Nakai, 
 T. Vreven, K. Throssell, J. A. Montgomery, Jr., J. E. Peralta, 
 F. Ogliaro, M. J. Bearpark, J. J. Heyd, E. N. Brothers, K. N. Kudin, 
 V. N. Staroverov, T. A. Keith, R. Kobayashi, J. Normand, 
 K. Raghavachari, A. P. Rendell, J. C. Burant, S. S. Iyengar, 
 J. Tomasi, M. Cossi, J. M. Millam, M. Klene, C. Adamo, R. Cammi, 
 J. W. Ochterski, R. L. Martin, K. Morokuma, O. Farkas, 
 J. B. Foresman, and D. J. Fox, Gaussian, Inc., Wallingford CT, 2019.
 
 ******************************************
 Gaussian 16:  EM64W-G16RevC.01 30-May-2019
                12-Sep-2026 
 ******************************************
 %Chk=pyridine.chk
 %NProcShared=8
 Will use up to    8 processors via shared memory.
 %Mem=48GB
 ----------------------------------------------------------------------
 #P PBE1PBE/Def2SVP EmpiricalDispersion=GD3BJ SP SCF=(XQC,MaxCycle=128)
  NoSymm Guess=Read
 ----------------------------------------------------------------------
 1/38=1,172=1/1;
 2/12=2,15=1,17=6,18=5,40=1/2;
 3/5=43,7=101,11=2,25=1,30=1,74=-13,116=-2,124=41/1,2,3;
 4/5=1/1;
 5/5=2,7=128,8=3,13=1,38=6/2,8;
 6/7=2,8=2,9=2,10=2,28=1/1;
 99/5=1,9=1/99;
 Leave Link    1 at Sat Sep 12 02:10:23 2026, MaxMem=  6442450944 cpu:               0.0 elap:               0.3
 (Enter C:\G16W\l101.exe)
 --------------------------------------
 pyridine t=0.000 dz=+0.00 class=toface
 --------------------------------------
 Symbolic Z-matrix:
 Charge =  0 Multiplicity = 2
 C                    -0.31024   1.14447   0.06085 
 C                     1.02507   0.77372   0.05743 
 C                     1.33055  -0.57747  -0.01522 
 N                     0.41407  -1.52753  -0.08122 
 C                    -0.85759  -1.1673   -0.07755 
 C                    -1.27637   0.15335  -0.00814 
 H                    -0.59265   2.18632   0.11625 
 H                     1.80929   1.51334   0.10976 
 H                     2.35779  -0.91886  -0.02103 
 H                    -1.57245  -1.97829  -0.13302 
 H                    -2.32746   0.39824  -0.00812 
 Ag                    1.01503  -3.74449  -0.1991 
 
 ITRead=  0  0  0  0  0  0  0  0  0  0  0  0
 MicOpt= -1 -1 -1 -1 -1 -1 -1 -1 -1 -1 -1 -1
 NAtoms=     12 NQM=       12 NQMF=       0 NMMI=      0 NMMIF=      0
                NMic=       0 NMicF=      0.
                    Isotopes and Nuclear Properties:
 (Nuclear quadrupole moments (NQMom) in fm**2, nuclear magnetic moments (NMagM)
  in nuclear magnetons)

  Atom         1           2           3           4           5           6           7           8           9          10
 IAtWgt=          12          12          12          14          12          12           1           1           1           1
 AtmWgt=  12.0000000  12.0000000  12.0000000  14.0030740  12.0000000  12.0000000   1.0078250   1.0078250   1.0078250   1.0078250
 NucSpn=           0           0           0           2           0           0           1           1           1           1
 AtZEff=   0.0000000   0.0000000   0.0000000   0.0000000   0.0000000   0.0000000   0.0000000   0.0000000   0.0000000   0.0000000
 NQMom=    0.0000000   0.0000000   0.0000000   2.0440000   0.0000000   0.0000000   0.0000000   0.0000000   0.0000000   0.0000000
 NMagM=    0.0000000   0.0000000   0.0000000   0.4037610   0.0000000   0.0000000   2.7928460   2.7928460   2.7928460   2.7928460
 AtZNuc=   6.0000000   6.0000000   6.0000000   7.0000000   6.0000000   6.0000000   1.0000000   1.0000000   1.0000000   1.0000000

  Atom        11          12
 IAtWgt=           1         107
 AtmWgt=   1.0078250 106.9050900
 NucSpn=           1           1
 AtZEff=   0.0000000   0.0000000
 NQMom=    0.0000000   0.0000000
 NMagM=    2.7928460  -0.1135700
 AtZNuc=   1.0000000  47.0000000
 Leave Link  101 at Sat Sep 12 02:10:24 2026, MaxMem=  6442450944 cpu:               0.0 elap:               0.3
 (Enter C:\G16W\l202.exe)
                          Input orientation:                          
 ---------------------------------------------------------------------
 Center     Atomic      Atomic             Coordinates (Angstroms)
 Number     Number       Type             X           Y           Z
 ---------------------------------------------------------------------
      1          6           0       -0.310236    1.144474    0.060853
      2          6           0        1.025069    0.773724    0.057432
      3          6           0        1.330545   -0.577468   -0.015216
      4          7           0        0.414071   -1.527525   -0.081221
      5          6           0       -0.857586   -1.167297   -0.077554
      6          6           0       -1.276374    0.153351   -0.008138
      7          1           0       -0.592651    2.186315    0.116250
      8          1           0        1.809285    1.513335    0.109757
      9          1           0        2.357787   -0.918862   -0.021028
     10          1           0       -1.572447   -1.978288   -0.133020
     11          1           0       -2.327462    0.398241   -0.008116
     12         47           0        1.015032   -3.744494   -0.199101
 ---------------------------------------------------------------------
                    Distance matrix (angstroms):
                    1          2          3          4          5
     1  C    0.000000
     2  C    1.385823   0.000000
     3  C    2.379713   1.387196   0.000000
     4  N    2.772072   2.385014   1.321699   0.000000
     5  C    2.379713   2.707429   2.267091   1.321699   0.000000
     6  C    1.385824   2.384492   2.707429   2.385014   1.387196
     7  H    1.080861   2.148462   3.369638   3.852933   3.369639
     8  H    2.151934   1.079239   2.148550   3.351108   3.785905
     9  H    3.373782   2.155723   1.082502   2.037677   3.225452
    10  H    3.373782   3.789054   3.225451   2.037676   1.082501
    11  H    2.151934   3.374129   3.785905   3.351108   2.148550
    12  Ag   5.072073   4.525506   3.188011   2.300000   3.188011
                    6          7          8          9         10
     6  C    0.000000
     7  H    2.148463   0.000000
     8  H    3.374129   2.494442   0.000000
     9  H    3.789054   4.285563   2.496706   0.000000
    10  H    2.155723   4.285563   4.866876   4.072059   0.000000
    11  H    1.079239   2.494443   4.286024   4.866876   2.496706
    12  Ag   4.525506   6.152933   5.326443   3.133512   3.133512
                   11         12
    11  H    0.000000
    12  Ag   5.326443   0.000000
 Symmetry turned off by external request.
 Stoichiometry    C5H5AgN(2)
 Framework group  C1[X(C5H5AgN)]
 Deg. of freedom    30
 Full point group                 C1      NOp   1
 Rotational constants (GHZ):           6.1209387           0.7241139           0.6475124
 Leave Link  202 at Sat Sep 12 02:10:24 2026, MaxMem=  6442450944 cpu:               0.0 elap:               0.1
 (Enter C:\G16W\l301.exe)
 Standard basis: def2SVP (5D, 7F)
 Ernie: Thresh=  0.10000D-02 Tol=  0.10000D-05 Strict=F.
   140 basis functions,   250 primitive gaussians,   151 cartesian basis functions
    31 alpha electrons       30 beta electrons
       nuclear repulsion energy       326.3885924581 Hartrees.
 IExCor= 1009 DFT=T Ex+Corr=PBE1PBE ExCW=0 ScaHFX=  0.250000
 ScaDFX=  0.750000  0.750000  1.000000  1.000000 ScalE2=  1.000000  1.000000
 IRadAn=      5 IRanWt=     -1 IRanGd=            0 ICorTp=0 IEmpDi=141
 NAtoms=   12 NActive=   12 NUniq=   12 SFac= 1.00D+00 NAtFMM=   60 NAOKFM=F Big=F
 Integral buffers will be    131072 words long.
 Raffenetti 2 integral format.
 Two-electron integral symmetry is turned off.
 R6Disp:  Grimme-D3(BJ) Dispersion energy=       -0.0113635572 Hartrees.
 Nuclear repulsion after empirical dispersion term =      326.3772289009 Hartrees.
 Leave Link  301 at Sat Sep 12 02:10:24 2026, MaxMem=  6442450944 cpu:               0.0 elap:               0.2
 (Enter C:\G16W\l302.exe)
 NPDir=0 NMtPBC=     1 NCelOv=     1 NCel=       1 NClECP=     1 NCelD=      1
         NCelK=      1 NCelE2=     1 NClLst=     1 CellRange=     0.0.
 One-electron integrals computed using PRISM.
   1 Symmetry operations used in ECPInt.
 ECPInt:  NShTT=    1953 NPrTT=    6894 LenC2=    1938 LenP2D=    5737.
 LDataN:  DoStor=T MaxTD1= 7 Len=  274
 NBasis=   140 RedAO= T EigKep=  6.77D-04  NBF=   140
 NBsUse=   140 1.00D-06 EigRej= -1.00D+00 NBFU=   140
 Precomputing XC quadrature grid using
 IXCGrd= 4 IRadAn=           5 IRanWt=          -1 IRanGd=           0 AccXCQ= 0.00D+00.
 Defaulting to unpruned grid for atomic number  47.
 Generated NRdTot=       0 NPtTot=           0 NUsed=           0 NTot=          32
 NSgBfM=   151   151   151   151   151 MxSgAt=    12 MxSgA2=    12.
 Leave Link  302 at Sat Sep 12 02:10:28 2026, MaxMem=  6442450944 cpu:               4.0 elap:               3.9
 (Enter C:\G16W\l303.exe)
 DipDrv:  MaxL=1.
 Leave Link  303 at Sat Sep 12 02:10:30 2026, MaxMem=  6442450944 cpu:               1.0 elap:               1.1
 (Enter C:\G16W\l401.exe)
 Initial guess from the checkpoint file:  "pyridine.chk"
 B after Tr=     0.375056   -1.256058   -0.301683
         Rot=    0.788639   -0.589672   -0.170935   -0.033425 Ang= -75.88 deg.
 Guess basis will be translated and rotated to current coordinates.
 JPrj=2 DoOrth=T DoCkMO=T.
 Initial guess <Sx>= 0.0000 <Sy>= 0.0000 <Sz>= 0.5000 <S**2>= 0.7523 S= 0.5011
 Leave Link  401 at Sat Sep 12 02:10:31 2026, MaxMem=  6442450944 cpu:               1.0 elap:               1.5
 (Enter C:\G16W\l502.exe)
 Keep R1 and R2 ints in memory in canonical form, NReq=105240913.
 FoFCou: FMM=F IPFlag=           0 FMFlag=           0 FMFlg1=           0
         NFxFlg=           0 DoJE=F BraDBF=F KetDBF=F FulRan=T
         wScrn=  0.000000 ICntrl=       600 IOpCl=  0 I1Cent=           0 NGrid=           0
         NMat0=    1 NMatS0=   9870 NMatT0=    0 NMatD0=    1 NMtDS0=    0 NMtDT0=    0
 Symmetry not used in FoFCou.
 Two-electron integral symmetry not used.
 UHF open shell SCF:
 Using DIIS extrapolation, IDIIS=  1040.
 NGot=  6442450944 LenX=  6344975819 LenY=  6344952577
 Requested convergence on RMS density matrix=1.00D-08 within 128 cycles.
 Requested convergence on MAX density matrix=1.00D-06.
 Requested convergence on             energy=1.00D-06.
 No special actions if energy rises.

 Cycle   1  Pass 1  IDiag  1:
 Defaulting to unpruned grid for atomic number  47.
 Defaulting to unpruned grid for atomic number  47.
 Defaulting to unpruned grid for atomic number  47.
 Defaulting to unpruned grid for atomic number  47.
 Defaulting to unpruned grid for atomic number  47.
 Defaulting to unpruned grid for atomic number  47.
 Defaulting to unpruned grid for atomic number  47.
 Defaulting to unpruned grid for atomic number  47.
 E= -391.143493674675    
 DIIS: error= 1.12D-01 at cycle   1 NSaved=   1.
 NSaved= 1 IEnMin= 1 EnMin= -391.143493674675     IErMin= 1 ErrMin= 1.12D-01
 ErrMax= 1.12D-01  0.00D+00 EMaxC= 1.00D-01 BMatC= 4.59D+00 BMatP= 4.59D+00
 IDIUse=3 WtCom= 0.00D+00 WtEn= 1.00D+00
 Coeff-Com:  0.100D+01
 Coeff-En:   0.100D+01
 Coeff:      0.100D+01
 Gap=     1.076 Goal=   None    Shift=    0.000
 Gap=     0.230 Goal=   None    Shift=    0.000
 GapD=    0.230 DampG=1.000 DampE=0.125 DampFc=0.1250 IDamp=-1.
 Damping current iteration by 1.25D-01
 RMSDP=2.06D-02 MaxDP=4.23D-01              OVMax= 6.81D-01

 Cycle   2  Pass 1  IDiag  1:
 E= -391.551643970150     Delta-E=       -0.408150295475 Rises=F Damp=T
 DIIS: error= 9.88D-02 at cycle   2 NSaved=   2.
 NSaved= 2 IEnMin= 2 EnMin= -391.551643970150     IErMin= 2 ErrMin= 9.88D-02
 ErrMax= 9.88D-02  0.00D+00 EMaxC= 1.00D-01 BMatC= 3.57D+00 BMatP= 4.59D+00
 IDIUse=3 WtCom= 1.21D-02 WtEn= 9.88D-01
 Coeff-Com: -0.698D+01 0.798D+01
 Coeff-En:   0.000D+00 0.100D+01
 Coeff:     -0.846D-01 0.108D+01
 Gap=     0.085 Goal=   None    Shift=    0.000
 Gap=     0.191 Goal=   None    Shift=    0.000
 RMSDP=1.82D-02 MaxDP=3.72D-01 DE=-4.08D-01 OVMax= 3.43D-02

 Cycle   3  Pass 1  IDiag  1:
 E= -394.709204831835     Delta-E=       -3.157560861685 Rises=F Damp=F
 DIIS: error= 1.35D-02 at cycle   3 NSaved=   3.
 NSaved= 3 IEnMin= 3 EnMin= -394.709204831835     IErMin= 3 ErrMin= 1.35D-02
 ErrMax= 1.35D-02  0.00D+00 EMaxC= 1.00D-01 BMatC= 1.36D-01 BMatP= 3.57D+00
 IDIUse=3 WtCom= 8.65D-01 WtEn= 1.35D-01
 Coeff-Com: -0.212D+00 0.222D+00 0.990D+00
 Coeff-En:   0.000D+00 0.000D+00 0.100D+01
 Coeff:     -0.184D+00 0.192D+00 0.992D+00
 Gap=     0.075 Goal=   None    Shift=    0.000
 Gap=     0.216 Goal=   None    Shift=    0.000
 RMSDP=2.99D-03 MaxDP=4.46D-02 DE=-3.16D+00 OVMax= 1.33D-01

 Cycle   4  Pass 1  IDiag  1:
 E= -394.730607651581     Delta-E=       -0.021402819746 Rises=F Damp=F
 DIIS: error= 2.10D-02 at cycle   4 NSaved=   4.
 NSaved= 4 IEnMin= 4 EnMin= -394.730607651581     IErMin= 3 ErrMin= 1.35D-02
 ErrMax= 2.10D-02  0.00D+00 EMaxC= 1.00D-01 BMatC= 1.05D-01 BMatP= 1.36D-01
 IDIUse=3 WtCom= 7.90D-01 WtEn= 2.10D-01
 Coeff-Com:  0.144D+00-0.197D+00 0.507D+00 0.546D+00
 Coeff-En:   0.000D+00 0.000D+00 0.268D+00 0.732D+00
 Coeff:      0.114D+00-0.155D+00 0.457D+00 0.585D+00
 Gap=     0.094 Goal=   None    Shift=    0.000
 Gap=     0.222 Goal=   None    Shift=    0.000
 RMSDP=1.88D-03 MaxDP=4.84D-02 DE=-2.14D-02 OVMax= 1.13D-01

 Cycle   5  Pass 1  IDiag  1:
 E= -394.750610845405     Delta-E=       -0.020003193824 Rises=F Damp=F
 DIIS: error= 1.28D-02 at cycle   5 NSaved=   5.
 NSaved= 5 IEnMin= 5 EnMin= -394.750610845405     IErMin= 5 ErrMin= 1.28D-02
 ErrMax= 1.28D-02  0.00D+00 EMaxC= 1.00D-01 BMatC= 3.53D-02 BMatP= 1.05D-01
 IDIUse=3 WtCom= 8.72D-01 WtEn= 1.28D-01
 Coeff-Com:  0.249D-01-0.430D-01 0.153D+00 0.373D+00 0.492D+00
 Coeff-En:   0.000D+00 0.000D+00 0.000D+00 0.273D+00 0.727D+00
 Coeff:      0.217D-01-0.375D-01 0.133D+00 0.360D+00 0.523D+00
 Gap=     0.085 Goal=   None    Shift=    0.000
 Gap=     0.210 Goal=   None    Shift=    0.000
 RMSDP=8.43D-04 MaxDP=1.70D-02 DE=-2.00D-02 OVMax= 4.80D-02

 Cycle   6  Pass 1  IDiag  1:
 E= -394.760136416290     Delta-E=       -0.009525570885 Rises=F Damp=F
 DIIS: error= 3.02D-03 at cycle   6 NSaved=   6.
 NSaved= 6 IEnMin= 6 EnMin= -394.760136416290     IErMin= 6 ErrMin= 3.02D-03
 ErrMax= 3.02D-03  0.00D+00 EMaxC= 1.00D-01 BMatC= 2.67D-03 BMatP= 3.53D-02
 IDIUse=3 WtCom= 9.70D-01 WtEn= 3.02D-02
 Coeff-Com:  0.608D-02-0.128D-01 0.503D-01 0.168D+00 0.300D+00 0.488D+00
 Coeff-En:   0.000D+00 0.000D+00 0.000D+00 0.000D+00 0.000D+00 0.100D+01
 Coeff:      0.589D-02-0.124D-01 0.488D-01 0.163D+00 0.291D+00 0.503D+00
 Gap=     0.081 Goal=   None    Shift=    0.000
 Gap=     0.207 Goal=   None    Shift=    0.000
 RMSDP=2.24D-04 MaxDP=7.62D-03 DE=-9.53D-03 OVMax= 1.02D-02

 Cycle   7  Pass 1  IDiag  1:
 E= -394.760734966668     Delta-E=       -0.000598550378 Rises=F Damp=F
 DIIS: error= 8.98D-04 at cycle   7 NSaved=   7.
 NSaved= 7 IEnMin= 7 EnMin= -394.760734966668     IErMin= 7 ErrMin= 8.98D-04
 ErrMax= 8.98D-04  0.00D+00 EMaxC= 1.00D-01 BMatC= 2.32D-04 BMatP= 2.67D-03
 IDIUse=3 WtCom= 9.91D-01 WtEn= 8.98D-03
 Coeff-Com:  0.452D-02-0.549D-02-0.378D-02-0.344D-03 0.326D-01 0.251D+00
 Coeff-Com:  0.721D+00
 Coeff-En:   0.000D+00 0.000D+00 0.000D+00 0.000D+00 0.000D+00 0.165D-01
 Coeff-En:   0.984D+00
 Coeff:      0.448D-02-0.544D-02-0.375D-02-0.341D-03 0.323D-01 0.249D+00
 Coeff:      0.723D+00
 Gap=     0.081 Goal=   None    Shift=    0.000
 Gap=     0.206 Goal=   None    Shift=    0.000
 RMSDP=6.22D-05 MaxDP=2.05D-03 DE=-5.99D-04 OVMax= 3.68D-03

 Cycle   8  Pass 1  IDiag  1:
 E= -394.760790096183     Delta-E=       -0.000055129515 Rises=F Damp=F
 DIIS: error= 1.77D-04 at cycle   8 NSaved=   8.
 NSaved= 8 IEnMin= 8 EnMin= -394.760790096183     IErMin= 8 ErrMin= 1.77D-04
 ErrMax= 1.77D-04  0.00D+00 EMaxC= 1.00D-01 BMatC= 1.43D-05 BMatP= 2.32D-04
 IDIUse=3 WtCom= 9.98D-01 WtEn= 1.77D-03
 Coeff-Com: -0.256D-02 0.314D-02-0.489D-02-0.929D-02-0.245D-02 0.802D-01
 Coeff-Com:  0.320D+00 0.616D+00
 Coeff-En:   0.000D+00 0.000D+00 0.000D+00 0.000D+00 0.000D+00 0.000D+00
 Coeff-En:   0.000D+00 0.100D+01
 Coeff:     -0.255D-02 0.313D-02-0.488D-02-0.928D-02-0.245D-02 0.801D-01
 Coeff:      0.319D+00 0.617D+00
 Gap=     0.081 Goal=   None    Shift=    0.000
 Gap=     0.207 Goal=   None    Shift=    0.000
 RMSDP=2.09D-05 MaxDP=6.51D-04 DE=-5.51D-05 OVMax= 1.38D-03

 Cycle   9  Pass 1  IDiag  1:
 E= -394.760794810975     Delta-E=       -0.000004714792 Rises=F Damp=F
 DIIS: error= 3.84D-05 at cycle   9 NSaved=   9.
 NSaved= 9 IEnMin= 9 EnMin= -394.760794810975     IErMin= 9 ErrMin= 3.84D-05
 ErrMax= 3.84D-05  0.00D+00 EMaxC= 1.00D-01 BMatC= 9.11D-07 BMatP= 1.43D-05
 IDIUse=1 WtCom= 1.00D+00 WtEn= 0.00D+00
 Coeff-Com: -0.300D-03 0.402D-03-0.446D-03-0.210D-02-0.447D-02-0.185D-01
 Coeff-Com: -0.283D-01 0.130D+00 0.924D+00
 Coeff:     -0.300D-03 0.402D-03-0.446D-03-0.210D-02-0.447D-02-0.185D-01
 Coeff:     -0.283D-01 0.130D+00 0.924D+00
 Gap=     0.081 Goal=   None    Shift=    0.000
 Gap=     0.206 Goal=   None    Shift=    0.000
 RMSDP=1.38D-05 MaxDP=5.55D-04 DE=-4.71D-06 OVMax= 1.25D-03

 Cycle  10  Pass 1  IDiag  1:
 E= -394.760795623380     Delta-E=       -0.000000812405 Rises=F Damp=F
 DIIS: error= 2.41D-05 at cycle  10 NSaved=  10.
 NSaved=10 IEnMin=10 EnMin= -394.760795623380     IErMin=10 ErrMin= 2.41D-05
 ErrMax= 2.41D-05  0.00D+00 EMaxC= 1.00D-01 BMatC= 2.22D-07 BMatP= 9.11D-07
 IDIUse=1 WtCom= 1.00D+00 WtEn= 0.00D+00
 Coeff-Com:  0.266D-03-0.301D-03 0.380D-03 0.369D-03-0.123D-02-0.167D-01
 Coeff-Com: -0.451D-01-0.147D-01 0.324D+00 0.753D+00
 Coeff:      0.266D-03-0.301D-03 0.380D-03 0.369D-03-0.123D-02-0.167D-01
 Coeff:     -0.451D-01-0.147D-01 0.324D+00 0.753D+00
 Gap=     0.081 Goal=   None    Shift=    0.000
 Gap=     0.206 Goal=   None    Shift=    0.000
 RMSDP=5.98D-06 MaxDP=1.99D-04 DE=-8.12D-07 OVMax= 5.27D-04

 Cycle  11  Pass 1  IDiag  1:
 E= -394.760795780841     Delta-E=       -0.000000157462 Rises=F Damp=F
 DIIS: error= 2.24D-05 at cycle  11 NSaved=  11.
 NSaved=11 IEnMin=11 EnMin= -394.760795780841     IErMin=11 ErrMin= 2.24D-05
 ErrMax= 2.24D-05  0.00D+00 EMaxC= 1.00D-01 BMatC= 1.37D-07 BMatP= 2.22D-07
 IDIUse=1 WtCom= 1.00D+00 WtEn= 0.00D+00
 Coeff-Com:  0.203D-03-0.245D-03 0.386D-03 0.962D-03 0.596D-03-0.586D-02
 Coeff-Com: -0.214D-01-0.491D-01-0.788D-01 0.508D+00 0.646D+00
 Coeff:      0.203D-03-0.245D-03 0.386D-03 0.962D-03 0.596D-03-0.586D-02
 Coeff:     -0.214D-01-0.491D-01-0.788D-01 0.508D+00 0.646D+00
 Gap=     0.081 Goal=   None    Shift=    0.000
 Gap=     0.206 Goal=   None    Shift=    0.000
 RMSDP=3.70D-06 MaxDP=1.10D-04 DE=-1.57D-07 OVMax= 3.34D-04

 Cycle  12  Pass 1  IDiag  1:
 E= -394.760795867021     Delta-E=       -0.000000086180 Rises=F Damp=F
 DIIS: error= 8.31D-06 at cycle  12 NSaved=  12.
 NSaved=12 IEnMin=12 EnMin= -394.760795867021     IErMin=12 ErrMin= 8.31D-06
 ErrMax= 8.31D-06  0.00D+00 EMaxC= 1.00D-01 BMatC= 1.34D-08 BMatP= 1.37D-07
 IDIUse=1 WtCom= 1.00D+00 WtEn= 0.00D+00
 Coeff-Com: -0.335D-06-0.226D-05-0.635D-04-0.239D-04 0.327D-03 0.387D-02
 Coeff-Com:  0.104D-01-0.616D-03-0.934D-01-0.151D+00 0.591D-01 0.117D+01
 Coeff:     -0.335D-06-0.226D-05-0.635D-04-0.239D-04 0.327D-03 0.387D-02
 Coeff:      0.104D-01-0.616D-03-0.934D-01-0.151D+00 0.591D-01 0.117D+01
 Gap=     0.081 Goal=   None    Shift=    0.000
 Gap=     0.206 Goal=   None    Shift=    0.000
 RMSDP=2.27D-06 MaxDP=5.23D-05 DE=-8.62D-08 OVMax= 1.93D-04

 Cycle  13  Pass 1  IDiag  1:
 E= -394.760795892986     Delta-E=       -0.000000025965 Rises=F Damp=F
 DIIS: error= 5.21D-06 at cycle  13 NSaved=  13.
 NSaved=13 IEnMin=13 EnMin= -394.760795892986     IErMin=13 ErrMin= 5.21D-06
 ErrMax= 5.21D-06  0.00D+00 EMaxC= 1.00D-01 BMatC= 3.89D-09 BMatP= 1.34D-08
 IDIUse=1 WtCom= 1.00D+00 WtEn= 0.00D+00
 Coeff-Com: -0.717D-04 0.839D-04-0.852D-04-0.203D-03-0.102D-03 0.176D-02
 Coeff-Com:  0.532D-02 0.889D-02 0.585D-02-0.114D+00-0.117D+00 0.147D+00
 Coeff-Com:  0.106D+01
 Coeff:     -0.717D-04 0.839D-04-0.852D-04-0.203D-03-0.102D-03 0.176D-02
 Coeff:      0.532D-02 0.889D-02 0.585D-02-0.114D+00-0.117D+00 0.147D+00
 Coeff:      0.106D+01
 Gap=     0.081 Goal=   None    Shift=    0.000
 Gap=     0.206 Goal=   None    Shift=    0.000
 RMSDP=9.35D-07 MaxDP=2.88D-05 DE=-2.60D-08 OVMax= 7.12D-05

 Cycle  14  Pass 1  IDiag  1:
 E= -394.760795900324     Delta-E=       -0.000000007337 Rises=F Damp=F
 DIIS: error= 2.98D-06 at cycle  14 NSaved=  14.
 NSaved=14 IEnMin=14 EnMin= -394.760795900324     IErMin=14 ErrMin= 2.98D-06
 ErrMax= 2.98D-06  0.00D+00 EMaxC= 1.00D-01 BMatC= 1.44D-09 BMatP= 3.89D-09
 IDIUse=1 WtCom= 1.00D+00 WtEn= 0.00D+00
 Coeff-Com: -0.770D-05 0.107D-04-0.269D-05-0.632D-04-0.145D-03-0.815D-03
 Coeff-Com: -0.219D-02 0.305D-02 0.373D-01 0.139D-01-0.698D-01-0.418D+00
 Coeff-Com:  0.374D+00 0.106D+01
 Coeff:     -0.770D-05 0.107D-04-0.269D-05-0.632D-04-0.145D-03-0.815D-03
 Coeff:     -0.219D-02 0.305D-02 0.373D-01 0.139D-01-0.698D-01-0.418D+00
 Coeff:      0.374D+00 0.106D+01
 Gap=     0.081 Goal=   None    Shift=    0.000
 Gap=     0.206 Goal=   None    Shift=    0.000
 RMSDP=7.44D-07 MaxDP=2.35D-05 DE=-7.34D-09 OVMax= 6.09D-05

 Cycle  15  Pass 1  IDiag  1:
 E= -394.760795903319     Delta-E=       -0.000000002995 Rises=F Damp=F
 DIIS: error= 1.29D-06 at cycle  15 NSaved=  15.
 NSaved=15 IEnMin=15 EnMin= -394.760795903319     IErMin=15 ErrMin= 1.29D-06
 ErrMax= 1.29D-06  0.00D+00 EMaxC= 1.00D-01 BMatC= 4.05D-10 BMatP= 1.44D-09
 IDIUse=1 WtCom= 1.00D+00 WtEn= 0.00D+00
 Coeff-Com:  0.560D-05-0.610D-05 0.168D-04 0.189D-04-0.351D-04-0.795D-03
 Coeff-Com: -0.218D-02-0.285D-03 0.172D-01 0.356D-01-0.278D-02-0.232D+00
 Coeff-Com: -0.905D-01 0.484D+00 0.791D+00
 Coeff:      0.560D-05-0.610D-05 0.168D-04 0.189D-04-0.351D-04-0.795D-03
 Coeff:     -0.218D-02-0.285D-03 0.172D-01 0.356D-01-0.278D-02-0.232D+00
 Coeff:     -0.905D-01 0.484D+00 0.791D+00
 Gap=     0.081 Goal=   None    Shift=    0.000
 Gap=     0.206 Goal=   None    Shift=    0.000
 RMSDP=2.97D-07 MaxDP=8.60D-06 DE=-3.00D-09 OVMax= 2.14D-05

 Cycle  16  Pass 1  IDiag  1:
 E= -394.760795903782     Delta-E=       -0.000000000463 Rises=F Damp=F
 DIIS: error= 3.82D-07 at cycle  16 NSaved=  16.
 NSaved=16 IEnMin=16 EnMin= -394.760795903782     IErMin=16 ErrMin= 3.82D-07
 ErrMax= 3.82D-07  0.00D+00 EMaxC= 1.00D-01 BMatC= 4.96D-11 BMatP= 4.05D-10
 IDIUse=1 WtCom= 1.00D+00 WtEn= 0.00D+00
 Coeff-Com:  0.271D-05-0.335D-05 0.149D-05 0.172D-04 0.293D-04 0.728D-04
 Coeff-Com:  0.204D-03-0.797D-03-0.720D-02-0.216D-03 0.153D-01 0.718D-01
 Coeff-Com: -0.868D-01-0.195D+00 0.945D-01 0.111D+01
 Coeff:      0.271D-05-0.335D-05 0.149D-05 0.172D-04 0.293D-04 0.728D-04
 Coeff:      0.204D-03-0.797D-03-0.720D-02-0.216D-03 0.153D-01 0.718D-01
 Coeff:     -0.868D-01-0.195D+00 0.945D-01 0.111D+01
 Gap=     0.081 Goal=   None    Shift=    0.000
 Gap=     0.206 Goal=   None    Shift=    0.000
 RMSDP=1.41D-07 MaxDP=3.32D-06 DE=-4.63D-10 OVMax= 1.14D-05

 Cycle  17  Pass 1  IDiag  1:
 E= -394.760795903850     Delta-E=       -0.000000000068 Rises=F Damp=F
 DIIS: error= 1.70D-07 at cycle  17 NSaved=  17.
 NSaved=17 IEnMin=17 EnMin= -394.760795903850     IErMin=17 ErrMin= 1.70D-07
 ErrMax= 1.70D-07  0.00D+00 EMaxC= 1.00D-01 BMatC= 7.90D-12 BMatP= 4.96D-11
 IDIUse=1 WtCom= 1.00D+00 WtEn= 0.00D+00
 Coeff-Com: -0.543D-06 0.493D-06-0.248D-05-0.355D-06 0.109D-04 0.174D-03
 Coeff-Com:  0.470D-03-0.421D-04-0.459D-02-0.756D-02 0.228D-02 0.559D-01
 Coeff-Com:  0.625D-02-0.128D+00-0.124D+00 0.218D+00 0.980D+00
 Coeff:     -0.543D-06 0.493D-06-0.248D-05-0.355D-06 0.109D-04 0.174D-03
 Coeff:      0.470D-03-0.421D-04-0.459D-02-0.756D-02 0.228D-02 0.559D-01
 Coeff:      0.625D-02-0.128D+00-0.124D+00 0.218D+00 0.980D+00
 Gap=     0.081 Goal=   None    Shift=    0.000
 Gap=     0.206 Goal=   None    Shift=    0.000
 RMSDP=5.47D-08 MaxDP=1.17D-06 DE=-6.82D-11 OVMax= 4.85D-06

 Cycle  18  Pass 1  IDiag  1:
 E= -394.760795903870     Delta-E=       -0.000000000020 Rises=F Damp=F
 DIIS: error= 7.53D-08 at cycle  18 NSaved=  18.
 NSaved=18 IEnMin=18 EnMin= -394.760795903870     IErMin=18 ErrMin= 7.53D-08
 ErrMax= 7.53D-08  0.00D+00 EMaxC= 1.00D-01 BMatC= 1.13D-12 BMatP= 7.90D-12
 IDIUse=1 WtCom= 1.00D+00 WtEn= 0.00D+00
 Coeff-Com: -0.220D-06 0.249D-06-0.790D-06-0.308D-05-0.251D-05 0.367D-04
 Coeff-Com:  0.103D-03 0.115D-03-0.101D-03-0.199D-02-0.166D-02 0.539D-02
 Coeff-Com:  0.171D-01-0.122D-01-0.556D-01-0.104D+00 0.272D+00 0.881D+00
 Coeff:     -0.220D-06 0.249D-06-0.790D-06-0.308D-05-0.251D-05 0.367D-04
 Coeff:      0.103D-03 0.115D-03-0.101D-03-0.199D-02-0.166D-02 0.539D-02
 Coeff:      0.171D-01-0.122D-01-0.556D-01-0.104D+00 0.272D+00 0.881D+00
 Gap=     0.081 Goal=   None    Shift=    0.000
 Gap=     0.206 Goal=   None    Shift=    0.000
 RMSDP=2.11D-08 MaxDP=5.67D-07 DE=-1.99D-11 OVMax= 2.28D-06

 Cycle  19  Pass 1  IDiag  1:
 E= -394.760795903876     Delta-E=       -0.000000000006 Rises=F Damp=F
 DIIS: error= 1.23D-08 at cycle  19 NSaved=  19.
 NSaved=19 IEnMin=19 EnMin= -394.760795903876     IErMin=19 ErrMin= 1.23D-08
 ErrMax= 1.23D-08  0.00D+00 EMaxC= 1.00D-01 BMatC= 7.70D-14 BMatP= 1.13D-12
 IDIUse=1 WtCom= 1.00D+00 WtEn= 0.00D+00
 Coeff-Com: -0.237D-06 0.282D-06-0.462D-07-0.752D-06-0.132D-05-0.542D-05
 Coeff-Com: -0.960D-05 0.224D-04 0.299D-03 0.697D-04-0.585D-03-0.291D-02
 Coeff-Com:  0.373D-02 0.637D-02-0.211D-02-0.350D-01-0.268D-01 0.180D+00
 Coeff-Com:  0.877D+00
 Coeff:     -0.237D-06 0.282D-06-0.462D-07-0.752D-06-0.132D-05-0.542D-05
 Coeff:     -0.960D-05 0.224D-04 0.299D-03 0.697D-04-0.585D-03-0.291D-02
 Coeff:      0.373D-02 0.637D-02-0.211D-02-0.350D-01-0.268D-01 0.180D+00
 Coeff:      0.877D+00
 Gap=     0.081 Goal=   None    Shift=    0.000
 Gap=     0.206 Goal=   None    Shift=    0.000
 RMSDP=4.08D-09 MaxDP=9.76D-08 DE=-6.14D-12 OVMax= 4.07D-07

 SCF Done:  E(UPBE1PBE) =  -394.760795904     A.U. after   19 cycles
            NFock= 19  Conv=0.41D-08     -V/T= 2.3087
 <Sx>= 0.0000 <Sy>= 0.0000 <Sz>= 0.5000 <S**2>= 0.7518 S= 0.5009
 <L.S>= 0.000000000000E+00
 KE= 3.016376049444D+02 PE=-1.544118067872D+03 EE= 5.213424381225D+02
 Annihilation of the first spin contaminant:
 S**2 before annihilation     0.7518,   after     0.7500
 Leave Link  502 at Sat Sep 12 02:11:47 2026, MaxMem=  6442450944 cpu:              76.0 elap:              75.7
 (Enter C:\G16W\l508.exe)
 QCSCF skips out because SCF is already converged.
 Leave Link  508 at Sat Sep 12 02:11:47 2026, MaxMem=  6442450944 cpu:               0.0 elap:               0.1
 (Enter C:\G16W\l601.exe)
 Copying SCF densities to generalized density rwf, IOpCl= 1 IROHF=0.

 **********************************************************************

            Population analysis using the SCF Density.

 **********************************************************************

 Alpha  occ. eigenvalues --  -14.43784 -10.29811 -10.29810 -10.28227 -10.27182
 Alpha  occ. eigenvalues --  -10.27181  -3.72685  -2.30672  -2.30632  -2.30543
 Alpha  occ. eigenvalues --   -1.01007  -0.85625  -0.81161  -0.68280  -0.67245
 Alpha  occ. eigenvalues --   -0.58048  -0.53429  -0.50740  -0.47247  -0.45846
 Alpha  occ. eigenvalues --   -0.45591  -0.40594  -0.35895  -0.34219  -0.30733
 Alpha  occ. eigenvalues --   -0.30032  -0.30025  -0.29981  -0.29591  -0.26919
 Alpha  occ. eigenvalues --   -0.13626
 Alpha virt. eigenvalues --   -0.05504  -0.03836   0.00744   0.01384   0.04031
 Alpha virt. eigenvalues --    0.07091   0.09907   0.11590   0.12191   0.12589
 Alpha virt. eigenvalues --    0.15299   0.16020   0.24071   0.26160   0.28202
 Alpha virt. eigenvalues --    0.28829   0.32370   0.33253   0.35513   0.38426
 Alpha virt. eigenvalues --    0.39180   0.39666   0.41710   0.44316   0.46147
 Alpha virt. eigenvalues --    0.46555   0.47103   0.47351   0.48011   0.52829
 Alpha virt. eigenvalues --    0.53071   0.56593   0.56762   0.57446   0.60598
 Alpha virt. eigenvalues --    0.63969   0.64182   0.65666   0.66433   0.66712
 Alpha virt. eigenvalues --    0.67945   0.70486   0.74766   0.75522   0.76189
 Alpha virt. eigenvalues --    0.80794   0.86523   0.93842   0.99722   0.99797
 Alpha virt. eigenvalues --    1.13801   1.13967   1.14268   1.21653   1.23712
 Alpha virt. eigenvalues --    1.24961   1.31400   1.33411   1.33642   1.41648
 Alpha virt. eigenvalues --    1.52032   1.65104   1.66316   1.69570   1.73628
 Alpha virt. eigenvalues --    1.73968   1.76601   1.76705   1.77638   1.80160
 Alpha virt. eigenvalues --    1.83864   1.90818   1.94316   1.95029   1.97184
 Alpha virt. eigenvalues --    1.97916   2.00855   2.10505   2.10825   2.12710
 Alpha virt. eigenvalues --    2.22123   2.24374   2.28291   2.33928   2.39231
 Alpha virt. eigenvalues --    2.43450   2.44467   2.50756   2.59408   2.61169
 Alpha virt. eigenvalues --    2.64937   2.64942   2.64956   2.65058   2.65541
 Alpha virt. eigenvalues --    2.66615   2.70208   2.72106   2.73125   2.73297
 Alpha virt. eigenvalues --    2.81537   2.90186   2.96034   3.02753   3.14285
 Alpha virt. eigenvalues --    3.15231   3.34176   3.68630  53.84852
  Beta  occ. eigenvalues --  -14.43548 -10.29818 -10.29816 -10.28231 -10.27176
  Beta  occ. eigenvalues --  -10.27175  -3.72513  -2.30540  -2.30524  -2.30441
  Beta  occ. eigenvalues --   -1.00812  -0.85560  -0.81130  -0.68226  -0.67182
  Beta  occ. eigenvalues --   -0.57920  -0.53363  -0.50708  -0.47220  -0.45568
  Beta  occ. eigenvalues --   -0.45505  -0.40550  -0.35224  -0.34108  -0.30725
  Beta  occ. eigenvalues --   -0.29562  -0.29539  -0.29441  -0.29020  -0.26036
  Beta virt. eigenvalues --   -0.05393  -0.04829  -0.03855   0.03173   0.03965
  Beta virt. eigenvalues --    0.05228   0.08111   0.10049   0.12255   0.12321
  Beta virt. eigenvalues --    0.14598   0.15575   0.16570   0.24445   0.26343
  Beta virt. eigenvalues --    0.28427   0.28912   0.33436   0.33995   0.37788
  Beta virt. eigenvalues --    0.38598   0.39781   0.41390   0.43235   0.45013
  Beta virt. eigenvalues --    0.46339   0.47399   0.48041   0.48166   0.48731
  Beta virt. eigenvalues --    0.53076   0.54144   0.56976   0.57242   0.58204
  Beta virt. eigenvalues --    0.60836   0.64029   0.64438   0.66182   0.66974
  Beta virt. eigenvalues --    0.67548   0.68293   0.70527   0.74928   0.75764
  Beta virt. eigenvalues --    0.76288   0.81028   0.86901   0.94148   0.99814
  Beta virt. eigenvalues --    0.99839   1.13875   1.14176   1.14291   1.21658
  Beta virt. eigenvalues --    1.23719   1.24965   1.31433   1.33519   1.33674
  Beta virt. eigenvalues --    1.42152   1.52150   1.65129   1.66368   1.69604
  Beta virt. eigenvalues --    1.73653   1.74006   1.76625   1.76738   1.77663
  Beta virt. eigenvalues --    1.80320   1.84049   1.90875   1.94373   1.95121
  Beta virt. eigenvalues --    1.97209   1.97939   2.01084   2.10538   2.11524
  Beta virt. eigenvalues --    2.12731   2.22402   2.24425   2.28295   2.33938
  Beta virt. eigenvalues --    2.39292   2.43536   2.44557   2.50986   2.59443
  Beta virt. eigenvalues --    2.61373   2.64914   2.64933   2.64977   2.65093
  Beta virt. eigenvalues --    2.65743   2.66793   2.70444   2.72193   2.73182
  Beta virt. eigenvalues --    2.73342   2.81698   2.90246   2.96164   3.02898
  Beta virt. eigenvalues --    3.14334   3.15354   3.34360   3.68729  53.85001
          Condensed to atoms (all electrons):
               1          2          3          4          5          6
     1  C    4.855752   0.405296  -0.007331  -0.045007  -0.007330   0.405294
     2  C    0.405296   4.962803   0.445826  -0.022145  -0.076534   0.017352
     3  C   -0.007331   0.445826   4.731158   0.464938  -0.050211  -0.076535
     4  N   -0.045007  -0.022145   0.464938   6.467234   0.464938  -0.022145
     5  C   -0.007330  -0.076534  -0.050211   0.464938   4.731160   0.445827
     6  C    0.405294   0.017352  -0.076535  -0.022145   0.445827   4.962800
     7  H    0.438755  -0.056640   0.010253  -0.000212   0.010253  -0.056640
     8  H   -0.053759   0.429132  -0.045449   0.004994   0.000217   0.010916
     9  H    0.007653  -0.065080   0.423037  -0.052120   0.007546   0.000134
    10  H    0.007653   0.000134   0.007546  -0.052120   0.423037  -0.065079
    11  H   -0.053759   0.010916   0.000217   0.004994  -0.045450   0.429133
    12  Ag  -0.001656   0.006081  -0.021359   0.031959  -0.021359   0.006080
               7          8          9         10         11         12
     1  C    0.438755  -0.053759   0.007653   0.007653  -0.053759  -0.001656
     2  C   -0.056640   0.429132  -0.065080   0.000134   0.010916   0.006081
     3  C    0.010253  -0.045449   0.423037   0.007546   0.000217  -0.021359
     4  N   -0.000212   0.004994  -0.052120  -0.052120   0.004994   0.031959
     5  C    0.010253   0.000217   0.007546   0.423037  -0.045450  -0.021359
     6  C   -0.056640   0.010916   0.000134  -0.065079   0.429133   0.006080
     7  H    0.635165  -0.010731  -0.000275  -0.000275  -0.010731   0.000194
     8  H   -0.010731   0.632690  -0.006448   0.000086  -0.000171  -0.000164
     9  H   -0.000275  -0.006448   0.632419   0.000085   0.000086   0.002792
    10  H   -0.000275   0.000086   0.000085   0.632418  -0.006448   0.002791
    11  H   -0.010731  -0.000171   0.000086  -0.006448   0.632689  -0.000164
    12  Ag   0.000194  -0.000164   0.002792   0.002791  -0.000164  19.138069
          Atomic-Atomic Spin Densities.
               1          2          3          4          5          6
     1  C    0.005853  -0.000430  -0.001256  -0.000614  -0.001257  -0.000430
     2  C   -0.000430   0.004403   0.004748   0.001318  -0.000528   0.000301
     3  C   -0.001256   0.004748  -0.003480   0.002471   0.001621  -0.000528
     4  N   -0.000614   0.001318   0.002471   0.152077   0.002470   0.001318
     5  C   -0.001257  -0.000528   0.001621   0.002470  -0.003481   0.004749
     6  C   -0.000430   0.000301  -0.000528   0.001318   0.004749   0.004401
     7  H   -0.001166   0.000191   0.000085   0.000033   0.000085   0.000191
     8  H   -0.001637  -0.001630  -0.000417  -0.000020   0.000131   0.000139
     9  H   -0.000628  -0.002501  -0.005693  -0.006131   0.000307  -0.000014
    10  H   -0.000628  -0.000014   0.000307  -0.006131  -0.005693  -0.002501
    11  H   -0.001637   0.000139   0.000131  -0.000020  -0.000417  -0.001630
    12  Ag  -0.001202  -0.002000  -0.006698  -0.104573  -0.006698  -0.002000
               7          8          9         10         11         12
     1  C   -0.001166  -0.001637  -0.000628  -0.000628  -0.001637  -0.001202
     2  C    0.000191  -0.001630  -0.002501  -0.000014   0.000139  -0.002000
     3  C    0.000085  -0.000417  -0.005693   0.000307   0.000131  -0.006698
     4  N    0.000033  -0.000020  -0.006131  -0.006131  -0.000020  -0.104573
     5  C    0.000085   0.000131   0.000307  -0.005693  -0.000417  -0.006698
     6  C    0.000191   0.000139  -0.000014  -0.002501  -0.001630  -0.002000
     7  H    0.000450   0.000199   0.000020   0.000020   0.000199   0.000018
     8  H    0.000199   0.003354   0.000893   0.000018   0.000030   0.000402
     9  H    0.000020   0.000893   0.009575   0.000156   0.000018   0.013775
    10  H    0.000020   0.000018   0.000156   0.009574   0.000893   0.013774
    11  H    0.000199   0.000030   0.000018   0.000893   0.003354   0.000402
    12  Ag   0.000018   0.000402   0.013775   0.013774   0.000402   1.044266
 Mulliken charges and spin densities:
               1          2
     1  C    0.048440  -0.005033
     2  C   -0.057141   0.003997
     3  C    0.117909  -0.008710
     4  N   -0.245309   0.042199
     5  C    0.117905  -0.008710
     6  C   -0.057138   0.003997
     7  H    0.040883   0.000325
     8  H    0.038687   0.001461
     9  H    0.050170   0.009775
    10  H    0.050171   0.009775
    11  H    0.038688   0.001461
    12  Ag  -0.143266   0.949464
 Sum of Mulliken charges =   0.00000   1.00000
 Mulliken charges and spin densities with hydrogens summed into heavy atoms:
               1          2
     1  C    0.089323  -0.004708
     2  C   -0.018454   0.005458
     3  C    0.168080   0.001065
     4  N   -0.245309   0.042199
     5  C    0.168076   0.001065
     6  C   -0.018450   0.005458
    12  Ag  -0.143266   0.949464
 Electronic spatial extent (au):  <R**2>=           1522.1268
 Charge=              0.0000 electrons
 Dipole moment (field-independent basis, Debye):
    X=             -1.6283    Y=              6.0067    Z=              0.3194  Tot=              6.2317
 Quadrupole moment (field-independent basis, Debye-Ang):
   XX=            -51.6685   YY=            -78.4294   ZZ=            -58.5876
   XY=              7.8147   XZ=              0.5341   YZ=             -1.0258
 Traceless Quadrupole moment (field-independent basis, Debye-Ang):
   XX=             11.2266   YY=            -15.5342   ZZ=              4.3075
   XY=              7.8147   XZ=              0.5341   YZ=             -1.0258
 Octapole moment (field-independent basis, Debye-Ang**2):
  XXX=            -73.0941  YYY=            389.3386  ZZZ=             14.1483  XYY=            -58.5189
  XXY=             96.2090  XXZ=              5.1289  XZZ=            -24.1117  YZZ=             88.9284
  YYZ=             11.2686  XYZ=             -1.8576
 Hexadecapole moment (field-independent basis, Debye-Ang**3):
 XXXX=           -418.0004 YYYY=          -2747.3296 ZZZZ=            -80.7175 XXXY=            270.1908
 XXXZ=             13.4235 YYYX=            411.5321 YYYZ=            -84.6088 ZZZX=             12.1475
 ZZZY=            -58.2879 XXYY=           -474.6023 XXZZ=            -92.1828 YYZZ=           -389.3331
 XXYZ=            -20.4842 YYXZ=             12.3661 ZZXY=             87.0726
 N-N= 3.263772289009D+02 E-N=-1.544118068465D+03  KE= 3.016376049444D+02
                          Isotropic Fermi Contact Couplings
        Atom                 a.u.       MegaHertz       Gauss      10(-4) cm-1
     1  C(13)              0.00118       1.32588       0.47311       0.44226
     2  C(13)              0.00248       2.79265       0.99649       0.93153
     3  C(13)             -0.00422      -4.74533      -1.69325      -1.58287
     4  N(14)              0.18468      59.67140      21.29224      19.90424
     5  C(13)             -0.00422      -4.74576      -1.69341      -1.58302
     6  C(13)              0.00248       2.79263       0.99648       0.93152
     7  H(1)               0.00004       0.17850       0.06369       0.05954
     8  H(1)               0.00033       1.46502       0.52276       0.48868
     9  H(1)               0.00033       1.48898       0.53131       0.49667
    10  H(1)               0.00033       1.48863       0.53118       0.49655
    11  H(1)               0.00033       1.46499       0.52275       0.48867
    12  Ag(107             0.00025      -0.04550      -0.01623      -0.01518
 --------------------------------------------------------
       Center         ----  Spin Dipole Couplings  ----
                      3XX-RR        3YY-RR        3ZZ-RR
 --------------------------------------------------------
     1   Atom        0.001131      0.004149     -0.005280
     2   Atom       -0.002832      0.002426      0.000406
     3   Atom        0.006450      0.005499     -0.011949
     4   Atom       -0.056522      0.106961     -0.050439
     5   Atom        0.010744      0.001229     -0.011973
     6   Atom       -0.001936      0.001535      0.000401
     7   Atom       -0.000182      0.000818     -0.000635
     8   Atom       -0.000714      0.001626     -0.000912
     9   Atom       -0.001160      0.004735     -0.003575
    10   Atom        0.002402      0.001193     -0.003595
    11   Atom        0.000350      0.000568     -0.000918
    12   Atom        0.024605     -0.044035      0.019430
 --------------------------------------------------------
                        XY            XZ            YZ
 --------------------------------------------------------
     1   Atom       -0.000893      0.000034      0.000525
     2   Atom       -0.000505     -0.000071      0.000108
     3   Atom        0.005167      0.000537      0.001062
     4   Atom       -0.047800     -0.002787      0.008327
     5   Atom       -0.002174      0.000177      0.000723
     6   Atom       -0.002038     -0.000146      0.000037
     7   Atom       -0.000293     -0.000011      0.000079
     8   Atom        0.000535      0.000033      0.000152
     9   Atom        0.002353      0.000166      0.000504
    10   Atom       -0.003737     -0.000133      0.000223
    11   Atom       -0.001285     -0.000056      0.000068
    12   Atom        0.020065      0.001204     -0.003348
 --------------------------------------------------------


 ---------------------------------------------------------------------------------
              Anisotropic Spin Dipole Couplings in Principal Axis System
 ---------------------------------------------------------------------------------

       Atom             a.u.   MegaHertz   Gauss  10(-4) cm-1        Axes

              Baa    -0.0053    -0.713    -0.254    -0.238 -0.0132 -0.0567  0.9983
     1 C(13)  Bbb     0.0009     0.120     0.043     0.040  0.9652  0.2602  0.0275
              Bcc     0.0044     0.593     0.212     0.198 -0.2613  0.9639  0.0513
 
              Baa    -0.0029    -0.387    -0.138    -0.129  0.9954  0.0944  0.0185
     2 C(13)  Bbb     0.0004     0.054     0.019     0.018 -0.0132 -0.0566  0.9983
              Bcc     0.0025     0.333     0.119     0.111 -0.0953  0.9939  0.0551
 
              Baa    -0.0120    -1.612    -0.575    -0.538 -0.0132 -0.0566  0.9983
     3 C(13)  Bbb     0.0008     0.107     0.038     0.036 -0.6762  0.7360  0.0328
              Bcc     0.0112     1.505     0.537     0.502  0.7366  0.6746  0.0480
 
              Baa    -0.0695    -2.680    -0.956    -0.894  0.9652  0.2602  0.0275
     4 N(14)  Bbb    -0.0509    -1.962    -0.700    -0.655 -0.0132 -0.0567  0.9983
              Bcc     0.1204     4.642     1.656     1.548 -0.2613  0.9639  0.0513
 
              Baa    -0.0120    -1.612    -0.575    -0.538 -0.0132 -0.0567  0.9983
     5 C(13)  Bbb     0.0008     0.107     0.038     0.036  0.2122  0.9755  0.0582
              Bcc     0.0112     1.505     0.537     0.502  0.9771 -0.2126  0.0008
 
              Baa    -0.0029    -0.387    -0.138    -0.129  0.9075  0.4185  0.0357
     6 C(13)  Bbb     0.0004     0.054     0.019     0.018 -0.0132 -0.0566  0.9983
              Bcc     0.0025     0.333     0.119     0.111 -0.4198  0.9064  0.0459
 
              Baa    -0.0006    -0.341    -0.122    -0.114 -0.0132 -0.0567  0.9983
     7 H(1)   Bbb    -0.0003    -0.140    -0.050    -0.047  0.9652  0.2602  0.0275
              Bcc     0.0009     0.481     0.172     0.160 -0.2613  0.9639  0.0513
 
              Baa    -0.0009    -0.492    -0.175    -0.164 -0.0132 -0.0567  0.9983
     8 H(1)   Bbb    -0.0008    -0.443    -0.158    -0.148  0.9771 -0.2127  0.0008
              Bcc     0.0018     0.935     0.333     0.312  0.2123  0.9755  0.0582
 
              Baa    -0.0036    -1.924    -0.686    -0.642 -0.0132 -0.0567  0.9983
     9 H(1)   Bbb    -0.0020    -1.059    -0.378    -0.353  0.9439 -0.3301 -0.0063
              Bcc     0.0056     2.983     1.064     0.995  0.3299  0.9422  0.0578
 
              Baa    -0.0036    -1.924    -0.686    -0.642 -0.0132 -0.0567  0.9983
    10 H(1)   Bbb    -0.0020    -1.059    -0.378    -0.353  0.6486  0.7594  0.0517
              Bcc     0.0056     2.983     1.064     0.995  0.7610 -0.6482 -0.0267
 
              Baa    -0.0009    -0.492    -0.175    -0.164 -0.0132 -0.0567  0.9983
    11 H(1)   Bbb    -0.0008    -0.443    -0.158    -0.148  0.7366  0.6747  0.0480
              Bcc     0.0018     0.935     0.333     0.312 -0.6762  0.7360  0.0328
 
              Baa    -0.0497     1.077     0.384     0.359 -0.2613  0.9639  0.0513
    12 Ag(107 Bbb     0.0196    -0.425    -0.152    -0.142 -0.0131 -0.0566  0.9983
              Bcc     0.0300    -0.652    -0.233    -0.217  0.9652  0.2602  0.0274
 

 ---------------------------------------------------------------------------------

 No NMR shielding tensors so no spin-rotation constants.
 Leave Link  601 at Sat Sep 12 02:11:49 2026, MaxMem=  6442450944 cpu:               2.0 elap:               1.8
 (Enter C:\G16W\l9999.exe)
 Unable to Open any file for archive entry.
 1|1|UNPC-DESKTOP-2JKEGCA|SP|UPBE1PBE|def2SVP|C5H5Ag1N1(2)|JHKIM|12-Sep
 -2026|0||#P PBE1PBE/Def2SVP EmpiricalDispersion=GD3BJ SP SCF=(XQC,MaxC
 ycle=128) NoSymm Guess=Read||pyridine t=0.000 dz=+0.00 class=toface||0
 ,2|C,0,-0.310236,1.144474,0.060853|C,0,1.025069,0.773724,0.057432|C,0,
 1.330545,-0.577468,-0.015216|N,0,0.414071,-1.527525,-0.081221|C,0,-0.8
 57586,-1.167297,-0.077554|C,0,-1.276374,0.153351,-0.008138|H,0,-0.5926
 51,2.186315,0.11625|H,0,1.809285,1.513335,0.109757|H,0,2.357787,-0.918
 862,-0.021028|H,0,-1.572447,-1.978288,-0.13302|H,0,-2.327462,0.398241,
 -0.008116|Ag,0,1.015032,-3.744494,-0.199101||Version=EM64W-G16RevC.01|
 HF=-394.7607959|S2=0.751766|S2-1=0.|S2A=0.750003|RMSD=4.078e-009|Dipol
 e=-0.6406065,2.3632306,0.1256551|Quadrupole=8.3467328,-11.549288,3.202
 5552,5.8100346,0.3971273,-0.7626362|PG=C01 [X(C5H5Ag1N1)]||@
 The archive entry for this job was punched.


 IF THE FACTS DO NOT CONFORM TO THE THEORY, THEY MUST BE DISPOSED OF.
 Job cpu time:       0 days  0 hours  1 minutes 27.0 seconds.
 Elapsed time:       0 days  0 hours  1 minutes 25.3 seconds.
 File lengths (MBytes):  RWF=     15 Int=      0 D2E=      0 Chk=      3 Scr=      1
 Normal termination of Gaussian 16 at Sat Sep 12 02:11:50 2026.
