 Entering Gaussian System, Link 0=C:\G16W\g16.exe
 Input=pyridine_t1_z1.gjf
 Output=pyridine_t1_z1.out
 Initial command:
 C:\G16W\l1.exe ".\Gau-154432.inp" "pyridine_t1_z1.out" /scrdir=".\"
 Entering Link 1 = C:\G16W\l1.exe PID=     34688.
  
 Copyright (c) 1988-2019, Gaussian, Inc.  All Rights Reserved.
  
 This is part of the Gaussian(R) 16 program.  It is based on
 the Gaussian(R) 09 system (copyright 2009, Gaussian, Inc.),
 the Gaussian(R) 03 system (copyright 2003, Gaussian, Inc.),
 the Gaussian(R) 98 system (copyright 1998, Gaussian, Inc.),
 the Gaussian(R) 94 system (copyright 1995, Gaussian, Inc.),
 the Gaussian 92(TM) system (copyright 1992, Gaussian, Inc.),
 the Gaussian 90(TM) system (copyright 1990, Gaussian, Inc.),
 the Gaussian 88(TM) system (copyright 1988, Gaussian, Inc.),
 the Gaussian 86(TM) system (copyright 1986, Carnegie Mellon
 University), and the Gaussian 82(TM) system (copyright 1983,
 Carnegie Mellon University). Gaussian is a federally registered
 trademark of Gaussian, Inc.
  
 This software contains proprietary and confidential information,
 including trade secrets, belonging to Gaussian, Inc.
  
 This software is provided under written license and may be
 used, copied, transmitted, or stored only in accord with that
 written license.
  
 The following legend is applicable only to US Government
 contracts under FAR:
  
                    RESTRICTED RIGHTS LEGEND
  
 Use, reproduction and disclosure by the US Government is
 subject to restrictions as set forth in subparagraphs (a)
 and (c) of the Commercial Computer Software - Restricted
 Rights clause in FAR 52.227-19.
  
 Gaussian, Inc.
 340 Quinnipiac St., Bldg. 40, Wallingford CT 06492
  
  
 ---------------------------------------------------------------
 Warning -- This program may not be used in any manner that
 competes with the business of Gaussian, Inc. or will provide
 assistance to any competitor of Gaussian, Inc.  The licensee
 of this program is prohibited from giving any competitor of
 Gaussian, Inc. access to this program.  By using this program,
 the user acknowledges that Gaussian, Inc. is engaged in the
 business of creating and licensing software in the field of
 computational chemistry and represents and warrants to the
 licensee that it is not a competitor of Gaussian, Inc. and that
 it will not use this program in any manner prohibited above.
 ---------------------------------------------------------------
  

 Cite this work as:
 Gaussian 16, Revision C.01,
 M. J. Frisch, G. W. Trucks, H. B. Schlegel, G. E. Scuseria, 
 M. A. Robb, J. R. Cheeseman, G. Scalmani, V. Barone, 
 G. A. Petersson, H. Nakatsuji, X. Li, M. Caricato, A. V. Marenich, 
 J. Bloino, B. G. Janesko, R. Gomperts, B. Mennucci, H. P. Hratchian, 
 J. V. Ortiz, A. F. Izmaylov, J. L. Sonnenberg, D. Williams-Young, 
 F. Ding, F. Lipparini, F. Egidi, J. Goings, B. Peng, A. Petrone, 
 T. Henderson, D. Ranasinghe, V. G. Zakrzewski, J. Gao, N. Rega, 
 G. Zheng, W. Liang, M. Hada, M. Ehara, K. Toyota, R. Fukuda, 
 J. Hasegawa, M. Ishida, T. Nakajima, Y. Honda, O. Kitao, H. Nakai, 
 T. Vreven, K. Throssell, J. A. Montgomery, Jr., J. E. Peralta, 
 F. Ogliaro, M. J. Bearpark, J. J. Heyd, E. N. Brothers, K. N. Kudin, 
 V. N. Staroverov, T. A. Keith, R. Kobayashi, J. Normand, 
 K. Raghavachari, A. P. Rendell, J. C. Burant, S. S. Iyengar, 
 J. Tomasi, M. Cossi, J. M. Millam, M. Klene, C. Adamo, R. Cammi, 
 J. W. Ochterski, R. L. Martin, K. Morokuma, O. Farkas, 
 J. B. Foresman, and D. J. Fox, Gaussian, Inc., Wallingford CT, 2019.
 
 ******************************************
 Gaussian 16:  EM64W-G16RevC.01 30-May-2019
                12-Sep-2026 
 ******************************************
 %Chk=pyridine.chk
 %NProcShared=8
 Will use up to    8 processors via shared memory.
 %Mem=48GB
 ----------------------------------------------------------------------
 #P PBE1PBE/Def2SVP EmpiricalDispersion=GD3BJ SP SCF=(XQC,MaxCycle=128)
  NoSymm Guess=Read
 ----------------------------------------------------------------------
 1/38=1,172=1/1;
 2/12=2,15=1,17=6,18=5,40=1/2;
 3/5=43,7=101,11=2,25=1,30=1,74=-13,116=-2,124=41/1,2,3;
 4/5=1/1;
 5/5=2,7=128,8=3,13=1,38=6/2,8;
 6/7=2,8=2,9=2,10=2,28=1/1;
 99/5=1,9=1/99;
 Leave Link    1 at Sat Sep 12 02:01:40 2026, MaxMem=  6442450944 cpu:               0.0 elap:               0.3
 (Enter C:\G16W\l101.exe)
 --------------------------------------
 pyridine t=0.250 dz=+0.40 class=toface
 --------------------------------------
 Symbolic Z-matrix:
 Charge =  0 Multiplicity = 2
 C                    -0.31024   1.14447   0.06085 
 C                     1.02507   0.77372   0.05743 
 C                     1.33055  -0.57747  -0.01522 
 N                     0.41407  -1.52753  -0.08122 
 C                    -0.85759  -1.1673   -0.07755 
 C                    -1.27637   0.15335  -0.00814 
 H                    -0.59265   2.18632   0.11625 
 H                     1.80929   1.51334   0.10976 
 H                     2.35779  -0.91886  -0.02103 
 H                    -1.57245  -1.97829  -0.13302 
 H                    -2.32746   0.39824  -0.00812 
 Ag                    1.00986  -4.00688   0.7282 
 
 ITRead=  0  0  0  0  0  0  0  0  0  0  0  0
 MicOpt= -1 -1 -1 -1 -1 -1 -1 -1 -1 -1 -1 -1
 NAtoms=     12 NQM=       12 NQMF=       0 NMMI=      0 NMMIF=      0
                NMic=       0 NMicF=      0.
                    Isotopes and Nuclear Properties:
 (Nuclear quadrupole moments (NQMom) in fm**2, nuclear magnetic moments (NMagM)
  in nuclear magnetons)

  Atom         1           2           3           4           5           6           7           8           9          10
 IAtWgt=          12          12          12          14          12          12           1           1           1           1
 AtmWgt=  12.0000000  12.0000000  12.0000000  14.0030740  12.0000000  12.0000000   1.0078250   1.0078250   1.0078250   1.0078250
 NucSpn=           0           0           0           2           0           0           1           1           1           1
 AtZEff=   0.0000000   0.0000000   0.0000000   0.0000000   0.0000000   0.0000000   0.0000000   0.0000000   0.0000000   0.0000000
 NQMom=    0.0000000   0.0000000   0.0000000   2.0440000   0.0000000   0.0000000   0.0000000   0.0000000   0.0000000   0.0000000
 NMagM=    0.0000000   0.0000000   0.0000000   0.4037610   0.0000000   0.0000000   2.7928460   2.7928460   2.7928460   2.7928460
 AtZNuc=   6.0000000   6.0000000   6.0000000   7.0000000   6.0000000   6.0000000   1.0000000   1.0000000   1.0000000   1.0000000

  Atom        11          12
 IAtWgt=           1         107
 AtmWgt=   1.0078250 106.9050900
 NucSpn=           1           1
 AtZEff=   0.0000000   0.0000000
 NQMom=    0.0000000   0.0000000
 NMagM=    2.7928460  -0.1135700
 AtZNuc=   1.0000000  47.0000000
 Leave Link  101 at Sat Sep 12 02:01:40 2026, MaxMem=  6442450944 cpu:               0.0 elap:               0.3
 (Enter C:\G16W\l202.exe)
                          Input orientation:                          
 ---------------------------------------------------------------------
 Center     Atomic      Atomic             Coordinates (Angstroms)
 Number     Number       Type             X           Y           Z
 ---------------------------------------------------------------------
      1          6           0       -0.310236    1.144474    0.060853
      2          6           0        1.025069    0.773724    0.057432
      3          6           0        1.330545   -0.577468   -0.015216
      4          7           0        0.414071   -1.527525   -0.081221
      5          6           0       -0.857586   -1.167297   -0.077554
      6          6           0       -1.276374    0.153351   -0.008138
      7          1           0       -0.592651    2.186315    0.116250
      8          1           0        1.809285    1.513335    0.109757
      9          1           0        2.357787   -0.918862   -0.021028
     10          1           0       -1.572447   -1.978288   -0.133020
     11          1           0       -2.327462    0.398241   -0.008116
     12         47           0        1.009860   -4.006875    0.728200
 ---------------------------------------------------------------------
                    Distance matrix (angstroms):
                    1          2          3          4          5
     1  C    0.000000
     2  C    1.385823   0.000000
     3  C    2.379713   1.387196   0.000000
     4  N    2.772072   2.385014   1.321699   0.000000
     5  C    2.379713   2.707429   2.267091   1.321699   0.000000
     6  C    1.385824   2.384492   2.707429   2.385014   1.387196
     7  H    1.080861   2.148462   3.369638   3.852933   3.369639
     8  H    2.151934   1.079239   2.148550   3.351108   3.785905
     9  H    3.373782   2.155723   1.082502   2.037677   3.225452
    10  H    3.373782   3.789054   3.225451   2.037676   1.082501
    11  H    2.151934   3.374129   3.785905   3.351108   2.148550
    12  Ag   5.359515   4.827451   3.523683   2.675314   3.492821
                    6          7          8          9         10
     6  C    0.000000
     7  H    2.148463   0.000000
     8  H    3.374129   2.494442   0.000000
     9  H    3.789054   4.285563   2.496706   0.000000
    10  H    2.155723   4.285563   4.866876   4.072059   0.000000
    11  H    1.079239   2.494443   4.286024   4.866876   2.496706
    12  Ag   4.803805   6.426362   5.611976   3.451677   3.394874
                   11         12
    11  H    0.000000
    12  Ag   5.575386   0.000000
 Symmetry turned off by external request.
 Stoichiometry    C5H5AgN(2)
 Framework group  C1[X(C5H5AgN)]
 Deg. of freedom    30
 Full point group                 C1      NOp   1
 Rotational constants (GHZ):           5.8197865           0.6253046           0.5700793
 Leave Link  202 at Sat Sep 12 02:01:41 2026, MaxMem=  6442450944 cpu:               0.0 elap:               0.1
 (Enter C:\G16W\l301.exe)
 Standard basis: def2SVP (5D, 7F)
 Ernie: Thresh=  0.10000D-02 Tol=  0.10000D-05 Strict=F.
   140 basis functions,   250 primitive gaussians,   151 cartesian basis functions
    31 alpha electrons       30 beta electrons
       nuclear repulsion energy       315.6052249299 Hartrees.
 IExCor= 1009 DFT=T Ex+Corr=PBE1PBE ExCW=0 ScaHFX=  0.250000
 ScaDFX=  0.750000  0.750000  1.000000  1.000000 ScalE2=  1.000000  1.000000
 IRadAn=      5 IRanWt=     -1 IRanGd=            0 ICorTp=0 IEmpDi=141
 NAtoms=   12 NActive=   12 NUniq=   12 SFac= 1.00D+00 NAtFMM=   60 NAOKFM=F Big=F
 Integral buffers will be    131072 words long.
 Raffenetti 2 integral format.
 Two-electron integral symmetry is turned off.
 R6Disp:  Grimme-D3(BJ) Dispersion energy=       -0.0115988088 Hartrees.
 Nuclear repulsion after empirical dispersion term =      315.5936261211 Hartrees.
 Leave Link  301 at Sat Sep 12 02:01:41 2026, MaxMem=  6442450944 cpu:               0.0 elap:               0.2
 (Enter C:\G16W\l302.exe)
 NPDir=0 NMtPBC=     1 NCelOv=     1 NCel=       1 NClECP=     1 NCelD=      1
         NCelK=      1 NCelE2=     1 NClLst=     1 CellRange=     0.0.
 One-electron integrals computed using PRISM.
   1 Symmetry operations used in ECPInt.
 ECPInt:  NShTT=    1953 NPrTT=    6894 LenC2=    1937 LenP2D=    5672.
 LDataN:  DoStor=T MaxTD1= 7 Len=  274
 NBasis=   140 RedAO= T EigKep=  6.92D-04  NBF=   140
 NBsUse=   140 1.00D-06 EigRej= -1.00D+00 NBFU=   140
 Precomputing XC quadrature grid using
 IXCGrd= 4 IRadAn=           5 IRanWt=          -1 IRanGd=           0 AccXCQ= 0.00D+00.
 Defaulting to unpruned grid for atomic number  47.
 Generated NRdTot=       0 NPtTot=           0 NUsed=           0 NTot=          32
 NSgBfM=   151   151   151   151   151 MxSgAt=    12 MxSgA2=    12.
 Leave Link  302 at Sat Sep 12 02:01:45 2026, MaxMem=  6442450944 cpu:               4.0 elap:               4.1
 (Enter C:\G16W\l303.exe)
 DipDrv:  MaxL=1.
 Leave Link  303 at Sat Sep 12 02:01:46 2026, MaxMem=  6442450944 cpu:               0.0 elap:               0.1
 (Enter C:\G16W\l401.exe)
 Initial guess from the checkpoint file:  "pyridine.chk"
 B after Tr=     0.094685   -0.378303    0.074542
         Rot=    0.999992    0.003807    0.001051    0.000280 Ang=   0.45 deg.
 Guess basis will be translated and rotated to current coordinates.
 JPrj=2 DoOrth=T DoCkMO=T.
 Initial guess <Sx>= 0.0000 <Sy>= 0.0000 <Sz>= 0.5000 <S**2>= 0.7518 S= 0.5009
 Leave Link  401 at Sat Sep 12 02:01:47 2026, MaxMem=  6442450944 cpu:               1.0 elap:               1.4
 (Enter C:\G16W\l502.exe)
 Keep R1 and R2 ints in memory in canonical form, NReq=105240913.
 FoFCou: FMM=F IPFlag=           0 FMFlag=           0 FMFlg1=           0
         NFxFlg=           0 DoJE=F BraDBF=F KetDBF=F FulRan=T
         wScrn=  0.000000 ICntrl=       600 IOpCl=  0 I1Cent=           0 NGrid=           0
         NMat0=    1 NMatS0=   9870 NMatT0=    0 NMatD0=    1 NMtDS0=    0 NMtDT0=    0
 Symmetry not used in FoFCou.
 Two-electron integral symmetry not used.
 UHF open shell SCF:
 Using DIIS extrapolation, IDIIS=  1040.
 NGot=  6442450944 LenX=  6344975819 LenY=  6344952577
 Requested convergence on RMS density matrix=1.00D-08 within 128 cycles.
 Requested convergence on MAX density matrix=1.00D-06.
 Requested convergence on             energy=1.00D-06.
 No special actions if energy rises.

 Cycle   1  Pass 1  IDiag  1:
 Defaulting to unpruned grid for atomic number  47.
 Defaulting to unpruned grid for atomic number  47.
 Defaulting to unpruned grid for atomic number  47.
 Defaulting to unpruned grid for atomic number  47.
 Defaulting to unpruned grid for atomic number  47.
 Defaulting to unpruned grid for atomic number  47.
 Defaulting to unpruned grid for atomic number  47.
 Defaulting to unpruned grid for atomic number  47.
 E= -394.754543591377    
 DIIS: error= 1.41D-02 at cycle   1 NSaved=   1.
 NSaved= 1 IEnMin= 1 EnMin= -394.754543591377     IErMin= 1 ErrMin= 1.41D-02
 ErrMax= 1.41D-02  0.00D+00 EMaxC= 1.00D-01 BMatC= 9.74D-02 BMatP= 9.74D-02
 IDIUse=3 WtCom= 8.59D-01 WtEn= 1.41D-01
 Coeff-Com:  0.100D+01
 Coeff-En:   0.100D+01
 Coeff:      0.100D+01
 Gap=     0.108 Goal=   None    Shift=    0.000
 Gap=     0.232 Goal=   None    Shift=    0.000
 GapD=    0.108 DampG=1.000 DampE=0.250 DampFc=0.2500 IDamp=-1.
 Damping current iteration by 2.50D-01
 RMSDP=1.29D-03 MaxDP=5.39D-02              OVMax= 5.22D-02

 Cycle   2  Pass 1  IDiag  1:
 E= -394.755975895681     Delta-E=       -0.001432304304 Rises=F Damp=T
 DIIS: error= 1.05D-02 at cycle   2 NSaved=   2.
 NSaved= 2 IEnMin= 2 EnMin= -394.755975895681     IErMin= 2 ErrMin= 1.05D-02
 ErrMax= 1.05D-02  0.00D+00 EMaxC= 1.00D-01 BMatC= 5.46D-02 BMatP= 9.74D-02
 IDIUse=3 WtCom= 8.95D-01 WtEn= 1.05D-01
 Coeff-Com: -0.283D+01 0.383D+01
 Coeff-En:   0.000D+00 0.100D+01
 Coeff:     -0.253D+01 0.353D+01
 Gap=     0.104 Goal=   None    Shift=    0.000
 Gap=     0.211 Goal=   None    Shift=    0.000
 RMSDP=1.04D-03 MaxDP=3.40D-02 DE=-1.43D-03 OVMax= 2.35D-02

 Cycle   3  Pass 1  IDiag  1:
 E= -394.759324306658     Delta-E=       -0.003348410977 Rises=F Damp=F
 DIIS: error= 3.45D-03 at cycle   3 NSaved=   3.
 NSaved= 3 IEnMin= 3 EnMin= -394.759324306658     IErMin= 3 ErrMin= 3.45D-03
 ErrMax= 3.45D-03  0.00D+00 EMaxC= 1.00D-01 BMatC= 6.29D-03 BMatP= 5.46D-02
 IDIUse=3 WtCom= 9.65D-01 WtEn= 3.45D-02
 Coeff-Com: -0.175D+01 0.232D+01 0.421D+00
 Coeff-En:   0.000D+00 0.000D+00 0.100D+01
 Coeff:     -0.168D+01 0.224D+01 0.441D+00
 Gap=     0.107 Goal=   None    Shift=    0.000
 Gap=     0.209 Goal=   None    Shift=    0.000
 RMSDP=2.98D-04 MaxDP=1.00D-02 DE=-3.35D-03 OVMax= 1.59D-02

 Cycle   4  Pass 1  IDiag  1:
 E= -394.760758804949     Delta-E=       -0.001434498291 Rises=F Damp=F
 DIIS: error= 7.27D-04 at cycle   4 NSaved=   4.
 NSaved= 4 IEnMin= 4 EnMin= -394.760758804949     IErMin= 4 ErrMin= 7.27D-04
 ErrMax= 7.27D-04  0.00D+00 EMaxC= 1.00D-01 BMatC= 2.22D-04 BMatP= 6.29D-03
 IDIUse=3 WtCom= 9.93D-01 WtEn= 7.27D-03
 Coeff-Com: -0.790D+00 0.105D+01 0.241D+00 0.498D+00
 Coeff-En:   0.000D+00 0.000D+00 0.000D+00 0.100D+01
 Coeff:     -0.785D+00 0.104D+01 0.240D+00 0.502D+00
 Gap=     0.108 Goal=   None    Shift=    0.000
 Gap=     0.209 Goal=   None    Shift=    0.000
 RMSDP=7.87D-05 MaxDP=4.08D-03 DE=-1.43D-03 OVMax= 4.18D-03

 Cycle   5  Pass 1  IDiag  1:
 E= -394.760822336425     Delta-E=       -0.000063531477 Rises=F Damp=F
 DIIS: error= 2.89D-04 at cycle   5 NSaved=   5.
 NSaved= 5 IEnMin= 5 EnMin= -394.760822336425     IErMin= 5 ErrMin= 2.89D-04
 ErrMax= 2.89D-04  0.00D+00 EMaxC= 1.00D-01 BMatC= 1.91D-05 BMatP= 2.22D-04
 IDIUse=3 WtCom= 9.97D-01 WtEn= 2.89D-03
 Coeff-Com:  0.283D+00-0.377D+00-0.606D-01 0.174D+00 0.981D+00
 Coeff-En:   0.000D+00 0.000D+00 0.000D+00 0.000D+00 0.100D+01
 Coeff:      0.282D+00-0.376D+00-0.604D-01 0.173D+00 0.981D+00
 Gap=     0.108 Goal=   None    Shift=    0.000
 Gap=     0.209 Goal=   None    Shift=    0.000
 RMSDP=5.21D-05 MaxDP=2.77D-03 DE=-6.35D-05 OVMax= 4.53D-03

 Cycle   6  Pass 1  IDiag  1:
 E= -394.760834529411     Delta-E=       -0.000012192985 Rises=F Damp=F
 DIIS: error= 7.44D-05 at cycle   6 NSaved=   6.
 NSaved= 6 IEnMin= 6 EnMin= -394.760834529411     IErMin= 6 ErrMin= 7.44D-05
 ErrMax= 7.44D-05  0.00D+00 EMaxC= 1.00D-01 BMatC= 1.99D-06 BMatP= 1.91D-05
 IDIUse=1 WtCom= 1.00D+00 WtEn= 0.00D+00
 Coeff-Com:  0.218D+00-0.290D+00-0.546D-01 0.871D-02 0.403D+00 0.715D+00
 Coeff:      0.218D+00-0.290D+00-0.546D-01 0.871D-02 0.403D+00 0.715D+00
 Gap=     0.108 Goal=   None    Shift=    0.000
 Gap=     0.209 Goal=   None    Shift=    0.000
 RMSDP=1.56D-05 MaxDP=8.46D-04 DE=-1.22D-05 OVMax= 1.30D-03

 Cycle   7  Pass 1  IDiag  1:
 E= -394.760835596380     Delta-E=       -0.000001066970 Rises=F Damp=F
 DIIS: error= 2.81D-05 at cycle   7 NSaved=   7.
 NSaved= 7 IEnMin= 7 EnMin= -394.760835596380     IErMin= 7 ErrMin= 2.81D-05
 ErrMax= 2.81D-05  0.00D+00 EMaxC= 1.00D-01 BMatC= 4.25D-07 BMatP= 1.99D-06
 IDIUse=1 WtCom= 1.00D+00 WtEn= 0.00D+00
 Coeff-Com:  0.381D-01-0.507D-01-0.108D-01-0.230D-01 0.155D-01 0.334D+00
 Coeff-Com:  0.697D+00
 Coeff:      0.381D-01-0.507D-01-0.108D-01-0.230D-01 0.155D-01 0.334D+00
 Coeff:      0.697D+00
 Gap=     0.108 Goal=   None    Shift=    0.000
 Gap=     0.209 Goal=   None    Shift=    0.000
 RMSDP=4.62D-06 MaxDP=2.42D-04 DE=-1.07D-06 OVMax= 3.68D-04

 Cycle   8  Pass 1  IDiag  1:
 E= -394.760835760369     Delta-E=       -0.000000163989 Rises=F Damp=F
 DIIS: error= 9.91D-06 at cycle   8 NSaved=   8.
 NSaved= 8 IEnMin= 8 EnMin= -394.760835760369     IErMin= 8 ErrMin= 9.91D-06
 ErrMax= 9.91D-06  0.00D+00 EMaxC= 1.00D-01 BMatC= 4.35D-08 BMatP= 4.25D-07
 IDIUse=1 WtCom= 1.00D+00 WtEn= 0.00D+00
 Coeff-Com: -0.193D-01 0.258D-01 0.430D-02-0.109D-01-0.587D-01 0.531D-02
 Coeff-Com:  0.243D+00 0.810D+00
 Coeff:     -0.193D-01 0.258D-01 0.430D-02-0.109D-01-0.587D-01 0.531D-02
 Coeff:      0.243D+00 0.810D+00
 Gap=     0.108 Goal=   None    Shift=    0.000
 Gap=     0.209 Goal=   None    Shift=    0.000
 RMSDP=2.10D-06 MaxDP=9.88D-05 DE=-1.64D-07 OVMax= 1.50D-04

 Cycle   9  Pass 1  IDiag  1:
 E= -394.760835785026     Delta-E=       -0.000000024657 Rises=F Damp=F
 DIIS: error= 4.31D-06 at cycle   9 NSaved=   9.
 NSaved= 9 IEnMin= 9 EnMin= -394.760835785026     IErMin= 9 ErrMin= 4.31D-06
 ErrMax= 4.31D-06  0.00D+00 EMaxC= 1.00D-01 BMatC= 5.38D-09 BMatP= 4.35D-08
 IDIUse=1 WtCom= 1.00D+00 WtEn= 0.00D+00
 Coeff-Com: -0.981D-02 0.131D-01 0.241D-02-0.163D-03-0.182D-01-0.370D-01
 Coeff-Com: -0.125D-01 0.222D+00 0.840D+00
 Coeff:     -0.981D-02 0.131D-01 0.241D-02-0.163D-03-0.182D-01-0.370D-01
 Coeff:     -0.125D-01 0.222D+00 0.840D+00
 Gap=     0.108 Goal=   None    Shift=    0.000
 Gap=     0.209 Goal=   None    Shift=    0.000
 RMSDP=6.90D-07 MaxDP=1.81D-05 DE=-2.47D-08 OVMax= 4.13D-05

 Cycle  10  Pass 1  IDiag  1:
 E= -394.760835789685     Delta-E=       -0.000000004659 Rises=F Damp=F
 DIIS: error= 2.48D-06 at cycle  10 NSaved=  10.
 NSaved=10 IEnMin=10 EnMin= -394.760835789685     IErMin=10 ErrMin= 2.48D-06
 ErrMax= 2.48D-06  0.00D+00 EMaxC= 1.00D-01 BMatC= 1.24D-09 BMatP= 5.38D-09
 IDIUse=1 WtCom= 1.00D+00 WtEn= 0.00D+00
 Coeff-Com:  0.272D-02-0.363D-02-0.572D-03 0.186D-02 0.909D-02-0.282D-02
 Coeff-Com: -0.402D-01-0.132D+00 0.602D-01 0.111D+01
 Coeff:      0.272D-02-0.363D-02-0.572D-03 0.186D-02 0.909D-02-0.282D-02
 Coeff:     -0.402D-01-0.132D+00 0.602D-01 0.111D+01
 Gap=     0.108 Goal=   None    Shift=    0.000
 Gap=     0.209 Goal=   None    Shift=    0.000
 RMSDP=4.79D-07 MaxDP=1.68D-05 DE=-4.66D-09 OVMax= 3.41D-05

 Cycle  11  Pass 1  IDiag  1:
 E= -394.760835791711     Delta-E=       -0.000000002026 Rises=F Damp=F
 DIIS: error= 1.61D-06 at cycle  11 NSaved=  11.
 NSaved=11 IEnMin=11 EnMin= -394.760835791711     IErMin=11 ErrMin= 1.61D-06
 ErrMax= 1.61D-06  0.00D+00 EMaxC= 1.00D-01 BMatC= 7.60D-10 BMatP= 1.24D-09
 IDIUse=1 WtCom= 1.00D+00 WtEn= 0.00D+00
 Coeff-Com:  0.412D-02-0.549D-02-0.957D-03 0.108D-02 0.987D-02 0.833D-02
 Coeff-Com: -0.194D-01-0.133D+00-0.187D+00 0.620D+00 0.702D+00
 Coeff:      0.412D-02-0.549D-02-0.957D-03 0.108D-02 0.987D-02 0.833D-02
 Coeff:     -0.194D-01-0.133D+00-0.187D+00 0.620D+00 0.702D+00
 Gap=     0.108 Goal=   None    Shift=    0.000
 Gap=     0.209 Goal=   None    Shift=    0.000
 RMSDP=2.77D-07 MaxDP=1.04D-05 DE=-2.03D-09 OVMax= 1.97D-05

 Cycle  12  Pass 1  IDiag  1:
 E= -394.760835792493     Delta-E=       -0.000000000781 Rises=F Damp=F
 DIIS: error= 1.01D-06 at cycle  12 NSaved=  12.
 NSaved=12 IEnMin=12 EnMin= -394.760835792493     IErMin=12 ErrMin= 1.01D-06
 ErrMax= 1.01D-06  0.00D+00 EMaxC= 1.00D-01 BMatC= 2.57D-10 BMatP= 7.60D-10
 IDIUse=1 WtCom= 1.00D+00 WtEn= 0.00D+00
 Coeff-Com:  0.671D-03-0.892D-03-0.191D-03-0.415D-03 0.312D-03 0.595D-02
 Coeff-Com:  0.103D-01-0.156D-02-0.133D+00-0.235D+00 0.376D+00 0.976D+00
 Coeff:      0.671D-03-0.892D-03-0.191D-03-0.415D-03 0.312D-03 0.595D-02
 Coeff:      0.103D-01-0.156D-02-0.133D+00-0.235D+00 0.376D+00 0.976D+00
 Gap=     0.108 Goal=   None    Shift=    0.000
 Gap=     0.209 Goal=   None    Shift=    0.000
 RMSDP=2.47D-07 MaxDP=8.67D-06 DE=-7.81D-10 OVMax= 1.97D-05

 Cycle  13  Pass 1  IDiag  1:
 E= -394.760835792903     Delta-E=       -0.000000000411 Rises=F Damp=F
 DIIS: error= 4.45D-07 at cycle  13 NSaved=  13.
 NSaved=13 IEnMin=13 EnMin= -394.760835792903     IErMin=13 ErrMin= 4.45D-07
 ErrMax= 4.45D-07  0.00D+00 EMaxC= 1.00D-01 BMatC= 6.06D-11 BMatP= 2.57D-10
 IDIUse=1 WtCom= 1.00D+00 WtEn= 0.00D+00
 Coeff-Com: -0.105D-02 0.140D-02 0.227D-03-0.544D-03-0.304D-02-0.110D-03
 Coeff-Com:  0.106D-01 0.419D-01 0.139D-02-0.287D+00-0.583D-01 0.398D+00
 Coeff-Com:  0.896D+00
 Coeff:     -0.105D-02 0.140D-02 0.227D-03-0.544D-03-0.304D-02-0.110D-03
 Coeff:      0.106D-01 0.419D-01 0.139D-02-0.287D+00-0.583D-01 0.398D+00
 Coeff:      0.896D+00
 Gap=     0.108 Goal=   None    Shift=    0.000
 Gap=     0.209 Goal=   None    Shift=    0.000
 RMSDP=1.20D-07 MaxDP=4.20D-06 DE=-4.11D-10 OVMax= 9.73D-06

 Cycle  14  Pass 1  IDiag  1:
 E= -394.760835792989     Delta-E=       -0.000000000086 Rises=F Damp=F
 DIIS: error= 2.05D-07 at cycle  14 NSaved=  14.
 NSaved=14 IEnMin=14 EnMin= -394.760835792989     IErMin=14 ErrMin= 2.05D-07
 ErrMax= 2.05D-07  0.00D+00 EMaxC= 1.00D-01 BMatC= 1.09D-11 BMatP= 6.06D-11
 IDIUse=1 WtCom= 1.00D+00 WtEn= 0.00D+00
 Coeff-Com: -0.420D-03 0.559D-03 0.104D-03-0.384D-05-0.757D-03-0.192D-02
 Coeff-Com: -0.698D-03 0.111D-01 0.427D-01-0.734D-03-0.129D+00-0.196D+00
 Coeff-Com:  0.215D+00 0.106D+01
 Coeff:     -0.420D-03 0.559D-03 0.104D-03-0.384D-05-0.757D-03-0.192D-02
 Coeff:     -0.698D-03 0.111D-01 0.427D-01-0.734D-03-0.129D+00-0.196D+00
 Coeff:      0.215D+00 0.106D+01
 Gap=     0.108 Goal=   None    Shift=    0.000
 Gap=     0.209 Goal=   None    Shift=    0.000
 RMSDP=5.91D-08 MaxDP=2.01D-06 DE=-8.58D-11 OVMax= 3.90D-06

 Cycle  15  Pass 1  IDiag  1:
 E= -394.760835793000     Delta-E=       -0.000000000011 Rises=F Damp=F
 DIIS: error= 7.99D-08 at cycle  15 NSaved=  15.
 NSaved=15 IEnMin=15 EnMin= -394.760835793000     IErMin=15 ErrMin= 7.99D-08
 ErrMax= 7.99D-08  0.00D+00 EMaxC= 1.00D-01 BMatC= 1.65D-12 BMatP= 1.09D-11
 IDIUse=1 WtCom= 1.00D+00 WtEn= 0.00D+00
 Coeff-Com:  0.291D-05-0.409D-05 0.583D-05 0.885D-04 0.175D-03-0.683D-03
 Coeff-Com: -0.186D-02-0.229D-02 0.150D-01 0.435D-01-0.357D-01-0.128D+00
 Coeff-Com: -0.641D-01 0.343D+00 0.831D+00
 Coeff:      0.291D-05-0.409D-05 0.583D-05 0.885D-04 0.175D-03-0.683D-03
 Coeff:     -0.186D-02-0.229D-02 0.150D-01 0.435D-01-0.357D-01-0.128D+00
 Coeff:     -0.641D-01 0.343D+00 0.831D+00
 Gap=     0.108 Goal=   None    Shift=    0.000
 Gap=     0.209 Goal=   None    Shift=    0.000
 RMSDP=1.70D-08 MaxDP=5.24D-07 DE=-1.13D-11 OVMax= 1.17D-06

 Cycle  16  Pass 1  IDiag  1:
 E= -394.760835793013     Delta-E=       -0.000000000012 Rises=F Damp=F
 DIIS: error= 3.19D-08 at cycle  16 NSaved=  16.
 NSaved=16 IEnMin=16 EnMin= -394.760835793013     IErMin=16 ErrMin= 3.19D-08
 ErrMax= 3.19D-08  0.00D+00 EMaxC= 1.00D-01 BMatC= 4.08D-13 BMatP= 1.65D-12
 IDIUse=1 WtCom= 1.00D+00 WtEn= 0.00D+00
 Coeff-Com:  0.688D-04-0.917D-04-0.135D-04 0.438D-04 0.198D-03-0.127D-04
 Coeff-Com: -0.725D-03-0.277D-02 0.359D-04 0.204D-01 0.391D-02-0.281D-01
 Coeff-Com: -0.639D-01-0.118D-01 0.393D+00 0.690D+00
 Coeff:      0.688D-04-0.917D-04-0.135D-04 0.438D-04 0.198D-03-0.127D-04
 Coeff:     -0.725D-03-0.277D-02 0.359D-04 0.204D-01 0.391D-02-0.281D-01
 Coeff:     -0.639D-01-0.118D-01 0.393D+00 0.690D+00
 Gap=     0.108 Goal=   None    Shift=    0.000
 Gap=     0.209 Goal=   None    Shift=    0.000
 RMSDP=5.81D-09 MaxDP=1.37D-07 DE=-1.22D-11 OVMax= 4.52D-07

 SCF Done:  E(UPBE1PBE) =  -394.760835793     A.U. after   16 cycles
            NFock= 16  Conv=0.58D-08     -V/T= 2.3086
 <Sx>= 0.0000 <Sy>= 0.0000 <Sz>= 0.5000 <S**2>= 0.7515 S= 0.5008
 <L.S>= 0.000000000000E+00
 KE= 3.016679877239D+02 PE=-1.522985171564D+03 EE= 5.109627219257D+02
 Annihilation of the first spin contaminant:
 S**2 before annihilation     0.7515,   after     0.7500
 Leave Link  502 at Sat Sep 12 02:02:42 2026, MaxMem=  6442450944 cpu:              55.0 elap:              54.4
 (Enter C:\G16W\l508.exe)
 QCSCF skips out because SCF is already converged.
 Leave Link  508 at Sat Sep 12 02:02:42 2026, MaxMem=  6442450944 cpu:               0.0 elap:               0.1
 (Enter C:\G16W\l601.exe)
 Copying SCF densities to generalized density rwf, IOpCl= 1 IROHF=0.

 **********************************************************************

            Population analysis using the SCF Density.

 **********************************************************************

 Alpha  occ. eigenvalues --  -14.41835 -10.28753 -10.28748 -10.27352 -10.26312
 Alpha  occ. eigenvalues --  -10.26308  -3.72939  -2.30974  -2.30945  -2.30763
 Alpha  occ. eigenvalues --   -0.99555  -0.84576  -0.80147  -0.67118  -0.66254
 Alpha  occ. eigenvalues --   -0.56898  -0.52318  -0.49900  -0.46353  -0.44430
 Alpha  occ. eigenvalues --   -0.44140  -0.39672  -0.33216  -0.32376  -0.30526
 Alpha  occ. eigenvalues --   -0.30497  -0.30402  -0.30191  -0.29766  -0.28122
 Alpha  occ. eigenvalues --   -0.15219
 Alpha virt. eigenvalues --   -0.04399  -0.03022   0.00539   0.00906   0.03410
 Alpha virt. eigenvalues --    0.07063   0.10347   0.10950   0.12970   0.13478
 Alpha virt. eigenvalues --    0.15626   0.16126   0.24626   0.27228   0.29523
 Alpha virt. eigenvalues --    0.29626   0.32962   0.33482   0.34884   0.36458
 Alpha virt. eigenvalues --    0.39022   0.39158   0.40880   0.44798   0.46123
 Alpha virt. eigenvalues --    0.46870   0.47430   0.47454   0.48717   0.51870
 Alpha virt. eigenvalues --    0.52913   0.55052   0.56113   0.56813   0.60228
 Alpha virt. eigenvalues --    0.63063   0.64694   0.65075   0.65324   0.68098
 Alpha virt. eigenvalues --    0.68203   0.71170   0.74864   0.74962   0.77021
 Alpha virt. eigenvalues --    0.79964   0.83936   0.93200   1.00307   1.00807
 Alpha virt. eigenvalues --    1.11565   1.14693   1.15330   1.22529   1.24595
 Alpha virt. eigenvalues --    1.25247   1.27068   1.32537   1.34681   1.35868
 Alpha virt. eigenvalues --    1.53134   1.65551   1.65747   1.70328   1.74151
 Alpha virt. eigenvalues --    1.74227   1.77174   1.77191   1.78616   1.79722
 Alpha virt. eigenvalues --    1.85521   1.91718   1.93515   1.95788   1.98031
 Alpha virt. eigenvalues --    1.98687   2.02489   2.07694   2.11506   2.13562
 Alpha virt. eigenvalues --    2.20563   2.25338   2.29263   2.34821   2.40298
 Alpha virt. eigenvalues --    2.44661   2.45862   2.51165   2.60244   2.62747
 Alpha virt. eigenvalues --    2.64475   2.64478   2.64546   2.64571   2.64822
 Alpha virt. eigenvalues --    2.64860   2.66169   2.72499   2.73655   2.74068
 Alpha virt. eigenvalues --    2.82990   2.90883   2.97040   3.03625   3.15187
 Alpha virt. eigenvalues --    3.16375   3.35459   3.69736  53.82918
  Beta  occ. eigenvalues --  -14.41681 -10.28751 -10.28746 -10.27348 -10.26311
  Beta  occ. eigenvalues --  -10.26307  -3.72820  -2.30910  -2.30893  -2.30755
  Beta  occ. eigenvalues --   -0.99428  -0.84529  -0.80122  -0.67083  -0.66205
  Beta  occ. eigenvalues --   -0.56826  -0.52271  -0.49879  -0.46336  -0.44340
  Beta  occ. eigenvalues --   -0.44015  -0.39642  -0.32998  -0.31888  -0.30025
  Beta  occ. eigenvalues --   -0.29941  -0.29849  -0.29635  -0.29589  -0.27406
  Beta virt. eigenvalues --   -0.06529  -0.04234  -0.02996   0.03174   0.03724
  Beta virt. eigenvalues --    0.05186   0.07818   0.10472   0.12416   0.13142
  Beta virt. eigenvalues --    0.14291   0.16031   0.16549   0.24928   0.27327
  Beta virt. eigenvalues --    0.29665   0.29697   0.33786   0.34895   0.37505
  Beta virt. eigenvalues --    0.38558   0.39334   0.40125   0.41505   0.45646
  Beta virt. eigenvalues --    0.46567   0.47481   0.48237   0.49024   0.49497
  Beta virt. eigenvalues --    0.52863   0.53212   0.55971   0.56725   0.57449
  Beta virt. eigenvalues --    0.60350   0.63326   0.64736   0.65379   0.66028
  Beta virt. eigenvalues --    0.68194   0.68702   0.71195   0.74946   0.75110
  Beta virt. eigenvalues --    0.77075   0.80101   0.84101   0.93433   1.00356
  Beta virt. eigenvalues --    1.00833   1.11852   1.14720   1.15403   1.22537
  Beta virt. eigenvalues --    1.24605   1.25308   1.27276   1.32550   1.34709
  Beta virt. eigenvalues --    1.35946   1.53244   1.65571   1.65781   1.70361
  Beta virt. eigenvalues --    1.74172   1.74249   1.77191   1.77218   1.78639
  Beta virt. eigenvalues --    1.79819   1.85598   1.91762   1.93553   1.95881
  Beta virt. eigenvalues --    1.98049   1.98701   2.02688   2.08658   2.11525
  Beta virt. eigenvalues --    2.13578   2.20687   2.25380   2.29276   2.34832
  Beta virt. eigenvalues --    2.40343   2.44723   2.45916   2.51301   2.60263
  Beta virt. eigenvalues --    2.62896   2.64461   2.64465   2.64574   2.64600
  Beta virt. eigenvalues --    2.64906   2.64956   2.66281   2.72534   2.73663
  Beta virt. eigenvalues --    2.74094   2.83099   2.90922   2.97124   3.03722
  Beta virt. eigenvalues --    3.15219   3.16462   3.35590   3.69807  53.83067
          Condensed to atoms (all electrons):
               1          2          3          4          5          6
     1  C    4.855468   0.409232  -0.009998  -0.044839  -0.010141   0.409464
     2  C    0.409232   4.985766   0.436190  -0.026008  -0.078301   0.017611
     3  C   -0.009998   0.436190   4.741265   0.484711  -0.051913  -0.078179
     4  N   -0.044839  -0.026008   0.484711   6.379443   0.483861  -0.026156
     5  C   -0.010141  -0.078301  -0.051913   0.483861   4.743007   0.437063
     6  C    0.409464   0.017611  -0.078179  -0.026156   0.437063   4.983546
     7  H    0.439641  -0.057336   0.010181  -0.000248   0.010211  -0.057256
     8  H   -0.054149   0.426687  -0.045170   0.005154   0.000322   0.010933
     9  H    0.007875  -0.072689   0.426563  -0.052695   0.007694  -0.000050
    10  H    0.007852  -0.000061   0.007659  -0.053067   0.425942  -0.072235
    11  H   -0.054160   0.010940   0.000317   0.005151  -0.045160   0.426726
    12  Ag  -0.000650   0.005437  -0.010571   0.040621  -0.011392   0.005540
               7          8          9         10         11         12
     1  C    0.439641  -0.054149   0.007875   0.007852  -0.054160  -0.000650
     2  C   -0.057336   0.426687  -0.072689  -0.000061   0.010940   0.005437
     3  C    0.010181  -0.045170   0.426563   0.007659   0.000317  -0.010571
     4  N   -0.000248   0.005154  -0.052695  -0.053067   0.005151   0.040621
     5  C    0.010211   0.000322   0.007694   0.425942  -0.045160  -0.011392
     6  C   -0.057256   0.010933  -0.000050  -0.072235   0.426726   0.005540
     7  H    0.640508  -0.011067  -0.000300  -0.000300  -0.011064   0.000146
     8  H   -0.011067   0.639603  -0.006217   0.000092  -0.000175  -0.000305
     9  H   -0.000300  -0.006217   0.648468   0.000055   0.000091  -0.001859
    10  H   -0.000300   0.000092   0.000055   0.648167  -0.006215  -0.001426
    11  H   -0.011064  -0.000175   0.000091  -0.006215   0.639601  -0.000297
    12  Ag   0.000146  -0.000305  -0.001859  -0.001426  -0.000297  19.078530
          Atomic-Atomic Spin Densities.
               1          2          3          4          5          6
     1  C    0.008439  -0.000655  -0.000761  -0.000409  -0.000722  -0.000859
     2  C   -0.000655   0.000678   0.002521   0.000811  -0.000132   0.000129
     3  C   -0.000761   0.002521   0.001756   0.000384   0.000929  -0.000098
     4  N   -0.000409   0.000811   0.000384   0.087387   0.000685   0.000828
     5  C   -0.000722  -0.000132   0.000929   0.000685   0.002035   0.002829
     6  C   -0.000859   0.000129  -0.000098   0.000828   0.002829   0.000328
     7  H   -0.000416   0.000103   0.000019   0.000018   0.000019   0.000110
     8  H   -0.000866  -0.000710  -0.000332  -0.000009   0.000063   0.000093
     9  H   -0.000365  -0.001430  -0.002892  -0.003298   0.000186   0.000007
    10  H   -0.000376  -0.000003   0.000197  -0.003319  -0.003214  -0.001342
    11  H   -0.000899   0.000083   0.000065  -0.000009  -0.000384  -0.000644
    12  Ag  -0.000753  -0.001130  -0.004096  -0.055476  -0.004785  -0.001141
               7          8          9         10         11         12
     1  C   -0.000416  -0.000866  -0.000365  -0.000376  -0.000899  -0.000753
     2  C    0.000103  -0.000710  -0.001430  -0.000003   0.000083  -0.001130
     3  C    0.000019  -0.000332  -0.002892   0.000197   0.000065  -0.004096
     4  N    0.000018  -0.000009  -0.003298  -0.003319  -0.000009  -0.055476
     5  C    0.000019   0.000063   0.000186  -0.003214  -0.000384  -0.004785
     6  C    0.000110   0.000093   0.000007  -0.001342  -0.000644  -0.001141
     7  H   -0.000138   0.000082   0.000007   0.000007   0.000082   0.000012
     8  H    0.000082   0.001836   0.000479   0.000009   0.000015   0.000252
     9  H    0.000007   0.000479   0.005211   0.000088   0.000009   0.007499
    10  H    0.000007   0.000009   0.000088   0.005176   0.000480   0.008122
    11  H    0.000082   0.000015   0.000009   0.000480   0.001852   0.000271
    12  Ag   0.000012   0.000252   0.007499   0.008122   0.000271   1.013495
 Mulliken charges and spin densities:
               1          2
     1  C    0.044405   0.001359
     2  C   -0.057468   0.000266
     3  C    0.088944  -0.002308
     4  N   -0.195926   0.027593
     5  C    0.088806  -0.002490
     6  C   -0.057007   0.000240
     7  H    0.036884  -0.000093
     8  H    0.034292   0.000912
     9  H    0.043063   0.005502
    10  H    0.043537   0.005827
    11  H    0.034245   0.000922
    12  Ag  -0.103774   0.962270
 Sum of Mulliken charges =   0.00000   1.00000
 Mulliken charges and spin densities with hydrogens summed into heavy atoms:
               1          2
     1  C    0.081289   0.001266
     2  C   -0.023176   0.001178
     3  C    0.132007   0.003194
     4  N   -0.195926   0.027593
     5  C    0.132343   0.003337
     6  C   -0.022762   0.001162
    12  Ag  -0.103774   0.962270
 Electronic spatial extent (au):  <R**2>=           1687.3069
 Charge=              0.0000 electrons
 Dipole moment (field-independent basis, Debye):
    X=             -1.1836    Y=              4.6835    Z=             -0.6875  Tot=              4.8794
 Quadrupole moment (field-independent basis, Debye-Ang):
   XX=            -50.9086   YY=            -71.5570   ZZ=            -58.9655
   XY=              5.5252   XZ=             -0.7746   YZ=              4.1324
 Traceless Quadrupole moment (field-independent basis, Debye-Ang):
   XX=              9.5684   YY=            -11.0800   ZZ=              1.5116
   XY=              5.5252   XZ=             -0.7746   YZ=              4.1324
 Octapole moment (field-independent basis, Debye-Ang**2):
  XXX=            -68.9800  YYY=            366.8276  ZZZ=            -47.8567  XYY=            -47.3684
  XXY=             95.3125  XXZ=            -16.8294  XZZ=            -24.0669  YZZ=             95.3145
  YYZ=            -34.2538  XYZ=              4.4879
 Hexadecapole moment (field-independent basis, Debye-Ang**3):
 XXXX=           -407.5639 YYYY=          -2794.3618 ZZZZ=           -145.5166 XXXY=            267.6363
 XXXZ=            -51.4303 YYYX=            371.6562 YYYZ=            280.0782 ZZZX=            -51.7446
 ZZZY=            191.7639 XXYY=           -486.7810 XXZZ=           -102.1909 YYZZ=           -446.6071
 XXYZ=             69.0849 YYXZ=            -38.5785 ZZXY=             92.5075
 N-N= 3.155936261211D+02 E-N=-1.522985172971D+03  KE= 3.016679877239D+02
                          Isotropic Fermi Contact Couplings
        Atom                 a.u.       MegaHertz       Gauss      10(-4) cm-1
     1  C(13)              0.00131       1.47040       0.52467       0.49047
     2  C(13)              0.00125       1.40484       0.50128       0.46860
     3  C(13)             -0.00217      -2.44425      -0.87217      -0.81531
     4  N(14)              0.12096      39.08326      13.94588      13.03677
     5  C(13)             -0.00213      -2.38930      -0.85256      -0.79698
     6  C(13)              0.00103       1.15883       0.41350       0.38654
     7  H(1)              -0.00005      -0.22068      -0.07875      -0.07361
     8  H(1)               0.00022       0.99246       0.35413       0.33105
     9  H(1)               0.00015       0.67942       0.24244       0.22663
    10  H(1)               0.00012       0.53504       0.19091       0.17847
    11  H(1)               0.00023       1.01170       0.36100       0.33747
    12  Ag(107             0.00030      -0.05458      -0.01947      -0.01820
 --------------------------------------------------------
       Center         ----  Spin Dipole Couplings  ----
                      3XX-RR        3YY-RR        3ZZ-RR
 --------------------------------------------------------
     1   Atom       -0.001768      0.000935      0.000833
     2   Atom       -0.001358      0.003525     -0.002167
     3   Atom        0.000631      0.002545     -0.003176
     4   Atom       -0.038192      0.077898     -0.039706
     5   Atom        0.004599     -0.000544     -0.004055
     6   Atom       -0.000560      0.002644     -0.002083
     7   Atom       -0.000517      0.001037     -0.000520
     8   Atom       -0.000632      0.001479     -0.000846
     9   Atom       -0.000939      0.003559     -0.002619
    10   Atom        0.001723      0.000908     -0.002631
    11   Atom        0.000163      0.000680     -0.000843
    12   Atom        0.018108     -0.026312      0.008203
 --------------------------------------------------------
                        XY            XZ            YZ
 --------------------------------------------------------
     1   Atom       -0.000767     -0.000117      0.000300
     2   Atom       -0.000423      0.000307     -0.001209
     3   Atom        0.003429      0.005562      0.000899
     4   Atom       -0.033533     -0.002069      0.006834
     5   Atom       -0.002055     -0.004875     -0.002436
     6   Atom       -0.001785      0.000450     -0.001407
     7   Atom       -0.000440      0.000000     -0.000008
     8   Atom        0.000369     -0.000012     -0.000236
     9   Atom        0.002136     -0.000463     -0.001512
    10   Atom       -0.003116      0.001432     -0.001279
    11   Atom       -0.001099      0.000163     -0.000252
    12   Atom        0.010976     -0.003602      0.016436
 --------------------------------------------------------


 ---------------------------------------------------------------------------------
              Anisotropic Spin Dipole Couplings in Principal Axis System
 ---------------------------------------------------------------------------------

       Atom             a.u.   MegaHertz   Gauss  10(-4) cm-1        Axes

              Baa    -0.0020    -0.264    -0.094    -0.088  0.9672  0.2538  0.0131
     1 C(13)  Bbb     0.0006     0.085     0.030     0.028  0.1248 -0.5194  0.8454
              Bcc     0.0013     0.180     0.064     0.060 -0.2214  0.8160  0.5340
 
              Baa    -0.0025    -0.330    -0.118    -0.110 -0.1996  0.1805  0.9631
     2 C(13)  Bbb    -0.0014    -0.182    -0.065    -0.061  0.9756  0.1285  0.1781
              Bcc     0.0038     0.512     0.183     0.171 -0.0917  0.9751 -0.2017
 
              Baa    -0.0073    -0.983    -0.351    -0.328 -0.6068  0.1395  0.7825
     3 C(13)  Bbb     0.0002     0.033     0.012     0.011 -0.4093  0.7891 -0.4580
              Bcc     0.0071     0.951     0.339     0.317  0.6814  0.5982  0.4218
 
              Baa    -0.0472    -1.820    -0.649    -0.607  0.9658  0.2572  0.0322
     4 N(14)  Bbb    -0.0401    -1.547    -0.552    -0.516 -0.0166 -0.0625  0.9979
              Bcc     0.0873     3.367     1.201     1.123 -0.2586  0.9643  0.0561
 
              Baa    -0.0076    -1.018    -0.363    -0.340  0.3977  0.4013  0.8251
     5 C(13)  Bbb     0.0007     0.092     0.033     0.031 -0.0457  0.9068 -0.4190
              Bcc     0.0069     0.927     0.331     0.309  0.9164 -0.1289 -0.3790
 
              Baa    -0.0025    -0.332    -0.118    -0.111  0.0303  0.2749  0.9610
     6 C(13)  Bbb    -0.0013    -0.179    -0.064    -0.060  0.9210  0.3659 -0.1337
              Bcc     0.0038     0.511     0.182     0.170 -0.3884  0.8892 -0.2421
 
              Baa    -0.0006    -0.338    -0.121    -0.113  0.9668  0.2549  0.0163
     7 H(1)   Bbb    -0.0005    -0.277    -0.099    -0.092 -0.0170  0.0004  0.9999
              Bcc     0.0012     0.615     0.219     0.205 -0.2548  0.9670 -0.0047
 
              Baa    -0.0009    -0.466    -0.166    -0.155 -0.1350  0.1197  0.9836
     8 H(1)   Bbb    -0.0007    -0.369    -0.132    -0.123  0.9769 -0.1498  0.1523
              Bcc     0.0016     0.835     0.298     0.278  0.1656  0.9814 -0.0967
 
              Baa    -0.0030    -1.585    -0.566    -0.529 -0.0230  0.2327  0.9723
     9 H(1)   Bbb    -0.0018    -0.949    -0.339    -0.316  0.9332 -0.3439  0.1044
              Bcc     0.0047     2.534     0.904     0.845  0.3587  0.9097 -0.2093
 
              Baa    -0.0031    -1.664    -0.594    -0.555 -0.1766  0.1712  0.9693
    10 H(1)   Bbb    -0.0018    -0.974    -0.348    -0.325  0.6623  0.7491 -0.0117
              Bcc     0.0049     2.638     0.941     0.880  0.7281 -0.6399  0.2457
 
              Baa    -0.0009    -0.472    -0.168    -0.157  0.0484  0.1918  0.9802
    11 H(1)   Bbb    -0.0007    -0.375    -0.134    -0.125  0.7869  0.5971 -0.1557
              Bcc     0.0016     0.847     0.302     0.282 -0.6152  0.7789 -0.1220
 
              Baa    -0.0354     0.767     0.274     0.256 -0.2108  0.9088 -0.3602
    12 Ag(107 Bbb     0.0147    -0.319    -0.114    -0.106 -0.1170  0.3424  0.9323
              Bcc     0.0207    -0.449    -0.160    -0.150  0.9705  0.2386  0.0342
 

 ---------------------------------------------------------------------------------

 No NMR shielding tensors so no spin-rotation constants.
 Leave Link  601 at Sat Sep 12 02:02:43 2026, MaxMem=  6442450944 cpu:               1.0 elap:               1.4
 (Enter C:\G16W\l9999.exe)
 Unable to Open any file for archive entry.
 1|1|UNPC-DESKTOP-2JKEGCA|SP|UPBE1PBE|def2SVP|C5H5Ag1N1(2)|JHKIM|12-Sep
 -2026|0||#P PBE1PBE/Def2SVP EmpiricalDispersion=GD3BJ SP SCF=(XQC,MaxC
 ycle=128) NoSymm Guess=Read||pyridine t=0.250 dz=+0.40 class=toface||0
 ,2|C,0,-0.310236,1.144474,0.060853|C,0,1.025069,0.773724,0.057432|C,0,
 1.330545,-0.577468,-0.015216|N,0,0.414071,-1.527525,-0.081221|C,0,-0.8
 57586,-1.167297,-0.077554|C,0,-1.276374,0.153351,-0.008138|H,0,-0.5926
 51,2.186315,0.11625|H,0,1.809285,1.513335,0.109757|H,0,2.357787,-0.918
 862,-0.021028|H,0,-1.572447,-1.978288,-0.13302|H,0,-2.327462,0.398241,
 -0.008116|Ag,0,1.00985974,-4.00687507,0.72819955||Version=EM64W-G16Rev
 C.01|HF=-394.7608358|S2=0.751543|S2-1=0.|S2A=0.750002|RMSD=5.810e-009|
 Dipole=-0.4656689,1.8426304,-0.2704813|Quadrupole=7.1138891,-8.2376917
 ,1.1238027,4.107867,-0.5758721,3.0723632|PG=C01 [X(C5H5Ag1N1)]||@
 The archive entry for this job was punched.


 KNOWING HOW CONTENTED, FREE, AND JOYFUL IS LIFE IN
 THE REALMS OF SCIENCE, ONE FERVENTLY WISHES THAT
 MANY WOULD ENTER HER PORTALS.
   --  DMITRI IVANOVICH MENDELEEV
 "FIRST PRINCIPLES OF CHEMISTRY", LONGMANS, GREEN,
 AND CO.  LONDON, 1891
 Job cpu time:       0 days  0 hours  1 minutes  4.0 seconds.
 Elapsed time:       0 days  0 hours  1 minutes  2.6 seconds.
 File lengths (MBytes):  RWF=     15 Int=      0 D2E=      0 Chk=      3 Scr=      1
 Normal termination of Gaussian 16 at Sat Sep 12 02:02:44 2026.
