 Entering Gaussian System, Link 0=C:\G16W\g16.exe
 Input=pyridine_t0_z1.gjf
 Output=pyridine_t0_z1.out
 Initial command:
 C:\G16W\l1.exe ".\Gau-127316.inp" "pyridine_t0_z1.out" /scrdir=".\"
 Entering Link 1 = C:\G16W\l1.exe PID=    111300.
  
 Copyright (c) 1988-2019, Gaussian, Inc.  All Rights Reserved.
  
 This is part of the Gaussian(R) 16 program.  It is based on
 the Gaussian(R) 09 system (copyright 2009, Gaussian, Inc.),
 the Gaussian(R) 03 system (copyright 2003, Gaussian, Inc.),
 the Gaussian(R) 98 system (copyright 1998, Gaussian, Inc.),
 the Gaussian(R) 94 system (copyright 1995, Gaussian, Inc.),
 the Gaussian 92(TM) system (copyright 1992, Gaussian, Inc.),
 the Gaussian 90(TM) system (copyright 1990, Gaussian, Inc.),
 the Gaussian 88(TM) system (copyright 1988, Gaussian, Inc.),
 the Gaussian 86(TM) system (copyright 1986, Carnegie Mellon
 University), and the Gaussian 82(TM) system (copyright 1983,
 Carnegie Mellon University). Gaussian is a federally registered
 trademark of Gaussian, Inc.
  
 This software contains proprietary and confidential information,
 including trade secrets, belonging to Gaussian, Inc.
  
 This software is provided under written license and may be
 used, copied, transmitted, or stored only in accord with that
 written license.
  
 The following legend is applicable only to US Government
 contracts under FAR:
  
                    RESTRICTED RIGHTS LEGEND
  
 Use, reproduction and disclosure by the US Government is
 subject to restrictions as set forth in subparagraphs (a)
 and (c) of the Commercial Computer Software - Restricted
 Rights clause in FAR 52.227-19.
  
 Gaussian, Inc.
 340 Quinnipiac St., Bldg. 40, Wallingford CT 06492
  
  
 ---------------------------------------------------------------
 Warning -- This program may not be used in any manner that
 competes with the business of Gaussian, Inc. or will provide
 assistance to any competitor of Gaussian, Inc.  The licensee
 of this program is prohibited from giving any competitor of
 Gaussian, Inc. access to this program.  By using this program,
 the user acknowledges that Gaussian, Inc. is engaged in the
 business of creating and licensing software in the field of
 computational chemistry and represents and warrants to the
 licensee that it is not a competitor of Gaussian, Inc. and that
 it will not use this program in any manner prohibited above.
 ---------------------------------------------------------------
  

 Cite this work as:
 Gaussian 16, Revision C.01,
 M. J. Frisch, G. W. Trucks, H. B. Schlegel, G. E. Scuseria, 
 M. A. Robb, J. R. Cheeseman, G. Scalmani, V. Barone, 
 G. A. Petersson, H. Nakatsuji, X. Li, M. Caricato, A. V. Marenich, 
 J. Bloino, B. G. Janesko, R. Gomperts, B. Mennucci, H. P. Hratchian, 
 J. V. Ortiz, A. F. Izmaylov, J. L. Sonnenberg, D. Williams-Young, 
 F. Ding, F. Lipparini, F. Egidi, J. Goings, B. Peng, A. Petrone, 
 T. Henderson, D. Ranasinghe, V. G. Zakrzewski, J. Gao, N. Rega, 
 G. Zheng, W. Liang, M. Hada, M. Ehara, K. Toyota, R. Fukuda, 
 J. Hasegawa, M. Ishida, T. Nakajima, Y. Honda, O. Kitao, H. Nakai, 
 T. Vreven, K. Throssell, J. A. Montgomery, Jr., J. E. Peralta, 
 F. Ogliaro, M. J. Bearpark, J. J. Heyd, E. N. Brothers, K. N. Kudin, 
 V. N. Staroverov, T. A. Keith, R. Kobayashi, J. Normand, 
 K. Raghavachari, A. P. Rendell, J. C. Burant, S. S. Iyengar, 
 J. Tomasi, M. Cossi, J. M. Millam, M. Klene, C. Adamo, R. Cammi, 
 J. W. Ochterski, R. L. Martin, K. Morokuma, O. Farkas, 
 J. B. Foresman, and D. J. Fox, Gaussian, Inc., Wallingford CT, 2019.
 
 ******************************************
 Gaussian 16:  EM64W-G16RevC.01 30-May-2019
                12-Sep-2026 
 ******************************************
 %Chk=pyridine.chk
 %NProcShared=8
 Will use up to    8 processors via shared memory.
 %Mem=48GB
 ----------------------------------------------------------------------
 #P PBE1PBE/Def2SVP EmpiricalDispersion=GD3BJ SP SCF=(XQC,MaxCycle=128)
  NoSymm Guess=Read
 ----------------------------------------------------------------------
 1/38=1,172=1/1;
 2/12=2,15=1,17=6,18=5,40=1/2;
 3/5=43,7=101,11=2,25=1,30=1,74=-13,116=-2,124=41/1,2,3;
 4/5=1/1;
 5/5=2,7=128,8=3,13=1,38=6/2,8;
 6/7=2,8=2,9=2,10=2,28=1/1;
 99/5=1,9=1/99;
 Leave Link    1 at Sat Sep 12 01:59:30 2026, MaxMem=  6442450944 cpu:               0.0 elap:               0.2
 (Enter C:\G16W\l101.exe)
 --------------------------------------
 pyridine t=0.000 dz=+0.40 class=toface
 --------------------------------------
 Symbolic Z-matrix:
 Charge =  0 Multiplicity = 2
 C                    -0.31024   1.14447   0.06085 
 C                     1.02507   0.77372   0.05743 
 C                     1.33055  -0.57747  -0.01522 
 N                     0.41407  -1.52753  -0.08122 
 C                    -0.85759  -1.1673   -0.07755 
 C                    -1.27637   0.15335  -0.00814 
 H                    -0.59265   2.18632   0.11625 
 H                     1.80929   1.51334   0.10976 
 H                     2.35779  -0.91886  -0.02103 
 H                    -1.57245  -1.97829  -0.13302 
 H                    -2.32746   0.39824  -0.00812 
 Ag                    1.11955  -4.13005  -0.2196 
 
 ITRead=  0  0  0  0  0  0  0  0  0  0  0  0
 MicOpt= -1 -1 -1 -1 -1 -1 -1 -1 -1 -1 -1 -1
 NAtoms=     12 NQM=       12 NQMF=       0 NMMI=      0 NMMIF=      0
                NMic=       0 NMicF=      0.
                    Isotopes and Nuclear Properties:
 (Nuclear quadrupole moments (NQMom) in fm**2, nuclear magnetic moments (NMagM)
  in nuclear magnetons)

  Atom         1           2           3           4           5           6           7           8           9          10
 IAtWgt=          12          12          12          14          12          12           1           1           1           1
 AtmWgt=  12.0000000  12.0000000  12.0000000  14.0030740  12.0000000  12.0000000   1.0078250   1.0078250   1.0078250   1.0078250
 NucSpn=           0           0           0           2           0           0           1           1           1           1
 AtZEff=   0.0000000   0.0000000   0.0000000   0.0000000   0.0000000   0.0000000   0.0000000   0.0000000   0.0000000   0.0000000
 NQMom=    0.0000000   0.0000000   0.0000000   2.0440000   0.0000000   0.0000000   0.0000000   0.0000000   0.0000000   0.0000000
 NMagM=    0.0000000   0.0000000   0.0000000   0.4037610   0.0000000   0.0000000   2.7928460   2.7928460   2.7928460   2.7928460
 AtZNuc=   6.0000000   6.0000000   6.0000000   7.0000000   6.0000000   6.0000000   1.0000000   1.0000000   1.0000000   1.0000000

  Atom        11          12
 IAtWgt=           1         107
 AtmWgt=   1.0078250 106.9050900
 NucSpn=           1           1
 AtZEff=   0.0000000   0.0000000
 NQMom=    0.0000000   0.0000000
 NMagM=    2.7928460  -0.1135700
 AtZNuc=   1.0000000  47.0000000
 Leave Link  101 at Sat Sep 12 01:59:31 2026, MaxMem=  6442450944 cpu:               0.0 elap:               0.2
 (Enter C:\G16W\l202.exe)
                          Input orientation:                          
 ---------------------------------------------------------------------
 Center     Atomic      Atomic             Coordinates (Angstroms)
 Number     Number       Type             X           Y           Z
 ---------------------------------------------------------------------
      1          6           0       -0.310236    1.144474    0.060853
      2          6           0        1.025069    0.773724    0.057432
      3          6           0        1.330545   -0.577468   -0.015216
      4          7           0        0.414071   -1.527525   -0.081221
      5          6           0       -0.857586   -1.167297   -0.077554
      6          6           0       -1.276374    0.153351   -0.008138
      7          1           0       -0.592651    2.186315    0.116250
      8          1           0        1.809285    1.513335    0.109757
      9          1           0        2.357787   -0.918862   -0.021028
     10          1           0       -1.572447   -1.978288   -0.133020
     11          1           0       -2.327462    0.398241   -0.008116
     12         47           0        1.119547   -4.130054   -0.219602
 ---------------------------------------------------------------------
                    Distance matrix (angstroms):
                    1          2          3          4          5
     1  C    0.000000
     2  C    1.385823   0.000000
     3  C    2.379713   1.387196   0.000000
     4  N    2.772072   2.385014   1.321699   0.000000
     5  C    2.379713   2.707429   2.267091   1.321699   0.000000
     6  C    1.385824   2.384492   2.707429   2.385014   1.387196
     7  H    1.080861   2.148462   3.369638   3.852933   3.369639
     8  H    2.151934   1.079239   2.148550   3.351108   3.785905
     9  H    3.373782   2.155723   1.082502   2.037677   3.225452
    10  H    3.373782   3.789054   3.225451   2.037676   1.082501
    11  H    2.151934   3.374129   3.785905   3.351108   2.148550
    12  Ag   5.472073   4.912506   3.564710   2.700000   3.564710
                    6          7          8          9         10
     6  C    0.000000
     7  H    2.148463   0.000000
     8  H    3.374129   2.494442   0.000000
     9  H    3.789054   4.285563   2.496706   0.000000
    10  H    2.155723   4.285563   4.866876   4.072059   0.000000
    11  H    1.079239   2.494443   4.286024   4.866876   2.496706
    12  Ag   4.912506   6.552933   5.694915   3.447379   3.447379
                   11         12
    11  H    0.000000
    12  Ag   5.694914   0.000000
 Symmetry turned off by external request.
 Stoichiometry    C5H5AgN(2)
 Framework group  C1[X(C5H5AgN)]
 Deg. of freedom    30
 Full point group                 C1      NOp   1
 Rotational constants (GHZ):           6.1209387           0.6025973           0.5485895
 Leave Link  202 at Sat Sep 12 01:59:31 2026, MaxMem=  6442450944 cpu:               0.0 elap:               0.1
 (Enter C:\G16W\l301.exe)
 Standard basis: def2SVP (5D, 7F)
 Ernie: Thresh=  0.10000D-02 Tol=  0.10000D-05 Strict=F.
   140 basis functions,   250 primitive gaussians,   151 cartesian basis functions
    31 alpha electrons       30 beta electrons
       nuclear repulsion energy       313.9579292367 Hartrees.
 IExCor= 1009 DFT=T Ex+Corr=PBE1PBE ExCW=0 ScaHFX=  0.250000
 ScaDFX=  0.750000  0.750000  1.000000  1.000000 ScalE2=  1.000000  1.000000
 IRadAn=      5 IRanWt=     -1 IRanGd=            0 ICorTp=0 IEmpDi=141
 NAtoms=   12 NActive=   12 NUniq=   12 SFac= 1.00D+00 NAtFMM=   60 NAOKFM=F Big=F
 Integral buffers will be    131072 words long.
 Raffenetti 2 integral format.
 Two-electron integral symmetry is turned off.
 R6Disp:  Grimme-D3(BJ) Dispersion energy=       -0.0115147994 Hartrees.
 Nuclear repulsion after empirical dispersion term =      313.9464144373 Hartrees.
 Leave Link  301 at Sat Sep 12 01:59:31 2026, MaxMem=  6442450944 cpu:               0.0 elap:               0.1
 (Enter C:\G16W\l302.exe)
 NPDir=0 NMtPBC=     1 NCelOv=     1 NCel=       1 NClECP=     1 NCelD=      1
         NCelK=      1 NCelE2=     1 NClLst=     1 CellRange=     0.0.
 One-electron integrals computed using PRISM.
   1 Symmetry operations used in ECPInt.
 ECPInt:  NShTT=    1953 NPrTT=    6894 LenC2=    1933 LenP2D=    5651.
 LDataN:  DoStor=T MaxTD1= 7 Len=  274
 NBasis=   140 RedAO= T EigKep=  6.95D-04  NBF=   140
 NBsUse=   140 1.00D-06 EigRej= -1.00D+00 NBFU=   140
 Precomputing XC quadrature grid using
 IXCGrd= 4 IRadAn=           5 IRanWt=          -1 IRanGd=           0 AccXCQ= 0.00D+00.
 Defaulting to unpruned grid for atomic number  47.
 Generated NRdTot=       0 NPtTot=           0 NUsed=           0 NTot=          32
 NSgBfM=   151   151   151   151   151 MxSgAt=    12 MxSgA2=    12.
 Leave Link  302 at Sat Sep 12 01:59:35 2026, MaxMem=  6442450944 cpu:               4.0 elap:               3.6
 (Enter C:\G16W\l303.exe)
 DipDrv:  MaxL=1.
 Leave Link  303 at Sat Sep 12 01:59:35 2026, MaxMem=  6442450944 cpu:               0.0 elap:               0.1
 (Enter C:\G16W\l401.exe)
 Initial guess from the checkpoint file:  "pyridine.chk"
 B after Tr=     0.104300   -0.384768   -0.020459
         Rot=    1.000000    0.000000    0.000000    0.000000 Ang=   0.00 deg.
 Guess basis will be translated and rotated to current coordinates.
 JPrj=2 DoOrth=T DoCkMO=T.
 Initial guess <Sx>= 0.0000 <Sy>= 0.0000 <Sz>= 0.5000 <S**2>= 0.7518 S= 0.5009
 Leave Link  401 at Sat Sep 12 01:59:37 2026, MaxMem=  6442450944 cpu:               1.0 elap:               1.2
 (Enter C:\G16W\l502.exe)
 Keep R1 and R2 ints in memory in canonical form, NReq=105240913.
 FoFCou: FMM=F IPFlag=           0 FMFlag=           0 FMFlg1=           0
         NFxFlg=           0 DoJE=F BraDBF=F KetDBF=F FulRan=T
         wScrn=  0.000000 ICntrl=       600 IOpCl=  0 I1Cent=           0 NGrid=           0
         NMat0=    1 NMatS0=   9870 NMatT0=    0 NMatD0=    1 NMtDS0=    0 NMtDT0=    0
 Symmetry not used in FoFCou.
 Two-electron integral symmetry not used.
 UHF open shell SCF:
 Using DIIS extrapolation, IDIIS=  1040.
 NGot=  6442450944 LenX=  6344975819 LenY=  6344952577
 Requested convergence on RMS density matrix=1.00D-08 within 128 cycles.
 Requested convergence on MAX density matrix=1.00D-06.
 Requested convergence on             energy=1.00D-06.
 No special actions if energy rises.

 Cycle   1  Pass 1  IDiag  1:
 Defaulting to unpruned grid for atomic number  47.
 Defaulting to unpruned grid for atomic number  47.
 Defaulting to unpruned grid for atomic number  47.
 Defaulting to unpruned grid for atomic number  47.
 Defaulting to unpruned grid for atomic number  47.
 Defaulting to unpruned grid for atomic number  47.
 Defaulting to unpruned grid for atomic number  47.
 Defaulting to unpruned grid for atomic number  47.
 E= -394.755631918036    
 DIIS: error= 2.00D-02 at cycle   1 NSaved=   1.
 NSaved= 1 IEnMin= 1 EnMin= -394.755631918036     IErMin= 1 ErrMin= 2.00D-02
 ErrMax= 2.00D-02  0.00D+00 EMaxC= 1.00D-01 BMatC= 8.77D-02 BMatP= 8.77D-02
 IDIUse=3 WtCom= 8.00D-01 WtEn= 2.00D-01
 Coeff-Com:  0.100D+01
 Coeff-En:   0.100D+01
 Coeff:      0.100D+01
 Gap=     0.105 Goal=   None    Shift=    0.000
 Gap=     0.232 Goal=   None    Shift=    0.000
 GapD=    0.105 DampG=1.000 DampE=0.250 DampFc=0.2500 IDamp=-1.
 Damping current iteration by 2.50D-01
 RMSDP=1.29D-03 MaxDP=5.57D-02              OVMax= 5.19D-02

 Cycle   2  Pass 1  IDiag  1:
 E= -394.756890334589     Delta-E=       -0.001258416553 Rises=F Damp=T
 DIIS: error= 1.50D-02 at cycle   2 NSaved=   2.
 NSaved= 2 IEnMin= 2 EnMin= -394.756890334589     IErMin= 2 ErrMin= 1.50D-02
 ErrMax= 1.50D-02  0.00D+00 EMaxC= 1.00D-01 BMatC= 4.92D-02 BMatP= 8.77D-02
 IDIUse=3 WtCom= 8.50D-01 WtEn= 1.50D-01
 Coeff-Com: -0.283D+01 0.383D+01
 Coeff-En:   0.000D+00 0.100D+01
 Coeff:     -0.241D+01 0.341D+01
 Gap=     0.104 Goal=   None    Shift=    0.000
 Gap=     0.211 Goal=   None    Shift=    0.000
 RMSDP=1.04D-03 MaxDP=3.80D-02 DE=-1.26D-03 OVMax= 2.20D-02

 Cycle   3  Pass 1  IDiag  1:
 E= -394.759964954297     Delta-E=       -0.003074619708 Rises=F Damp=F
 DIIS: error= 4.34D-03 at cycle   3 NSaved=   3.
 NSaved= 3 IEnMin= 3 EnMin= -394.759964954297     IErMin= 3 ErrMin= 4.34D-03
 ErrMax= 4.34D-03  0.00D+00 EMaxC= 1.00D-01 BMatC= 4.88D-03 BMatP= 4.92D-02
 IDIUse=3 WtCom= 9.57D-01 WtEn= 4.34D-02
 Coeff-Com: -0.170D+01 0.226D+01 0.437D+00
 Coeff-En:   0.000D+00 0.000D+00 0.100D+01
 Coeff:     -0.162D+01 0.216D+01 0.461D+00
 Gap=     0.107 Goal=   None    Shift=    0.000
 Gap=     0.209 Goal=   None    Shift=    0.000
 RMSDP=2.70D-04 MaxDP=9.14D-03 DE=-3.07D-03 OVMax= 1.51D-02

 Cycle   4  Pass 1  IDiag  1:
 E= -394.761073865037     Delta-E=       -0.001108910741 Rises=F Damp=F
 DIIS: error= 8.56D-04 at cycle   4 NSaved=   4.
 NSaved= 4 IEnMin= 4 EnMin= -394.761073865037     IErMin= 4 ErrMin= 8.56D-04
 ErrMax= 8.56D-04  0.00D+00 EMaxC= 1.00D-01 BMatC= 2.18D-04 BMatP= 4.88D-03
 IDIUse=3 WtCom= 9.91D-01 WtEn= 8.56D-03
 Coeff-Com: -0.754D+00 0.100D+01 0.255D+00 0.497D+00
 Coeff-En:   0.000D+00 0.000D+00 0.000D+00 0.100D+01
 Coeff:     -0.747D+00 0.994D+00 0.253D+00 0.501D+00
 Gap=     0.107 Goal=   None    Shift=    0.000
 Gap=     0.210 Goal=   None    Shift=    0.000
 RMSDP=7.65D-05 MaxDP=4.04D-03 DE=-1.11D-03 OVMax= 4.19D-03

 Cycle   5  Pass 1  IDiag  1:
 E= -394.761135092401     Delta-E=       -0.000061227364 Rises=F Damp=F
 DIIS: error= 2.97D-04 at cycle   5 NSaved=   5.
 NSaved= 5 IEnMin= 5 EnMin= -394.761135092401     IErMin= 5 ErrMin= 2.97D-04
 ErrMax= 2.97D-04  0.00D+00 EMaxC= 1.00D-01 BMatC= 1.77D-05 BMatP= 2.18D-04
 IDIUse=3 WtCom= 9.97D-01 WtEn= 2.97D-03
 Coeff-Com:  0.310D+00-0.414D+00-0.692D-01 0.171D+00 0.100D+01
 Coeff-En:   0.000D+00 0.000D+00 0.000D+00 0.000D+00 0.100D+01
 Coeff:      0.309D+00-0.412D+00-0.690D-01 0.171D+00 0.100D+01
 Gap=     0.107 Goal=   None    Shift=    0.000
 Gap=     0.210 Goal=   None    Shift=    0.000
 RMSDP=5.03D-05 MaxDP=3.22D-03 DE=-6.12D-05 OVMax= 4.60D-03

 Cycle   6  Pass 1  IDiag  1:
 E= -394.761146200189     Delta-E=       -0.000011107788 Rises=F Damp=F
 DIIS: error= 8.26D-05 at cycle   6 NSaved=   6.
 NSaved= 6 IEnMin= 6 EnMin= -394.761146200189     IErMin= 6 ErrMin= 8.26D-05
 ErrMax= 8.26D-05  0.00D+00 EMaxC= 1.00D-01 BMatC= 1.71D-06 BMatP= 1.77D-05
 IDIUse=1 WtCom= 1.00D+00 WtEn= 0.00D+00
 Coeff-Com:  0.217D+00-0.289D+00-0.570D-01 0.986D-02 0.415D+00 0.704D+00
 Coeff:      0.217D+00-0.289D+00-0.570D-01 0.986D-02 0.415D+00 0.704D+00
 Gap=     0.108 Goal=   None    Shift=    0.000
 Gap=     0.210 Goal=   None    Shift=    0.000
 RMSDP=1.37D-05 MaxDP=8.91D-04 DE=-1.11D-05 OVMax= 1.20D-03

 Cycle   7  Pass 1  IDiag  1:
 E= -394.761147056707     Delta-E=       -0.000000856519 Rises=F Damp=F
 DIIS: error= 2.81D-05 at cycle   7 NSaved=   7.
 NSaved= 7 IEnMin= 7 EnMin= -394.761147056707     IErMin= 7 ErrMin= 2.81D-05
 ErrMax= 2.81D-05  0.00D+00 EMaxC= 1.00D-01 BMatC= 3.86D-07 BMatP= 1.71D-06
 IDIUse=1 WtCom= 1.00D+00 WtEn= 0.00D+00
 Coeff-Com:  0.369D-01-0.490D-01-0.114D-01-0.243D-01 0.201D-01 0.351D+00
 Coeff-Com:  0.677D+00
 Coeff:      0.369D-01-0.490D-01-0.114D-01-0.243D-01 0.201D-01 0.351D+00
 Coeff:      0.677D+00
 Gap=     0.108 Goal=   None    Shift=    0.000
 Gap=     0.210 Goal=   None    Shift=    0.000
 RMSDP=4.07D-06 MaxDP=2.56D-04 DE=-8.57D-07 OVMax= 3.40D-04

 Cycle   8  Pass 1  IDiag  1:
 E= -394.761147194205     Delta-E=       -0.000000137498 Rises=F Damp=F
 DIIS: error= 7.93D-06 at cycle   8 NSaved=   8.
 NSaved= 8 IEnMin= 8 EnMin= -394.761147194205     IErMin= 8 ErrMin= 7.93D-06
 ErrMax= 7.93D-06  0.00D+00 EMaxC= 1.00D-01 BMatC= 2.23D-08 BMatP= 3.86D-07
 IDIUse=1 WtCom= 1.00D+00 WtEn= 0.00D+00
 Coeff-Com: -0.177D-01 0.236D-01 0.404D-02-0.851D-02-0.489D-01 0.671D-02
 Coeff-Com:  0.184D+00 0.857D+00
 Coeff:     -0.177D-01 0.236D-01 0.404D-02-0.851D-02-0.489D-01 0.671D-02
 Coeff:      0.184D+00 0.857D+00
 Gap=     0.108 Goal=   None    Shift=    0.000
 Gap=     0.210 Goal=   None    Shift=    0.000
 RMSDP=1.65D-06 MaxDP=9.12D-05 DE=-1.37D-07 OVMax= 1.08D-04

 Cycle   9  Pass 1  IDiag  1:
 E= -394.761147208399     Delta-E=       -0.000000014194 Rises=F Damp=F
 DIIS: error= 3.90D-06 at cycle   9 NSaved=   9.
 NSaved= 9 IEnMin= 9 EnMin= -394.761147208399     IErMin= 9 ErrMin= 3.90D-06
 ErrMax= 3.90D-06  0.00D+00 EMaxC= 1.00D-01 BMatC= 3.96D-09 BMatP= 2.23D-08
 IDIUse=1 WtCom= 1.00D+00 WtEn= 0.00D+00
 Coeff-Com: -0.840D-02 0.112D-01 0.214D-02-0.384D-03-0.172D-01-0.303D-01
 Coeff-Com: -0.345D-02 0.261D+00 0.785D+00
 Coeff:     -0.840D-02 0.112D-01 0.214D-02-0.384D-03-0.172D-01-0.303D-01
 Coeff:     -0.345D-02 0.261D+00 0.785D+00
 Gap=     0.108 Goal=   None    Shift=    0.000
 Gap=     0.210 Goal=   None    Shift=    0.000
 RMSDP=5.43D-07 MaxDP=1.93D-05 DE=-1.42D-08 OVMax= 3.34D-05

 Cycle  10  Pass 1  IDiag  1:
 E= -394.761147211934     Delta-E=       -0.000000003535 Rises=F Damp=F
 DIIS: error= 2.65D-06 at cycle  10 NSaved=  10.
 NSaved=10 IEnMin=10 EnMin= -394.761147211934     IErMin=10 ErrMin= 2.65D-06
 ErrMax= 2.65D-06  0.00D+00 EMaxC= 1.00D-01 BMatC= 1.19D-09 BMatP= 3.96D-09
 IDIUse=1 WtCom= 1.00D+00 WtEn= 0.00D+00
 Coeff-Com:  0.420D-02-0.559D-02-0.932D-03 0.204D-02 0.116D-01-0.905D-03
 Coeff-Com: -0.419D-01-0.226D+00 0.328D-01 0.122D+01
 Coeff:      0.420D-02-0.559D-02-0.932D-03 0.204D-02 0.116D-01-0.905D-03
 Coeff:     -0.419D-01-0.226D+00 0.328D-01 0.122D+01
 Gap=     0.108 Goal=   None    Shift=    0.000
 Gap=     0.210 Goal=   None    Shift=    0.000
 RMSDP=4.95D-07 MaxDP=1.83D-05 DE=-3.53D-09 OVMax= 4.06D-05

 Cycle  11  Pass 1  IDiag  1:
 E= -394.761147214356     Delta-E=       -0.000000002422 Rises=F Damp=F
 DIIS: error= 1.70D-06 at cycle  11 NSaved=  11.
 NSaved=11 IEnMin=11 EnMin= -394.761147214356     IErMin=11 ErrMin= 1.70D-06
 ErrMax= 1.70D-06  0.00D+00 EMaxC= 1.00D-01 BMatC= 3.82D-10 BMatP= 1.19D-09
 IDIUse=1 WtCom= 1.00D+00 WtEn= 0.00D+00
 Coeff-Com:  0.401D-02-0.534D-02-0.101D-02 0.507D-03 0.888D-02 0.128D-01
 Coeff-Com: -0.469D-02-0.136D+00-0.329D+00 0.149D+00 0.130D+01
 Coeff:      0.401D-02-0.534D-02-0.101D-02 0.507D-03 0.888D-02 0.128D-01
 Coeff:     -0.469D-02-0.136D+00-0.329D+00 0.149D+00 0.130D+01
 Gap=     0.108 Goal=   None    Shift=    0.000
 Gap=     0.210 Goal=   None    Shift=    0.000
 RMSDP=4.33D-07 MaxDP=1.50D-05 DE=-2.42D-09 OVMax= 3.68D-05

 Cycle  12  Pass 1  IDiag  1:
 E= -394.761147215384     Delta-E=       -0.000000001028 Rises=F Damp=F
 DIIS: error= 7.87D-07 at cycle  12 NSaved=  12.
 NSaved=12 IEnMin=12 EnMin= -394.761147215384     IErMin=12 ErrMin= 7.87D-07
 ErrMax= 7.87D-07  0.00D+00 EMaxC= 1.00D-01 BMatC= 9.01D-11 BMatP= 3.82D-10
 IDIUse=1 WtCom= 1.00D+00 WtEn= 0.00D+00
 Coeff-Com:  0.609D-04-0.795D-04-0.609D-04-0.473D-03-0.599D-03 0.396D-02
 Coeff-Com:  0.978D-02 0.251D-01-0.127D+00-0.290D+00 0.495D+00 0.884D+00
 Coeff:      0.609D-04-0.795D-04-0.609D-04-0.473D-03-0.599D-03 0.396D-02
 Coeff:      0.978D-02 0.251D-01-0.127D+00-0.290D+00 0.495D+00 0.884D+00
 Gap=     0.108 Goal=   None    Shift=    0.000
 Gap=     0.210 Goal=   None    Shift=    0.000
 RMSDP=1.61D-07 MaxDP=5.77D-06 DE=-1.03D-09 OVMax= 1.24D-05

 Cycle  13  Pass 1  IDiag  1:
 E= -394.761147215516     Delta-E=       -0.000000000131 Rises=F Damp=F
 DIIS: error= 3.20D-07 at cycle  13 NSaved=  13.
 NSaved=13 IEnMin=13 EnMin= -394.761147215516     IErMin=13 ErrMin= 3.20D-07
 ErrMax= 3.20D-07  0.00D+00 EMaxC= 1.00D-01 BMatC= 1.51D-11 BMatP= 9.01D-11
 IDIUse=1 WtCom= 1.00D+00 WtEn= 0.00D+00
 Coeff-Com: -0.548D-03 0.730D-03 0.117D-03-0.299D-03-0.151D-02-0.931D-04
 Coeff-Com:  0.510D-02 0.318D-01-0.125D-01-0.156D+00 0.466D-01 0.376D+00
 Coeff-Com:  0.711D+00
 Coeff:     -0.548D-03 0.730D-03 0.117D-03-0.299D-03-0.151D-02-0.931D-04
 Coeff:      0.510D-02 0.318D-01-0.125D-01-0.156D+00 0.466D-01 0.376D+00
 Coeff:      0.711D+00
 Gap=     0.108 Goal=   None    Shift=    0.000
 Gap=     0.210 Goal=   None    Shift=    0.000
 RMSDP=4.01D-08 MaxDP=1.61D-06 DE=-1.31D-10 OVMax= 4.01D-06

 Cycle  14  Pass 1  IDiag  1:
 E= -394.761147215509     Delta-E=        0.000000000007 Rises=F Damp=F
 DIIS: error= 1.11D-07 at cycle  14 NSaved=  14.
 NSaved=14 IEnMin=13 EnMin= -394.761147215516     IErMin=14 ErrMin= 1.11D-07
 ErrMax= 1.11D-07  0.00D+00 EMaxC= 1.00D-01 BMatC= 1.85D-12 BMatP= 1.51D-11
 IDIUse=1 WtCom= 1.00D+00 WtEn= 0.00D+00
 Coeff-Com: -0.141D-03 0.187D-03 0.405D-04 0.274D-04-0.211D-03-0.843D-03
 Coeff-Com: -0.747D-03 0.318D-02 0.211D-01 0.160D-01-0.823D-01-0.901D-01
 Coeff-Com:  0.204D+00 0.930D+00
 Coeff:     -0.141D-03 0.187D-03 0.405D-04 0.274D-04-0.211D-03-0.843D-03
 Coeff:     -0.747D-03 0.318D-02 0.211D-01 0.160D-01-0.823D-01-0.901D-01
 Coeff:      0.204D+00 0.930D+00
 Gap=     0.108 Goal=   None    Shift=    0.000
 Gap=     0.210 Goal=   None    Shift=    0.000
 RMSDP=1.64D-08 MaxDP=6.00D-07 DE= 6.71D-12 OVMax= 1.21D-06

 Cycle  15  Pass 1  IDiag  1:
 E= -394.761147215517     Delta-E=       -0.000000000009 Rises=F Damp=F
 DIIS: error= 2.28D-08 at cycle  15 NSaved=  15.
 NSaved=15 IEnMin=15 EnMin= -394.761147215517     IErMin=15 ErrMin= 2.28D-08
 ErrMax= 2.28D-08  0.00D+00 EMaxC= 1.00D-01 BMatC= 1.20D-13 BMatP= 1.85D-12
 IDIUse=1 WtCom= 1.00D+00 WtEn= 0.00D+00
 Coeff-Com:  0.544D-04-0.725D-04-0.110D-04 0.363D-04 0.136D-03-0.376D-05
 Coeff-Com: -0.554D-03-0.310D-02 0.110D-02 0.169D-01-0.357D-02-0.456D-01
 Coeff-Com: -0.859D-01 0.211D-01 0.110D+01
 Coeff:      0.544D-04-0.725D-04-0.110D-04 0.363D-04 0.136D-03-0.376D-05
 Coeff:     -0.554D-03-0.310D-02 0.110D-02 0.169D-01-0.357D-02-0.456D-01
 Coeff:     -0.859D-01 0.211D-01 0.110D+01
 Gap=     0.108 Goal=   None    Shift=    0.000
 Gap=     0.210 Goal=   None    Shift=    0.000
 RMSDP=4.27D-09 MaxDP=1.37D-07 DE=-8.53D-12 OVMax= 2.62D-07

 SCF Done:  E(UPBE1PBE) =  -394.761147216     A.U. after   15 cycles
            NFock= 15  Conv=0.43D-08     -V/T= 2.3086
 <Sx>= 0.0000 <Sy>= 0.0000 <Sz>= 0.5000 <S**2>= 0.7516 S= 0.5008
 <L.S>= 0.000000000000E+00
 KE= 3.016656592099D+02 PE=-1.519697644723D+03 EE= 5.093244238607D+02
 Annihilation of the first spin contaminant:
 S**2 before annihilation     0.7516,   after     0.7500
 Leave Link  502 at Sat Sep 12 02:00:27 2026, MaxMem=  6442450944 cpu:              50.0 elap:              50.6
 (Enter C:\G16W\l508.exe)
 QCSCF skips out because SCF is already converged.
 Leave Link  508 at Sat Sep 12 02:00:28 2026, MaxMem=  6442450944 cpu:               0.0 elap:               0.1
 (Enter C:\G16W\l601.exe)
 Copying SCF densities to generalized density rwf, IOpCl= 1 IROHF=0.

 **********************************************************************

            Population analysis using the SCF Density.

 **********************************************************************

 Alpha  occ. eigenvalues --  -14.41867 -10.28783 -10.28781 -10.27392 -10.26344
 Alpha  occ. eigenvalues --  -10.26343  -3.72830  -2.30869  -2.30841  -2.30650
 Alpha  occ. eigenvalues --   -0.99577  -0.84606  -0.80174  -0.67142  -0.66282
 Alpha  occ. eigenvalues --   -0.56927  -0.52347  -0.49926  -0.46381  -0.44330
 Alpha  occ. eigenvalues --   -0.44241  -0.39700  -0.32877  -0.32663  -0.30409
 Alpha  occ. eigenvalues --   -0.30397  -0.30277  -0.30119  -0.29820  -0.28108
 Alpha  occ. eigenvalues --   -0.15173
 Alpha virt. eigenvalues --   -0.04408  -0.02980   0.00466   0.00977   0.03340
 Alpha virt. eigenvalues --    0.07042   0.10316   0.11036   0.13060   0.13202
 Alpha virt. eigenvalues --    0.15674   0.16115   0.24654   0.27208   0.29425
 Alpha virt. eigenvalues --    0.29562   0.32665   0.33690   0.35037   0.36636
 Alpha virt. eigenvalues --    0.38756   0.39366   0.40805   0.45039   0.46613
 Alpha virt. eigenvalues --    0.47058   0.47132   0.47445   0.48079   0.51801
 Alpha virt. eigenvalues --    0.53128   0.55752   0.55815   0.56503   0.60402
 Alpha virt. eigenvalues --    0.63456   0.63709   0.63868   0.64678   0.67167
 Alpha virt. eigenvalues --    0.68082   0.71146   0.74771   0.75174   0.76984
 Alpha virt. eigenvalues --    0.79982   0.84339   0.93079   1.00281   1.00682
 Alpha virt. eigenvalues --    1.11633   1.14633   1.14708   1.22479   1.24544
 Alpha virt. eigenvalues --    1.25641   1.28875   1.32535   1.34547   1.37052
 Alpha virt. eigenvalues --    1.51180   1.65487   1.65815   1.70147   1.74044
 Alpha virt. eigenvalues --    1.74245   1.77154   1.77178   1.78552   1.79825
 Alpha virt. eigenvalues --    1.85690   1.91632   1.93640   1.95868   1.98004
 Alpha virt. eigenvalues --    1.98643   2.02139   2.07380   2.11462   2.13547
 Alpha virt. eigenvalues --    2.20867   2.25345   2.29149   2.34792   2.40264
 Alpha virt. eigenvalues --    2.44576   2.45828   2.51104   2.60334   2.62616
 Alpha virt. eigenvalues --    2.64574   2.64580   2.64642   2.64671   2.64920
 Alpha virt. eigenvalues --    2.64928   2.66243   2.72484   2.73620   2.74054
 Alpha virt. eigenvalues --    2.82964   2.90865   2.96890   3.03595   3.15171
 Alpha virt. eigenvalues --    3.16341   3.35432   3.69705  53.83024
  Beta  occ. eigenvalues --  -14.41702 -10.28788 -10.28786 -10.27395 -10.26339
  Beta  occ. eigenvalues --  -10.26338  -3.72712  -2.30805  -2.30788  -2.30643
  Beta  occ. eigenvalues --   -0.99444  -0.84561  -0.80155  -0.67107  -0.66240
  Beta  occ. eigenvalues --   -0.56854  -0.52301  -0.49905  -0.46365  -0.44277
  Beta  occ. eigenvalues --   -0.44089  -0.39670  -0.32799  -0.32038  -0.29917
  Beta  occ. eigenvalues --   -0.29842  -0.29765  -0.29652  -0.29510  -0.27382
  Beta virt. eigenvalues --   -0.06427  -0.04325  -0.02994   0.03132   0.03815
  Beta virt. eigenvalues --    0.05146   0.07770   0.10440   0.12516   0.13250
  Beta virt. eigenvalues --    0.14031   0.16096   0.16483   0.24968   0.27300
  Beta virt. eigenvalues --    0.29593   0.29622   0.33539   0.35045   0.37710
  Beta virt. eigenvalues --    0.38536   0.39548   0.40056   0.41303   0.45832
  Beta virt. eigenvalues --    0.46722   0.47501   0.48408   0.49016   0.49100
  Beta virt. eigenvalues --    0.52811   0.53281   0.56193   0.56850   0.57192
  Beta virt. eigenvalues --    0.60498   0.63986   0.64197   0.64355   0.64725
  Beta virt. eigenvalues --    0.67446   0.68157   0.71173   0.74842   0.75317
  Beta virt. eigenvalues --    0.77033   0.80119   0.84527   0.93310   1.00330
  Beta virt. eigenvalues --    1.00708   1.11954   1.14643   1.14738   1.22482
  Beta virt. eigenvalues --    1.24548   1.25642   1.29131   1.32547   1.34566
  Beta virt. eigenvalues --    1.37221   1.51255   1.65506   1.65849   1.70169
  Beta virt. eigenvalues --    1.74064   1.74260   1.77174   1.77202   1.78568
  Beta virt. eigenvalues --    1.79926   1.85756   1.91668   1.93673   1.95933
  Beta virt. eigenvalues --    1.98019   1.98657   2.02399   2.08306   2.11478
  Beta virt. eigenvalues --    2.13561   2.21012   2.25382   2.29151   2.34797
  Beta virt. eigenvalues --    2.40305   2.44635   2.45883   2.51252   2.60351
  Beta virt. eigenvalues --    2.62765   2.64559   2.64565   2.64671   2.64700
  Beta virt. eigenvalues --    2.65012   2.65015   2.66356   2.72519   2.73629
  Beta virt. eigenvalues --    2.74082   2.83077   2.90906   2.96980   3.03695
  Beta virt. eigenvalues --    3.15204   3.16429   3.35567   3.69777  53.83174
          Condensed to atoms (all electrons):
               1          2          3          4          5          6
     1  C    4.853658   0.410039  -0.010236  -0.044883  -0.010236   0.410036
     2  C    0.410039   4.984434   0.437531  -0.025877  -0.077971   0.017293
     3  C   -0.010236   0.437531   4.739404   0.485477  -0.052543  -0.077971
     4  N   -0.044883  -0.025877   0.485477   6.374226   0.485476  -0.025876
     5  C   -0.010236  -0.077971  -0.052543   0.485476   4.739408   0.437531
     6  C    0.410036   0.017293  -0.077971  -0.025876   0.437531   4.984432
     7  H    0.439364  -0.057128   0.010144  -0.000236   0.010144  -0.057128
     8  H   -0.054028   0.426661  -0.045158   0.005139   0.000322   0.010912
     9  H    0.007875  -0.072812   0.425991  -0.052947   0.007697  -0.000083
    10  H    0.007875  -0.000083   0.007697  -0.052947   0.425992  -0.072811
    11  H   -0.054028   0.010912   0.000322   0.005139  -0.045158   0.426662
    12  Ag  -0.000592   0.005413  -0.010210   0.039892  -0.010210   0.005413
               7          8          9         10         11         12
     1  C    0.439364  -0.054028   0.007875   0.007875  -0.054028  -0.000592
     2  C   -0.057128   0.426661  -0.072812  -0.000083   0.010912   0.005413
     3  C    0.010144  -0.045158   0.425991   0.007697   0.000322  -0.010210
     4  N   -0.000236   0.005139  -0.052947  -0.052947   0.005139   0.039892
     5  C    0.010144   0.000322   0.007697   0.425992  -0.045158  -0.010210
     6  C   -0.057128   0.010912  -0.000083  -0.072811   0.426662   0.005413
     7  H    0.640366  -0.011039  -0.000300  -0.000300  -0.011039   0.000132
     8  H   -0.011039   0.639297  -0.006185   0.000092  -0.000175  -0.000308
     9  H   -0.000300  -0.006185   0.649526   0.000072   0.000092  -0.001282
    10  H   -0.000300   0.000092   0.000072   0.649525  -0.006185  -0.001282
    11  H   -0.011039  -0.000175   0.000092  -0.006185   0.639296  -0.000308
    12  Ag   0.000132  -0.000308  -0.001282  -0.001282  -0.000308  19.078867
          Atomic-Atomic Spin Densities.
               1          2          3          4          5          6
     1  C    0.003150  -0.000668  -0.000389  -0.000456  -0.000389  -0.000668
     2  C   -0.000668   0.002637   0.002914   0.000756  -0.000086   0.000081
     3  C   -0.000389   0.002914  -0.002505   0.000594   0.000730  -0.000086
     4  N   -0.000456   0.000756   0.000594   0.092084   0.000593   0.000756
     5  C   -0.000389  -0.000086   0.000730   0.000593  -0.002507   0.002914
     6  C   -0.000668   0.000081  -0.000086   0.000756   0.002914   0.002637
     7  H   -0.000526   0.000127   0.000020   0.000021   0.000020   0.000127
     8  H   -0.000932  -0.000660  -0.000455  -0.000003   0.000061   0.000099
     9  H   -0.000407  -0.001453  -0.003526  -0.003544   0.000188   0.000015
    10  H   -0.000407   0.000015   0.000188  -0.003544  -0.003526  -0.001453
    11  H   -0.000932   0.000099   0.000061  -0.000003  -0.000455  -0.000660
    12  Ag  -0.000707  -0.000926  -0.003524  -0.056173  -0.003524  -0.000926
               7          8          9         10         11         12
     1  C   -0.000526  -0.000932  -0.000407  -0.000407  -0.000932  -0.000707
     2  C    0.000127  -0.000660  -0.001453   0.000015   0.000099  -0.000926
     3  C    0.000020  -0.000455  -0.003526   0.000188   0.000061  -0.003524
     4  N    0.000021  -0.000003  -0.003544  -0.003544  -0.000003  -0.056173
     5  C    0.000020   0.000061   0.000188  -0.003526  -0.000455  -0.003524
     6  C    0.000127   0.000099   0.000015  -0.001453  -0.000660  -0.000926
     7  H    0.000152   0.000088   0.000008   0.000008   0.000088   0.000010
     8  H    0.000088   0.001876   0.000538   0.000010   0.000016   0.000226
     9  H    0.000008   0.000538   0.006289   0.000101   0.000010   0.008142
    10  H    0.000008   0.000010   0.000101   0.006290   0.000538   0.008142
    11  H    0.000088   0.000016   0.000010   0.000538   0.001876   0.000226
    12  Ag   0.000010   0.000226   0.008142   0.008142   0.000226   1.012968
 Mulliken charges and spin densities:
               1          2
     1  C    0.045157  -0.003331
     2  C   -0.058412   0.002837
     3  C    0.089551  -0.005978
     4  N   -0.192583   0.031082
     5  C    0.089548  -0.005980
     6  C   -0.058409   0.002837
     7  H    0.037020   0.000145
     8  H    0.034470   0.000865
     9  H    0.042357   0.006362
    10  H    0.042357   0.006362
    11  H    0.034470   0.000865
    12  Ag  -0.105525   0.963934
 Sum of Mulliken charges =   0.00000   1.00000
 Mulliken charges and spin densities with hydrogens summed into heavy atoms:
               1          2
     1  C    0.082177  -0.003185
     2  C   -0.023942   0.003702
     3  C    0.131907   0.000383
     4  N   -0.192583   0.031082
     5  C    0.131904   0.000382
     6  C   -0.023939   0.003702
    12  Ag  -0.105525   0.963934
 Electronic spatial extent (au):  <R**2>=           1739.1661
 Charge=              0.0000 electrons
 Dipole moment (field-independent basis, Debye):
    X=             -1.3127    Y=              4.8425    Z=              0.2575  Tot=              5.0238
 Quadrupole moment (field-independent basis, Debye-Ang):
   XX=            -51.2654   YY=            -73.0488   ZZ=            -58.0753
   XY=              6.3592   XZ=              0.4503   YZ=             -0.7679
 Traceless Quadrupole moment (field-independent basis, Debye-Ang):
   XX=              9.5311   YY=            -12.2523   ZZ=              2.7212
   XY=              6.3592   XZ=              0.4503   YZ=             -0.7679
 Octapole moment (field-independent basis, Debye-Ang**2):
  XXX=            -76.9127  YYY=            385.7889  ZZZ=             14.9404  XYY=            -54.7587
  XXY=             99.9723  XXZ=              5.3277  XZZ=            -25.4478  YZZ=             93.8593
  YYZ=             10.5510  XYZ=             -1.5836
 Hexadecapole moment (field-independent basis, Debye-Ang**3):
 XXXX=           -440.2036 YYYY=          -2997.3054 ZZZZ=            -78.4964 XXXY=            309.8640
 XXXZ=             15.4967 YYYX=            438.5066 YYYZ=            -90.0217 ZZZX=             14.3079
 ZZZY=            -66.3326 XXYY=           -524.7219 XXZZ=            -95.2174 YYZZ=           -438.7739
 XXYZ=            -22.9996 YYXZ=             12.3425 ZZXY=            100.6486
 N-N= 3.139464144373D+02 E-N=-1.519697644139D+03  KE= 3.016656592099D+02
                          Isotropic Fermi Contact Couplings
        Atom                 a.u.       MegaHertz       Gauss      10(-4) cm-1
     1  C(13)              0.00051       0.57061       0.20361       0.19033
     2  C(13)              0.00171       1.91734       0.68416       0.63956
     3  C(13)             -0.00315      -3.53786      -1.26240      -1.18010
     4  N(14)              0.12364      39.94918      14.25486      13.32561
     5  C(13)             -0.00315      -3.53799      -1.26244      -1.18015
     6  C(13)              0.00171       1.91732       0.68415       0.63955
     7  H(1)               0.00002       0.07913       0.02823       0.02639
     8  H(1)               0.00021       0.94640       0.33770       0.31568
     9  H(1)               0.00025       1.11094       0.39641       0.37057
    10  H(1)               0.00025       1.11118       0.39650       0.37065
    11  H(1)               0.00021       0.94638       0.33769       0.31568
    12  Ag(107             0.00030      -0.05454      -0.01946      -0.01819
 --------------------------------------------------------
       Center         ----  Spin Dipole Couplings  ----
                      3XX-RR        3YY-RR        3ZZ-RR
 --------------------------------------------------------
     1   Atom        0.000567      0.003123     -0.003690
     2   Atom       -0.002298      0.002374     -0.000076
     3   Atom        0.003389      0.005180     -0.008569
     4   Atom       -0.042262      0.080703     -0.038441
     5   Atom        0.007263      0.001328     -0.008591
     6   Atom       -0.001426      0.001507     -0.000081
     7   Atom       -0.000227      0.000776     -0.000549
     8   Atom       -0.000641      0.001443     -0.000802
     9   Atom       -0.001312      0.004380     -0.003068
    10   Atom        0.002034      0.001054     -0.003087
    11   Atom        0.000257      0.000550     -0.000807
    12   Atom        0.017100     -0.031637      0.014537
 --------------------------------------------------------
                        XY            XZ            YZ
 --------------------------------------------------------
     1   Atom       -0.000754      0.000014      0.000378
     2   Atom       -0.000364     -0.000050      0.000135
     3   Atom        0.003895      0.000380      0.000835
     4   Atom       -0.035954     -0.002086      0.006306
     5   Atom       -0.002728      0.000055      0.000529
     6   Atom       -0.001855     -0.000123      0.000066
     7   Atom       -0.000294     -0.000012      0.000072
     8   Atom        0.000419      0.000026      0.000133
     9   Atom        0.002165      0.000146      0.000453
    10   Atom       -0.003555     -0.000134      0.000189
    11   Atom       -0.001116     -0.000049      0.000062
    12   Atom        0.014248      0.000840     -0.002439
 --------------------------------------------------------


 ---------------------------------------------------------------------------------
              Anisotropic Spin Dipole Couplings in Principal Axis System
 ---------------------------------------------------------------------------------

       Atom             a.u.   MegaHertz   Gauss  10(-4) cm-1        Axes

              Baa    -0.0037    -0.498    -0.178    -0.166 -0.0132 -0.0566  0.9983
     1 C(13)  Bbb     0.0004     0.049     0.017     0.016  0.9652  0.2602  0.0275
              Bcc     0.0033     0.449     0.160     0.150 -0.2613  0.9639  0.0513
 
              Baa    -0.0023    -0.312    -0.111    -0.104  0.9969  0.0766  0.0175
     2 C(13)  Bbb    -0.0001    -0.011    -0.004    -0.004 -0.0132 -0.0566  0.9983
              Bcc     0.0024     0.323     0.115     0.108 -0.0775  0.9954  0.0554
 
              Baa    -0.0086    -1.157    -0.413    -0.386 -0.0132 -0.0567  0.9983
     3 C(13)  Bbb     0.0003     0.039     0.014     0.013  0.7838 -0.6205 -0.0249
              Bcc     0.0083     1.117     0.399     0.373  0.6209  0.7821  0.0526
 
              Baa    -0.0520    -2.006    -0.716    -0.669  0.9652  0.2602  0.0275
     4 N(14)  Bbb    -0.0388    -1.495    -0.534    -0.499 -0.0132 -0.0567  0.9983
              Bcc     0.0908     3.501     1.249     1.168 -0.2613  0.9639  0.0513
 
              Baa    -0.0086    -1.157    -0.413    -0.386 -0.0132 -0.0566  0.9983
     5 C(13)  Bbb     0.0003     0.039     0.014     0.013  0.3636  0.9298  0.0576
              Bcc     0.0083     1.117     0.399     0.373  0.9315 -0.3637 -0.0084
 
              Baa    -0.0023    -0.312    -0.111    -0.104  0.8999  0.4346  0.0365
     6 C(13)  Bbb    -0.0001    -0.011    -0.004    -0.004 -0.0132 -0.0567  0.9983
              Bcc     0.0024     0.323     0.115     0.108 -0.4360  0.8988  0.0453
 
              Baa    -0.0006    -0.295    -0.105    -0.098 -0.0132 -0.0567  0.9983
     7 H(1)   Bbb    -0.0003    -0.164    -0.058    -0.055  0.9652  0.2602  0.0275
              Bcc     0.0009     0.458     0.164     0.153 -0.2613  0.9639  0.0513
 
              Baa    -0.0008    -0.432    -0.154    -0.144 -0.0132 -0.0566  0.9983
     8 H(1)   Bbb    -0.0007    -0.385    -0.138    -0.129  0.9818 -0.1901  0.0022
              Bcc     0.0015     0.817     0.292     0.273  0.1896  0.9801  0.0581
 
              Baa    -0.0031    -1.652    -0.589    -0.551 -0.0132 -0.0567  0.9983
     9 H(1)   Bbb    -0.0020    -1.089    -0.389    -0.363  0.9477 -0.3191 -0.0056
              Bcc     0.0051     2.741     0.978     0.914  0.3189  0.9460  0.0579
 
              Baa    -0.0031    -1.652    -0.589    -0.551 -0.0132 -0.0567  0.9983
    10 H(1)   Bbb    -0.0020    -1.089    -0.389    -0.363  0.6574  0.7518  0.0513
              Bcc     0.0051     2.741     0.978     0.914  0.7534 -0.6570 -0.0273
 
              Baa    -0.0008    -0.432    -0.154    -0.144 -0.0132 -0.0567  0.9983
    11 H(1)   Bbb    -0.0007    -0.385    -0.138    -0.129  0.7520  0.6574  0.0472
              Bcc     0.0015     0.817     0.292     0.273 -0.6590  0.7514  0.0339
 
              Baa    -0.0356     0.773     0.276     0.258 -0.2613  0.9639  0.0512
    12 Ag(107 Bbb     0.0147    -0.318    -0.114    -0.106 -0.0130 -0.0566  0.9983
              Bcc     0.0210    -0.455    -0.162    -0.152  0.9652  0.2602  0.0274
 

 ---------------------------------------------------------------------------------

 No NMR shielding tensors so no spin-rotation constants.
 Leave Link  601 at Sat Sep 12 02:00:29 2026, MaxMem=  6442450944 cpu:               1.0 elap:               1.2
 (Enter C:\G16W\l9999.exe)
 Unable to Open any file for archive entry.
 1|1|UNPC-DESKTOP-2JKEGCA|SP|UPBE1PBE|def2SVP|C5H5Ag1N1(2)|JHKIM|12-Sep
 -2026|0||#P PBE1PBE/Def2SVP EmpiricalDispersion=GD3BJ SP SCF=(XQC,MaxC
 ycle=128) NoSymm Guess=Read||pyridine t=0.000 dz=+0.40 class=toface||0
 ,2|C,0,-0.310236,1.144474,0.060853|C,0,1.025069,0.773724,0.057432|C,0,
 1.330545,-0.577468,-0.015216|N,0,0.414071,-1.527525,-0.081221|C,0,-0.8
 57586,-1.167297,-0.077554|C,0,-1.276374,0.153351,-0.008138|H,0,-0.5926
 51,2.186315,0.11625|H,0,1.809285,1.513335,0.109757|H,0,2.357787,-0.918
 862,-0.021028|H,0,-1.572447,-1.978288,-0.13302|H,0,-2.327462,0.398241,
 -0.008116|Ag,0,1.11954694,-4.13005378,-0.21960187||Version=EM64W-G16Re
 vC.01|HF=-394.7611472|S2=0.751552|S2-1=0.|S2A=0.750002|RMSD=4.275e-009
 |Dipole=-0.5164376,1.905177,0.1012949|Quadrupole=7.086164,-9.1092881,2
 .0231241,4.7279321,0.3347745,-0.5709154|PG=C01 [X(C5H5Ag1N1)]||@
 The archive entry for this job was punched.


 ALL THINGS ARE POSSIBLE EXCEPT SKIING THROUGH A REVOLVING DOOR.
 Job cpu time:       0 days  0 hours  1 minutes  0.0 seconds.
 Elapsed time:       0 days  0 hours  0 minutes 57.8 seconds.
 File lengths (MBytes):  RWF=     15 Int=      0 D2E=      0 Chk=      3 Scr=      1
 Normal termination of Gaussian 16 at Sat Sep 12 02:00:30 2026.
