 Entering Gaussian System, Link 0=C:\G16W\g16.exe
 Input=pyridine_t3_z1.gjf
 Output=pyridine_t3_z1.out
 Initial command:
 C:\G16W\l1.exe ".\Gau-146984.inp" "pyridine_t3_z1.out" /scrdir=".\"
 Entering Link 1 = C:\G16W\l1.exe PID=    118772.
  
 Copyright (c) 1988-2019, Gaussian, Inc.  All Rights Reserved.
  
 This is part of the Gaussian(R) 16 program.  It is based on
 the Gaussian(R) 09 system (copyright 2009, Gaussian, Inc.),
 the Gaussian(R) 03 system (copyright 2003, Gaussian, Inc.),
 the Gaussian(R) 98 system (copyright 1998, Gaussian, Inc.),
 the Gaussian(R) 94 system (copyright 1995, Gaussian, Inc.),
 the Gaussian 92(TM) system (copyright 1992, Gaussian, Inc.),
 the Gaussian 90(TM) system (copyright 1990, Gaussian, Inc.),
 the Gaussian 88(TM) system (copyright 1988, Gaussian, Inc.),
 the Gaussian 86(TM) system (copyright 1986, Carnegie Mellon
 University), and the Gaussian 82(TM) system (copyright 1983,
 Carnegie Mellon University). Gaussian is a federally registered
 trademark of Gaussian, Inc.
  
 This software contains proprietary and confidential information,
 including trade secrets, belonging to Gaussian, Inc.
  
 This software is provided under written license and may be
 used, copied, transmitted, or stored only in accord with that
 written license.
  
 The following legend is applicable only to US Government
 contracts under FAR:
  
                    RESTRICTED RIGHTS LEGEND
  
 Use, reproduction and disclosure by the US Government is
 subject to restrictions as set forth in subparagraphs (a)
 and (c) of the Commercial Computer Software - Restricted
 Rights clause in FAR 52.227-19.
  
 Gaussian, Inc.
 340 Quinnipiac St., Bldg. 40, Wallingford CT 06492
  
  
 ---------------------------------------------------------------
 Warning -- This program may not be used in any manner that
 competes with the business of Gaussian, Inc. or will provide
 assistance to any competitor of Gaussian, Inc.  The licensee
 of this program is prohibited from giving any competitor of
 Gaussian, Inc. access to this program.  By using this program,
 the user acknowledges that Gaussian, Inc. is engaged in the
 business of creating and licensing software in the field of
 computational chemistry and represents and warrants to the
 licensee that it is not a competitor of Gaussian, Inc. and that
 it will not use this program in any manner prohibited above.
 ---------------------------------------------------------------
  

 Cite this work as:
 Gaussian 16, Revision C.01,
 M. J. Frisch, G. W. Trucks, H. B. Schlegel, G. E. Scuseria, 
 M. A. Robb, J. R. Cheeseman, G. Scalmani, V. Barone, 
 G. A. Petersson, H. Nakatsuji, X. Li, M. Caricato, A. V. Marenich, 
 J. Bloino, B. G. Janesko, R. Gomperts, B. Mennucci, H. P. Hratchian, 
 J. V. Ortiz, A. F. Izmaylov, J. L. Sonnenberg, D. Williams-Young, 
 F. Ding, F. Lipparini, F. Egidi, J. Goings, B. Peng, A. Petrone, 
 T. Henderson, D. Ranasinghe, V. G. Zakrzewski, J. Gao, N. Rega, 
 G. Zheng, W. Liang, M. Hada, M. Ehara, K. Toyota, R. Fukuda, 
 J. Hasegawa, M. Ishida, T. Nakajima, Y. Honda, O. Kitao, H. Nakai, 
 T. Vreven, K. Throssell, J. A. Montgomery, Jr., J. E. Peralta, 
 F. Ogliaro, M. J. Bearpark, J. J. Heyd, E. N. Brothers, K. N. Kudin, 
 V. N. Staroverov, T. A. Keith, R. Kobayashi, J. Normand, 
 K. Raghavachari, A. P. Rendell, J. C. Burant, S. S. Iyengar, 
 J. Tomasi, M. Cossi, J. M. Millam, M. Klene, C. Adamo, R. Cammi, 
 J. W. Ochterski, R. L. Martin, K. Morokuma, O. Farkas, 
 J. B. Foresman, and D. J. Fox, Gaussian, Inc., Wallingford CT, 2019.
 
 ******************************************
 Gaussian 16:  EM64W-G16RevC.01 30-May-2019
                12-Sep-2026 
 ******************************************
 %Chk=pyridine.chk
 %NProcShared=8
 Will use up to    8 processors via shared memory.
 %Mem=48GB
 ----------------------------------------------------------------------
 #P PBE1PBE/Def2SVP EmpiricalDispersion=GD3BJ SP SCF=(XQC,MaxCycle=128)
  NoSymm Guess=Read
 ----------------------------------------------------------------------
 1/38=1,172=1/1;
 2/12=2,15=1,17=6,18=5,40=1/2;
 3/5=43,7=101,11=2,25=1,30=1,74=-13,116=-2,124=41/1,2,3;
 4/5=1/1;
 5/5=2,7=128,8=3,13=1,38=6/2,8;
 6/7=2,8=2,9=2,10=2,28=1/1;
 99/5=1,9=1/99;
 Leave Link    1 at Sat Sep 12 02:06:43 2026, MaxMem=  6442450944 cpu:               0.0 elap:               0.3
 (Enter C:\G16W\l101.exe)
 --------------------------------------
 pyridine t=0.750 dz=+0.40 class=toface
 --------------------------------------
 Symbolic Z-matrix:
 Charge =  0 Multiplicity = 2
 C                    -0.31024   1.14447   0.06085 
 C                     1.02507   0.77372   0.05743 
 C                     1.33055  -0.57747  -0.01522 
 N                     0.41407  -1.52753  -0.08122 
 C                    -0.85759  -1.1673   -0.07755 
 C                    -1.27637   0.15335  -0.00814 
 H                    -0.59265   2.18632   0.11625 
 H                     1.80929   1.51334   0.10976 
 H                     2.35779  -0.91886  -0.02103 
 H                    -1.57245  -1.97829  -0.13302 
 H                    -2.32746   0.39824  -0.00812 
 Ag                    0.22624  -1.62272   2.54922 
 
 ITRead=  0  0  0  0  0  0  0  0  0  0  0  0
 MicOpt= -1 -1 -1 -1 -1 -1 -1 -1 -1 -1 -1 -1
 NAtoms=     12 NQM=       12 NQMF=       0 NMMI=      0 NMMIF=      0
                NMic=       0 NMicF=      0.
                    Isotopes and Nuclear Properties:
 (Nuclear quadrupole moments (NQMom) in fm**2, nuclear magnetic moments (NMagM)
  in nuclear magnetons)

  Atom         1           2           3           4           5           6           7           8           9          10
 IAtWgt=          12          12          12          14          12          12           1           1           1           1
 AtmWgt=  12.0000000  12.0000000  12.0000000  14.0030740  12.0000000  12.0000000   1.0078250   1.0078250   1.0078250   1.0078250
 NucSpn=           0           0           0           2           0           0           1           1           1           1
 AtZEff=   0.0000000   0.0000000   0.0000000   0.0000000   0.0000000   0.0000000   0.0000000   0.0000000   0.0000000   0.0000000
 NQMom=    0.0000000   0.0000000   0.0000000   2.0440000   0.0000000   0.0000000   0.0000000   0.0000000   0.0000000   0.0000000
 NMagM=    0.0000000   0.0000000   0.0000000   0.4037610   0.0000000   0.0000000   2.7928460   2.7928460   2.7928460   2.7928460
 AtZNuc=   6.0000000   6.0000000   6.0000000   7.0000000   6.0000000   6.0000000   1.0000000   1.0000000   1.0000000   1.0000000

  Atom        11          12
 IAtWgt=           1         107
 AtmWgt=   1.0078250 106.9050900
 NucSpn=           1           1
 AtZEff=   0.0000000   0.0000000
 NQMom=    0.0000000   0.0000000
 NMagM=    2.7928460  -0.1135700
 AtZNuc=   1.0000000  47.0000000
 Leave Link  101 at Sat Sep 12 02:06:43 2026, MaxMem=  6442450944 cpu:               0.0 elap:               0.2
 (Enter C:\G16W\l202.exe)
                          Input orientation:                          
 ---------------------------------------------------------------------
 Center     Atomic      Atomic             Coordinates (Angstroms)
 Number     Number       Type             X           Y           Z
 ---------------------------------------------------------------------
      1          6           0       -0.310236    1.144474    0.060853
      2          6           0        1.025069    0.773724    0.057432
      3          6           0        1.330545   -0.577468   -0.015216
      4          7           0        0.414071   -1.527525   -0.081221
      5          6           0       -0.857586   -1.167297   -0.077554
      6          6           0       -1.276374    0.153351   -0.008138
      7          1           0       -0.592651    2.186315    0.116250
      8          1           0        1.809285    1.513335    0.109757
      9          1           0        2.357787   -0.918862   -0.021028
     10          1           0       -1.572447   -1.978288   -0.133020
     11          1           0       -2.327462    0.398241   -0.008116
     12         47           0        0.226244   -1.622718    2.549222
 ---------------------------------------------------------------------
                    Distance matrix (angstroms):
                    1          2          3          4          5
     1  C    0.000000
     2  C    1.385823   0.000000
     3  C    2.379713   1.387196   0.000000
     4  N    2.772072   2.385014   1.321699   0.000000
     5  C    2.379713   2.707429   2.267091   1.321699   0.000000
     6  C    1.385824   2.384492   2.707429   2.385014   1.387196
     7  H    1.080861   2.148462   3.369638   3.852933   3.369639
     8  H    2.151934   1.079239   2.148550   3.351108   3.785905
     9  H    3.373782   2.155723   1.082502   2.037677   3.225452
    10  H    3.373782   3.789054   3.225451   2.037676   1.082501
    11  H    2.151934   3.374129   3.785905   3.351108   2.148550
    12  Ag   3.759939   3.548249   2.981337   2.638858   2.877855
                    6          7          8          9         10
     6  C    0.000000
     7  H    2.148463   0.000000
     8  H    3.374129   2.494442   0.000000
     9  H    3.789054   4.285563   2.496706   0.000000
    10  H    2.155723   4.285563   4.866876   4.072059   0.000000
    11  H    1.079239   2.494443   4.286024   4.866876   2.496706
    12  Ag   3.457221   4.593329   4.276896   3.412488   3.249022
                   11         12
    11  H    0.000000
    12  Ag   4.140733   0.000000
 Symmetry turned off by external request.
 Stoichiometry    C5H5AgN(2)
 Framework group  C1[X(C5H5AgN)]
 Deg. of freedom    30
 Full point group                 C1      NOp   1
 Rotational constants (GHZ):           3.4097129           1.0621665           1.0255615
 Leave Link  202 at Sat Sep 12 02:06:44 2026, MaxMem=  6442450944 cpu:               1.0 elap:               0.8
 (Enter C:\G16W\l301.exe)
 Standard basis: def2SVP (5D, 7F)
 Ernie: Thresh=  0.10000D-02 Tol=  0.10000D-05 Strict=F.
   140 basis functions,   250 primitive gaussians,   151 cartesian basis functions
    31 alpha electrons       30 beta electrons
       nuclear repulsion energy       338.9336840822 Hartrees.
 IExCor= 1009 DFT=T Ex+Corr=PBE1PBE ExCW=0 ScaHFX=  0.250000
 ScaDFX=  0.750000  0.750000  1.000000  1.000000 ScalE2=  1.000000  1.000000
 IRadAn=      5 IRanWt=     -1 IRanGd=            0 ICorTp=0 IEmpDi=141
 NAtoms=   12 NActive=   12 NUniq=   12 SFac= 1.00D+00 NAtFMM=   60 NAOKFM=F Big=F
 Integral buffers will be    131072 words long.
 Raffenetti 2 integral format.
 Two-electron integral symmetry is turned off.
 R6Disp:  Grimme-D3(BJ) Dispersion energy=       -0.0129936971 Hartrees.
 Nuclear repulsion after empirical dispersion term =      338.9206903851 Hartrees.
 Leave Link  301 at Sat Sep 12 02:06:45 2026, MaxMem=  6442450944 cpu:               1.0 elap:               0.6
 (Enter C:\G16W\l302.exe)
 NPDir=0 NMtPBC=     1 NCelOv=     1 NCel=       1 NClECP=     1 NCelD=      1
         NCelK=      1 NCelE2=     1 NClLst=     1 CellRange=     0.0.
 One-electron integrals computed using PRISM.
   1 Symmetry operations used in ECPInt.
 ECPInt:  NShTT=    1953 NPrTT=    6894 LenC2=    1951 LenP2D=    5830.
 LDataN:  DoStor=T MaxTD1= 7 Len=  274
 NBasis=   140 RedAO= T EigKep=  5.91D-04  NBF=   140
 NBsUse=   140 1.00D-06 EigRej= -1.00D+00 NBFU=   140
 Precomputing XC quadrature grid using
 IXCGrd= 4 IRadAn=           5 IRanWt=          -1 IRanGd=           0 AccXCQ= 0.00D+00.
 Defaulting to unpruned grid for atomic number  47.
 Generated NRdTot=       0 NPtTot=           0 NUsed=           0 NTot=          32
 NSgBfM=   151   151   151   151   151 MxSgAt=    12 MxSgA2=    12.
 Leave Link  302 at Sat Sep 12 02:06:47 2026, MaxMem=  6442450944 cpu:               2.0 elap:               1.8
 (Enter C:\G16W\l303.exe)
 DipDrv:  MaxL=1.
 Leave Link  303 at Sat Sep 12 02:06:47 2026, MaxMem=  6442450944 cpu:               0.0 elap:               0.2
 (Enter C:\G16W\l401.exe)
 Initial guess from the checkpoint file:  "pyridine.chk"
 B after Tr=     0.021227   -0.185118    0.344489
         Rot=    0.999975    0.006840    0.001897    0.000392 Ang=   0.81 deg.
 Guess basis will be translated and rotated to current coordinates.
 JPrj=2 DoOrth=T DoCkMO=T.
 Initial guess <Sx>= 0.0000 <Sy>= 0.0000 <Sz>= 0.5000 <S**2>= 0.7522 S= 0.5011
 Leave Link  401 at Sat Sep 12 02:06:50 2026, MaxMem=  6442450944 cpu:               3.0 elap:               2.6
 (Enter C:\G16W\l502.exe)
 Keep R1 and R2 ints in memory in canonical form, NReq=105240913.
 FoFCou: FMM=F IPFlag=           0 FMFlag=           0 FMFlg1=           0
         NFxFlg=           0 DoJE=F BraDBF=F KetDBF=F FulRan=T
         wScrn=  0.000000 ICntrl=       600 IOpCl=  0 I1Cent=           0 NGrid=           0
         NMat0=    1 NMatS0=   9870 NMatT0=    0 NMatD0=    1 NMtDS0=    0 NMtDT0=    0
 Symmetry not used in FoFCou.
 Two-electron integral symmetry not used.
 UHF open shell SCF:
 Using DIIS extrapolation, IDIIS=  1040.
 NGot=  6442450944 LenX=  6344975819 LenY=  6344952577
 Requested convergence on RMS density matrix=1.00D-08 within 128 cycles.
 Requested convergence on MAX density matrix=1.00D-06.
 Requested convergence on             energy=1.00D-06.
 No special actions if energy rises.

 Cycle   1  Pass 1  IDiag  1:
 Defaulting to unpruned grid for atomic number  47.
 Defaulting to unpruned grid for atomic number  47.
 Defaulting to unpruned grid for atomic number  47.
 Defaulting to unpruned grid for atomic number  47.
 Defaulting to unpruned grid for atomic number  47.
 Defaulting to unpruned grid for atomic number  47.
 Defaulting to unpruned grid for atomic number  47.
 Defaulting to unpruned grid for atomic number  47.
 E= -394.741513708366    
 DIIS: error= 2.03D-02 at cycle   1 NSaved=   1.
 NSaved= 1 IEnMin= 1 EnMin= -394.741513708366     IErMin= 1 ErrMin= 2.03D-02
 ErrMax= 2.03D-02  0.00D+00 EMaxC= 1.00D-01 BMatC= 1.30D-01 BMatP= 1.30D-01
 IDIUse=3 WtCom= 7.97D-01 WtEn= 2.03D-01
 Coeff-Com:  0.100D+01
 Coeff-En:   0.100D+01
 Coeff:      0.100D+01
 Gap=     0.124 Goal=   None    Shift=    0.000
 Gap=     0.257 Goal=   None    Shift=    0.000
 GapD=    0.124 DampG=1.000 DampE=0.250 DampFc=0.2500 IDamp=-1.
 Damping current iteration by 2.50D-01
 RMSDP=1.95D-03 MaxDP=4.64D-02              OVMax= 4.45D-02

 Cycle   2  Pass 1  IDiag  1:
 E= -394.743795920297     Delta-E=       -0.002282211932 Rises=F Damp=T
 DIIS: error= 1.51D-02 at cycle   2 NSaved=   2.
 NSaved= 2 IEnMin= 2 EnMin= -394.743795920297     IErMin= 2 ErrMin= 1.51D-02
 ErrMax= 1.51D-02  0.00D+00 EMaxC= 1.00D-01 BMatC= 7.29D-02 BMatP= 1.30D-01
 IDIUse=3 WtCom= 8.49D-01 WtEn= 1.51D-01
 Coeff-Com: -0.285D+01 0.385D+01
 Coeff-En:   0.000D+00 0.100D+01
 Coeff:     -0.242D+01 0.342D+01
 Gap=     0.112 Goal=   None    Shift=    0.000
 Gap=     0.221 Goal=   None    Shift=    0.000
 RMSDP=1.52D-03 MaxDP=3.84D-02 DE=-2.28D-03 OVMax= 2.32D-02

 Cycle   3  Pass 1  IDiag  1:
 E= -394.750176359924     Delta-E=       -0.006380439627 Rises=F Damp=F
 DIIS: error= 3.06D-03 at cycle   3 NSaved=   3.
 NSaved= 3 IEnMin= 3 EnMin= -394.750176359924     IErMin= 3 ErrMin= 3.06D-03
 ErrMax= 3.06D-03  0.00D+00 EMaxC= 1.00D-01 BMatC= 4.54D-03 BMatP= 7.29D-02
 IDIUse=3 WtCom= 9.69D-01 WtEn= 3.06D-02
 Coeff-Com: -0.158D+01 0.210D+01 0.477D+00
 Coeff-En:   0.000D+00 0.000D+00 0.100D+01
 Coeff:     -0.153D+01 0.204D+01 0.493D+00
 Gap=     0.116 Goal=   None    Shift=    0.000
 Gap=     0.217 Goal=   None    Shift=    0.000
 RMSDP=3.17D-04 MaxDP=8.12D-03 DE=-6.38D-03 OVMax= 1.41D-02

 Cycle   4  Pass 1  IDiag  1:
 E= -394.751209339057     Delta-E=       -0.001032979132 Rises=F Damp=F
 DIIS: error= 9.84D-04 at cycle   4 NSaved=   4.
 NSaved= 4 IEnMin= 4 EnMin= -394.751209339057     IErMin= 4 ErrMin= 9.84D-04
 ErrMax= 9.84D-04  0.00D+00 EMaxC= 1.00D-01 BMatC= 3.56D-04 BMatP= 4.54D-03
 IDIUse=3 WtCom= 9.90D-01 WtEn= 9.84D-03
 Coeff-Com: -0.765D+00 0.102D+01 0.294D+00 0.454D+00
 Coeff-En:   0.000D+00 0.000D+00 0.525D-02 0.995D+00
 Coeff:     -0.757D+00 0.101D+01 0.291D+00 0.459D+00
 Gap=     0.116 Goal=   None    Shift=    0.000
 Gap=     0.213 Goal=   None    Shift=    0.000
 RMSDP=8.74D-05 MaxDP=2.84D-03 DE=-1.03D-03 OVMax= 3.89D-03

 Cycle   5  Pass 1  IDiag  1:
 E= -394.751303977467     Delta-E=       -0.000094638411 Rises=F Damp=F
 DIIS: error= 1.64D-04 at cycle   5 NSaved=   5.
 NSaved= 5 IEnMin= 5 EnMin= -394.751303977467     IErMin= 5 ErrMin= 1.64D-04
 ErrMax= 1.64D-04  0.00D+00 EMaxC= 1.00D-01 BMatC= 1.34D-05 BMatP= 3.56D-04
 IDIUse=3 WtCom= 9.98D-01 WtEn= 1.64D-03
 Coeff-Com:  0.443D-01-0.600D-01-0.256D-03 0.135D+00 0.880D+00
 Coeff-En:   0.000D+00 0.000D+00 0.000D+00 0.000D+00 0.100D+01
 Coeff:      0.442D-01-0.599D-01-0.256D-03 0.135D+00 0.881D+00
 Gap=     0.116 Goal=   None    Shift=    0.000
 Gap=     0.212 Goal=   None    Shift=    0.000
 RMSDP=3.85D-05 MaxDP=2.48D-03 DE=-9.46D-05 OVMax= 2.31D-03

 Cycle   6  Pass 1  IDiag  1:
 E= -394.751311101738     Delta-E=       -0.000007124270 Rises=F Damp=F
 DIIS: error= 6.99D-05 at cycle   6 NSaved=   6.
 NSaved= 6 IEnMin= 6 EnMin= -394.751311101738     IErMin= 6 ErrMin= 6.99D-05
 ErrMax= 6.99D-05  0.00D+00 EMaxC= 1.00D-01 BMatC= 2.61D-06 BMatP= 1.34D-05
 IDIUse=1 WtCom= 1.00D+00 WtEn= 0.00D+00
 Coeff-Com:  0.148D+00-0.197D+00-0.513D-01-0.146D-01 0.399D+00 0.716D+00
 Coeff:      0.148D+00-0.197D+00-0.513D-01-0.146D-01 0.399D+00 0.716D+00
 Gap=     0.117 Goal=   None    Shift=    0.000
 Gap=     0.212 Goal=   None    Shift=    0.000
 RMSDP=1.67D-05 MaxDP=1.17D-03 DE=-7.12D-06 OVMax= 1.14D-03

 Cycle   7  Pass 1  IDiag  1:
 E= -394.751312473384     Delta-E=       -0.000001371647 Rises=F Damp=F
 DIIS: error= 1.33D-05 at cycle   7 NSaved=   7.
 NSaved= 7 IEnMin= 7 EnMin= -394.751312473384     IErMin= 7 ErrMin= 1.33D-05
 ErrMax= 1.33D-05  0.00D+00 EMaxC= 1.00D-01 BMatC= 1.58D-07 BMatP= 2.61D-06
 IDIUse=1 WtCom= 1.00D+00 WtEn= 0.00D+00
 Coeff-Com:  0.228D-01-0.303D-01-0.100D-01-0.193D-01-0.219D-01 0.123D+00
 Coeff-Com:  0.936D+00
 Coeff:      0.228D-01-0.303D-01-0.100D-01-0.193D-01-0.219D-01 0.123D+00
 Coeff:      0.936D+00
 Gap=     0.117 Goal=   None    Shift=    0.000
 Gap=     0.212 Goal=   None    Shift=    0.000
 RMSDP=5.89D-06 MaxDP=4.96D-04 DE=-1.37D-06 OVMax= 4.39D-04

 Cycle   8  Pass 1  IDiag  1:
 E= -394.751312599360     Delta-E=       -0.000000125976 Rises=F Damp=F
 DIIS: error= 1.05D-05 at cycle   8 NSaved=   8.
 NSaved= 8 IEnMin= 8 EnMin= -394.751312599360     IErMin= 8 ErrMin= 1.05D-05
 ErrMax= 1.05D-05  0.00D+00 EMaxC= 1.00D-01 BMatC= 5.82D-08 BMatP= 1.58D-07
 IDIUse=1 WtCom= 1.00D+00 WtEn= 0.00D+00
 Coeff-Com: -0.122D-01 0.163D-01 0.330D-02-0.680D-02-0.648D-01-0.484D-01
 Coeff-Com:  0.450D+00 0.663D+00
 Coeff:     -0.122D-01 0.163D-01 0.330D-02-0.680D-02-0.648D-01-0.484D-01
 Coeff:      0.450D+00 0.663D+00
 Gap=     0.117 Goal=   None    Shift=    0.000
 Gap=     0.212 Goal=   None    Shift=    0.000
 RMSDP=1.98D-06 MaxDP=1.22D-04 DE=-1.26D-07 OVMax= 1.18D-04

 Cycle   9  Pass 1  IDiag  1:
 E= -394.751312622845     Delta-E=       -0.000000023486 Rises=F Damp=F
 DIIS: error= 6.58D-06 at cycle   9 NSaved=   9.
 NSaved= 9 IEnMin= 9 EnMin= -394.751312622845     IErMin= 9 ErrMin= 6.58D-06
 ErrMax= 6.58D-06  0.00D+00 EMaxC= 1.00D-01 BMatC= 1.62D-08 BMatP= 5.82D-08
 IDIUse=1 WtCom= 1.00D+00 WtEn= 0.00D+00
 Coeff-Com: -0.118D-01 0.157D-01 0.400D-02-0.222D-03-0.327D-01-0.534D-01
 Coeff-Com:  0.896D-01 0.387D+00 0.602D+00
 Coeff:     -0.118D-01 0.157D-01 0.400D-02-0.222D-03-0.327D-01-0.534D-01
 Coeff:      0.896D-01 0.387D+00 0.602D+00
 Gap=     0.117 Goal=   None    Shift=    0.000
 Gap=     0.212 Goal=   None    Shift=    0.000
 RMSDP=8.30D-07 MaxDP=3.19D-05 DE=-2.35D-08 OVMax= 3.74D-05

 Cycle  10  Pass 1  IDiag  1:
 E= -394.751312630174     Delta-E=       -0.000000007329 Rises=F Damp=F
 DIIS: error= 2.69D-06 at cycle  10 NSaved=  10.
 NSaved=10 IEnMin=10 EnMin= -394.751312630174     IErMin=10 ErrMin= 2.69D-06
 ErrMax= 2.69D-06  0.00D+00 EMaxC= 1.00D-01 BMatC= 2.45D-09 BMatP= 1.62D-08
 IDIUse=1 WtCom= 1.00D+00 WtEn= 0.00D+00
 Coeff-Com: -0.110D-02 0.146D-02 0.600D-03 0.115D-02 0.188D-02-0.985D-02
 Coeff-Com: -0.567D-01 0.784D-02 0.215D+00 0.839D+00
 Coeff:     -0.110D-02 0.146D-02 0.600D-03 0.115D-02 0.188D-02-0.985D-02
 Coeff:     -0.567D-01 0.784D-02 0.215D+00 0.839D+00
 Gap=     0.117 Goal=   None    Shift=    0.000
 Gap=     0.212 Goal=   None    Shift=    0.000
 RMSDP=4.79D-07 MaxDP=1.59D-05 DE=-7.33D-09 OVMax= 2.66D-05

 Cycle  11  Pass 1  IDiag  1:
 E= -394.751312632796     Delta-E=       -0.000000002622 Rises=F Damp=F
 DIIS: error= 1.94D-06 at cycle  11 NSaved=  11.
 NSaved=11 IEnMin=11 EnMin= -394.751312632796     IErMin=11 ErrMin= 1.94D-06
 ErrMax= 1.94D-06  0.00D+00 EMaxC= 1.00D-01 BMatC= 8.91D-10 BMatP= 2.45D-09
 IDIUse=1 WtCom= 1.00D+00 WtEn= 0.00D+00
 Coeff-Com:  0.468D-02-0.624D-02-0.144D-02 0.724D-03 0.150D-01 0.187D-01
 Coeff-Com: -0.597D-01-0.166D+00-0.194D+00 0.284D+00 0.110D+01
 Coeff:      0.468D-02-0.624D-02-0.144D-02 0.724D-03 0.150D-01 0.187D-01
 Coeff:     -0.597D-01-0.166D+00-0.194D+00 0.284D+00 0.110D+01
 Gap=     0.117 Goal=   None    Shift=    0.000
 Gap=     0.212 Goal=   None    Shift=    0.000
 RMSDP=4.86D-07 MaxDP=1.80D-05 DE=-2.62D-09 OVMax= 3.33D-05

 Cycle  12  Pass 1  IDiag  1:
 E= -394.751312634491     Delta-E=       -0.000000001695 Rises=F Damp=F
 DIIS: error= 1.15D-06 at cycle  12 NSaved=  12.
 NSaved=12 IEnMin=12 EnMin= -394.751312634491     IErMin=12 ErrMin= 1.15D-06
 ErrMax= 1.15D-06  0.00D+00 EMaxC= 1.00D-01 BMatC= 2.37D-10 BMatP= 8.91D-10
 IDIUse=1 WtCom= 1.00D+00 WtEn= 0.00D+00
 Coeff-Com:  0.145D-02-0.194D-02-0.516D-03-0.246D-04 0.358D-02 0.790D-02
 Coeff-Com: -0.401D-02-0.526D-01-0.113D+00-0.133D+00 0.319D+00 0.973D+00
 Coeff:      0.145D-02-0.194D-02-0.516D-03-0.246D-04 0.358D-02 0.790D-02
 Coeff:     -0.401D-02-0.526D-01-0.113D+00-0.133D+00 0.319D+00 0.973D+00
 Gap=     0.117 Goal=   None    Shift=    0.000
 Gap=     0.212 Goal=   None    Shift=    0.000
 RMSDP=2.56D-07 MaxDP=8.67D-06 DE=-1.70D-09 OVMax= 1.98D-05

 Cycle  13  Pass 1  IDiag  1:
 E= -394.751312634899     Delta-E=       -0.000000000408 Rises=F Damp=F
 DIIS: error= 6.66D-07 at cycle  13 NSaved=  13.
 NSaved=13 IEnMin=13 EnMin= -394.751312634899     IErMin=13 ErrMin= 6.66D-07
 ErrMax= 6.66D-07  0.00D+00 EMaxC= 1.00D-01 BMatC= 1.15D-10 BMatP= 2.37D-10
 IDIUse=1 WtCom= 1.00D+00 WtEn= 0.00D+00
 Coeff-Com: -0.846D-03 0.113D-02 0.201D-03-0.356D-03-0.342D-02-0.181D-02
 Coeff-Com:  0.206D-01 0.313D-01 0.807D-02-0.187D+00-0.245D+00 0.591D+00
 Coeff-Com:  0.786D+00
 Coeff:     -0.846D-03 0.113D-02 0.201D-03-0.356D-03-0.342D-02-0.181D-02
 Coeff:      0.206D-01 0.313D-01 0.807D-02-0.187D+00-0.245D+00 0.591D+00
 Coeff:      0.786D+00
 Gap=     0.117 Goal=   None    Shift=    0.000
 Gap=     0.212 Goal=   None    Shift=    0.000
 RMSDP=1.50D-07 MaxDP=4.93D-06 DE=-4.08D-10 OVMax= 1.22D-05

 Cycle  14  Pass 1  IDiag  1:
 E= -394.751312635027     Delta-E=       -0.000000000128 Rises=F Damp=F
 DIIS: error= 1.59D-07 at cycle  14 NSaved=  14.
 NSaved=14 IEnMin=14 EnMin= -394.751312635027     IErMin=14 ErrMin= 1.59D-07
 ErrMax= 1.59D-07  0.00D+00 EMaxC= 1.00D-01 BMatC= 7.81D-12 BMatP= 1.15D-10
 IDIUse=1 WtCom= 1.00D+00 WtEn= 0.00D+00
 Coeff-Com: -0.173D-03 0.230D-03 0.553D-04 0.303D-05-0.209D-03-0.101D-02
 Coeff-Com: -0.196D-02 0.688D-02 0.226D-01 0.430D-01-0.464D-01-0.231D+00
 Coeff-Com: -0.741D-01 0.128D+01
 Coeff:     -0.173D-03 0.230D-03 0.553D-04 0.303D-05-0.209D-03-0.101D-02
 Coeff:     -0.196D-02 0.688D-02 0.226D-01 0.430D-01-0.464D-01-0.231D+00
 Coeff:     -0.741D-01 0.128D+01
 Gap=     0.117 Goal=   None    Shift=    0.000
 Gap=     0.212 Goal=   None    Shift=    0.000
 RMSDP=6.13D-08 MaxDP=1.96D-06 DE=-1.28D-10 OVMax= 4.27D-06

 Cycle  15  Pass 1  IDiag  1:
 E= -394.751312635044     Delta-E=       -0.000000000017 Rises=F Damp=F
 DIIS: error= 5.40D-08 at cycle  15 NSaved=  15.
 NSaved=15 IEnMin=15 EnMin= -394.751312635044     IErMin=15 ErrMin= 5.40D-08
 ErrMax= 5.40D-08  0.00D+00 EMaxC= 1.00D-01 BMatC= 1.48D-12 BMatP= 7.81D-12
 IDIUse=1 WtCom= 1.00D+00 WtEn= 0.00D+00
 Coeff-Com:  0.168D-04-0.225D-04 0.288D-05 0.396D-04 0.212D-03-0.259D-03
 Coeff-Com: -0.297D-02-0.679D-03 0.759D-02 0.364D-01 0.112D-01-0.151D+00
 Coeff-Com: -0.120D+00 0.454D+00 0.765D+00
 Coeff:      0.168D-04-0.225D-04 0.288D-05 0.396D-04 0.212D-03-0.259D-03
 Coeff:     -0.297D-02-0.679D-03 0.759D-02 0.364D-01 0.112D-01-0.151D+00
 Coeff:     -0.120D+00 0.454D+00 0.765D+00
 Gap=     0.117 Goal=   None    Shift=    0.000
 Gap=     0.212 Goal=   None    Shift=    0.000
 RMSDP=1.35D-08 MaxDP=4.04D-07 DE=-1.69D-11 OVMax= 8.16D-07

 Cycle  16  Pass 1  IDiag  1:
 E= -394.751312635036     Delta-E=        0.000000000008 Rises=F Damp=F
 DIIS: error= 1.61D-08 at cycle  16 NSaved=  16.
 NSaved=16 IEnMin=15 EnMin= -394.751312635044     IErMin=16 ErrMin= 1.61D-08
 ErrMax= 1.61D-08  0.00D+00 EMaxC= 1.00D-01 BMatC= 2.04D-13 BMatP= 1.48D-12
 IDIUse=1 WtCom= 1.00D+00 WtEn= 0.00D+00
 Coeff-Com:  0.418D-04-0.557D-04-0.927D-05 0.166D-04 0.114D-03 0.124D-03
 Coeff-Com: -0.486D-03-0.154D-02-0.205D-02 0.335D-02 0.121D-01-0.538D-02
 Coeff-Com: -0.227D-01-0.783D-01 0.200D+00 0.894D+00
 Coeff:      0.418D-04-0.557D-04-0.927D-05 0.166D-04 0.114D-03 0.124D-03
 Coeff:     -0.486D-03-0.154D-02-0.205D-02 0.335D-02 0.121D-01-0.538D-02
 Coeff:     -0.227D-01-0.783D-01 0.200D+00 0.894D+00
 Gap=     0.117 Goal=   None    Shift=    0.000
 Gap=     0.212 Goal=   None    Shift=    0.000
 RMSDP=5.12D-09 MaxDP=2.07D-07 DE= 7.62D-12 OVMax= 2.84D-07

 SCF Done:  E(UPBE1PBE) =  -394.751312635     A.U. after   16 cycles
            NFock= 16  Conv=0.51D-08     -V/T= 2.3083
 <Sx>= 0.0000 <Sy>= 0.0000 <Sz>= 0.5000 <S**2>= 0.7517 S= 0.5009
 <L.S>= 0.000000000000E+00
 KE= 3.017214201554D+02 PE=-1.569468518938D+03 EE= 5.340750957625D+02
 Annihilation of the first spin contaminant:
 S**2 before annihilation     0.7517,   after     0.7500
 Leave Link  502 at Sat Sep 12 02:08:00 2026, MaxMem=  6442450944 cpu:              70.0 elap:              70.5
 (Enter C:\G16W\l508.exe)
 QCSCF skips out because SCF is already converged.
 Leave Link  508 at Sat Sep 12 02:08:01 2026, MaxMem=  6442450944 cpu:               1.0 elap:               0.1
 (Enter C:\G16W\l601.exe)
 Copying SCF densities to generalized density rwf, IOpCl= 1 IROHF=0.

 **********************************************************************

            Population analysis using the SCF Density.

 **********************************************************************

 Alpha  occ. eigenvalues --  -14.40931 -10.28789 -10.28700 -10.27275 -10.26316
 Alpha  occ. eigenvalues --  -10.26299  -3.74299  -2.32292  -2.32266  -2.32209
 Alpha  occ. eigenvalues --   -0.99528  -0.84483  -0.80133  -0.66975  -0.66153
 Alpha  occ. eigenvalues --   -0.56699  -0.52172  -0.49807  -0.46283  -0.45382
 Alpha  occ. eigenvalues --   -0.43741  -0.39548  -0.34162  -0.32857  -0.31855
 Alpha  occ. eigenvalues --   -0.31763  -0.31737  -0.30372  -0.29056  -0.28538
 Alpha  occ. eigenvalues --   -0.16082
 Alpha virt. eigenvalues --   -0.04422  -0.03452   0.00929   0.01187   0.03922
 Alpha virt. eigenvalues --    0.06330   0.10560   0.10781   0.13221   0.14174
 Alpha virt. eigenvalues --    0.14400   0.15948   0.23242   0.27131   0.28927
 Alpha virt. eigenvalues --    0.29412   0.30812   0.34063   0.34195   0.36854
 Alpha virt. eigenvalues --    0.38279   0.39492   0.40168   0.44287   0.45890
 Alpha virt. eigenvalues --    0.47176   0.49059   0.49712   0.51201   0.51374
 Alpha virt. eigenvalues --    0.57570   0.59149   0.60126   0.61625   0.61789
 Alpha virt. eigenvalues --    0.64898   0.65472   0.67187   0.67660   0.71331
 Alpha virt. eigenvalues --    0.72954   0.73877   0.75761   0.77766   0.79408
 Alpha virt. eigenvalues --    0.80732   0.84422   0.91755   0.99550   1.01139
 Alpha virt. eigenvalues --    1.10430   1.15757   1.16016   1.23155   1.24611
 Alpha virt. eigenvalues --    1.25280   1.26512   1.32601   1.38101   1.38713
 Alpha virt. eigenvalues --    1.52614   1.65026   1.66473   1.70680   1.73450
 Alpha virt. eigenvalues --    1.74426   1.77322   1.77794   1.79739   1.80922
 Alpha virt. eigenvalues --    1.85377   1.91656   1.92694   1.96485   1.98400
 Alpha virt. eigenvalues --    1.99687   2.03582   2.11287   2.11664   2.16594
 Alpha virt. eigenvalues --    2.20580   2.26024   2.29436   2.34865   2.40891
 Alpha virt. eigenvalues --    2.45093   2.46327   2.51667   2.59811   2.62019
 Alpha virt. eigenvalues --    2.63212   2.63246   2.63274   2.63308   2.63844
 Alpha virt. eigenvalues --    2.66555   2.66605   2.73230   2.74068   2.74134
 Alpha virt. eigenvalues --    2.83343   2.90668   2.98485   3.03999   3.15284
 Alpha virt. eigenvalues --    3.17042   3.35779   3.69911  53.84224
  Beta  occ. eigenvalues --  -14.40840 -10.28777 -10.28690 -10.27279 -10.26310
  Beta  occ. eigenvalues --  -10.26298  -3.74172  -2.32249  -2.32226  -2.32161
  Beta  occ. eigenvalues --   -0.99402  -0.84451  -0.80098  -0.66941  -0.66120
  Beta  occ. eigenvalues --   -0.56681  -0.52136  -0.49795  -0.46273  -0.45055
  Beta  occ. eigenvalues --   -0.43715  -0.39533  -0.33870  -0.32365  -0.31258
  Beta  occ. eigenvalues --   -0.31155  -0.31129  -0.29878  -0.28845  -0.28330
  Beta virt. eigenvalues --   -0.07101  -0.04262  -0.03236   0.03565   0.03674
  Beta virt. eigenvalues --    0.05422   0.07857   0.10785   0.11450   0.13313
  Beta virt. eigenvalues --    0.14497   0.14719   0.16878   0.23550   0.27373
  Beta virt. eigenvalues --    0.29280   0.29706   0.32576   0.35718   0.36631
  Beta virt. eigenvalues --    0.37579   0.38834   0.40423   0.40893   0.45089
  Beta virt. eigenvalues --    0.46842   0.47914   0.49874   0.50468   0.51848
  Beta virt. eigenvalues --    0.52433   0.58664   0.59990   0.60237   0.61929
  Beta virt. eigenvalues --    0.62214   0.64948   0.65536   0.67560   0.68107
  Beta virt. eigenvalues --    0.71391   0.73146   0.74061   0.75895   0.78250
  Beta virt. eigenvalues --    0.79702   0.81050   0.84738   0.91919   0.99678
  Beta virt. eigenvalues --    1.01217   1.10718   1.15797   1.16067   1.23190
  Beta virt. eigenvalues --    1.24881   1.25295   1.26537   1.32629   1.38215
  Beta virt. eigenvalues --    1.38796   1.52711   1.65040   1.66534   1.70698
  Beta virt. eigenvalues --    1.73459   1.74440   1.77336   1.77811   1.79772
  Beta virt. eigenvalues --    1.80971   1.85409   1.91675   1.92762   1.96557
  Beta virt. eigenvalues --    1.98415   1.99700   2.03726   2.11506   2.12516
  Beta virt. eigenvalues --    2.16641   2.20616   2.26082   2.29451   2.34877
  Beta virt. eigenvalues --    2.40933   2.45136   2.46346   2.51759   2.59854
  Beta virt. eigenvalues --    2.62127   2.63221   2.63250   2.63313   2.63349
  Beta virt. eigenvalues --    2.63917   2.66615   2.66707   2.73270   2.74073
  Beta virt. eigenvalues --    2.74141   2.83474   2.90691   2.98572   3.04029
  Beta virt. eigenvalues --    3.15296   3.17093   3.35825   3.69939  53.84384
          Condensed to atoms (all electrons):
               1          2          3          4          5          6
     1  C    4.901555   0.381614   0.008312  -0.047849   0.009995   0.379887
     2  C    0.381614   5.025333   0.387845  -0.030423  -0.086039   0.025914
     3  C    0.008312   0.387845   4.821295   0.472289  -0.046861  -0.086054
     4  N   -0.047849  -0.030423   0.472289   6.427668   0.466106  -0.029732
     5  C    0.009995  -0.086039  -0.046861   0.466106   4.837294   0.383009
     6  C    0.379887   0.025914  -0.086054  -0.029732   0.383009   5.029711
     7  H    0.442935  -0.058663   0.010402  -0.000341   0.010481  -0.058793
     8  H   -0.057973   0.430419  -0.048241   0.005785   0.000213   0.011511
     9  H    0.008640  -0.078053   0.437595  -0.051281   0.008108  -0.000413
    10  H    0.008699  -0.000489   0.008216  -0.052209   0.438005  -0.078558
    11  H   -0.058280   0.011620   0.000176   0.005863  -0.049241   0.431451
    12  Ag  -0.002993   0.006513  -0.007734   0.016295  -0.003996   0.003320
               7          8          9         10         11         12
     1  C    0.442935  -0.057973   0.008640   0.008699  -0.058280  -0.002993
     2  C   -0.058663   0.430419  -0.078053  -0.000489   0.011620   0.006513
     3  C    0.010402  -0.048241   0.437595   0.008216   0.000176  -0.007734
     4  N   -0.000341   0.005785  -0.051281  -0.052209   0.005863   0.016295
     5  C    0.010481   0.000213   0.008108   0.438005  -0.049241  -0.003996
     6  C   -0.058793   0.011511  -0.000413  -0.078558   0.431451   0.003320
     7  H    0.638437  -0.011330  -0.000295  -0.000296  -0.011355   0.000879
     8  H   -0.011330   0.643701  -0.006183   0.000093  -0.000139  -0.000830
     9  H   -0.000295  -0.006183   0.640121  -0.000052   0.000091  -0.008326
    10  H   -0.000296   0.000093  -0.000052   0.639031  -0.006089  -0.009549
    11  H   -0.011355  -0.000139   0.000091  -0.006089   0.643559  -0.000844
    12  Ag   0.000879  -0.000830  -0.008326  -0.009549  -0.000844  19.106737
          Atomic-Atomic Spin Densities.
               1          2          3          4          5          6
     1  C   -0.003552   0.000781   0.000095   0.000439   0.000038   0.000780
     2  C    0.000781  -0.000612   0.000891   0.000860  -0.000411   0.000447
     3  C    0.000095   0.000891   0.005965   0.002893   0.001592  -0.000215
     4  N    0.000439   0.000860   0.002893   0.057215   0.003434   0.001256
     5  C    0.000038  -0.000411   0.001592   0.003434   0.006221   0.002580
     6  C    0.000780   0.000447  -0.000215   0.001256   0.002580   0.002524
     7  H    0.000059   0.000025  -0.000007   0.000003  -0.000006   0.000018
     8  H    0.000028  -0.000029  -0.000050  -0.000034   0.000014  -0.000016
     9  H    0.000017   0.000087   0.000182   0.000022   0.000044  -0.000012
    10  H    0.000022  -0.000007   0.000022   0.000158   0.000393   0.000138
    11  H    0.000034  -0.000018   0.000011  -0.000034  -0.000042  -0.000003
    12  Ag  -0.002989  -0.004204  -0.011736  -0.049455  -0.015100  -0.008402
               7          8          9         10         11         12
     1  C    0.000059   0.000028   0.000017   0.000022   0.000034  -0.002989
     2  C    0.000025  -0.000029   0.000087  -0.000007  -0.000018  -0.004204
     3  C   -0.000007  -0.000050   0.000182   0.000022   0.000011  -0.011736
     4  N    0.000003  -0.000034   0.000022   0.000158  -0.000034  -0.049455
     5  C   -0.000006   0.000014   0.000044   0.000393  -0.000042  -0.015100
     6  C    0.000018  -0.000016  -0.000012   0.000138  -0.000003  -0.008402
     7  H    0.000258  -0.000011   0.000000   0.000000  -0.000009  -0.000196
     8  H   -0.000011   0.000012  -0.000021   0.000000  -0.000001   0.000279
     9  H    0.000000  -0.000021  -0.000200   0.000002   0.000000  -0.000335
    10  H    0.000000   0.000000   0.000002  -0.000223  -0.000026  -0.000801
    11  H   -0.000009  -0.000001   0.000000  -0.000026  -0.000129   0.000275
    12  Ag  -0.000196   0.000279  -0.000335  -0.000801   0.000275   1.085032
 Mulliken charges and spin densities:
               1          2
     1  C    0.025459  -0.004249
     2  C   -0.015590  -0.002189
     3  C    0.042758  -0.000358
     4  N   -0.182171   0.016758
     5  C    0.032925  -0.001243
     6  C   -0.011251  -0.000906
     7  H    0.037938   0.000134
     8  H    0.032973   0.000169
     9  H    0.050047  -0.000214
    10  H    0.053198  -0.000323
    11  H    0.033188   0.000055
    12  Ag  -0.099474   0.992367
 Sum of Mulliken charges =   0.00000   1.00000
 Mulliken charges and spin densities with hydrogens summed into heavy atoms:
               1          2
     1  C    0.063397  -0.004115
     2  C    0.017383  -0.002020
     3  C    0.092806  -0.000573
     4  N   -0.182171   0.016758
     5  C    0.086123  -0.001566
     6  C    0.021936  -0.000850
    12  Ag  -0.099474   0.992367
 Electronic spatial extent (au):  <R**2>=           1109.7727
 Charge=              0.0000 electrons
 Dipole moment (field-independent basis, Debye):
    X=             -0.5587    Y=              2.6352    Z=             -2.1390  Tot=              3.4397
 Quadrupole moment (field-independent basis, Debye-Ang):
   XX=            -49.8269   YY=            -56.9420   ZZ=            -66.4766
   XY=              1.8083   XZ=             -0.0140   YZ=              3.4074
 Traceless Quadrupole moment (field-independent basis, Debye-Ang):
   XX=              7.9216   YY=              0.8065   ZZ=             -8.7281
   XY=              1.8083   XZ=             -0.0140   YZ=              3.4074
 Octapole moment (field-independent basis, Debye-Ang**2):
  XXX=            -17.0270  YYY=            133.5610  ZZZ=           -193.3088  XYY=            -11.1424
  XXY=             38.7342  XXZ=            -54.7084  XZZ=             -7.1905  YZZ=             51.8401
  YYZ=            -58.4168  XYZ=             -0.0791
 Hexadecapole moment (field-independent basis, Debye-Ang**3):
 XXXX=           -278.6433 YYYY=           -640.7505 ZZZZ=          -1028.6540 XXXY=             20.8892
 XXXZ=            -37.1828 YYYX=             35.4365 YYYZ=            265.3086 ZZZX=            -42.3997
 ZZZY=            302.8623 XXYY=           -147.5084 XXZZ=           -211.6534 YYZZ=           -282.3288
 XXYZ=             87.1080 YYXZ=            -11.7886 ZZXY=              8.7068
 N-N= 3.389206903851D+02 E-N=-1.569468518605D+03  KE= 3.017214201554D+02
                          Isotropic Fermi Contact Couplings
        Atom                 a.u.       MegaHertz       Gauss      10(-4) cm-1
     1  C(13)              0.00151       1.69232       0.60386       0.56450
     2  C(13)              0.00345       3.88200       1.38519       1.29490
     3  C(13)              0.00338       3.79548       1.35432       1.26604
     4  N(14)              0.05236      16.91712       6.03645       5.64295
     5  C(13)              0.00501       5.62767       2.00809       1.87719
     6  C(13)              0.00460       5.16674       1.84362       1.72344
     7  H(1)               0.00006       0.25242       0.09007       0.08420
     8  H(1)               0.00000       0.00644       0.00230       0.00215
     9  H(1)              -0.00004      -0.18359      -0.06551      -0.06124
    10  H(1)               0.00002       0.07326       0.02614       0.02444
    11  H(1)              -0.00004      -0.16205      -0.05782      -0.05405
    12  Ag(107             0.00032      -0.05849      -0.02087      -0.01951
 --------------------------------------------------------
       Center         ----  Spin Dipole Couplings  ----
                      3XX-RR        3YY-RR        3ZZ-RR
 --------------------------------------------------------
     1   Atom       -0.000196      0.003277     -0.003081
     2   Atom       -0.001511      0.002526     -0.001014
     3   Atom       -0.004989     -0.004544      0.009533
     4   Atom       -0.033956     -0.024410      0.058366
     5   Atom       -0.003374     -0.006662      0.010036
     6   Atom       -0.002369     -0.000320      0.002689
     7   Atom       -0.001044      0.001002      0.000041
     8   Atom       -0.001170      0.000913      0.000256
     9   Atom        0.000972     -0.002781      0.001808
    10   Atom       -0.000251     -0.002620      0.002872
    11   Atom        0.000101     -0.000612      0.000511
    12   Atom        0.015096      0.013860     -0.028957
 --------------------------------------------------------
                        XY            XZ            YZ
 --------------------------------------------------------
     1   Atom       -0.000645      0.000534     -0.002753
     2   Atom        0.000770     -0.000839     -0.003758
     3   Atom        0.002386     -0.000228     -0.002692
     4   Atom       -0.001042      0.005739     -0.036982
     5   Atom       -0.001216     -0.000116     -0.003507
     6   Atom       -0.001947      0.002917     -0.005162
     7   Atom       -0.000393      0.000394     -0.001803
     8   Atom        0.001115     -0.001017     -0.001948
     9   Atom        0.000777     -0.003557     -0.000994
    10   Atom        0.001181      0.003709      0.000960
    11   Atom       -0.001654      0.001924     -0.001576
    12   Atom        0.001415      0.002655      0.000930
 --------------------------------------------------------


 ---------------------------------------------------------------------------------
              Anisotropic Spin Dipole Couplings in Principal Axis System
 ---------------------------------------------------------------------------------

       Atom             a.u.   MegaHertz   Gauss  10(-4) cm-1        Axes

              Baa    -0.0041    -0.554    -0.198    -0.185 -0.0712  0.3422  0.9369
     1 C(13)  Bbb    -0.0003    -0.042    -0.015    -0.014  0.9831  0.1828  0.0080
              Bcc     0.0044     0.596     0.213     0.199 -0.1686  0.9217 -0.3495
 
              Baa    -0.0034    -0.463    -0.165    -0.154  0.1630  0.5103  0.8444
     2 C(13)  Bbb    -0.0016    -0.221    -0.079    -0.074  0.9728 -0.2258 -0.0513
              Bcc     0.0051     0.683     0.244     0.228  0.1645  0.8298 -0.5332
 
              Baa    -0.0073    -0.984    -0.351    -0.328  0.7048 -0.7020 -0.1025
     3 C(13)  Bbb    -0.0027    -0.366    -0.131    -0.122  0.7080  0.6869  0.1640
              Bcc     0.0101     1.350     0.482     0.450 -0.0447 -0.1881  0.9811
 
              Baa    -0.0388    -1.496    -0.534    -0.499 -0.2305  0.9048  0.3581
     4 N(14)  Bbb    -0.0340    -1.312    -0.468    -0.438  0.9716  0.2343  0.0334
              Bcc     0.0728     2.807     1.002     0.936  0.0536 -0.3556  0.9331
 
              Baa    -0.0077    -1.034    -0.369    -0.345  0.2699  0.9443  0.1884
     5 C(13)  Bbb    -0.0030    -0.407    -0.145    -0.136  0.9628 -0.2629 -0.0620
              Bcc     0.0107     1.442     0.514     0.481  0.0090 -0.1981  0.9801
 
              Baa    -0.0042    -0.569    -0.203    -0.190 -0.2519  0.7224  0.6440
     6 C(13)  Bbb    -0.0035    -0.473    -0.169    -0.158  0.9110  0.4015 -0.0941
              Bcc     0.0078     1.043     0.372     0.348  0.3266 -0.5629  0.7593
 
              Baa    -0.0014    -0.729    -0.260    -0.243 -0.2894  0.5489  0.7842
     7 H(1)   Bbb    -0.0011    -0.591    -0.211    -0.197  0.9446  0.2965  0.1410
              Bcc     0.0025     1.320     0.471     0.440 -0.1551  0.7815 -0.6043
 
              Baa    -0.0017    -0.914    -0.326    -0.305  0.9301 -0.1443  0.3378
     8 H(1)   Bbb    -0.0014    -0.737    -0.263    -0.246 -0.1540  0.6818  0.7151
              Bcc     0.0031     1.651     0.589     0.551  0.3335  0.7172 -0.6119
 
              Baa    -0.0030    -1.594    -0.569    -0.532 -0.0297  0.9829  0.1816
     9 H(1)   Bbb    -0.0022    -1.165    -0.416    -0.389  0.7550 -0.0971  0.6485
              Bcc     0.0052     2.759     0.984     0.920 -0.6551 -0.1564  0.7392
 
              Baa    -0.0032    -1.734    -0.619    -0.578 -0.6047  0.7569  0.2478
    10 H(1)   Bbb    -0.0023    -1.250    -0.446    -0.417  0.5736  0.6297 -0.5239
              Bcc     0.0056     2.984     1.065     0.995  0.5526  0.1747  0.8149
 
              Baa    -0.0019    -1.040    -0.371    -0.347  0.6124  0.7901  0.0271
    11 H(1)   Bbb    -0.0016    -0.830    -0.296    -0.277 -0.5181  0.3752  0.7686
              Bcc     0.0035     1.869     0.667     0.623  0.5971 -0.4848  0.6392
 
              Baa    -0.0291     0.632     0.226     0.211 -0.0593 -0.0196  0.9980
    12 Ag(107 Bbb     0.0129    -0.281    -0.100    -0.094 -0.5361  0.8440 -0.0152
              Bcc     0.0162    -0.351    -0.125    -0.117  0.8420  0.5360  0.0606
 

 ---------------------------------------------------------------------------------

 No NMR shielding tensors so no spin-rotation constants.
 Leave Link  601 at Sat Sep 12 02:08:03 2026, MaxMem=  6442450944 cpu:               2.0 elap:               2.2
 (Enter C:\G16W\l9999.exe)
 Unable to Open any file for archive entry.
 1|1|UNPC-DESKTOP-2JKEGCA|SP|UPBE1PBE|def2SVP|C5H5Ag1N1(2)|JHKIM|12-Sep
 -2026|0||#P PBE1PBE/Def2SVP EmpiricalDispersion=GD3BJ SP SCF=(XQC,MaxC
 ycle=128) NoSymm Guess=Read||pyridine t=0.750 dz=+0.40 class=toface||0
 ,2|C,0,-0.310236,1.144474,0.060853|C,0,1.025069,0.773724,0.057432|C,0,
 1.330545,-0.577468,-0.015216|N,0,0.414071,-1.527525,-0.081221|C,0,-0.8
 57586,-1.167297,-0.077554|C,0,-1.276374,0.153351,-0.008138|H,0,-0.5926
 51,2.186315,0.11625|H,0,1.809285,1.513335,0.109757|H,0,2.357787,-0.918
 862,-0.021028|H,0,-1.572447,-1.978288,-0.13302|H,0,-2.327462,0.398241,
 -0.008116|Ag,0,0.22624433,-1.6227178,2.54922249||Version=EM64W-G16RevC
 .01|HF=-394.7513126|S2=0.751712|S2-1=0.|S2A=0.750003|RMSD=5.122e-009|D
 ipole=-0.2198106,1.0367613,-0.841529|Quadrupole=5.8894959,0.5996375,-6
 .4891334,1.34445,-0.0104189,2.5333445|PG=C01 [X(C5H5Ag1N1)]||@
 The archive entry for this job was punched.


 THE LENGTH OF A MEETING IS PROPORTIONAL TO THE
 SQUARE OF THE PARTICIPANTS.
 Job cpu time:       0 days  0 hours  1 minutes 21.0 seconds.
 Elapsed time:       0 days  0 hours  1 minutes 20.4 seconds.
 File lengths (MBytes):  RWF=     15 Int=      0 D2E=      0 Chk=      3 Scr=      1
 Normal termination of Gaussian 16 at Sat Sep 12 02:08:04 2026.
