 Entering Gaussian System, Link 0=C:\G16W\g16.exe
 Input=thiophene_t4_z1.gjf
 Output=thiophene_t4_z1.out
 Initial command:
 C:\G16W\l1.exe ".\Gau-100876.inp" "thiophene_t4_z1.out" /scrdir=".\"
 Entering Link 1 = C:\G16W\l1.exe PID=     50848.
  
 Copyright (c) 1988-2019, Gaussian, Inc.  All Rights Reserved.
  
 This is part of the Gaussian(R) 16 program.  It is based on
 the Gaussian(R) 09 system (copyright 2009, Gaussian, Inc.),
 the Gaussian(R) 03 system (copyright 2003, Gaussian, Inc.),
 the Gaussian(R) 98 system (copyright 1998, Gaussian, Inc.),
 the Gaussian(R) 94 system (copyright 1995, Gaussian, Inc.),
 the Gaussian 92(TM) system (copyright 1992, Gaussian, Inc.),
 the Gaussian 90(TM) system (copyright 1990, Gaussian, Inc.),
 the Gaussian 88(TM) system (copyright 1988, Gaussian, Inc.),
 the Gaussian 86(TM) system (copyright 1986, Carnegie Mellon
 University), and the Gaussian 82(TM) system (copyright 1983,
 Carnegie Mellon University). Gaussian is a federally registered
 trademark of Gaussian, Inc.
  
 This software contains proprietary and confidential information,
 including trade secrets, belonging to Gaussian, Inc.
  
 This software is provided under written license and may be
 used, copied, transmitted, or stored only in accord with that
 written license.
  
 The following legend is applicable only to US Government
 contracts under FAR:
  
                    RESTRICTED RIGHTS LEGEND
  
 Use, reproduction and disclosure by the US Government is
 subject to restrictions as set forth in subparagraphs (a)
 and (c) of the Commercial Computer Software - Restricted
 Rights clause in FAR 52.227-19.
  
 Gaussian, Inc.
 340 Quinnipiac St., Bldg. 40, Wallingford CT 06492
  
  
 ---------------------------------------------------------------
 Warning -- This program may not be used in any manner that
 competes with the business of Gaussian, Inc. or will provide
 assistance to any competitor of Gaussian, Inc.  The licensee
 of this program is prohibited from giving any competitor of
 Gaussian, Inc. access to this program.  By using this program,
 the user acknowledges that Gaussian, Inc. is engaged in the
 business of creating and licensing software in the field of
 computational chemistry and represents and warrants to the
 licensee that it is not a competitor of Gaussian, Inc. and that
 it will not use this program in any manner prohibited above.
 ---------------------------------------------------------------
  

 Cite this work as:
 Gaussian 16, Revision C.01,
 M. J. Frisch, G. W. Trucks, H. B. Schlegel, G. E. Scuseria, 
 M. A. Robb, J. R. Cheeseman, G. Scalmani, V. Barone, 
 G. A. Petersson, H. Nakatsuji, X. Li, M. Caricato, A. V. Marenich, 
 J. Bloino, B. G. Janesko, R. Gomperts, B. Mennucci, H. P. Hratchian, 
 J. V. Ortiz, A. F. Izmaylov, J. L. Sonnenberg, D. Williams-Young, 
 F. Ding, F. Lipparini, F. Egidi, J. Goings, B. Peng, A. Petrone, 
 T. Henderson, D. Ranasinghe, V. G. Zakrzewski, J. Gao, N. Rega, 
 G. Zheng, W. Liang, M. Hada, M. Ehara, K. Toyota, R. Fukuda, 
 J. Hasegawa, M. Ishida, T. Nakajima, Y. Honda, O. Kitao, H. Nakai, 
 T. Vreven, K. Throssell, J. A. Montgomery, Jr., J. E. Peralta, 
 F. Ogliaro, M. J. Bearpark, J. J. Heyd, E. N. Brothers, K. N. Kudin, 
 V. N. Staroverov, T. A. Keith, R. Kobayashi, J. Normand, 
 K. Raghavachari, A. P. Rendell, J. C. Burant, S. S. Iyengar, 
 J. Tomasi, M. Cossi, J. M. Millam, M. Klene, C. Adamo, R. Cammi, 
 J. W. Ochterski, R. L. Martin, K. Morokuma, O. Farkas, 
 J. B. Foresman, and D. J. Fox, Gaussian, Inc., Wallingford CT, 2019.
 
 ******************************************
 Gaussian 16:  EM64W-G16RevC.01 30-May-2019
                12-Sep-2026 
 ******************************************
 %Chk=thiophene.chk
 %NProcShared=8
 Will use up to    8 processors via shared memory.
 %Mem=48GB
 ----------------------------------------------------------------------
 #P PBE1PBE/Def2SVP EmpiricalDispersion=GD3BJ SP SCF=(XQC,MaxCycle=128)
  NoSymm Guess=Read
 ----------------------------------------------------------------------
 1/38=1,172=1/1;
 2/12=2,15=1,17=6,18=5,40=1/2;
 3/5=43,7=101,11=2,25=1,30=1,74=-13,116=-2,124=41/1,2,3;
 4/5=1/1;
 5/5=2,7=128,8=3,13=1,38=6/2,8;
 6/7=2,8=2,9=2,10=2,28=1/1;
 99/5=1,9=1/99;
 Leave Link    1 at Sat Sep 12 02:21:33 2026, MaxMem=  6442450944 cpu:               1.0 elap:               0.2
 (Enter C:\G16W\l101.exe)
 ---------------------------------------
 thiophene t=1.000 dz=+0.40 class=toface
 ---------------------------------------
 Symbolic Z-matrix:
 Charge =  0 Multiplicity = 2
 C                     0.57545  -0.73336   0.28209 
 C                    -0.81017  -0.52543   0.12682 
 C                    -1.10906   0.73747  -0.28292 
 S                     0.30754   1.6987   -0.46966 
 C                     1.30898   0.37462  -0.01194 
 H                     1.01061  -1.66548   0.59467 
 H                    -1.55379  -1.28066   0.30729 
 H                    -2.07005   1.17894  -0.45692 
 H                     2.37052   0.51259   0.04072 
 Ag                    0.32838  -0.94531  -3.10601 
 
 ITRead=  0  0  0  0  0  0  0  0  0  0
 MicOpt= -1 -1 -1 -1 -1 -1 -1 -1 -1 -1
 NAtoms=     10 NQM=       10 NQMF=       0 NMMI=      0 NMMIF=      0
                NMic=       0 NMicF=      0.
                    Isotopes and Nuclear Properties:
 (Nuclear quadrupole moments (NQMom) in fm**2, nuclear magnetic moments (NMagM)
  in nuclear magnetons)

  Atom         1           2           3           4           5           6           7           8           9          10
 IAtWgt=          12          12          12          32          12           1           1           1           1         107
 AtmWgt=  12.0000000  12.0000000  12.0000000  31.9720718  12.0000000   1.0078250   1.0078250   1.0078250   1.0078250 106.9050900
 NucSpn=           0           0           0           0           0           1           1           1           1           1
 AtZEff=   0.0000000   0.0000000   0.0000000   0.0000000   0.0000000   0.0000000   0.0000000   0.0000000   0.0000000   0.0000000
 NQMom=    0.0000000   0.0000000   0.0000000   0.0000000   0.0000000   0.0000000   0.0000000   0.0000000   0.0000000   0.0000000
 NMagM=    0.0000000   0.0000000   0.0000000   0.0000000   0.0000000   2.7928460   2.7928460   2.7928460   2.7928460  -0.1135700
 AtZNuc=   6.0000000   6.0000000   6.0000000  16.0000000   6.0000000   1.0000000   1.0000000   1.0000000   1.0000000  47.0000000
 Leave Link  101 at Sat Sep 12 02:21:33 2026, MaxMem=  6442450944 cpu:               0.0 elap:               0.4
 (Enter C:\G16W\l202.exe)
                          Input orientation:                          
 ---------------------------------------------------------------------
 Center     Atomic      Atomic             Coordinates (Angstroms)
 Number     Number       Type             X           Y           Z
 ---------------------------------------------------------------------
      1          6           0        0.575445   -0.733355    0.282094
      2          6           0       -0.810165   -0.525428    0.126815
      3          6           0       -1.109056    0.737472   -0.282923
      4         16           0        0.307542    1.698701   -0.469658
      5          6           0        1.308983    0.374617   -0.011943
      6          1           0        1.010607   -1.665475    0.594668
      7          1           0       -1.553786   -1.280659    0.307289
      8          1           0       -2.070046    1.178943   -0.456919
      9          1           0        2.370520    0.512586    0.040716
     10         47           0        0.328383   -0.945308   -3.106010
 ---------------------------------------------------------------------
                    Distance matrix (angstroms):
                    1          2          3          4          5
     1  C    0.000000
     2  C    1.409702   0.000000
     3  C    2.306539   1.360933   0.000000
     4  S    2.559648   2.559648   1.722086   0.000000
     5  C    1.360933   2.306539   2.460083   1.722088   0.000000
     6  H    1.075135   2.198591   3.322242   3.597884   2.149181
     7  H    2.198591   1.075136   2.149183   3.597885   3.322242
     8  H    3.346886   2.198392   1.071762   2.433770   3.501825
     9  H    2.198392   3.346886   3.501823   2.433768   1.071760
    10  Ag   3.403705   3.453078   3.587171   3.733841   3.503859
                    6          7          8          9         10
     6  H    0.000000
     7  H    2.608981   0.000000
     8  H    4.322843   2.626819   0.000000
     9  H    2.626819   4.322842   4.517776   0.000000
    10  Ag   3.831329   3.912241   4.157233   4.024632   0.000000
 Symmetry turned off by external request.
 Stoichiometry    C4H4AgS(2)
 Framework group  C1[X(C4H4AgS)]
 Deg. of freedom    24
 Full point group                 C1      NOp   1
 Rotational constants (GHZ):           3.3382500           0.8548063           0.8165563
 Leave Link  202 at Sat Sep 12 02:21:34 2026, MaxMem=  6442450944 cpu:               1.0 elap:               0.5
 (Enter C:\G16W\l301.exe)
 Standard basis: def2SVP (5D, 7F)
 Ernie: Thresh=  0.10000D-02 Tol=  0.10000D-05 Strict=F.
   125 basis functions,   230 primitive gaussians,   135 cartesian basis functions
    32 alpha electrons       31 beta electrons
       nuclear repulsion energy       325.7057249658 Hartrees.
 IExCor= 1009 DFT=T Ex+Corr=PBE1PBE ExCW=0 ScaHFX=  0.250000
 ScaDFX=  0.750000  0.750000  1.000000  1.000000 ScalE2=  1.000000  1.000000
 IRadAn=      5 IRanWt=     -1 IRanGd=            0 ICorTp=0 IEmpDi=141
 NAtoms=   10 NActive=   10 NUniq=   10 SFac= 1.00D+00 NAtFMM=   60 NAOKFM=F Big=F
 Integral buffers will be    131072 words long.
 Raffenetti 2 integral format.
 Two-electron integral symmetry is turned off.
 R6Disp:  Grimme-D3(BJ) Dispersion energy=       -0.0118239905 Hartrees.
 Nuclear repulsion after empirical dispersion term =      325.6939009753 Hartrees.
 Leave Link  301 at Sat Sep 12 02:21:34 2026, MaxMem=  6442450944 cpu:               0.0 elap:               0.4
 (Enter C:\G16W\l302.exe)
 NPDir=0 NMtPBC=     1 NCelOv=     1 NCel=       1 NClECP=     1 NCelD=      1
         NCelK=      1 NCelE2=     1 NClLst=     1 CellRange=     0.0.
 One-electron integrals computed using PRISM.
   1 Symmetry operations used in ECPInt.
 ECPInt:  NShTT=    1540 NPrTT=    5667 LenC2=    1530 LenP2D=    4686.
 LDataN:  DoStor=T MaxTD1= 7 Len=  274
 NBasis=   125 RedAO= T EigKep=  9.42D-04  NBF=   125
 NBsUse=   125 1.00D-06 EigRej= -1.00D+00 NBFU=   125
 Precomputing XC quadrature grid using
 IXCGrd= 4 IRadAn=           5 IRanWt=          -1 IRanGd=           0 AccXCQ= 0.00D+00.
 Defaulting to unpruned grid for atomic number  47.
 Generated NRdTot=       0 NPtTot=           0 NUsed=           0 NTot=          32
 NSgBfM=   135   135   135   135   135 MxSgAt=    10 MxSgA2=    10.
 Leave Link  302 at Sat Sep 12 02:21:37 2026, MaxMem=  6442450944 cpu:               2.0 elap:               2.3
 (Enter C:\G16W\l303.exe)
 DipDrv:  MaxL=1.
 Leave Link  303 at Sat Sep 12 02:21:37 2026, MaxMem=  6442450944 cpu:               0.0 elap:               0.1
 (Enter C:\G16W\l401.exe)
 Initial guess from the checkpoint file:  "thiophene.chk"
 B after Tr=     0.028518   -0.173986   -0.357862
         Rot=    0.999990   -0.004419    0.000648   -0.000591 Ang=  -0.52 deg.
 Guess basis will be translated and rotated to current coordinates.
 JPrj=2 DoOrth=T DoCkMO=T.
 Initial guess <Sx>= 0.0000 <Sy>= 0.0000 <Sz>= 0.5000 <S**2>= 0.7517 S= 0.5009
 Leave Link  401 at Sat Sep 12 02:21:41 2026, MaxMem=  6442450944 cpu:               4.0 elap:               3.2
 (Enter C:\G16W\l502.exe)
 Keep R1 and R2 ints in memory in canonical form, NReq=69704429.
 FoFCou: FMM=F IPFlag=           0 FMFlag=           0 FMFlg1=           0
         NFxFlg=           0 DoJE=F BraDBF=F KetDBF=F FulRan=T
         wScrn=  0.000000 ICntrl=       600 IOpCl=  0 I1Cent=           0 NGrid=           0
         NMat0=    1 NMatS0=   7875 NMatT0=    0 NMatD0=    1 NMtDS0=    0 NMtDT0=    0
 Symmetry not used in FoFCou.
 Two-electron integral symmetry not used.
 UHF open shell SCF:
 Using DIIS extrapolation, IDIIS=  1040.
 NGot=  6442450944 LenX=  6380388553 LenY=  6380369887
 Requested convergence on RMS density matrix=1.00D-08 within 128 cycles.
 Requested convergence on MAX density matrix=1.00D-06.
 Requested convergence on             energy=1.00D-06.
 No special actions if energy rises.

 Cycle   1  Pass 1  IDiag  1:
 Defaulting to unpruned grid for atomic number  47.
 Defaulting to unpruned grid for atomic number  47.
 Defaulting to unpruned grid for atomic number  47.
 Defaulting to unpruned grid for atomic number  47.
 Defaulting to unpruned grid for atomic number  47.
 Defaulting to unpruned grid for atomic number  47.
 Defaulting to unpruned grid for atomic number  47.
 Defaulting to unpruned grid for atomic number  47.
 E= -699.390116021953    
 DIIS: error= 7.81D-03 at cycle   1 NSaved=   1.
 NSaved= 1 IEnMin= 1 EnMin= -699.390116021953     IErMin= 1 ErrMin= 7.81D-03
 ErrMax= 7.81D-03  0.00D+00 EMaxC= 1.00D-01 BMatC= 1.89D-02 BMatP= 1.89D-02
 IDIUse=3 WtCom= 9.22D-01 WtEn= 7.81D-02
 Coeff-Com:  0.100D+01
 Coeff-En:   0.100D+01
 Coeff:      0.100D+01
 Gap=     0.154 Goal=   None    Shift=    0.000
 Gap=     0.191 Goal=   None    Shift=    0.000
 GapD=    0.154 DampG=1.000 DampE=1.000 DampFc=1.0000 IDamp=-1.
 RMSDP=9.57D-04 MaxDP=2.52D-02              OVMax= 2.21D-02

 Cycle   2  Pass 1  IDiag  1:
 E= -699.391677870716     Delta-E=       -0.001561848763 Rises=F Damp=F
 DIIS: error= 1.06D-03 at cycle   2 NSaved=   2.
 NSaved= 2 IEnMin= 2 EnMin= -699.391677870716     IErMin= 2 ErrMin= 1.06D-03
 ErrMax= 1.06D-03  0.00D+00 EMaxC= 1.00D-01 BMatC= 3.03D-04 BMatP= 1.89D-02
 IDIUse=3 WtCom= 9.89D-01 WtEn= 1.06D-02
 Coeff-Com:  0.209D-01 0.979D+00
 Coeff-En:   0.000D+00 0.100D+01
 Coeff:      0.207D-01 0.979D+00
 Gap=     0.153 Goal=   None    Shift=    0.000
 Gap=     0.177 Goal=   None    Shift=    0.000
 RMSDP=1.81D-04 MaxDP=3.70D-03 DE=-1.56D-03 OVMax= 7.07D-03

 Cycle   3  Pass 1  IDiag  1:
 E= -699.391675672652     Delta-E=        0.000002198064 Rises=F Damp=F
 DIIS: error= 1.06D-03 at cycle   3 NSaved=   3.
 NSaved= 3 IEnMin= 2 EnMin= -699.391677870716     IErMin= 2 ErrMin= 1.06D-03
 ErrMax= 1.06D-03  0.00D+00 EMaxC= 1.00D-01 BMatC= 3.84D-04 BMatP= 3.03D-04
 IDIUse=3 WtCom= 2.35D-01 WtEn= 7.65D-01
 Coeff-Com: -0.350D-02 0.532D+00 0.472D+00
 Coeff-En:   0.000D+00 0.506D+00 0.494D+00
 Coeff:     -0.822D-03 0.512D+00 0.488D+00
 Gap=     0.154 Goal=   None    Shift=    0.000
 Gap=     0.175 Goal=   None    Shift=    0.000
 RMSDP=1.11D-04 MaxDP=4.13D-03 DE= 2.20D-06 OVMax= 3.85D-03

 Cycle   4  Pass 1  IDiag  1:
 E= -699.391767105453     Delta-E=       -0.000091432801 Rises=F Damp=F
 DIIS: error= 1.86D-04 at cycle   4 NSaved=   4.
 NSaved= 4 IEnMin= 4 EnMin= -699.391767105453     IErMin= 4 ErrMin= 1.86D-04
 ErrMax= 1.86D-04  0.00D+00 EMaxC= 1.00D-01 BMatC= 1.81D-05 BMatP= 3.03D-04
 IDIUse=3 WtCom= 9.98D-01 WtEn= 1.86D-03
 Coeff-Com: -0.260D-02 0.243D+00 0.267D+00 0.493D+00
 Coeff-En:   0.000D+00 0.000D+00 0.000D+00 0.100D+01
 Coeff:     -0.260D-02 0.243D+00 0.266D+00 0.494D+00
 Gap=     0.154 Goal=   None    Shift=    0.000
 Gap=     0.175 Goal=   None    Shift=    0.000
 RMSDP=2.84D-05 MaxDP=5.22D-04 DE=-9.14D-05 OVMax= 1.34D-03

 Cycle   5  Pass 1  IDiag  1:
 E= -699.391772581424     Delta-E=       -0.000005475971 Rises=F Damp=F
 DIIS: error= 5.64D-05 at cycle   5 NSaved=   5.
 NSaved= 5 IEnMin= 5 EnMin= -699.391772581424     IErMin= 5 ErrMin= 5.64D-05
 ErrMax= 5.64D-05  0.00D+00 EMaxC= 1.00D-01 BMatC= 1.66D-06 BMatP= 1.81D-05
 IDIUse=1 WtCom= 1.00D+00 WtEn= 0.00D+00
 Coeff-Com: -0.261D-03-0.315D-01-0.101D-01 0.217D+00 0.825D+00
 Coeff:     -0.261D-03-0.315D-01-0.101D-01 0.217D+00 0.825D+00
 Gap=     0.154 Goal=   None    Shift=    0.000
 Gap=     0.175 Goal=   None    Shift=    0.000
 RMSDP=1.33D-05 MaxDP=6.78D-04 DE=-5.48D-06 OVMax= 6.80D-04

 Cycle   6  Pass 1  IDiag  1:
 E= -699.391773361219     Delta-E=       -0.000000779795 Rises=F Damp=F
 DIIS: error= 2.55D-05 at cycle   6 NSaved=   6.
 NSaved= 6 IEnMin= 6 EnMin= -699.391773361219     IErMin= 6 ErrMin= 2.55D-05
 ErrMax= 2.55D-05  0.00D+00 EMaxC= 1.00D-01 BMatC= 2.81D-07 BMatP= 1.66D-06
 IDIUse=1 WtCom= 1.00D+00 WtEn= 0.00D+00
 Coeff-Com:  0.235D-03-0.441D-01-0.398D-01 0.370D-01 0.391D+00 0.655D+00
 Coeff:      0.235D-03-0.441D-01-0.398D-01 0.370D-01 0.391D+00 0.655D+00
 Gap=     0.154 Goal=   None    Shift=    0.000
 Gap=     0.175 Goal=   None    Shift=    0.000
 RMSDP=4.79D-06 MaxDP=2.75D-04 DE=-7.80D-07 OVMax= 2.63D-04

 Cycle   7  Pass 1  IDiag  1:
 E= -699.391773479362     Delta-E=       -0.000000118143 Rises=F Damp=F
 DIIS: error= 5.44D-06 at cycle   7 NSaved=   7.
 NSaved= 7 IEnMin= 7 EnMin= -699.391773479362     IErMin= 7 ErrMin= 5.44D-06
 ErrMax= 5.44D-06  0.00D+00 EMaxC= 1.00D-01 BMatC= 3.05D-08 BMatP= 2.81D-07
 IDIUse=1 WtCom= 1.00D+00 WtEn= 0.00D+00
 Coeff-Com:  0.127D-03-0.141D-01-0.163D-01-0.171D-01 0.452D-01 0.249D+00
 Coeff-Com:  0.753D+00
 Coeff:      0.127D-03-0.141D-01-0.163D-01-0.171D-01 0.452D-01 0.249D+00
 Coeff:      0.753D+00
 Gap=     0.154 Goal=   None    Shift=    0.000
 Gap=     0.175 Goal=   None    Shift=    0.000
 RMSDP=2.00D-06 MaxDP=1.41D-04 DE=-1.18D-07 OVMax= 1.30D-04

 Cycle   8  Pass 1  IDiag  1:
 E= -699.391773493903     Delta-E=       -0.000000014541 Rises=F Damp=F
 DIIS: error= 3.97D-06 at cycle   8 NSaved=   8.
 NSaved= 8 IEnMin= 8 EnMin= -699.391773493903     IErMin= 8 ErrMin= 3.97D-06
 ErrMax= 3.97D-06  0.00D+00 EMaxC= 1.00D-01 BMatC= 1.02D-08 BMatP= 3.05D-08
 IDIUse=1 WtCom= 1.00D+00 WtEn= 0.00D+00
 Coeff-Com:  0.218D-04 0.936D-03-0.141D-02-0.177D-01-0.547D-01 0.613D-02
 Coeff-Com:  0.426D+00 0.641D+00
 Coeff:      0.218D-04 0.936D-03-0.141D-02-0.177D-01-0.547D-01 0.613D-02
 Coeff:      0.426D+00 0.641D+00
 Gap=     0.154 Goal=   None    Shift=    0.000
 Gap=     0.175 Goal=   None    Shift=    0.000
 RMSDP=9.65D-07 MaxDP=6.20D-05 DE=-1.45D-08 OVMax= 5.53D-05

 Cycle   9  Pass 1  IDiag  1:
 E= -699.391773497661     Delta-E=       -0.000000003758 Rises=F Damp=F
 DIIS: error= 1.98D-06 at cycle   9 NSaved=   9.
 NSaved= 9 IEnMin= 9 EnMin= -699.391773497661     IErMin= 9 ErrMin= 1.98D-06
 ErrMax= 1.98D-06  0.00D+00 EMaxC= 1.00D-01 BMatC= 2.08D-09 BMatP= 1.02D-08
 IDIUse=1 WtCom= 1.00D+00 WtEn= 0.00D+00
 Coeff-Com: -0.905D-05 0.322D-02 0.226D-02-0.684D-02-0.385D-01-0.359D-01
 Coeff-Com:  0.131D+00 0.380D+00 0.565D+00
 Coeff:     -0.905D-05 0.322D-02 0.226D-02-0.684D-02-0.385D-01-0.359D-01
 Coeff:      0.131D+00 0.380D+00 0.565D+00
 Gap=     0.154 Goal=   None    Shift=    0.000
 Gap=     0.175 Goal=   None    Shift=    0.000
 RMSDP=3.04D-07 MaxDP=1.56D-05 DE=-3.76D-09 OVMax= 1.81D-05

 Cycle  10  Pass 1  IDiag  1:
 E= -699.391773498316     Delta-E=       -0.000000000655 Rises=F Damp=F
 DIIS: error= 5.80D-07 at cycle  10 NSaved=  10.
 NSaved=10 IEnMin=10 EnMin= -699.391773498316     IErMin=10 ErrMin= 5.80D-07
 ErrMax= 5.80D-07  0.00D+00 EMaxC= 1.00D-01 BMatC= 1.77D-10 BMatP= 2.08D-09
 IDIUse=1 WtCom= 1.00D+00 WtEn= 0.00D+00
 Coeff-Com: -0.708D-05 0.160D-02 0.144D-02-0.142D-02-0.135D-01-0.184D-01
 Coeff-Com:  0.214D-01 0.118D+00 0.263D+00 0.628D+00
 Coeff:     -0.708D-05 0.160D-02 0.144D-02-0.142D-02-0.135D-01-0.184D-01
 Coeff:      0.214D-01 0.118D+00 0.263D+00 0.628D+00
 Gap=     0.154 Goal=   None    Shift=    0.000
 Gap=     0.175 Goal=   None    Shift=    0.000
 RMSDP=1.02D-07 MaxDP=4.68D-06 DE=-6.55D-10 OVMax= 6.62D-06

 Cycle  11  Pass 1  IDiag  1:
 E= -699.391773498409     Delta-E=       -0.000000000093 Rises=F Damp=F
 DIIS: error= 2.92D-07 at cycle  11 NSaved=  11.
 NSaved=11 IEnMin=11 EnMin= -699.391773498409     IErMin=11 ErrMin= 2.92D-07
 ErrMax= 2.92D-07  0.00D+00 EMaxC= 1.00D-01 BMatC= 3.38D-11 BMatP= 1.77D-10
 IDIUse=1 WtCom= 1.00D+00 WtEn= 0.00D+00
 Coeff-Com:  0.667D-06-0.515D-03-0.265D-03 0.124D-02 0.598D-02 0.469D-02
 Coeff-Com: -0.272D-01-0.740D-01-0.948D-01 0.196D+00 0.989D+00
 Coeff:      0.667D-06-0.515D-03-0.265D-03 0.124D-02 0.598D-02 0.469D-02
 Coeff:     -0.272D-01-0.740D-01-0.948D-01 0.196D+00 0.989D+00
 Gap=     0.154 Goal=   None    Shift=    0.000
 Gap=     0.175 Goal=   None    Shift=    0.000
 RMSDP=8.97D-08 MaxDP=4.74D-06 DE=-9.35D-11 OVMax= 6.27D-06

 Cycle  12  Pass 1  IDiag  1:
 E= -699.391773498453     Delta-E=       -0.000000000043 Rises=F Damp=F
 DIIS: error= 1.53D-07 at cycle  12 NSaved=  12.
 NSaved=12 IEnMin=12 EnMin= -699.391773498453     IErMin=12 ErrMin= 1.53D-07
 ErrMax= 1.53D-07  0.00D+00 EMaxC= 1.00D-01 BMatC= 7.08D-12 BMatP= 3.38D-11
 IDIUse=1 WtCom= 1.00D+00 WtEn= 0.00D+00
 Coeff-Com:  0.138D-05-0.327D-03-0.283D-03 0.506D-03 0.335D-02 0.405D-02
 Coeff-Com: -0.575D-02-0.287D-01-0.585D-01-0.118D+00 0.240D-01 0.118D+01
 Coeff:      0.138D-05-0.327D-03-0.283D-03 0.506D-03 0.335D-02 0.405D-02
 Coeff:     -0.575D-02-0.287D-01-0.585D-01-0.118D+00 0.240D-01 0.118D+01
 Gap=     0.154 Goal=   None    Shift=    0.000
 Gap=     0.175 Goal=   None    Shift=    0.000
 RMSDP=5.32D-08 MaxDP=1.71D-06 DE=-4.34D-11 OVMax= 4.61D-06

 Cycle  13  Pass 1  IDiag  1:
 E= -699.391773498465     Delta-E=       -0.000000000013 Rises=F Damp=F
 DIIS: error= 7.71D-08 at cycle  13 NSaved=  13.
 NSaved=13 IEnMin=13 EnMin= -699.391773498465     IErMin=13 ErrMin= 7.71D-08
 ErrMax= 7.71D-08  0.00D+00 EMaxC= 1.00D-01 BMatC= 2.18D-12 BMatP= 7.08D-12
 IDIUse=1 WtCom= 1.00D+00 WtEn= 0.00D+00
 Coeff-Com: -0.522D-07 0.151D-03 0.501D-04-0.471D-03-0.197D-02-0.153D-02
 Coeff-Com:  0.977D-02 0.268D-01 0.314D-01-0.953D-01-0.378D+00 0.203D+00
 Coeff-Com:  0.121D+01
 Coeff:     -0.522D-07 0.151D-03 0.501D-04-0.471D-03-0.197D-02-0.153D-02
 Coeff:      0.977D-02 0.268D-01 0.314D-01-0.953D-01-0.378D+00 0.203D+00
 Coeff:      0.121D+01
 Gap=     0.154 Goal=   None    Shift=    0.000
 Gap=     0.175 Goal=   None    Shift=    0.000
 RMSDP=3.90D-08 MaxDP=1.26D-06 DE=-1.27D-11 OVMax= 3.42D-06

 Cycle  14  Pass 1  IDiag  1:
 E= -699.391773498474     Delta-E=       -0.000000000009 Rises=F Damp=F
 DIIS: error= 2.29D-08 at cycle  14 NSaved=  14.
 NSaved=14 IEnMin=14 EnMin= -699.391773498474     IErMin=14 ErrMin= 2.29D-08
 ErrMax= 2.29D-08  0.00D+00 EMaxC= 1.00D-01 BMatC= 3.18D-13 BMatP= 2.18D-12
 IDIUse=1 WtCom= 1.00D+00 WtEn= 0.00D+00
 Coeff-Com: -0.311D-06 0.105D-03 0.734D-04-0.213D-03-0.111D-02-0.117D-02
 Coeff-Com:  0.287D-02 0.120D-01 0.204D-01 0.431D-02-0.931D-01-0.178D+00
 Coeff-Com:  0.235D+00 0.999D+00
 Coeff:     -0.311D-06 0.105D-03 0.734D-04-0.213D-03-0.111D-02-0.117D-02
 Coeff:      0.287D-02 0.120D-01 0.204D-01 0.431D-02-0.931D-01-0.178D+00
 Coeff:      0.235D+00 0.999D+00
 Gap=     0.154 Goal=   None    Shift=    0.000
 Gap=     0.175 Goal=   None    Shift=    0.000
 RMSDP=1.35D-08 MaxDP=4.17D-07 DE=-8.64D-12 OVMax= 1.12D-06

 Cycle  15  Pass 1  IDiag  1:
 E= -699.391773498471     Delta-E=        0.000000000003 Rises=F Damp=F
 DIIS: error= 6.86D-09 at cycle  15 NSaved=  15.
 NSaved=15 IEnMin=14 EnMin= -699.391773498474     IErMin=15 ErrMin= 6.86D-09
 ErrMax= 6.86D-09  0.00D+00 EMaxC= 1.00D-01 BMatC= 4.77D-14 BMatP= 3.18D-13
 IDIUse=1 WtCom= 1.00D+00 WtEn= 0.00D+00
 Coeff-Com: -0.484D-07 0.842D-06 0.764D-05 0.225D-04 0.562D-04 0.307D-04
 Coeff-Com: -0.805D-03-0.129D-02 0.560D-03 0.156D-01 0.274D-01-0.682D-01
 Coeff-Com: -0.132D+00 0.286D+00 0.873D+00
 Coeff:     -0.484D-07 0.842D-06 0.764D-05 0.225D-04 0.562D-04 0.307D-04
 Coeff:     -0.805D-03-0.129D-02 0.560D-03 0.156D-01 0.274D-01-0.682D-01
 Coeff:     -0.132D+00 0.286D+00 0.873D+00
 Gap=     0.154 Goal=   None    Shift=    0.000
 Gap=     0.175 Goal=   None    Shift=    0.000
 RMSDP=3.87D-09 MaxDP=1.63D-07 DE= 3.41D-12 OVMax= 2.77D-07

 SCF Done:  E(UPBE1PBE) =  -699.391773498     A.U. after   15 cycles
            NFock= 15  Conv=0.39D-08     -V/T= 2.1533
 <Sx>= 0.0000 <Sy>= 0.0000 <Sz>= 0.5000 <S**2>= 0.7515 S= 0.5007
 <L.S>= 0.000000000000E+00
 KE= 6.064018367030D+02 PE=-2.272492751190D+03 EE= 6.410052400133D+02
 Annihilation of the first spin contaminant:
 S**2 before annihilation     0.7515,   after     0.7500
 Leave Link  502 at Sat Sep 12 02:22:19 2026, MaxMem=  6442450944 cpu:              38.0 elap:              38.4
 (Enter C:\G16W\l508.exe)
 QCSCF skips out because SCF is already converged.
 Leave Link  508 at Sat Sep 12 02:22:20 2026, MaxMem=  6442450944 cpu:               0.0 elap:               0.1
 (Enter C:\G16W\l601.exe)
 Copying SCF densities to generalized density rwf, IOpCl= 1 IROHF=0.

 **********************************************************************

            Population analysis using the SCF Density.

 **********************************************************************

 Alpha  occ. eigenvalues --  -89.04431 -10.26820 -10.26786 -10.24750 -10.24698
 Alpha  occ. eigenvalues --   -8.04562  -5.98675  -5.98298  -5.98045  -3.74571
 Alpha  occ. eigenvalues --   -2.32560  -2.32553  -2.32511  -0.91763  -0.76560
 Alpha  occ. eigenvalues --   -0.75056  -0.58871  -0.57735  -0.54401  -0.43599
 Alpha  occ. eigenvalues --   -0.41988  -0.41368  -0.40920  -0.36782  -0.32269
 Alpha  occ. eigenvalues --   -0.32219  -0.32135  -0.32134  -0.32001  -0.27612
 Alpha  occ. eigenvalues --   -0.26202  -0.17595
 Alpha virt. eigenvalues --   -0.02153   0.00085   0.00272   0.01893   0.04878
 Alpha virt. eigenvalues --    0.05774   0.07217   0.11515   0.12257   0.12941
 Alpha virt. eigenvalues --    0.14930   0.15647   0.27457   0.30765   0.30924
 Alpha virt. eigenvalues --    0.33484   0.33700   0.36299   0.38707   0.38875
 Alpha virt. eigenvalues --    0.41106   0.41457   0.43922   0.44398   0.47716
 Alpha virt. eigenvalues --    0.49313   0.49979   0.51649   0.53390   0.56135
 Alpha virt. eigenvalues --    0.59517   0.62510   0.63965   0.65433   0.68116
 Alpha virt. eigenvalues --    0.69017   0.70004   0.71221   0.72214   0.72406
 Alpha virt. eigenvalues --    0.76066   0.77808   0.80031   0.80326   0.82963
 Alpha virt. eigenvalues --    0.84843   0.93039   0.97036   1.15399   1.15495
 Alpha virt. eigenvalues --    1.17131   1.20060   1.25643   1.27879   1.28609
 Alpha virt. eigenvalues --    1.52788   1.58497   1.64554   1.67952   1.71697
 Alpha virt. eigenvalues --    1.76365   1.78623   1.82816   1.92261   1.94168
 Alpha virt. eigenvalues --    1.97280   1.98099   2.02498   2.05022   2.05936
 Alpha virt. eigenvalues --    2.11171   2.18846   2.19380   2.35791   2.37978
 Alpha virt. eigenvalues --    2.40822   2.44819   2.55679   2.62826   2.62829
 Alpha virt. eigenvalues --    2.62856   2.62862   2.62918   2.63042   2.63094
 Alpha virt. eigenvalues --    2.70835   2.71457   2.76204   2.78261   3.09139
 Alpha virt. eigenvalues --    3.10088   3.49720  53.80546
  Beta  occ. eigenvalues --  -89.04430 -10.26808 -10.26781 -10.24738 -10.24687
  Beta  occ. eigenvalues --   -8.04561  -5.98675  -5.98297  -5.98045  -3.74458
  Beta  occ. eigenvalues --   -2.32528  -2.32523  -2.32497  -0.91735  -0.76538
  Beta  occ. eigenvalues --   -0.75030  -0.58856  -0.57719  -0.54390  -0.43587
  Beta  occ. eigenvalues --   -0.41972  -0.41217  -0.40910  -0.36774  -0.31620
  Beta  occ. eigenvalues --   -0.31562  -0.31487  -0.31486  -0.31346  -0.27545
  Beta  occ. eigenvalues --   -0.26128
  Beta virt. eigenvalues --   -0.08613  -0.02038   0.02843   0.03017   0.04667
  Beta virt. eigenvalues --    0.04958   0.05822   0.07788   0.11579   0.12405
  Beta virt. eigenvalues --    0.14920   0.14983   0.15716   0.27505   0.31073
  Beta virt. eigenvalues --    0.32904   0.35843   0.36243   0.37322   0.39458
  Beta virt. eigenvalues --    0.40042   0.41422   0.41811   0.45040   0.46028
  Beta virt. eigenvalues --    0.48880   0.49799   0.51084   0.52704   0.53799
  Beta virt. eigenvalues --    0.56445   0.59840   0.62676   0.64082   0.65757
  Beta virt. eigenvalues --    0.68632   0.69245   0.70105   0.71313   0.72323
  Beta virt. eigenvalues --    0.72550   0.76295   0.78139   0.80145   0.80675
  Beta virt. eigenvalues --    0.83311   0.84864   0.93188   0.97070   1.15432
  Beta virt. eigenvalues --    1.15523   1.17177   1.20100   1.25678   1.27913
  Beta virt. eigenvalues --    1.28648   1.52802   1.58517   1.64570   1.67964
  Beta virt. eigenvalues --    1.71698   1.76383   1.78648   1.82835   1.92333
  Beta virt. eigenvalues --    1.94361   1.97281   1.98122   2.02519   2.05933
  Beta virt. eigenvalues --    2.06134   2.11188   2.18883   2.19421   2.35802
  Beta virt. eigenvalues --    2.38005   2.40846   2.44853   2.55709   2.62848
  Beta virt. eigenvalues --    2.62851   2.62891   2.62899   2.62961   2.63086
  Beta virt. eigenvalues --    2.63137   2.70846   2.71480   2.76214   2.78269
  Beta virt. eigenvalues --    3.09151   3.10097   3.49732  53.80707
          Condensed to atoms (all electrons):
               1          2          3          4          5          6
     1  C    4.863141   0.401329  -0.011849  -0.088623   0.465734   0.447075
     2  C    0.401329   4.856557   0.469285  -0.087383  -0.011996  -0.055912
     3  C   -0.011849   0.469285   5.102150   0.338520  -0.144436   0.011725
     4  S   -0.088623  -0.087383   0.338520  15.453664   0.338482   0.007188
     5  C    0.465734  -0.011996  -0.144436   0.338482   5.108865  -0.061542
     6  H    0.447075  -0.055912   0.011725   0.007188  -0.061542   0.631128
     7  H   -0.056103   0.446934  -0.061230   0.007176   0.011783  -0.006666
     8  H    0.009258  -0.025683   0.417046  -0.040393   0.003883  -0.000251
     9  H   -0.026080   0.009251   0.003892  -0.040433   0.417447  -0.007692
    10  Ag   0.000490   0.000331  -0.002337   0.009410  -0.002601  -0.000330
               7          8          9         10
     1  C   -0.056103   0.009258  -0.026080   0.000490
     2  C    0.446934  -0.025683   0.009251   0.000331
     3  C   -0.061230   0.417046   0.003892  -0.002337
     4  S    0.007176  -0.040393  -0.040433   0.009410
     5  C    0.011783   0.003883   0.417447  -0.002601
     6  H   -0.006666  -0.000251  -0.007692  -0.000330
     7  H    0.631973  -0.007675  -0.000250  -0.000304
     8  H   -0.007675   0.577220  -0.000131  -0.000169
     9  H   -0.000250  -0.000131   0.576456  -0.000190
    10  Ag  -0.000304  -0.000169  -0.000190  19.046891
          Atomic-Atomic Spin Densities.
               1          2          3          4          5          6
     1  C    0.005898   0.002000   0.000523   0.000170   0.001999   0.000375
     2  C    0.002000   0.004931   0.001298   0.000186   0.000479   0.000107
     3  C    0.000523   0.001298   0.001848   0.000912   0.000546   0.000009
     4  S    0.000170   0.000186   0.000912   0.000025   0.001000  -0.000010
     5  C    0.001999   0.000479   0.000546   0.001000   0.006489   0.000068
     6  H    0.000375   0.000107   0.000009  -0.000010   0.000068   0.000212
     7  H    0.000107   0.000295   0.000057  -0.000010   0.000011   0.000026
     8  H    0.000015   0.000102   0.000146   0.000026   0.000009   0.000002
     9  H    0.000120   0.000013   0.000008   0.000034   0.000226   0.000030
    10  Ag  -0.010509  -0.008374  -0.005856  -0.002807  -0.008679  -0.001162
               7          8          9         10
     1  C    0.000107   0.000015   0.000120  -0.010509
     2  C    0.000295   0.000102   0.000013  -0.008374
     3  C    0.000057   0.000146   0.000008  -0.005856
     4  S   -0.000010   0.000026   0.000034  -0.002807
     5  C    0.000011   0.000009   0.000226  -0.008679
     6  H    0.000026   0.000002   0.000030  -0.001162
     7  H    0.000157   0.000025   0.000002  -0.000981
     8  H    0.000025   0.000201   0.000001  -0.000735
     9  H    0.000002   0.000001   0.000098  -0.000921
    10  Ag  -0.000981  -0.000735  -0.000921   1.038371
 Mulliken charges and spin densities:
               1          2
     1  C   -0.004372   0.000698
     2  C   -0.002713   0.001039
     3  C   -0.122765  -0.000509
     4  S    0.102393  -0.000472
     5  C   -0.125619   0.002149
     6  H    0.035278  -0.000343
     7  H    0.034363  -0.000311
     8  H    0.066897  -0.000207
     9  H    0.067730  -0.000389
    10  Ag  -0.051191   0.998346
 Sum of Mulliken charges =   0.00000   1.00000
 Mulliken charges and spin densities with hydrogens summed into heavy atoms:
               1          2
     1  C    0.030906   0.000355
     2  C    0.031650   0.000728
     3  C   -0.055868  -0.000716
     4  S    0.102393  -0.000472
     5  C   -0.057889   0.001760
    10  Ag  -0.051191   0.998346
 Electronic spatial extent (au):  <R**2>=           1225.3569
 Charge=              0.0000 electrons
 Dipole moment (field-independent basis, Debye):
    X=             -0.1811    Y=              0.0443    Z=              1.3797  Tot=              1.3922
 Quadrupole moment (field-independent basis, Debye-Ang):
   XX=            -51.8330   YY=            -55.9523   ZZ=            -64.6621
   XY=             -0.2643   XZ=              1.1766   YZ=             -2.9644
 Traceless Quadrupole moment (field-independent basis, Debye-Ang):
   XX=              5.6495   YY=              1.5302   ZZ=             -7.1796
   XY=             -0.2643   XZ=              1.1766   YZ=             -2.9644
 Octapole moment (field-independent basis, Debye-Ang**2):
  XXX=            -29.0536  YYY=             -3.4530  ZZZ=            228.0996  XYY=            -12.3975
  XXY=              3.5098  XXZ=             69.2618  XZZ=            -12.5517  YZZ=              4.8941
  YYZ=             72.3750  XYZ=              0.2192
 Hexadecapole moment (field-independent basis, Debye-Ang**3):
 XXXX=           -236.7052 YYYY=           -472.5917 ZZZZ=          -1383.0148 XXXY=              8.3731
 XXXZ=             64.2629 YYYX=              2.2927 YYYZ=           -149.1270 ZZZX=             67.8760
 ZZZY=           -163.3355 XXYY=           -113.3502 XXZZ=           -267.0566 YYZZ=           -306.2269
 XXYZ=            -52.1009 YYXZ=             23.5279 ZZXY=              3.3595
 N-N= 3.256939009753D+02 E-N=-2.272492749454D+03  KE= 6.064018367030D+02
                          Isotropic Fermi Contact Couplings
        Atom                 a.u.       MegaHertz       Gauss      10(-4) cm-1
     1  C(13)              0.00515       5.79430       2.06755       1.93277
     2  C(13)              0.00448       5.03874       1.79795       1.68074
     3  C(13)              0.00271       3.04304       1.08583       1.01505
     4  S(33)              0.00652       2.23818       0.79864       0.74658
     5  C(13)              0.00422       4.74012       1.69139       1.58113
     6  H(1)               0.00010       0.45818       0.16349       0.15283
     7  H(1)               0.00007       0.32439       0.11575       0.10821
     8  H(1)               0.00003       0.15152       0.05407       0.05054
     9  H(1)               0.00001       0.06016       0.02147       0.02007
    10  Ag(107             0.00034      -0.06125      -0.02186      -0.02043
 --------------------------------------------------------
       Center         ----  Spin Dipole Couplings  ----
                      3XX-RR        3YY-RR        3ZZ-RR
 --------------------------------------------------------
     1   Atom       -0.005727     -0.004939      0.010666
     2   Atom       -0.004214     -0.004527      0.008741
     3   Atom       -0.002457     -0.001443      0.003900
     4   Atom       -0.001629      0.001617      0.000012
     5   Atom       -0.005349     -0.003823      0.009172
     6   Atom       -0.002254     -0.001621      0.003875
     7   Atom       -0.000577     -0.002024      0.002601
     8   Atom        0.000061     -0.000460      0.000399
     9   Atom        0.000021     -0.001549      0.001528
    10   Atom        0.004328      0.004383     -0.008711
 --------------------------------------------------------
                        XY            XZ            YZ
 --------------------------------------------------------
     1   Atom       -0.000096     -0.000071      0.003205
     2   Atom       -0.000505     -0.003045      0.003170
     3   Atom       -0.001640     -0.002674      0.003765
     4   Atom        0.000295     -0.000234      0.003066
     5   Atom        0.000859      0.001399      0.005438
     6   Atom       -0.000535      0.001261     -0.001453
     7   Atom        0.000638     -0.002744     -0.000517
     8   Atom       -0.001708     -0.001927      0.001747
     9   Atom        0.001227      0.002360      0.001730
    10   Atom        0.000279      0.000681     -0.003756
 --------------------------------------------------------


 ---------------------------------------------------------------------------------
              Anisotropic Spin Dipole Couplings in Principal Axis System
 ---------------------------------------------------------------------------------

       Atom             a.u.   MegaHertz   Gauss  10(-4) cm-1        Axes

              Baa    -0.0058    -0.773    -0.276    -0.258  0.9206  0.3841 -0.0710
     1 C(13)  Bbb    -0.0055    -0.743    -0.265    -0.248 -0.3906  0.9027 -0.1803
              Bcc     0.0113     1.516     0.541     0.506 -0.0052  0.1937  0.9811
 
              Baa    -0.0053    -0.713    -0.255    -0.238 -0.3646  0.8883 -0.2793
     2 C(13)  Bbb    -0.0048    -0.645    -0.230    -0.215  0.9071  0.4066  0.1088
              Bcc     0.0101     1.358     0.485     0.453 -0.2102  0.2137  0.9540
 
              Baa    -0.0037    -0.493    -0.176    -0.164  0.7530  0.6553 -0.0599
     3 C(13)  Bbb    -0.0032    -0.432    -0.154    -0.144 -0.5764  0.6129 -0.5405
              Bcc     0.0069     0.925     0.330     0.309 -0.3174  0.4415  0.8392
 
              Baa    -0.0025    -0.103    -0.037    -0.034  0.3849 -0.5682  0.7273
     4 S(33)  Bbb    -0.0015    -0.061    -0.022    -0.020  0.9228  0.2231 -0.3140
              Bcc     0.0040     0.163     0.058     0.054  0.0162  0.7921  0.6102
 
              Baa    -0.0060    -0.807    -0.288    -0.269 -0.5410  0.8064 -0.2390
     5 C(13)  Bbb    -0.0053    -0.710    -0.253    -0.237  0.8355  0.4828 -0.2623
              Bcc     0.0113     1.517     0.541     0.506  0.0962  0.3416  0.9349
 
              Baa    -0.0026    -1.386    -0.494    -0.462  0.9277  0.3597 -0.1000
     6 H(1)   Bbb    -0.0019    -1.019    -0.364    -0.340 -0.3175  0.9010  0.2956
              Bcc     0.0045     2.405     0.858     0.802  0.1964 -0.2424  0.9501
 
              Baa    -0.0024    -1.298    -0.463    -0.433 -0.6730  0.6772 -0.2974
     7 H(1)   Bbb    -0.0018    -0.984    -0.351    -0.328  0.5445  0.7258  0.4204
              Bcc     0.0043     2.282     0.814     0.761 -0.5006 -0.1210  0.8572
 
              Baa    -0.0019    -1.035    -0.369    -0.345  0.5366  0.8255 -0.1746
     8 H(1)   Bbb    -0.0017    -0.899    -0.321    -0.300  0.6077 -0.2346  0.7587
              Bcc     0.0036     1.934     0.690     0.645 -0.5854  0.5133  0.6276
 
              Baa    -0.0024    -1.255    -0.448    -0.419 -0.1742  0.9344 -0.3107
     9 H(1)   Bbb    -0.0017    -0.908    -0.324    -0.303  0.8167 -0.0392 -0.5758
              Bcc     0.0041     2.163     0.772     0.722  0.5502  0.3540  0.7563
 
              Baa    -0.0097     0.212     0.075     0.071 -0.0518  0.2574  0.9649
    10 Ag(107 Bbb     0.0044    -0.095    -0.034    -0.032  0.9945 -0.0746  0.0732
              Bcc     0.0054    -0.117    -0.042    -0.039  0.0908  0.9634 -0.2522
 

 ---------------------------------------------------------------------------------

 No NMR shielding tensors so no spin-rotation constants.
 Leave Link  601 at Sat Sep 12 02:22:23 2026, MaxMem=  6442450944 cpu:               3.0 elap:               3.7
 (Enter C:\G16W\l9999.exe)
 Unable to Open any file for archive entry.
 1|1|UNPC-DESKTOP-2JKEGCA|SP|UPBE1PBE|def2SVP|C4H4Ag1S1(2)|JHKIM|12-Sep
 -2026|0||#P PBE1PBE/Def2SVP EmpiricalDispersion=GD3BJ SP SCF=(XQC,MaxC
 ycle=128) NoSymm Guess=Read||thiophene t=1.000 dz=+0.40 class=toface||
 0,2|C,0,0.575445,-0.733355,0.282094|C,0,-0.810165,-0.525428,0.126815|C
 ,0,-1.109056,0.737472,-0.282923|S,0,0.307542,1.698701,-0.469658|C,0,1.
 308983,0.374617,-0.011943|H,0,1.010607,-1.665475,0.594668|H,0,-1.55378
 6,-1.280659,0.307289|H,0,-2.070046,1.178943,-0.456919|H,0,2.37052,0.51
 2586,0.040716|Ag,0,0.32838305,-0.94530783,-3.1060096||Version=EM64W-G1
 6RevC.01|HF=-699.3917735|S2=0.751462|S2-1=0.|S2A=0.750002|RMSD=3.870e-
 009|Dipole=-0.0712396,0.0174423,0.5428142|Quadrupole=4.2002378,1.13764
 41,-5.3378819,-0.1965189,0.8747862,-2.2039408|PG=C01 [X(C4H4Ag1S1)]||@
 The archive entry for this job was punched.


 SI MONUMENTUM REQUIRIS, CIRCUMSPICE
     -- FROM SIR CHRISTOPHER WREN'S TOMBSTONE
 Job cpu time:       0 days  0 hours  0 minutes 52.0 seconds.
 Elapsed time:       0 days  0 hours  0 minutes 50.0 seconds.
 File lengths (MBytes):  RWF=     16 Int=      0 D2E=      0 Chk=      2 Scr=      1
 Normal termination of Gaussian 16 at Sat Sep 12 02:22:24 2026.
