 Entering Gaussian System, Link 0=C:\G16W\g16.exe
 Input=TPA_t1_z0.gjf
 Output=TPA_t1_z0.out
 Initial command:
 C:\G16W\l1.exe ".\Gau-29468.inp" "TPA_t1_z0.out" /scrdir=".\"
 Entering Link 1 = C:\G16W\l1.exe PID=     68500.
  
 Copyright (c) 1988-2019, Gaussian, Inc.  All Rights Reserved.
  
 This is part of the Gaussian(R) 16 program.  It is based on
 the Gaussian(R) 09 system (copyright 2009, Gaussian, Inc.),
 the Gaussian(R) 03 system (copyright 2003, Gaussian, Inc.),
 the Gaussian(R) 98 system (copyright 1998, Gaussian, Inc.),
 the Gaussian(R) 94 system (copyright 1995, Gaussian, Inc.),
 the Gaussian 92(TM) system (copyright 1992, Gaussian, Inc.),
 the Gaussian 90(TM) system (copyright 1990, Gaussian, Inc.),
 the Gaussian 88(TM) system (copyright 1988, Gaussian, Inc.),
 the Gaussian 86(TM) system (copyright 1986, Carnegie Mellon
 University), and the Gaussian 82(TM) system (copyright 1983,
 Carnegie Mellon University). Gaussian is a federally registered
 trademark of Gaussian, Inc.
  
 This software contains proprietary and confidential information,
 including trade secrets, belonging to Gaussian, Inc.
  
 This software is provided under written license and may be
 used, copied, transmitted, or stored only in accord with that
 written license.
  
 The following legend is applicable only to US Government
 contracts under FAR:
  
                    RESTRICTED RIGHTS LEGEND
  
 Use, reproduction and disclosure by the US Government is
 subject to restrictions as set forth in subparagraphs (a)
 and (c) of the Commercial Computer Software - Restricted
 Rights clause in FAR 52.227-19.
  
 Gaussian, Inc.
 340 Quinnipiac St., Bldg. 40, Wallingford CT 06492
  
  
 ---------------------------------------------------------------
 Warning -- This program may not be used in any manner that
 competes with the business of Gaussian, Inc. or will provide
 assistance to any competitor of Gaussian, Inc.  The licensee
 of this program is prohibited from giving any competitor of
 Gaussian, Inc. access to this program.  By using this program,
 the user acknowledges that Gaussian, Inc. is engaged in the
 business of creating and licensing software in the field of
 computational chemistry and represents and warrants to the
 licensee that it is not a competitor of Gaussian, Inc. and that
 it will not use this program in any manner prohibited above.
 ---------------------------------------------------------------
  

 Cite this work as:
 Gaussian 16, Revision C.01,
 M. J. Frisch, G. W. Trucks, H. B. Schlegel, G. E. Scuseria, 
 M. A. Robb, J. R. Cheeseman, G. Scalmani, V. Barone, 
 G. A. Petersson, H. Nakatsuji, X. Li, M. Caricato, A. V. Marenich, 
 J. Bloino, B. G. Janesko, R. Gomperts, B. Mennucci, H. P. Hratchian, 
 J. V. Ortiz, A. F. Izmaylov, J. L. Sonnenberg, D. Williams-Young, 
 F. Ding, F. Lipparini, F. Egidi, J. Goings, B. Peng, A. Petrone, 
 T. Henderson, D. Ranasinghe, V. G. Zakrzewski, J. Gao, N. Rega, 
 G. Zheng, W. Liang, M. Hada, M. Ehara, K. Toyota, R. Fukuda, 
 J. Hasegawa, M. Ishida, T. Nakajima, Y. Honda, O. Kitao, H. Nakai, 
 T. Vreven, K. Throssell, J. A. Montgomery, Jr., J. E. Peralta, 
 F. Ogliaro, M. J. Bearpark, J. J. Heyd, E. N. Brothers, K. N. Kudin, 
 V. N. Staroverov, T. A. Keith, R. Kobayashi, J. Normand, 
 K. Raghavachari, A. P. Rendell, J. C. Burant, S. S. Iyengar, 
 J. Tomasi, M. Cossi, J. M. Millam, M. Klene, C. Adamo, R. Cammi, 
 J. W. Ochterski, R. L. Martin, K. Morokuma, O. Farkas, 
 J. B. Foresman, and D. J. Fox, Gaussian, Inc., Wallingford CT, 2019.
 
 ******************************************
 Gaussian 16:  EM64W-G16RevC.01 30-May-2019
                12-Sep-2026 
 ******************************************
 %Chk=TPA.chk
 %NProcShared=8
 Will use up to    8 processors via shared memory.
 %Mem=48GB
 ----------------------------------------------------------------------
 #P PBE1PBE/Def2SVP EmpiricalDispersion=GD3BJ SP SCF=(XQC,MaxCycle=128)
  NoSymm Guess=Read
 ----------------------------------------------------------------------
 1/38=1,172=1/1;
 2/12=2,15=1,17=6,18=5,40=1/2;
 3/5=43,7=101,11=2,25=1,30=1,74=-13,116=-2,124=41/1,2,3;
 4/5=1/1;
 5/5=2,7=128,8=3,13=1,38=6/2,8;
 6/7=2,8=2,9=2,10=2,28=1/1;
 99/5=1,9=1/99;
 Leave Link    1 at Sat Sep 12 01:35:56 2026, MaxMem=  6442450944 cpu:               0.0 elap:               0.2
 (Enter C:\G16W\l101.exe)
 ---------------------------------
 TPA t=0.250 dz=+0.00 class=toface
 ---------------------------------
 Symbolic Z-matrix:
 Charge =  0 Multiplicity = 2
 C                    -2.89224  -2.90224   0.85613 
 C                    -1.55033  -3.24414   0.81876 
 C                    -0.59249  -2.29102   0.53281 
 C                    -0.96683  -0.97021   0.28615 
 N                     0.00003  -0.00004  -0.00005 
 C                     1.23715  -0.0312    0.65302 
 C                     1.31985  -0.4037    1.99463 
 C                     2.54386  -0.43667   2.63368 
 C                     3.7008   -0.09323   1.95357 
 C                     3.62384   0.28127   0.6221 
 C                     2.40561   0.3098   -0.0281 
 C                    -0.27028   1.00134  -0.93926 
 C                     0.1962    2.30097  -0.74204 
 C                    -0.06993   3.28495  -1.67402 
 C                    -0.8086    2.99553  -2.80963 
 C                    -1.27765   1.70733  -3.00848 
 C                    -1.01014   0.71447  -2.08635 
 C                    -2.31899  -0.63058   0.32896 
 C                    -3.26982  -1.59271   0.60803 
 H                    -3.6381   -3.65067   1.07692 
 H                    -1.24671  -4.26392   1.00505 
 H                     0.45246  -2.56235   0.49473 
 H                     0.41802  -0.66263   2.53001 
 H                     2.59313  -0.72432   3.67372 
 H                     4.65516  -0.11726   2.45738 
 H                     4.52125   0.54509   0.08181 
 H                     2.3496    0.59285  -1.06912 
 H                     0.76419   2.53162   0.14744 
 H                     0.29503   4.28789  -1.50736 
 H                    -1.01713   3.76803  -3.53417 
 H                    -1.84946   1.47068  -3.89385 
 H                    -1.36884  -0.2915   -2.24865 
 H                    -2.61535   0.3919    0.14543 
 H                    -4.31329  -1.31532   0.64075 
 Ag                    0.89782  -1.44043  -1.83557 
 
 ITRead=  0  0  0  0  0  0  0  0  0  0  0  0  0  0  0  0  0  0  0  0
 ITRead=  0  0  0  0  0  0  0  0  0  0  0  0  0  0  0
 MicOpt= -1 -1 -1 -1 -1 -1 -1 -1 -1 -1 -1 -1 -1 -1 -1 -1 -1 -1 -1 -1
 MicOpt= -1 -1 -1 -1 -1 -1 -1 -1 -1 -1 -1 -1 -1 -1 -1
 NAtoms=     35 NQM=       35 NQMF=       0 NMMI=      0 NMMIF=      0
                NMic=       0 NMicF=      0.
                    Isotopes and Nuclear Properties:
 (Nuclear quadrupole moments (NQMom) in fm**2, nuclear magnetic moments (NMagM)
  in nuclear magnetons)

  Atom         1           2           3           4           5           6           7           8           9          10
 IAtWgt=          12          12          12          12          14          12          12          12          12          12
 AtmWgt=  12.0000000  12.0000000  12.0000000  12.0000000  14.0030740  12.0000000  12.0000000  12.0000000  12.0000000  12.0000000
 NucSpn=           0           0           0           0           2           0           0           0           0           0
 AtZEff=   0.0000000   0.0000000   0.0000000   0.0000000   0.0000000   0.0000000   0.0000000   0.0000000   0.0000000   0.0000000
 NQMom=    0.0000000   0.0000000   0.0000000   0.0000000   2.0440000   0.0000000   0.0000000   0.0000000   0.0000000   0.0000000
 NMagM=    0.0000000   0.0000000   0.0000000   0.0000000   0.4037610   0.0000000   0.0000000   0.0000000   0.0000000   0.0000000
 AtZNuc=   6.0000000   6.0000000   6.0000000   6.0000000   7.0000000   6.0000000   6.0000000   6.0000000   6.0000000   6.0000000

  Atom        11          12          13          14          15          16          17          18          19          20
 IAtWgt=          12          12          12          12          12          12          12          12          12           1
 AtmWgt=  12.0000000  12.0000000  12.0000000  12.0000000  12.0000000  12.0000000  12.0000000  12.0000000  12.0000000   1.0078250
 NucSpn=           0           0           0           0           0           0           0           0           0           1
 AtZEff=   0.0000000   0.0000000   0.0000000   0.0000000   0.0000000   0.0000000   0.0000000   0.0000000   0.0000000   0.0000000
 NQMom=    0.0000000   0.0000000   0.0000000   0.0000000   0.0000000   0.0000000   0.0000000   0.0000000   0.0000000   0.0000000
 NMagM=    0.0000000   0.0000000   0.0000000   0.0000000   0.0000000   0.0000000   0.0000000   0.0000000   0.0000000   2.7928460
 AtZNuc=   6.0000000   6.0000000   6.0000000   6.0000000   6.0000000   6.0000000   6.0000000   6.0000000   6.0000000   1.0000000

  Atom        21          22          23          24          25          26          27          28          29          30
 IAtWgt=           1           1           1           1           1           1           1           1           1           1
 AtmWgt=   1.0078250   1.0078250   1.0078250   1.0078250   1.0078250   1.0078250   1.0078250   1.0078250   1.0078250   1.0078250
 NucSpn=           1           1           1           1           1           1           1           1           1           1
 AtZEff=   0.0000000   0.0000000   0.0000000   0.0000000   0.0000000   0.0000000   0.0000000   0.0000000   0.0000000   0.0000000
 NQMom=    0.0000000   0.0000000   0.0000000   0.0000000   0.0000000   0.0000000   0.0000000   0.0000000   0.0000000   0.0000000
 NMagM=    2.7928460   2.7928460   2.7928460   2.7928460   2.7928460   2.7928460   2.7928460   2.7928460   2.7928460   2.7928460
 AtZNuc=   1.0000000   1.0000000   1.0000000   1.0000000   1.0000000   1.0000000   1.0000000   1.0000000   1.0000000   1.0000000

  Atom        31          32          33          34          35
 IAtWgt=           1           1           1           1         107
 AtmWgt=   1.0078250   1.0078250   1.0078250   1.0078250 106.9050900
 NucSpn=           1           1           1           1           1
 AtZEff=   0.0000000   0.0000000   0.0000000   0.0000000   0.0000000
 NQMom=    0.0000000   0.0000000   0.0000000   0.0000000   0.0000000
 NMagM=    2.7928460   2.7928460   2.7928460   2.7928460  -0.1135700
 AtZNuc=   1.0000000   1.0000000   1.0000000   1.0000000  47.0000000
 Leave Link  101 at Sat Sep 12 01:35:56 2026, MaxMem=  6442450944 cpu:               0.0 elap:               0.2
 (Enter C:\G16W\l202.exe)
                          Input orientation:                          
 ---------------------------------------------------------------------
 Center     Atomic      Atomic             Coordinates (Angstroms)
 Number     Number       Type             X           Y           Z
 ---------------------------------------------------------------------
      1          6           0       -2.892235   -2.902243    0.856125
      2          6           0       -1.550328   -3.244136    0.818755
      3          6           0       -0.592488   -2.291023    0.532809
      4          6           0       -0.966825   -0.970209    0.286154
      5          7           0        0.000025   -0.000036   -0.000047
      6          6           0        1.237148   -0.031197    0.653023
      7          6           0        1.319853   -0.403699    1.994633
      8          6           0        2.543855   -0.436670    2.633678
      9          6           0        3.700795   -0.093231    1.953573
     10          6           0        3.623838    0.281274    0.622097
     11          6           0        2.405612    0.309797   -0.028101
     12          6           0       -0.270279    1.001344   -0.939259
     13          6           0        0.196201    2.300966   -0.742039
     14          6           0       -0.069933    3.284954   -1.674018
     15          6           0       -0.808596    2.995527   -2.809628
     16          6           0       -1.277645    1.707329   -3.008482
     17          6           0       -1.010141    0.714471   -2.086353
     18          6           0       -2.318985   -0.630584    0.328955
     19          6           0       -3.269818   -1.592708    0.608027
     20          1           0       -3.638099   -3.650671    1.076924
     21          1           0       -1.246710   -4.263922    1.005046
     22          1           0        0.452460   -2.562347    0.494733
     23          1           0        0.418020   -0.662633    2.530014
     24          1           0        2.593126   -0.724322    3.673717
     25          1           0        4.655158   -0.117258    2.457379
     26          1           0        4.521246    0.545089    0.081807
     27          1           0        2.349602    0.592850   -1.069124
     28          1           0        0.764190    2.531619    0.147439
     29          1           0        0.295028    4.287890   -1.507357
     30          1           0       -1.017132    3.768032   -3.534168
     31          1           0       -1.849460    1.470676   -3.893849
     32          1           0       -1.368838   -0.291501   -2.248647
     33          1           0       -2.615351    0.391898    0.145433
     34          1           0       -4.313292   -1.315323    0.640753
     35         47           0        0.897816   -1.440431   -1.835575
 ---------------------------------------------------------------------
                    Distance matrix (angstroms):
                    1          2          3          4          5
     1  C    0.000000
     2  C    1.385280   0.000000
     3  C    2.401449   1.381176   0.000000
     4  C    2.786544   2.407256   1.394818   0.000000
     5  N    4.185810   3.687576   2.425619   1.399266   0.000000
     6  C    5.033484   4.256814   2.910126   2.423599   1.399266
     7  C    5.027982   4.205795   3.058753   2.910108   2.425621
     8  C    6.228147   5.285655   4.205820   4.256807   3.687577
     9  C    7.250033   6.228186   5.028035   5.033493   4.185811
    10  C    7.255946   6.264119   4.939847   4.770037   3.687576
    11  C    6.258294   5.384892   4.008427   3.620843   2.425620
    12  C    5.033493   4.770036   3.620840   2.423600   1.399266
    13  C    6.258270   6.019518   4.830490   3.620828   2.425623
    14  C    7.255923   7.143844   6.019524   4.770021   3.687578
    15  C    7.250034   7.255944   6.258290   5.033484   4.185811
    16  C    6.228181   6.264112   5.384886   4.256812   3.687576
    17  C    5.028029   4.939840   4.008421   2.910122   2.425619
    18  C    2.401449   2.767922   2.404040   1.394817   2.425622
    19  C    1.385281   2.393380   2.767923   2.407257   3.687578
    20  H    1.079449   2.142594   3.379416   3.865993   5.265259
    21  H    2.141051   1.080209   2.131512   3.382852   4.554699
    22  H    3.381289   2.140324   1.080270   2.143077   2.648574
    23  H    4.333076   3.669736   2.767961   2.654676   2.648578
    24  H    6.539981   5.627476   4.740041   4.920294   4.554701
    25  H    8.202640   7.139363   5.997250   6.086743   5.265258
    26  H    8.212391   7.194813   5.864913   5.697088   4.554701
    27  H    6.587800   5.787573   4.420272   3.908788   2.648575
    28  H    6.587757   6.258355   5.024635   3.908766   2.648580
    29  H    8.212351   8.096144   6.944930   5.697066   4.554703
    30  H    8.202637   8.270595   7.309772   6.086733   5.265259
    31  H    6.540035   6.672898   5.943539   4.920304   4.554699
    32  H    4.333165   4.261449   3.512450   2.654708   2.648573
    33  H    3.381289   3.848166   3.382322   2.143076   2.648579
    34  H    2.141052   3.374311   3.848120   3.382852   4.554702
    35  Ag   4.873051   4.036363   2.924680   2.863517   2.499986
                    6          7          8          9         10
     6  C    0.000000
     7  C    1.394817   0.000000
     8  C    2.407257   1.381176   0.000000
     9  C    2.786545   2.401450   1.385281   0.000000
    10  C    2.407256   2.767922   2.393379   1.385281   0.000000
    11  C    1.394817   2.404039   2.767922   2.401450   1.381175
    12  C    2.423600   3.620827   4.770022   5.033488   4.256816
    13  C    2.910112   4.008389   4.939797   5.027990   4.205796
    14  C    4.256811   5.384855   6.264074   6.228157   5.285658
    15  C    5.033496   6.258271   7.255928   7.250043   6.228192
    16  C    4.770039   6.019518   7.143848   7.255954   6.264126
    17  C    3.620844   4.830489   6.019527   6.258299   5.384898
    18  C    3.620824   4.008379   5.384846   6.258265   6.019515
    19  C    4.770019   4.939787   6.264063   7.255920   7.143843
    20  H    6.086733   5.997191   7.139317   8.202637   8.270598
    21  H    4.920308   4.740026   5.627493   6.540044   6.672907
    22  H    2.654715   2.768001   3.669812   4.333178   4.261460
    23  H    2.143077   1.080270   2.140322   3.381289   3.848165
    24  H    3.382852   2.131513   1.080209   2.141052   3.374311
    25  H    3.865993   3.379414   2.142593   1.079447   2.142594
    26  H    3.382853   3.848119   3.374311   2.141051   1.080210
    27  H    2.143077   3.382322   3.848167   3.381291   2.140324
    28  H    2.654681   3.512404   4.261377   4.333083   3.669733
    29  H    4.920299   5.943501   6.672845   6.539993   5.627479
    30  H    6.086747   7.309752   8.270579   8.202651   7.139371
    31  H    5.697088   6.944930   8.096159   8.212398   7.194820
    32  H    3.908786   5.024647   6.258381   6.587803   5.787578
    33  H    3.908760   4.420220   5.787512   6.587748   6.258348
    34  H    5.697062   5.864842   7.194737   8.212344   8.096141
    35  Ag   2.879966   3.990416   4.867361   4.901967   4.054087
                   11         12         13         14         15
    11  C    0.000000
    12  C    2.910127   0.000000
    13  C    3.058751   1.394818   0.000000
    14  C    4.205820   2.407257   1.381175   0.000000
    15  C    5.028038   2.786545   2.401449   1.385280   0.000000
    16  C    4.939853   2.407257   2.767922   2.393379   1.385281
    17  C    4.008432   1.394818   2.404040   2.767922   2.401450
    18  C    4.830489   2.910112   4.008388   4.939795   5.027988
    19  C    6.019526   4.256810   5.384855   6.264071   6.228152
    20  H    7.309776   6.086744   7.309751   8.270573   8.202641
    21  H    5.943547   5.697084   6.944930   8.096154   8.212386
    22  H    3.512459   3.908782   5.024648   6.258379   6.587794
    23  H    3.382321   3.908763   4.420232   5.787523   6.587754
    24  H    3.848119   5.697066   5.864854   7.194751   8.212354
    25  H    3.379415   6.086736   5.997198   7.139326   8.202646
    26  H    2.131513   4.920311   4.740025   5.627496   6.540050
    27  H    1.080271   2.654714   2.767992   3.669805   4.333177
    28  H    2.767955   2.143077   1.080270   2.140323   3.381288
    29  H    4.740041   3.382853   2.131512   1.080210   2.141051
    30  H    5.997255   3.865993   3.379415   2.142594   1.079449
    31  H    5.864920   3.382852   3.848119   3.374310   2.141052
    32  H    4.420278   2.143077   3.382322   3.848166   3.381290
    33  H    5.024632   2.654683   3.512403   4.261376   4.333086
    34  H    6.944930   4.920299   5.943500   6.672841   6.539989
    35  Ag   2.933208   2.851332   3.960573   4.826168   4.851633
                   16         17         18         19         20
    16  C    0.000000
    17  C    1.381176   0.000000
    18  C    4.205795   3.058751   0.000000
    19  C    5.285654   4.205817   1.381176   0.000000
    20  H    7.139359   5.997245   3.379415   2.142594   0.000000
    21  H    7.194804   5.864905   3.848119   3.374311   2.469815
    22  H    5.787565   4.420265   3.382321   3.848167   4.272712
    23  H    6.258349   5.024630   3.512390   4.261364   5.243276
    24  H    8.096146   6.944931   5.943488   6.672830   7.357650
    25  H    8.270605   7.309780   7.309744   8.270568   9.119692
    26  H    6.672917   5.943555   6.944930   8.096157   9.228736
    27  H    4.261466   3.512466   5.024651   6.258385   7.646277
    28  H    3.848166   3.382322   4.420231   5.787524   7.646228
    29  H    3.374311   3.848120   5.864852   7.194749   9.228692
    30  H    2.142594   3.379416   5.997196   7.139321   9.119693
    31  H    1.080209   2.131512   4.740023   5.627488   7.357718
    32  H    2.140324   1.080270   2.767994   3.669803   5.243376
    33  H    3.669741   2.767963   1.080270   2.140323   4.272710
    34  H    5.627477   4.740040   2.131513   1.080209   2.469814
    35  Ag   4.002091   2.889081   3.960915   4.833586   5.826005
                   21         22         23         24         25
    21  H    0.000000
    22  H    2.458242   0.000000
    23  H    4.250428   2.784325   0.000000
    24  H    5.864718   4.250497   2.458241   0.000000
    25  H    7.357727   5.243387   4.272710   2.469814   0.000000
    26  H    7.566259   5.136311   4.928364   4.269762   2.469813
    27  H    6.389356   4.000008   4.273294   4.928366   4.272712
    28  H    7.138528   5.115298   3.999968   5.136224   5.243282
    29  H    9.045585   7.138550   6.389301   7.566178   7.357662
    30  H    9.228730   7.646270   7.646225   9.228695   9.119703
    31  H    7.566247   6.389348   7.138521   9.045587   9.228742
    32  H    5.136298   4.000000   5.115291   7.138549   7.646278
    33  H    4.928364   4.273294   3.999950   6.389285   7.646217
    34  H    4.269762   4.928365   5.136207   7.566159   9.228683
    35  Ag   4.543151   2.624380   4.460218   5.808544   5.856438
                   26         27         28         29         30
    26  H    0.000000
    27  H    2.458243   0.000000
    28  H    4.250421   2.784310   0.000000
    29  H    5.864718   4.250487   2.458241   0.000000
    30  H    7.357735   5.243388   4.272711   2.469814   0.000000
    31  H    7.566270   5.136319   4.928364   4.269762   2.469815
    32  H    6.389365   4.000018   4.273294   4.928365   4.272712
    33  H    7.138525   5.115299   3.999963   5.136222   5.243286
    34  H    9.045585   7.138554   6.389299   7.566174   7.357658
    35  Ag   4.554985   2.613305   4.441552   5.769293   5.803476
                   31         32         33         34         35
    31  H    0.000000
    32  H    2.458242   0.000000
    33  H    4.250429   2.784322   0.000000
    34  H    5.864714   4.250489   2.458241   0.000000
    35  Ag   4.500951   2.574565   4.429917   5.770918   0.000000
 Symmetry turned off by external request.
 Stoichiometry    C18H15AgN(2)
 Framework group  C1[X(C18H15AgN)]
 Deg. of freedom    99
 Full point group                 C1      NOp   1
 Rotational constants (GHZ):           0.2989168           0.2988889           0.2235984
 Leave Link  202 at Sat Sep 12 01:35:56 2026, MaxMem=  6442450944 cpu:               0.0 elap:               0.1
 (Enter C:\G16W\l301.exe)
 Standard basis: def2SVP (5D, 7F)
 Ernie: Thresh=  0.10000D-02 Tol=  0.10000D-05 Strict=F.
   372 basis functions,   645 primitive gaussians,   396 cartesian basis functions
    75 alpha electrons       74 beta electrons
       nuclear repulsion energy      1662.7366026917 Hartrees.
 IExCor= 1009 DFT=T Ex+Corr=PBE1PBE ExCW=0 ScaHFX=  0.250000
 ScaDFX=  0.750000  0.750000  1.000000  1.000000 ScalE2=  1.000000  1.000000
 IRadAn=      5 IRanWt=     -1 IRanGd=            0 ICorTp=0 IEmpDi=141
 NAtoms=   35 NActive=   35 NUniq=   35 SFac= 1.00D+00 NAtFMM=   60 NAOKFM=F Big=F
 Integral buffers will be    131072 words long.
 Raffenetti 2 integral format.
 Two-electron integral symmetry is turned off.
 R6Disp:  Grimme-D3(BJ) Dispersion energy=       -0.0514565583 Hartrees.
 Nuclear repulsion after empirical dispersion term =     1662.6851461334 Hartrees.
 Leave Link  301 at Sat Sep 12 01:35:57 2026, MaxMem=  6442450944 cpu:               1.0 elap:               0.5
 (Enter C:\G16W\l302.exe)
 NPDir=0 NMtPBC=     1 NCelOv=     1 NCel=       1 NClECP=     1 NCelD=      1
         NCelK=      1 NCelE2=     1 NClLst=     1 CellRange=     0.0.
 One-electron integrals computed using PRISM.
   1 Symmetry operations used in ECPInt.
 ECPInt:  NShTT=   14535 NPrTT=   52310 LenC2=   13687 LenP2D=   35576.
 LDataN:  DoStor=T MaxTD1= 7 Len=  274
 NBasis=   372 RedAO= T EigKep=  2.36D-04  NBF=   372
 NBsUse=   372 1.00D-06 EigRej= -1.00D+00 NBFU=   372
 Precomputing XC quadrature grid using
 IXCGrd= 4 IRadAn=           5 IRanWt=          -1 IRanGd=           0 AccXCQ= 0.00D+00.
 Defaulting to unpruned grid for atomic number  47.
 Generated NRdTot=       0 NPtTot=           0 NUsed=           0 NTot=          32
 NSgBfM=   395   395   395   395   395 MxSgAt=    35 MxSgA2=    35.
 Leave Link  302 at Sat Sep 12 01:36:08 2026, MaxMem=  6442450944 cpu:              11.0 elap:              11.1
 (Enter C:\G16W\l303.exe)
 DipDrv:  MaxL=1.
 Leave Link  303 at Sat Sep 12 01:36:10 2026, MaxMem=  6442450944 cpu:               2.0 elap:               1.4
 (Enter C:\G16W\l401.exe)
 Initial guess from the checkpoint file:  "TPA.chk"
 B after Tr=    -0.081959    0.120985    0.138259
         Rot=    0.999998   -0.001160   -0.001331    0.000477 Ang=  -0.21 deg.
 Guess basis will be translated and rotated to current coordinates.
 JPrj=2 DoOrth=T DoCkMO=T.
 Initial guess <Sx>= 0.0000 <Sy>= 0.0000 <Sz>= 0.5000 <S**2>= 0.7518 S= 0.5009
 Leave Link  401 at Sat Sep 12 01:36:28 2026, MaxMem=  6442450944 cpu:              18.0 elap:              17.8
 (Enter C:\G16W\l502.exe)
 Two-electron integral symmetry not used.
 UHF open shell SCF:
 Using DIIS extrapolation, IDIIS=  1040.
 NGot=  6442450944 LenX=  6442130178 LenY=  6441972921
 Requested convergence on RMS density matrix=1.00D-08 within 128 cycles.
 Requested convergence on MAX density matrix=1.00D-06.
 Requested convergence on             energy=1.00D-06.
 No special actions if energy rises.
 Fock matrices will be formed incrementally for  20 cycles.

 Cycle   1  Pass 1  IDiag  1:
 FoFJK:  IHMeth= 1 ICntrl=       0 DoSepK=F KAlg= 0 I1Cent=           0 FoldK=F
 IRaf= 890000000 NMat=       1 IRICut=       1 DoRegI=T DoRafI=F ISym2E= 0 IDoP0=0 IntGTp=1.
 FoFCou: FMM=F IPFlag=           0 FMFlag=      100000 FMFlg1=           0
         NFxFlg=           0 DoJE=F BraDBF=F KetDBF=F FulRan=T
         wScrn=  0.000000 ICntrl=         0 IOpCl=  1 I1Cent=           0 NGrid=           0
         NMat0=    1 NMatS0=      1 NMatT0=    0 NMatD0=    1 NMtDS0=    0 NMtDT0=    0
 Symmetry not used in FoFCou.
 Defaulting to unpruned grid for atomic number  47.
 Defaulting to unpruned grid for atomic number  47.
 Defaulting to unpruned grid for atomic number  47.
 Defaulting to unpruned grid for atomic number  47.
 Defaulting to unpruned grid for atomic number  47.
 Defaulting to unpruned grid for atomic number  47.
 Defaulting to unpruned grid for atomic number  47.
 Defaulting to unpruned grid for atomic number  47.
 E= -895.242391009278    
 DIIS: error= 8.81D-03 at cycle   1 NSaved=   1.
 NSaved= 1 IEnMin= 1 EnMin= -895.242391009278     IErMin= 1 ErrMin= 8.81D-03
 ErrMax= 8.81D-03  0.00D+00 EMaxC= 1.00D-01 BMatC= 5.11D-02 BMatP= 5.11D-02
 IDIUse=3 WtCom= 9.12D-01 WtEn= 8.81D-02
 Coeff-Com:  0.100D+01
 Coeff-En:   0.100D+01
 Coeff:      0.100D+01
 Gap=     0.128 Goal=   None    Shift=    0.000
 Gap=     0.174 Goal=   None    Shift=    0.000
 GapD=    0.128 DampG=1.000 DampE=1.000 DampFc=1.0000 IDamp=-1.
 RMSDP=7.60D-04 MaxDP=4.20D-02              OVMax= 5.84D-02

 Cycle   2  Pass 1  IDiag  1:
 RMSU=  7.59D-04    CP:  9.99D-01
 E= -895.246517387779     Delta-E=       -0.004126378501 Rises=F Damp=F
 DIIS: error= 1.45D-03 at cycle   2 NSaved=   2.
 NSaved= 2 IEnMin= 2 EnMin= -895.246517387779     IErMin= 2 ErrMin= 1.45D-03
 ErrMax= 1.45D-03  0.00D+00 EMaxC= 1.00D-01 BMatC= 4.00D-03 BMatP= 5.11D-02
 IDIUse=3 WtCom= 9.85D-01 WtEn= 1.45D-02
 Coeff-Com:  0.101D+00 0.899D+00
 Coeff-En:   0.000D+00 0.100D+01
 Coeff:      0.993D-01 0.901D+00
 Gap=     0.124 Goal=   None    Shift=    0.000
 Gap=     0.136 Goal=   None    Shift=    0.000
 RMSDP=2.75D-04 MaxDP=9.68D-03 DE=-4.13D-03 OVMax= 2.13D-02

 Cycle   3  Pass 1  IDiag  1:
 RMSU=  2.54D-04    CP:  9.99D-01  8.61D-01
 E= -895.245378949569     Delta-E=        0.001138438209 Rises=F Damp=F
 DIIS: error= 3.01D-03 at cycle   3 NSaved=   3.
 NSaved= 3 IEnMin= 2 EnMin= -895.246517387779     IErMin= 2 ErrMin= 1.45D-03
 ErrMax= 3.01D-03  0.00D+00 EMaxC= 1.00D-01 BMatC= 8.47D-03 BMatP= 4.00D-03
 IDIUse=3 WtCom= 1.54D-01 WtEn= 8.46D-01
 Coeff-Com:  0.441D-02 0.595D+00 0.400D+00
 Coeff-En:   0.000D+00 0.659D+00 0.341D+00
 Coeff:      0.680D-03 0.650D+00 0.350D+00
 Gap=     0.123 Goal=   None    Shift=    0.000
 Gap=     0.140 Goal=   None    Shift=    0.000
 RMSDP=1.62D-04 MaxDP=4.41D-03 DE= 1.14D-03 OVMax= 1.49D-02

 Cycle   4  Pass 1  IDiag  1:
 RMSU=  6.50D-05    CP:  9.99D-01  9.62D-01  5.02D-01
 E= -895.247437244912     Delta-E=       -0.002058295342 Rises=F Damp=F
 DIIS: error= 3.97D-04 at cycle   4 NSaved=   4.
 NSaved= 4 IEnMin= 4 EnMin= -895.247437244912     IErMin= 4 ErrMin= 3.97D-04
 ErrMax= 3.97D-04  0.00D+00 EMaxC= 1.00D-01 BMatC= 3.07D-04 BMatP= 4.00D-03
 IDIUse=3 WtCom= 9.96D-01 WtEn= 3.97D-03
 Coeff-Com: -0.327D-02 0.323D+00 0.186D+00 0.494D+00
 Coeff-En:   0.000D+00 0.000D+00 0.000D+00 0.100D+01
 Coeff:     -0.325D-02 0.322D+00 0.186D+00 0.496D+00
 Gap=     0.122 Goal=   None    Shift=    0.000
 Gap=     0.140 Goal=   None    Shift=    0.000
 RMSDP=3.77D-05 MaxDP=6.79D-03 DE=-2.06D-03 OVMax= 3.54D-03

 Cycle   5  Pass 1  IDiag  1:
 RMSU=  2.82D-05    CP:  9.99D-01  9.85D-01  5.06D-01  7.38D-01
 E= -895.247506114333     Delta-E=       -0.000068869422 Rises=F Damp=F
 DIIS: error= 1.07D-04 at cycle   5 NSaved=   5.
 NSaved= 5 IEnMin= 5 EnMin= -895.247506114333     IErMin= 5 ErrMin= 1.07D-04
 ErrMax= 1.07D-04  0.00D+00 EMaxC= 1.00D-01 BMatC= 1.24D-05 BMatP= 3.07D-04
 IDIUse=3 WtCom= 9.99D-01 WtEn= 1.07D-03
 Coeff-Com: -0.176D-02 0.684D-01 0.320D-01 0.196D+00 0.705D+00
 Coeff-En:   0.000D+00 0.000D+00 0.000D+00 0.000D+00 0.100D+01
 Coeff:     -0.176D-02 0.683D-01 0.320D-01 0.196D+00 0.705D+00
 Gap=     0.122 Goal=   None    Shift=    0.000
 Gap=     0.140 Goal=   None    Shift=    0.000
 RMSDP=1.25D-05 MaxDP=1.02D-03 DE=-6.89D-05 OVMax= 1.26D-03

 Cycle   6  Pass 1  IDiag  1:
 RMSU=  9.47D-06    CP:  9.99D-01  9.93D-01  5.10D-01  8.23D-01  1.00D+00
 E= -895.247511098208     Delta-E=       -0.000004983875 Rises=F Damp=F
 DIIS: error= 3.70D-05 at cycle   6 NSaved=   6.
 NSaved= 6 IEnMin= 6 EnMin= -895.247511098208     IErMin= 6 ErrMin= 3.70D-05
 ErrMax= 3.70D-05  0.00D+00 EMaxC= 1.00D-01 BMatC= 1.67D-06 BMatP= 1.24D-05
 IDIUse=1 WtCom= 1.00D+00 WtEn= 0.00D+00
 Coeff-Com:  0.247D-03-0.543D-01-0.364D-01-0.403D-01 0.249D+00 0.881D+00
 Coeff:      0.247D-03-0.543D-01-0.364D-01-0.403D-01 0.249D+00 0.881D+00
 Gap=     0.122 Goal=   None    Shift=    0.000
 Gap=     0.140 Goal=   None    Shift=    0.000
 RMSDP=7.88D-06 MaxDP=8.56D-04 DE=-4.98D-06 OVMax= 1.15D-03

 Cycle   7  Pass 1  IDiag  1:
 RMSU=  3.63D-06    CP:  9.99D-01  9.96D-01  5.20D-01  8.91D-01  1.16D+00
                    CP:  1.15D+00
 E= -895.247512516896     Delta-E=       -0.000001418688 Rises=F Damp=F
 DIIS: error= 1.81D-05 at cycle   7 NSaved=   7.
 NSaved= 7 IEnMin= 7 EnMin= -895.247512516896     IErMin= 7 ErrMin= 1.81D-05
 ErrMax= 1.81D-05  0.00D+00 EMaxC= 1.00D-01 BMatC= 2.92D-07 BMatP= 1.67D-06
 IDIUse=1 WtCom= 1.00D+00 WtEn= 0.00D+00
 Coeff-Com:  0.209D-03-0.217D-01-0.134D-01-0.287D-01 0.351D-01 0.292D+00
 Coeff-Com:  0.736D+00
 Coeff:      0.209D-03-0.217D-01-0.134D-01-0.287D-01 0.351D-01 0.292D+00
 Coeff:      0.736D+00
 Gap=     0.122 Goal=   None    Shift=    0.000
 Gap=     0.140 Goal=   None    Shift=    0.000
 RMSDP=2.08D-06 MaxDP=2.12D-04 DE=-1.42D-06 OVMax= 2.70D-04

 Cycle   8  Pass 1  IDiag  1:
 RMSU=  1.45D-06    CP:  9.99D-01  9.96D-01  5.21D-01  9.00D-01  1.19D+00
                    CP:  1.24D+00  1.15D+00
 E= -895.247512745980     Delta-E=       -0.000000229084 Rises=F Damp=F
 DIIS: error= 1.30D-05 at cycle   8 NSaved=   8.
 NSaved= 8 IEnMin= 8 EnMin= -895.247512745980     IErMin= 8 ErrMin= 1.30D-05
 ErrMax= 1.30D-05  0.00D+00 EMaxC= 1.00D-01 BMatC= 1.51D-07 BMatP= 2.92D-07
 IDIUse=1 WtCom= 1.00D+00 WtEn= 0.00D+00
 Coeff-Com:  0.286D-04 0.695D-02 0.563D-02-0.409D-02-0.716D-01-0.167D+00
 Coeff-Com:  0.410D+00 0.820D+00
 Coeff:      0.286D-04 0.695D-02 0.563D-02-0.409D-02-0.716D-01-0.167D+00
 Coeff:      0.410D+00 0.820D+00
 Gap=     0.122 Goal=   None    Shift=    0.000
 Gap=     0.140 Goal=   None    Shift=    0.000
 RMSDP=1.77D-06 MaxDP=1.52D-04 DE=-2.29D-07 OVMax= 1.96D-04

 Cycle   9  Pass 1  IDiag  1:
 RMSU=  1.04D-06    CP:  9.99D-01  9.96D-01  5.23D-01  9.03D-01  1.20D+00
                    CP:  1.32D+00  1.41D+00  1.30D+00
 E= -895.247512905516     Delta-E=       -0.000000159535 Rises=F Damp=F
 DIIS: error= 7.09D-06 at cycle   9 NSaved=   9.
 NSaved= 9 IEnMin= 9 EnMin= -895.247512905516     IErMin= 9 ErrMin= 7.09D-06
 ErrMax= 7.09D-06  0.00D+00 EMaxC= 1.00D-01 BMatC= 3.82D-08 BMatP= 1.51D-07
 IDIUse=1 WtCom= 1.00D+00 WtEn= 0.00D+00
 Coeff-Com: -0.655D-04 0.106D-01 0.674D-02 0.109D-01-0.351D-01-0.158D+00
 Coeff-Com: -0.122D+00 0.268D+00 0.102D+01
 Coeff:     -0.655D-04 0.106D-01 0.674D-02 0.109D-01-0.351D-01-0.158D+00
 Coeff:     -0.122D+00 0.268D+00 0.102D+01
 Gap=     0.122 Goal=   None    Shift=    0.000
 Gap=     0.140 Goal=   None    Shift=    0.000
 RMSDP=1.27D-06 MaxDP=5.15D-05 DE=-1.60D-07 OVMax= 1.51D-04

 Cycle  10  Pass 1  IDiag  1:
 RMSU=  6.53D-07    CP:  9.99D-01  9.96D-01  5.22D-01  9.05D-01  1.21D+00
                    CP:  1.34D+00  1.58D+00  1.81D+00  1.42D+00
 E= -895.247512972197     Delta-E=       -0.000000066681 Rises=F Damp=F
 DIIS: error= 3.44D-06 at cycle  10 NSaved=  10.
 NSaved=10 IEnMin=10 EnMin= -895.247512972197     IErMin=10 ErrMin= 3.44D-06
 ErrMax= 3.44D-06  0.00D+00 EMaxC= 1.00D-01 BMatC= 1.61D-08 BMatP= 3.82D-08
 IDIUse=1 WtCom= 1.00D+00 WtEn= 0.00D+00
 Coeff-Com: -0.413D-04 0.312D-02 0.164D-02 0.684D-02 0.249D-02-0.317D-01
 Coeff-Com: -0.179D+00-0.104D+00 0.519D+00 0.782D+00
 Coeff:     -0.413D-04 0.312D-02 0.164D-02 0.684D-02 0.249D-02-0.317D-01
 Coeff:     -0.179D+00-0.104D+00 0.519D+00 0.782D+00
 Gap=     0.122 Goal=   None    Shift=    0.000
 Gap=     0.140 Goal=   None    Shift=    0.000
 RMSDP=7.01D-07 MaxDP=3.38D-05 DE=-6.67D-08 OVMax= 8.42D-05

 Cycle  11  Pass 1  IDiag  1:
 RMSU=  3.33D-07    CP:  9.99D-01  9.96D-01  5.22D-01  9.05D-01  1.21D+00
                    CP:  1.35D+00  1.64D+00  2.00D+00  1.88D+00  1.20D+00
 E= -895.247512991671     Delta-E=       -0.000000019474 Rises=F Damp=F
 DIIS: error= 1.95D-06 at cycle  11 NSaved=  11.
 NSaved=11 IEnMin=11 EnMin= -895.247512991671     IErMin=11 ErrMin= 1.95D-06
 ErrMax= 1.95D-06  0.00D+00 EMaxC= 1.00D-01 BMatC= 6.69D-09 BMatP= 1.61D-08
 IDIUse=1 WtCom= 1.00D+00 WtEn= 0.00D+00
 Coeff-Com:  0.834D-05-0.366D-02-0.244D-02-0.122D-02 0.215D-01 0.617D-01
 Coeff-Com: -0.565D-01-0.214D+00-0.202D+00 0.528D+00 0.868D+00
 Coeff:      0.834D-05-0.366D-02-0.244D-02-0.122D-02 0.215D-01 0.617D-01
 Coeff:     -0.565D-01-0.214D+00-0.202D+00 0.528D+00 0.868D+00
 Gap=     0.122 Goal=   None    Shift=    0.000
 Gap=     0.140 Goal=   None    Shift=    0.000
 RMSDP=5.58D-07 MaxDP=2.58D-05 DE=-1.95D-08 OVMax= 6.40D-05

 Cycle  12  Pass 1  IDiag  1:
 RMSU=  1.92D-07    CP:  9.99D-01  9.96D-01  5.22D-01  9.05D-01  1.21D+00
                    CP:  1.35D+00  1.66D+00  2.18D+00  2.19D+00  1.65D+00
                    CP:  1.18D+00
 E= -895.247512999188     Delta-E=       -0.000000007517 Rises=F Damp=F
 DIIS: error= 4.36D-07 at cycle  12 NSaved=  12.
 NSaved=12 IEnMin=12 EnMin= -895.247512999188     IErMin=12 ErrMin= 4.36D-07
 ErrMax= 4.36D-07  0.00D+00 EMaxC= 1.00D-01 BMatC= 5.68D-10 BMatP= 6.69D-09
 IDIUse=1 WtCom= 1.00D+00 WtEn= 0.00D+00
 Coeff-Com:  0.713D-05-0.155D-02-0.970D-03-0.116D-02 0.816D-02 0.247D-01
 Coeff-Com: -0.235D-02-0.631D-01-0.137D+00 0.104D+00 0.332D+00 0.738D+00
 Coeff:      0.713D-05-0.155D-02-0.970D-03-0.116D-02 0.816D-02 0.247D-01
 Coeff:     -0.235D-02-0.631D-01-0.137D+00 0.104D+00 0.332D+00 0.738D+00
 Gap=     0.122 Goal=   None    Shift=    0.000
 Gap=     0.140 Goal=   None    Shift=    0.000
 RMSDP=1.29D-07 MaxDP=1.13D-05 DE=-7.52D-09 OVMax= 1.37D-05

 Cycle  13  Pass 1  IDiag  1:
 RMSU=  5.97D-08    CP:  9.99D-01  9.96D-01  5.22D-01  9.05D-01  1.21D+00
                    CP:  1.35D+00  1.66D+00  2.21D+00  2.24D+00  1.75D+00
                    CP:  1.34D+00  9.93D-01
 E= -895.247512999587     Delta-E=       -0.000000000399 Rises=F Damp=F
 DIIS: error= 2.00D-07 at cycle  13 NSaved=  13.
 NSaved=13 IEnMin=13 EnMin= -895.247512999587     IErMin=13 ErrMin= 2.00D-07
 ErrMax= 2.00D-07  0.00D+00 EMaxC= 1.00D-01 BMatC= 1.61D-10 BMatP= 5.68D-10
 IDIUse=1 WtCom= 1.00D+00 WtEn= 0.00D+00
 Coeff-Com:  0.244D-05-0.194D-03-0.891D-04-0.539D-03 0.210D-03 0.165D-02
 Coeff-Com:  0.101D-01 0.844D-02-0.365D-01-0.486D-01 0.103D-01 0.392D+00
 Coeff-Com:  0.664D+00
 Coeff:      0.244D-05-0.194D-03-0.891D-04-0.539D-03 0.210D-03 0.165D-02
 Coeff:      0.101D-01 0.844D-02-0.365D-01-0.486D-01 0.103D-01 0.392D+00
 Coeff:      0.664D+00
 Gap=     0.122 Goal=   None    Shift=    0.000
 Gap=     0.140 Goal=   None    Shift=    0.000
 RMSDP=4.60D-08 MaxDP=3.79D-06 DE=-3.99D-10 OVMax= 4.46D-06

 Cycle  14  Pass 1  IDiag  1:
 RMSU=  2.42D-08    CP:  9.99D-01  9.96D-01  5.22D-01  9.05D-01  1.21D+00
                    CP:  1.35D+00  1.66D+00  2.21D+00  2.25D+00  1.78D+00
                    CP:  1.38D+00  1.12D+00  9.33D-01
 E= -895.247512999619     Delta-E=       -0.000000000032 Rises=F Damp=F
 DIIS: error= 7.48D-08 at cycle  14 NSaved=  14.
 NSaved=14 IEnMin=14 EnMin= -895.247512999619     IErMin=14 ErrMin= 7.48D-08
 ErrMax= 7.48D-08  0.00D+00 EMaxC= 1.00D-01 BMatC= 2.12D-11 BMatP= 1.61D-10
 IDIUse=1 WtCom= 1.00D+00 WtEn= 0.00D+00
 Coeff-Com: -0.128D-06 0.212D-03 0.142D-03-0.184D-04-0.141D-02-0.378D-02
 Coeff-Com:  0.515D-02 0.156D-01 0.821D-02-0.427D-01-0.561D-01 0.512D-01
 Coeff-Com:  0.303D+00 0.720D+00
 Coeff:     -0.128D-06 0.212D-03 0.142D-03-0.184D-04-0.141D-02-0.378D-02
 Coeff:      0.515D-02 0.156D-01 0.821D-02-0.427D-01-0.561D-01 0.512D-01
 Coeff:      0.303D+00 0.720D+00
 Gap=     0.122 Goal=   None    Shift=    0.000
 Gap=     0.140 Goal=   None    Shift=    0.000
 RMSDP=1.68D-08 MaxDP=1.53D-06 DE=-3.18D-11 OVMax= 1.81D-06

 Cycle  15  Pass 1  IDiag  1:
 RMSU=  7.66D-09    CP:  9.99D-01  9.96D-01  5.22D-01  9.05D-01  1.21D+00
                    CP:  1.35D+00  1.66D+00  2.21D+00  2.25D+00  1.79D+00
                    CP:  1.41D+00  1.16D+00  1.06D+00  8.64D-01
 E= -895.247512999616     Delta-E=        0.000000000003 Rises=F Damp=F
 DIIS: error= 4.00D-08 at cycle  15 NSaved=  15.
 NSaved=15 IEnMin=14 EnMin= -895.247512999619     IErMin=15 ErrMin= 4.00D-08
 ErrMax= 4.00D-08  0.00D+00 EMaxC= 1.00D-01 BMatC= 4.15D-12 BMatP= 2.12D-11
 IDIUse=1 WtCom= 1.00D+00 WtEn= 0.00D+00
 Coeff-Com: -0.409D-06 0.141D-03 0.889D-04 0.661D-04-0.795D-03-0.224D-02
 Coeff-Com:  0.135D-02 0.699D-02 0.941D-02-0.158D-01-0.308D-01-0.239D-01
 Coeff-Com:  0.684D-01 0.369D+00 0.618D+00
 Coeff:     -0.409D-06 0.141D-03 0.889D-04 0.661D-04-0.795D-03-0.224D-02
 Coeff:      0.135D-02 0.699D-02 0.941D-02-0.158D-01-0.308D-01-0.239D-01
 Coeff:      0.684D-01 0.369D+00 0.618D+00
 Gap=     0.122 Goal=   None    Shift=    0.000
 Gap=     0.140 Goal=   None    Shift=    0.000
 RMSDP=5.06D-09 MaxDP=2.15D-07 DE= 2.73D-12 OVMax= 4.62D-07

 SCF Done:  E(UPBE1PBE) =  -895.247513000     A.U. after   15 cycles
            NFock= 15  Conv=0.51D-08     -V/T= 2.1228
 <Sx>= 0.0000 <Sy>= 0.0000 <Sz>= 0.5000 <S**2>= 0.7526 S= 0.5013
 <L.S>= 0.000000000000E+00
 KE= 7.973323168345D+02 PE=-5.374938355907D+03 EE= 2.019673379939D+03
 Annihilation of the first spin contaminant:
 S**2 before annihilation     0.7526,   after     0.7500
 Leave Link  502 at Sat Sep 12 01:42:49 2026, MaxMem=  6442450944 cpu:             381.0 elap:             381.1
 (Enter C:\G16W\l508.exe)
 QCSCF skips out because SCF is already converged.
 Leave Link  508 at Sat Sep 12 01:42:50 2026, MaxMem=  6442450944 cpu:               0.0 elap:               0.1
 (Enter C:\G16W\l601.exe)
 Copying SCF densities to generalized density rwf, IOpCl= 1 IROHF=0.

 **********************************************************************

            Population analysis using the SCF Density.

 **********************************************************************

 Alpha  occ. eigenvalues --  -14.44694 -10.28942 -10.28916 -10.28892 -10.24458
 Alpha  occ. eigenvalues --  -10.24416 -10.24398 -10.24310 -10.24297 -10.24295
 Alpha  occ. eigenvalues --  -10.24284 -10.24272 -10.24262 -10.24142 -10.24133
 Alpha  occ. eigenvalues --  -10.24121 -10.23782 -10.23767 -10.23755  -3.74152
 Alpha  occ. eigenvalues --   -2.32160  -2.32153  -2.32078  -1.02200  -0.89229
 Alpha  occ. eigenvalues --   -0.89205  -0.87066  -0.79323  -0.79313  -0.77304
 Alpha  occ. eigenvalues --   -0.77201  -0.77191  -0.73560  -0.66157  -0.66154
 Alpha  occ. eigenvalues --   -0.63315  -0.62686  -0.62675  -0.59660  -0.56721
 Alpha  occ. eigenvalues --   -0.56703  -0.53073  -0.50716  -0.50698  -0.50412
 Alpha  occ. eigenvalues --   -0.47708  -0.47702  -0.46276  -0.45699  -0.45687
 Alpha  occ. eigenvalues --   -0.44964  -0.44613  -0.44589  -0.41588  -0.40203
 Alpha  occ. eigenvalues --   -0.40162  -0.39128  -0.38035  -0.38017  -0.37789
 Alpha  occ. eigenvalues --   -0.36404  -0.36385  -0.34875  -0.32131  -0.32101
 Alpha  occ. eigenvalues --   -0.31527  -0.31510  -0.30750  -0.28730  -0.28133
 Alpha  occ. eigenvalues --   -0.28108  -0.27162  -0.27147  -0.20703  -0.14669
 Alpha virt. eigenvalues --   -0.02491  -0.02462  -0.02436  -0.00818  -0.00783
 Alpha virt. eigenvalues --    0.02655   0.02695   0.02799   0.06148   0.07293
 Alpha virt. eigenvalues --    0.07844   0.07853   0.11035   0.11749   0.11761
 Alpha virt. eigenvalues --    0.11764   0.13501   0.13526   0.14286   0.14312
 Alpha virt. eigenvalues --    0.15749   0.15871   0.16572   0.16579   0.17968
 Alpha virt. eigenvalues --    0.18026   0.18564   0.18926   0.23644   0.24557
 Alpha virt. eigenvalues --    0.24594   0.26810   0.26860   0.27960   0.28768
 Alpha virt. eigenvalues --    0.28813   0.29477   0.30463   0.30484   0.32026
 Alpha virt. eigenvalues --    0.32672   0.32706   0.35300   0.35646   0.36498
 Alpha virt. eigenvalues --    0.36516   0.38621   0.38626   0.40975   0.41041
 Alpha virt. eigenvalues --    0.41414   0.42229   0.42269   0.43796   0.45231
 Alpha virt. eigenvalues --    0.45420   0.45445   0.46007   0.47293   0.47356
 Alpha virt. eigenvalues --    0.48095   0.48977   0.49858   0.49875   0.50672
 Alpha virt. eigenvalues --    0.50902   0.50918   0.51851   0.52333   0.52392
 Alpha virt. eigenvalues --    0.55061   0.55176   0.57510   0.57583   0.57645
 Alpha virt. eigenvalues --    0.58771   0.58926   0.58928   0.59400   0.60165
 Alpha virt. eigenvalues --    0.60200   0.62272   0.62432   0.63655   0.65038
 Alpha virt. eigenvalues --    0.65216   0.65242   0.66508   0.66536   0.66765
 Alpha virt. eigenvalues --    0.68609   0.68635   0.69712   0.70159   0.70354
 Alpha virt. eigenvalues --    0.70383   0.71882   0.71888   0.72318   0.74202
 Alpha virt. eigenvalues --    0.74218   0.74291   0.75706   0.76223   0.76277
 Alpha virt. eigenvalues --    0.76865   0.77654   0.77712   0.79575   0.79584
 Alpha virt. eigenvalues --    0.80385   0.81316   0.82243   0.82281   0.84326
 Alpha virt. eigenvalues --    0.84418   0.85123   0.86296   0.88628   0.88644
 Alpha virt. eigenvalues --    0.90588   0.92023   0.92226   0.93400   0.95846
 Alpha virt. eigenvalues --    0.95863   0.96684   0.96797   0.96838   1.07953
 Alpha virt. eigenvalues --    1.09222   1.09270   1.11753   1.11788   1.13363
 Alpha virt. eigenvalues --    1.20260   1.20337   1.21736   1.21864   1.22128
 Alpha virt. eigenvalues --    1.24979   1.25100   1.25129   1.26054   1.27164
 Alpha virt. eigenvalues --    1.28460   1.28468   1.29071   1.29103   1.30262
 Alpha virt. eigenvalues --    1.30475   1.32154   1.32188   1.34217   1.34549
 Alpha virt. eigenvalues --    1.35111   1.37306   1.37432   1.41332   1.44460
 Alpha virt. eigenvalues --    1.52933   1.52950   1.54506   1.63021   1.63033
 Alpha virt. eigenvalues --    1.63552   1.68063   1.69841   1.69855   1.69917
 Alpha virt. eigenvalues --    1.70141   1.70181   1.72409   1.72426   1.74202
 Alpha virt. eigenvalues --    1.74286   1.76551   1.76560   1.76952   1.77622
 Alpha virt. eigenvalues --    1.77661   1.78654   1.78679   1.78939   1.78948
 Alpha virt. eigenvalues --    1.78990   1.80689   1.82532   1.82552   1.83337
 Alpha virt. eigenvalues --    1.84863   1.84882   1.86129   1.86399   1.86424
 Alpha virt. eigenvalues --    1.88423   1.88495   1.89260   1.91715   1.96153
 Alpha virt. eigenvalues --    1.96156   1.96602   1.99622   1.99641   2.01141
 Alpha virt. eigenvalues --    2.01923   2.02662   2.02671   2.02959   2.05468
 Alpha virt. eigenvalues --    2.05513   2.05525   2.08575   2.08619   2.11630
 Alpha virt. eigenvalues --    2.11652   2.13651   2.15375   2.15876   2.15918
 Alpha virt. eigenvalues --    2.18685   2.19387   2.19405   2.19723   2.21554
 Alpha virt. eigenvalues --    2.21570   2.22491   2.22517   2.25141   2.29533
 Alpha virt. eigenvalues --    2.30789   2.30804   2.31259   2.32670   2.32686
 Alpha virt. eigenvalues --    2.33308   2.34314   2.35435   2.35466   2.37367
 Alpha virt. eigenvalues --    2.37389   2.38048   2.40270   2.44437   2.44486
 Alpha virt. eigenvalues --    2.48463   2.48471   2.56120   2.60219   2.60253
 Alpha virt. eigenvalues --    2.62019   2.62042   2.62267   2.63304   2.64839
 Alpha virt. eigenvalues --    2.64863   2.65031   2.65775   2.66301   2.66399
 Alpha virt. eigenvalues --    2.66573   2.67298   2.67337   2.68099   2.70051
 Alpha virt. eigenvalues --    2.70125   2.76977   2.77159   2.77167   2.77888
 Alpha virt. eigenvalues --    2.77899   2.78337   2.82427   2.86585   2.86643
 Alpha virt. eigenvalues --    2.87154   2.91266   2.91290   2.92196   2.93299
 Alpha virt. eigenvalues --    2.93322   2.99157   3.04959   3.04971   3.13125
 Alpha virt. eigenvalues --    3.16581   3.16596   3.17116   3.21176   3.21192
 Alpha virt. eigenvalues --    3.26147   3.41784   3.41809   3.68675   3.72352
 Alpha virt. eigenvalues --    3.72367  53.91062
  Beta  occ. eigenvalues --  -14.44685 -10.28914 -10.28890 -10.28866 -10.24456
  Beta  occ. eigenvalues --  -10.24415 -10.24395 -10.24276 -10.24264 -10.24254
  Beta  occ. eigenvalues --  -10.24252 -10.24233 -10.24225 -10.24152 -10.24142
  Beta  occ. eigenvalues --  -10.24130 -10.23798 -10.23783 -10.23771  -3.74038
  Beta  occ. eigenvalues --   -2.32115  -2.32109  -2.32068  -1.02143  -0.89191
  Beta  occ. eigenvalues --   -0.89169  -0.87031  -0.79279  -0.79269  -0.77254
  Beta  occ. eigenvalues --   -0.77155  -0.77146  -0.73550  -0.66129  -0.66127
  Beta  occ. eigenvalues --   -0.63231  -0.62639  -0.62629  -0.59622  -0.56681
  Beta  occ. eigenvalues --   -0.56664  -0.53038  -0.50687  -0.50670  -0.50315
  Beta  occ. eigenvalues --   -0.47675  -0.47668  -0.46228  -0.45660  -0.45648
  Beta  occ. eigenvalues --   -0.44907  -0.44580  -0.44558  -0.41477  -0.40105
  Beta  occ. eigenvalues --   -0.40068  -0.39106  -0.38007  -0.37989  -0.37699
  Beta  occ. eigenvalues --   -0.36367  -0.36349  -0.34726  -0.31629  -0.31594
  Beta  occ. eigenvalues --   -0.30976  -0.30959  -0.30207  -0.28527  -0.27986
  Beta  occ. eigenvalues --   -0.27958  -0.26983  -0.26970  -0.20673
  Beta virt. eigenvalues --   -0.06651  -0.02400  -0.02375  -0.01486  -0.00359
  Beta virt. eigenvalues --   -0.00334   0.02766   0.04345   0.04439   0.06860
  Beta virt. eigenvalues --    0.07946   0.07957   0.09239   0.11398   0.11874
  Beta virt. eigenvalues --    0.11888   0.11895   0.13591   0.13618   0.14406
  Beta virt. eigenvalues --    0.14427   0.15924   0.16206   0.16636   0.16640
  Beta virt. eigenvalues --    0.18396   0.18478   0.18699   0.19093   0.23901
  Beta virt. eigenvalues --    0.24851   0.24880   0.27096   0.27144   0.28572
  Beta virt. eigenvalues --    0.29011   0.29038   0.29697   0.30653   0.30670
  Beta virt. eigenvalues --    0.33497   0.33537   0.33728   0.35392   0.35890
  Beta virt. eigenvalues --    0.36654   0.36673   0.38797   0.38811   0.41419
  Beta virt. eigenvalues --    0.41477   0.41583   0.42486   0.42542   0.43859
  Beta virt. eigenvalues --    0.45273   0.45588   0.45610   0.46097   0.47520
  Beta virt. eigenvalues --    0.47571   0.48330   0.49027   0.50019   0.50034
  Beta virt. eigenvalues --    0.50759   0.51014   0.51026   0.52288   0.52679
  Beta virt. eigenvalues --    0.52737   0.55630   0.55746   0.57823   0.58044
  Beta virt. eigenvalues --    0.58085   0.58884   0.59019   0.59027   0.59511
  Beta virt. eigenvalues --    0.61009   0.61098   0.62728   0.62916   0.63819
  Beta virt. eigenvalues --    0.65360   0.65422   0.65864   0.66627   0.66656
  Beta virt. eigenvalues --    0.66829   0.68694   0.68727   0.69810   0.70203
  Beta virt. eigenvalues --    0.70417   0.70448   0.71986   0.71997   0.72439
  Beta virt. eigenvalues --    0.74289   0.74339   0.74424   0.75751   0.76332
  Beta virt. eigenvalues --    0.76389   0.76933   0.77762   0.77832   0.79602
  Beta virt. eigenvalues --    0.79610   0.80689   0.81407   0.82369   0.82398
  Beta virt. eigenvalues --    0.84530   0.84628   0.85243   0.86400   0.88742
  Beta virt. eigenvalues --    0.88756   0.90794   0.92265   0.92459   0.93448
  Beta virt. eigenvalues --    0.95880   0.95897   0.96868   0.96904   0.97035
  Beta virt. eigenvalues --    1.08065   1.09289   1.09337   1.11812   1.11846
  Beta virt. eigenvalues --    1.13467   1.20366   1.20438   1.21805   1.21942
  Beta virt. eigenvalues --    1.22155   1.25068   1.25155   1.25185   1.26157
  Beta virt. eigenvalues --    1.27252   1.28507   1.28513   1.29128   1.29161
  Beta virt. eigenvalues --    1.30310   1.30532   1.32233   1.32266   1.34341
  Beta virt. eigenvalues --    1.34673   1.35293   1.37402   1.37540   1.41467
  Beta virt. eigenvalues --    1.44528   1.52973   1.52990   1.54562   1.63055
  Beta virt. eigenvalues --    1.63066   1.63614   1.68093   1.69861   1.69875
  Beta virt. eigenvalues --    1.69947   1.70179   1.70219   1.72429   1.72446
  Beta virt. eigenvalues --    1.74243   1.74324   1.76593   1.76602   1.76978
  Beta virt. eigenvalues --    1.77657   1.77698   1.78697   1.78722   1.78964
  Beta virt. eigenvalues --    1.78972   1.79051   1.80709   1.82561   1.82580
  Beta virt. eigenvalues --    1.83358   1.84893   1.84911   1.86194   1.86441
  Beta virt. eigenvalues --    1.86468   1.88492   1.88565   1.89319   1.91759
  Beta virt. eigenvalues --    1.96185   1.96187   1.96635   1.99665   1.99685
  Beta virt. eigenvalues --    2.01197   2.01966   2.02695   2.02703   2.03052
  Beta virt. eigenvalues --    2.05495   2.05549   2.05564   2.08597   2.08640
  Beta virt. eigenvalues --    2.11672   2.11694   2.13780   2.15454   2.15917
  Beta virt. eigenvalues --    2.15961   2.18765   2.19422   2.19437   2.19778
  Beta virt. eigenvalues --    2.21571   2.21587   2.22520   2.22546   2.25869
  Beta virt. eigenvalues --    2.29623   2.30829   2.30843   2.31323   2.32729
  Beta virt. eigenvalues --    2.32745   2.33351   2.34350   2.35467   2.35499
  Beta virt. eigenvalues --    2.37415   2.37439   2.38105   2.40341   2.44467
  Beta virt. eigenvalues --    2.44515   2.48507   2.48515   2.56168   2.60258
  Beta virt. eigenvalues --    2.60291   2.62054   2.62077   2.62293   2.63319
  Beta virt. eigenvalues --    2.64877   2.64904   2.65056   2.65813   2.66335
  Beta virt. eigenvalues --    2.66434   2.66609   2.67347   2.67385   2.68154
  Beta virt. eigenvalues --    2.70091   2.70166   2.76984   2.77166   2.77174
  Beta virt. eigenvalues --    2.77911   2.77922   2.78358   2.82450   2.86617
  Beta virt. eigenvalues --    2.86675   2.87192   2.91295   2.91320   2.92233
  Beta virt. eigenvalues --    2.93328   2.93350   2.99201   3.04976   3.04988
  Beta virt. eigenvalues --    3.13147   3.16602   3.16616   3.17140   3.21195
  Beta virt. eigenvalues --    3.21211   3.26163   3.41804   3.41828   3.68695
  Beta virt. eigenvalues --    3.72373   3.72387  53.91215
          Condensed to atoms (all electrons):
               1          2          3          4          5          6
     1  C    5.143949   0.256152   0.098865  -0.178326  -0.000757   0.000123
     2  C    0.256152   5.072075   0.252874   0.127154   0.011784  -0.000634
     3  C    0.098865   0.252874   5.259567   0.216770  -0.102614  -0.000252
     4  C   -0.178326   0.127154   0.216770   5.332623   0.243425  -0.057006
     5  N   -0.000757   0.011784  -0.102614   0.243425   7.136672   0.244746
     6  C    0.000123  -0.000634  -0.000252  -0.057006   0.244746   5.326046
     7  C    0.000036  -0.001553  -0.005656   0.000221  -0.080688   0.264883
     8  C   -0.000004   0.000080  -0.001099  -0.001166   0.011419   0.136662
     9  C    0.000000  -0.000006  -0.000020   0.000191  -0.000749  -0.178041
    10  C    0.000000   0.000006   0.000077  -0.000484   0.011680   0.127101
    11  C    0.000001  -0.000108   0.000493   0.008652  -0.102125   0.218023
    12  C    0.000193  -0.000487   0.008857  -0.057982   0.244060  -0.057958
    13  C    0.000000   0.000008  -0.000908   0.005454  -0.080470   0.000091
    14  C    0.000000   0.000000   0.000012  -0.000242   0.011404  -0.001144
    15  C    0.000000   0.000000   0.000001   0.000121  -0.000743   0.000187
    16  C   -0.000006   0.000006  -0.000114  -0.000599   0.011722  -0.000475
    17  C   -0.000019   0.000079   0.000515  -0.000149  -0.103203   0.008846
    18  C    0.096543  -0.153555   0.059091   0.264549  -0.080945   0.005444
    19  C    0.246889   0.114367  -0.165039   0.137010   0.011446  -0.000246
    20  H    0.453106  -0.071810   0.015815  -0.001658   0.000011   0.000001
    21  H   -0.073583   0.449734  -0.066663   0.016770  -0.000170  -0.000039
    22  H    0.014283  -0.060099   0.450157  -0.066776  -0.015218   0.005524
    23  H    0.000156  -0.001060   0.001214   0.007277  -0.016081  -0.066963
    24  H    0.000000   0.000003   0.000049  -0.000036  -0.000169   0.016164
    25  H    0.000000   0.000000   0.000000   0.000001   0.000011  -0.001649
    26  H    0.000000   0.000000  -0.000002   0.000012  -0.000169   0.016758
    27  H    0.000000   0.000003   0.000045   0.000175  -0.015345  -0.067274
    28  H    0.000000   0.000000  -0.000006  -0.000445  -0.016084   0.007264
    29  H    0.000000   0.000000   0.000000   0.000011  -0.000169  -0.000036
    30  H    0.000000   0.000000   0.000000   0.000001   0.000011   0.000001
    31  H    0.000000   0.000000   0.000000  -0.000039  -0.000170   0.000012
    32  H    0.000144  -0.000110  -0.001855   0.005518  -0.015051   0.000170
    33  H    0.015057  -0.002524   0.017140  -0.067054  -0.016098  -0.000442
    34  H   -0.072550   0.014388  -0.001597   0.016178  -0.000170   0.000011
    35  Ag  -0.002324   0.002096  -0.010701  -0.023186   0.016055  -0.022738
               7          8          9         10         11         12
     1  C    0.000036  -0.000004   0.000000   0.000000   0.000001   0.000193
     2  C   -0.001553   0.000080  -0.000006   0.000006  -0.000108  -0.000487
     3  C   -0.005656  -0.001099  -0.000020   0.000077   0.000493   0.008857
     4  C    0.000221  -0.001166   0.000191  -0.000484   0.008652  -0.057982
     5  N   -0.080688   0.011419  -0.000749   0.011680  -0.102125   0.244060
     6  C    0.264883   0.136662  -0.178041   0.127101   0.218023  -0.057958
     7  C    5.179512   0.245628   0.096253  -0.153414   0.059413   0.005525
     8  C    0.245628   5.111130   0.247394   0.114053  -0.164902  -0.000247
     9  C    0.096253   0.247394   5.143572   0.256551   0.098546   0.000125
    10  C   -0.153414   0.114053   0.256551   5.070751   0.254033  -0.000655
    11  C    0.059413  -0.164902   0.098546   0.254033   5.258776  -0.000189
    12  C    0.005525  -0.000247   0.000125  -0.000655  -0.000189   5.332375
    13  C    0.001247  -0.000006   0.000035  -0.001533  -0.005595   0.266694
    14  C   -0.000062   0.000005  -0.000004   0.000080  -0.001104   0.136745
    15  C    0.000000   0.000000   0.000000  -0.000006  -0.000018  -0.177757
    16  C    0.000008   0.000000   0.000000   0.000006   0.000083   0.125968
    17  C   -0.000915   0.000012   0.000001  -0.000112   0.000463   0.215683
    18  C    0.001231  -0.000063   0.000000   0.000008  -0.000913   0.000132
    19  C   -0.000006   0.000005   0.000000   0.000000   0.000012  -0.001176
    20  H   -0.000001   0.000000   0.000000   0.000000   0.000000   0.000001
    21  H    0.000051   0.000000   0.000000   0.000000   0.000000   0.000012
    22  H    0.004072  -0.000742   0.000150  -0.000112  -0.001878   0.000145
    23  H    0.458233  -0.072758   0.015043  -0.002516   0.017142  -0.000444
    24  H   -0.067801   0.449372  -0.072539   0.014385  -0.001592   0.000011
    25  H    0.015308  -0.071955   0.453045  -0.071765   0.015804   0.000001
    26  H   -0.001593   0.014363  -0.073592   0.449761  -0.066683  -0.000039
    27  H    0.014569  -0.002233   0.014298  -0.059931   0.450047   0.005557
    28  H   -0.000917   0.000032   0.000156  -0.001068   0.001226  -0.067045
    29  H    0.000001   0.000000   0.000000   0.000003   0.000050   0.016181
    30  H    0.000000   0.000000   0.000000   0.000000   0.000000  -0.001663
    31  H    0.000000   0.000000   0.000000   0.000000  -0.000002   0.016761
    32  H    0.000014   0.000000   0.000000   0.000004   0.000047  -0.066806
    33  H   -0.000001   0.000001   0.000000   0.000000  -0.000006   0.007282
    34  H   -0.000002   0.000000   0.000000   0.000000   0.000000  -0.000036
    35  Ag  -0.009570   0.001293  -0.002321   0.002257  -0.011602  -0.023120
              13         14         15         16         17         18
     1  C    0.000000   0.000000   0.000000  -0.000006  -0.000019   0.096543
     2  C    0.000008   0.000000   0.000000   0.000006   0.000079  -0.153555
     3  C   -0.000908   0.000012   0.000001  -0.000114   0.000515   0.059091
     4  C    0.005454  -0.000242   0.000121  -0.000599  -0.000149   0.264549
     5  N   -0.080470   0.011404  -0.000743   0.011722  -0.103203  -0.080945
     6  C    0.000091  -0.001144   0.000187  -0.000475   0.008846   0.005444
     7  C    0.001247  -0.000062   0.000000   0.000008  -0.000915   0.001231
     8  C   -0.000006   0.000005   0.000000   0.000000   0.000012  -0.000063
     9  C    0.000035  -0.000004   0.000000   0.000000   0.000001   0.000000
    10  C   -0.001533   0.000080  -0.000006   0.000006  -0.000112   0.000008
    11  C   -0.005595  -0.001104  -0.000018   0.000083   0.000463  -0.000913
    12  C    0.266694   0.136745  -0.177757   0.125968   0.215683   0.000132
    13  C    5.177624   0.245450   0.095988  -0.152625   0.058585   0.001233
    14  C    0.245450   5.111907   0.247122   0.114027  -0.165206  -0.000005
    15  C    0.095988   0.247122   5.142658   0.257613   0.098492   0.000037
    16  C   -0.152625   0.114027   0.257613   5.069558   0.253138  -0.001546
    17  C    0.058585  -0.165206   0.098492   0.253138   5.266119  -0.005433
    18  C    0.001233  -0.000005   0.000037  -0.001546  -0.005433   5.179948
    19  C   -0.000064   0.000005  -0.000004   0.000079  -0.001093   0.245065
    20  H    0.000000   0.000000   0.000000   0.000000   0.000000   0.015317
    21  H    0.000000   0.000000   0.000000   0.000000  -0.000002  -0.001594
    22  H    0.000013   0.000000   0.000000   0.000004   0.000051   0.014594
    23  H    0.000000   0.000001   0.000000   0.000000  -0.000007  -0.000905
    24  H   -0.000002   0.000000   0.000000   0.000000   0.000000   0.000001
    25  H   -0.000001   0.000000   0.000000   0.000000   0.000000   0.000000
    26  H    0.000050   0.000000   0.000000   0.000000   0.000000   0.000000
    27  H    0.004039  -0.000749   0.000147  -0.000107  -0.001881   0.000013
    28  H    0.458504  -0.072893   0.015065  -0.002529   0.017202   0.000000
    29  H   -0.067786   0.449392  -0.072549   0.014385  -0.001595  -0.000002
    30  H    0.015317  -0.072027   0.453161  -0.071854   0.015864  -0.000001
    31  H   -0.001581   0.014347  -0.073480   0.449687  -0.066663   0.000049
    32  H    0.014391  -0.002178   0.014185  -0.059104   0.448853   0.004071
    33  H   -0.000887   0.000031   0.000158  -0.001061   0.001172   0.458376
    34  H    0.000001   0.000000   0.000000   0.000004   0.000050  -0.067824
    35  Ag  -0.009852   0.001362  -0.002462   0.002064  -0.012017  -0.009786
              19         20         21         22         23         24
     1  C    0.246889   0.453106  -0.073583   0.014283   0.000156   0.000000
     2  C    0.114367  -0.071810   0.449734  -0.060099  -0.001060   0.000003
     3  C   -0.165039   0.015815  -0.066663   0.450157   0.001214   0.000049
     4  C    0.137010  -0.001658   0.016770  -0.066776   0.007277  -0.000036
     5  N    0.011446   0.000011  -0.000170  -0.015218  -0.016081  -0.000169
     6  C   -0.000246   0.000001  -0.000039   0.005524  -0.066963   0.016164
     7  C   -0.000006  -0.000001   0.000051   0.004072   0.458233  -0.067801
     8  C    0.000005   0.000000   0.000000  -0.000742  -0.072758   0.449372
     9  C    0.000000   0.000000   0.000000   0.000150   0.015043  -0.072539
    10  C    0.000000   0.000000   0.000000  -0.000112  -0.002516   0.014385
    11  C    0.000012   0.000000   0.000000  -0.001878   0.017142  -0.001592
    12  C   -0.001176   0.000001   0.000012   0.000145  -0.000444   0.000011
    13  C   -0.000064   0.000000   0.000000   0.000013   0.000000  -0.000002
    14  C    0.000005   0.000000   0.000000   0.000000   0.000001   0.000000
    15  C   -0.000004   0.000000   0.000000   0.000000   0.000000   0.000000
    16  C    0.000079   0.000000   0.000000   0.000004   0.000000   0.000000
    17  C   -0.001093   0.000000  -0.000002   0.000051  -0.000007   0.000000
    18  C    0.245065   0.015317  -0.001594   0.014594  -0.000905   0.000001
    19  C    5.111740  -0.071970   0.014364  -0.002225   0.000033   0.000000
    20  H   -0.071970   0.671750  -0.012181  -0.000237   0.000001   0.000000
    21  H    0.014364  -0.012181   0.667954  -0.013587  -0.000011   0.000000
    22  H   -0.002225  -0.000237  -0.013587   0.620285  -0.001250   0.000034
    23  H    0.000033   0.000001  -0.000011  -0.001250   0.650598  -0.012429
    24  H    0.000000   0.000000   0.000000   0.000034  -0.012429   0.670858
    25  H    0.000000   0.000000   0.000000  -0.000002  -0.000242  -0.012239
    26  H    0.000000   0.000000   0.000000  -0.000012   0.000023  -0.000310
    27  H    0.000000   0.000000   0.000000   0.000085  -0.000151   0.000026
    28  H    0.000001   0.000000   0.000000   0.000002   0.000018  -0.000006
    29  H    0.000000   0.000000   0.000000   0.000000   0.000000   0.000000
    30  H    0.000000   0.000000   0.000000   0.000000   0.000000   0.000000
    31  H    0.000000   0.000000   0.000000   0.000000   0.000000   0.000000
    32  H   -0.000739  -0.000002  -0.000012   0.000091   0.000002   0.000000
    33  H   -0.072775  -0.000242   0.000023  -0.000152   0.000018   0.000000
    34  H    0.449397  -0.012235  -0.000309   0.000026  -0.000006   0.000000
    35  Ag   0.001326   0.000152   0.001571   0.000884   0.000904  -0.000089
              25         26         27         28         29         30
     1  C    0.000000   0.000000   0.000000   0.000000   0.000000   0.000000
     2  C    0.000000   0.000000   0.000003   0.000000   0.000000   0.000000
     3  C    0.000000  -0.000002   0.000045  -0.000006   0.000000   0.000000
     4  C    0.000001   0.000012   0.000175  -0.000445   0.000011   0.000001
     5  N    0.000011  -0.000169  -0.015345  -0.016084  -0.000169   0.000011
     6  C   -0.001649   0.016758  -0.067274   0.007264  -0.000036   0.000001
     7  C    0.015308  -0.001593   0.014569  -0.000917   0.000001   0.000000
     8  C   -0.071955   0.014363  -0.002233   0.000032   0.000000   0.000000
     9  C    0.453045  -0.073592   0.014298   0.000156   0.000000   0.000000
    10  C   -0.071765   0.449761  -0.059931  -0.001068   0.000003   0.000000
    11  C    0.015804  -0.066683   0.450047   0.001226   0.000050   0.000000
    12  C    0.000001  -0.000039   0.005557  -0.067045   0.016181  -0.001663
    13  C   -0.000001   0.000050   0.004039   0.458504  -0.067786   0.015317
    14  C    0.000000   0.000000  -0.000749  -0.072893   0.449392  -0.072027
    15  C    0.000000   0.000000   0.000147   0.015065  -0.072549   0.453161
    16  C    0.000000   0.000000  -0.000107  -0.002529   0.014385  -0.071854
    17  C    0.000000   0.000000  -0.001881   0.017202  -0.001595   0.015864
    18  C    0.000000   0.000000   0.000013   0.000000  -0.000002  -0.000001
    19  C    0.000000   0.000000   0.000000   0.000001   0.000000   0.000000
    20  H    0.000000   0.000000   0.000000   0.000000   0.000000   0.000000
    21  H    0.000000   0.000000   0.000000   0.000000   0.000000   0.000000
    22  H   -0.000002  -0.000012   0.000085   0.000002   0.000000   0.000000
    23  H   -0.000242   0.000023  -0.000151   0.000018   0.000000   0.000000
    24  H   -0.012239  -0.000310   0.000026  -0.000006   0.000000   0.000000
    25  H    0.671811  -0.012180  -0.000237   0.000001   0.000000   0.000000
    26  H   -0.012180   0.668103  -0.013646  -0.000010   0.000000   0.000000
    27  H   -0.000237  -0.013646   0.620578  -0.001266   0.000034  -0.000002
    28  H    0.000001  -0.000010  -0.001266   0.650307  -0.012422  -0.000242
    29  H    0.000000   0.000000   0.000034  -0.012422   0.670686  -0.012230
    30  H    0.000000   0.000000  -0.000002  -0.000242  -0.012230   0.671677
    31  H    0.000000   0.000000  -0.000012   0.000023  -0.000309  -0.012176
    32  H    0.000000   0.000000   0.000094  -0.000150   0.000026  -0.000238
    33  H    0.000000   0.000000   0.000002   0.000018  -0.000006   0.000001
    34  H    0.000000   0.000000   0.000000   0.000000   0.000000   0.000000
    35  Ag   0.000139   0.001585   0.001485   0.000922  -0.000088   0.000164
              31         32         33         34         35
     1  C    0.000000   0.000144   0.015057  -0.072550  -0.002324
     2  C    0.000000  -0.000110  -0.002524   0.014388   0.002096
     3  C    0.000000  -0.001855   0.017140  -0.001597  -0.010701
     4  C   -0.000039   0.005518  -0.067054   0.016178  -0.023186
     5  N   -0.000170  -0.015051  -0.016098  -0.000170   0.016055
     6  C    0.000012   0.000170  -0.000442   0.000011  -0.022738
     7  C    0.000000   0.000014  -0.000001  -0.000002  -0.009570
     8  C    0.000000   0.000000   0.000001   0.000000   0.001293
     9  C    0.000000   0.000000   0.000000   0.000000  -0.002321
    10  C    0.000000   0.000004   0.000000   0.000000   0.002257
    11  C   -0.000002   0.000047  -0.000006   0.000000  -0.011602
    12  C    0.016761  -0.066806   0.007282  -0.000036  -0.023120
    13  C   -0.001581   0.014391  -0.000887   0.000001  -0.009852
    14  C    0.014347  -0.002178   0.000031   0.000000   0.001362
    15  C   -0.073480   0.014185   0.000158   0.000000  -0.002462
    16  C    0.449687  -0.059104  -0.001061   0.000004   0.002064
    17  C   -0.066663   0.448853   0.001172   0.000050  -0.012017
    18  C    0.000049   0.004071   0.458376  -0.067824  -0.009786
    19  C    0.000000  -0.000739  -0.072775   0.449397   0.001326
    20  H    0.000000  -0.000002  -0.000242  -0.012235   0.000152
    21  H    0.000000  -0.000012   0.000023  -0.000309   0.001571
    22  H    0.000000   0.000091  -0.000152   0.000026   0.000884
    23  H    0.000000   0.000002   0.000018  -0.000006   0.000904
    24  H    0.000000   0.000000   0.000000   0.000000  -0.000089
    25  H    0.000000   0.000000   0.000000   0.000000   0.000139
    26  H    0.000000   0.000000   0.000000   0.000000   0.001585
    27  H   -0.000012   0.000094   0.000002   0.000000   0.001485
    28  H    0.000023  -0.000150   0.000018   0.000000   0.000922
    29  H   -0.000309   0.000026  -0.000006   0.000000  -0.000088
    30  H   -0.012176  -0.000238   0.000001   0.000000   0.000164
    31  H    0.667680  -0.013635  -0.000011   0.000000   0.001698
    32  H   -0.013635   0.618943  -0.001272   0.000035   0.001195
    33  H   -0.000011  -0.001272   0.650531  -0.012428   0.000958
    34  H    0.000000   0.000035  -0.012428   0.670829  -0.000087
    35  Ag   0.001698   0.001195   0.000958  -0.000087  19.174297
          Atomic-Atomic Spin Densities.
               1          2          3          4          5          6
     1  C   -0.009816  -0.003864   0.001165  -0.000379  -0.000022   0.000022
     2  C   -0.003864   0.034546  -0.002566   0.001888   0.000052  -0.000146
     3  C    0.001165  -0.002566  -0.001994   0.002222  -0.000418   0.001670
     4  C   -0.000379   0.001888   0.002222   0.022488   0.001539   0.002814
     5  N   -0.000022   0.000052  -0.000418   0.001539   0.003973   0.001472
     6  C    0.000022  -0.000146   0.001670   0.002814   0.001472   0.021771
     7  C    0.000023  -0.000204   0.001295   0.000248  -0.000557   0.003592
     8  C   -0.000001   0.000017  -0.000166  -0.000025   0.000010  -0.001018
     9  C    0.000000   0.000000   0.000011   0.000005  -0.000022  -0.000426
    10  C    0.000000   0.000000  -0.000002   0.000003   0.000053   0.001924
    11  C    0.000000   0.000003   0.000060   0.000124  -0.000422   0.001895
    12  C    0.000004   0.000004   0.000089   0.002932   0.001611   0.002813
    13  C    0.000000  -0.000001   0.000024   0.000315  -0.000579   0.000199
    14  C    0.000000   0.000000   0.000000  -0.000018   0.000010  -0.000023
    15  C    0.000000   0.000000   0.000000   0.000024  -0.000023   0.000005
    16  C    0.000000   0.000000   0.000004  -0.000160   0.000054   0.000004
    17  C    0.000012  -0.000002   0.000058   0.001931  -0.000435   0.000128
    18  C    0.000866  -0.000464   0.001047   0.003869  -0.000546   0.000285
    19  C    0.000390  -0.001126  -0.000218  -0.001079   0.000008  -0.000017
    20  H   -0.000221   0.000065   0.000003   0.000007   0.000000   0.000000
    21  H   -0.000231   0.000648  -0.000358  -0.000020   0.000001  -0.000003
    22  H    0.000095  -0.000267   0.003408   0.000485   0.000023   0.000326
    23  H   -0.000033   0.000192  -0.000396   0.000268   0.000241  -0.000128
    24  H    0.000000   0.000000   0.000001   0.000000   0.000000  -0.000024
    25  H    0.000000   0.000000   0.000000   0.000000   0.000000   0.000009
    26  H    0.000000   0.000000   0.000000   0.000000   0.000001  -0.000016
    27  H    0.000000   0.000000   0.000006   0.000060   0.000026   0.000411
    28  H    0.000000   0.000000  -0.000004  -0.000045   0.000240   0.000283
    29  H    0.000000   0.000000   0.000000   0.000000   0.000000   0.000000
    30  H    0.000000   0.000000   0.000000   0.000000   0.000000   0.000000
    31  H    0.000000   0.000000   0.000000  -0.000003   0.000001   0.000000
    32  H    0.000010   0.000007   0.000026   0.000389   0.000029   0.000065
    33  H   -0.000065   0.000056   0.000000  -0.000169   0.000241  -0.000043
    34  H   -0.000074  -0.000017  -0.000009  -0.000024   0.000000   0.000000
    35  Ag  -0.001364  -0.001381  -0.018355  -0.031990  -0.006282  -0.029963
               7          8          9         10         11         12
     1  C    0.000023  -0.000001   0.000000   0.000000   0.000000   0.000004
     2  C   -0.000204   0.000017   0.000000   0.000000   0.000003   0.000004
     3  C    0.001295  -0.000166   0.000011  -0.000002   0.000060   0.000089
     4  C    0.000248  -0.000025   0.000005   0.000003   0.000124   0.002932
     5  N   -0.000557   0.000010  -0.000022   0.000053  -0.000422   0.001611
     6  C    0.003592  -0.001018  -0.000426   0.001924   0.001895   0.002813
     7  C   -0.003851  -0.004866   0.000903  -0.000502   0.001108   0.000304
     8  C   -0.004866   0.029419   0.000304  -0.001083  -0.000212  -0.000017
     9  C    0.000903   0.000304  -0.009533  -0.003772   0.001164   0.000023
    10  C   -0.000502  -0.001083  -0.003772   0.033630  -0.002564  -0.000152
    11  C    0.001108  -0.000212   0.001164  -0.002564  -0.000988   0.001832
    12  C    0.000304  -0.000017   0.000023  -0.000152   0.001832   0.023690
    13  C    0.000065   0.000006   0.000023  -0.000201   0.001387   0.003844
    14  C   -0.000002   0.000000  -0.000001   0.000017  -0.000179  -0.001115
    15  C    0.000000   0.000000   0.000000   0.000000   0.000012  -0.000468
    16  C   -0.000001   0.000000   0.000000   0.000000  -0.000002   0.002112
    17  C    0.000026   0.000000   0.000000   0.000003   0.000072   0.002260
    18  C    0.000056  -0.000002   0.000000  -0.000001   0.000024   0.000165
    19  C    0.000006   0.000000   0.000000   0.000000   0.000000  -0.000022
    20  H    0.000000   0.000000   0.000000   0.000000   0.000000   0.000000
    21  H   -0.000005   0.000000   0.000000   0.000000   0.000000   0.000000
    22  H    0.000456  -0.000067   0.000010   0.000006   0.000024   0.000067
    23  H   -0.001391   0.000188  -0.000067   0.000056  -0.000007  -0.000044
    24  H   -0.000044   0.000468  -0.000071  -0.000017  -0.000009   0.000000
    25  H   -0.000020  -0.000078  -0.000234   0.000072   0.000002   0.000000
    26  H   -0.000023   0.000002  -0.000246   0.000644  -0.000370  -0.000003
    27  H    0.000044  -0.000016   0.000092  -0.000247   0.003410   0.000333
    28  H   -0.000057  -0.000023  -0.000033   0.000186  -0.000414  -0.000132
    29  H    0.000000   0.000000   0.000000   0.000000   0.000001  -0.000026
    30  H    0.000000   0.000000   0.000000   0.000000   0.000000   0.000009
    31  H    0.000000   0.000000   0.000000   0.000000   0.000000  -0.000017
    32  H    0.000005   0.000000   0.000000   0.000000   0.000008   0.000478
    33  H   -0.000019   0.000000   0.000000   0.000000  -0.000005   0.000304
    34  H    0.000000   0.000000   0.000000   0.000000   0.000000   0.000000
    35  Ag  -0.006577   0.001759  -0.001362  -0.001294  -0.018956  -0.032004
              13         14         15         16         17         18
     1  C    0.000000   0.000000   0.000000   0.000000   0.000012   0.000866
     2  C   -0.000001   0.000000   0.000000   0.000000  -0.000002  -0.000464
     3  C    0.000024   0.000000   0.000000   0.000004   0.000058   0.001047
     4  C    0.000315  -0.000018   0.000024  -0.000160   0.001931   0.003869
     5  N   -0.000579   0.000010  -0.000023   0.000054  -0.000435  -0.000546
     6  C    0.000199  -0.000023   0.000005   0.000004   0.000128   0.000285
     7  C    0.000065  -0.000002   0.000000  -0.000001   0.000026   0.000056
     8  C    0.000006   0.000000   0.000000   0.000000   0.000000  -0.000002
     9  C    0.000023  -0.000001   0.000000   0.000000   0.000000   0.000000
    10  C   -0.000201   0.000017   0.000000   0.000000   0.000003  -0.000001
    11  C    0.001387  -0.000179   0.000012  -0.000002   0.000072   0.000024
    12  C    0.003844  -0.001115  -0.000468   0.002112   0.002260   0.000165
    13  C   -0.004492  -0.005199   0.000963  -0.000546   0.001236   0.000062
    14  C   -0.005199   0.031825   0.000340  -0.001176  -0.000245   0.000006
    15  C    0.000963   0.000340  -0.010418  -0.004038   0.001275   0.000024
    16  C   -0.000546  -0.001176  -0.004038   0.036351  -0.002768  -0.000207
    17  C    0.001236  -0.000245   0.001275  -0.002768  -0.001026   0.001421
    18  C    0.000062   0.000006   0.000024  -0.000207   0.001421  -0.003998
    19  C   -0.000002   0.000000  -0.000001   0.000017  -0.000182  -0.004969
    20  H    0.000000   0.000000   0.000000   0.000000   0.000000  -0.000018
    21  H    0.000000   0.000000   0.000000   0.000000   0.000000  -0.000022
    22  H    0.000004   0.000000   0.000000   0.000000   0.000008   0.000046
    23  H   -0.000019   0.000000   0.000000   0.000000  -0.000005  -0.000051
    24  H    0.000000   0.000000   0.000000   0.000000   0.000000   0.000000
    25  H    0.000000   0.000000   0.000000   0.000000   0.000000   0.000000
    26  H   -0.000005   0.000001   0.000000   0.000000   0.000000   0.000000
    27  H    0.000446  -0.000065   0.000010   0.000006   0.000029   0.000004
    28  H   -0.001366   0.000182  -0.000066   0.000057  -0.000011  -0.000018
    29  H   -0.000052   0.000509  -0.000078  -0.000018  -0.000010   0.000000
    30  H   -0.000021  -0.000085  -0.000248   0.000073   0.000002   0.000000
    31  H   -0.000025   0.000002  -0.000258   0.000692  -0.000397  -0.000005
    32  H    0.000061  -0.000019   0.000106  -0.000310   0.003855   0.000484
    33  H   -0.000057  -0.000025  -0.000035   0.000198  -0.000440  -0.001375
    34  H    0.000000   0.000000   0.000000   0.000000   0.000001  -0.000046
    35  Ag  -0.006915   0.001900  -0.001475  -0.001401  -0.021142  -0.006674
              19         20         21         22         23         24
     1  C    0.000390  -0.000221  -0.000231   0.000095  -0.000033   0.000000
     2  C   -0.001126   0.000065   0.000648  -0.000267   0.000192   0.000000
     3  C   -0.000218   0.000003  -0.000358   0.003408  -0.000396   0.000001
     4  C   -0.001079   0.000007  -0.000020   0.000485   0.000268   0.000000
     5  N    0.000008   0.000000   0.000001   0.000023   0.000241   0.000000
     6  C   -0.000017   0.000000  -0.000003   0.000326  -0.000128  -0.000024
     7  C    0.000006   0.000000  -0.000005   0.000456  -0.001391  -0.000044
     8  C    0.000000   0.000000   0.000000  -0.000067   0.000188   0.000468
     9  C    0.000000   0.000000   0.000000   0.000010  -0.000067  -0.000071
    10  C    0.000000   0.000000   0.000000   0.000006   0.000056  -0.000017
    11  C    0.000000   0.000000   0.000000   0.000024  -0.000007  -0.000009
    12  C   -0.000022   0.000000   0.000000   0.000067  -0.000044   0.000000
    13  C   -0.000002   0.000000   0.000000   0.000004  -0.000019   0.000000
    14  C    0.000000   0.000000   0.000000   0.000000   0.000000   0.000000
    15  C   -0.000001   0.000000   0.000000   0.000000   0.000000   0.000000
    16  C    0.000017   0.000000   0.000000   0.000000   0.000000   0.000000
    17  C   -0.000182   0.000000   0.000000   0.000008  -0.000005   0.000000
    18  C   -0.004969  -0.000018  -0.000022   0.000046  -0.000051   0.000000
    19  C    0.029974  -0.000083   0.000001  -0.000017  -0.000024   0.000000
    20  H   -0.000083   0.000731   0.000030  -0.000001   0.000001   0.000000
    21  H    0.000001   0.000030  -0.001454  -0.000031   0.000004   0.000000
    22  H   -0.000017  -0.000001  -0.000031   0.000288  -0.000109   0.000001
    23  H   -0.000024   0.000001   0.000004  -0.000109   0.001104  -0.000009
    24  H    0.000000   0.000000   0.000000   0.000001  -0.000009  -0.001520
    25  H    0.000000   0.000000   0.000000   0.000000   0.000004   0.000008
    26  H    0.000000   0.000000   0.000000   0.000000   0.000001   0.000000
    27  H    0.000000   0.000000   0.000000   0.000011  -0.000006   0.000000
    28  H    0.000000   0.000000   0.000000  -0.000001   0.000022   0.000000
    29  H    0.000000   0.000000   0.000000   0.000000   0.000000   0.000000
    30  H    0.000000   0.000000   0.000000   0.000000   0.000000   0.000000
    31  H    0.000001   0.000000   0.000000   0.000000   0.000000   0.000000
    32  H   -0.000075   0.000000   0.000000   0.000012  -0.000001   0.000000
    33  H    0.000185   0.000004   0.000001  -0.000007   0.000023   0.000000
    34  H    0.000479   0.000009   0.000000   0.000000   0.000000   0.000000
    35  Ag   0.001841   0.000076   0.000307  -0.006082   0.001110  -0.000020
              25         26         27         28         29         30
     1  C    0.000000   0.000000   0.000000   0.000000   0.000000   0.000000
     2  C    0.000000   0.000000   0.000000   0.000000   0.000000   0.000000
     3  C    0.000000   0.000000   0.000006  -0.000004   0.000000   0.000000
     4  C    0.000000   0.000000   0.000060  -0.000045   0.000000   0.000000
     5  N    0.000000   0.000001   0.000026   0.000240   0.000000   0.000000
     6  C    0.000009  -0.000016   0.000411   0.000283   0.000000   0.000000
     7  C   -0.000020  -0.000023   0.000044  -0.000057   0.000000   0.000000
     8  C   -0.000078   0.000002  -0.000016  -0.000023   0.000000   0.000000
     9  C   -0.000234  -0.000246   0.000092  -0.000033   0.000000   0.000000
    10  C    0.000072   0.000644  -0.000247   0.000186   0.000000   0.000000
    11  C    0.000002  -0.000370   0.003410  -0.000414   0.000001   0.000000
    12  C    0.000000  -0.000003   0.000333  -0.000132  -0.000026   0.000009
    13  C    0.000000  -0.000005   0.000446  -0.001366  -0.000052  -0.000021
    14  C    0.000000   0.000001  -0.000065   0.000182   0.000509  -0.000085
    15  C    0.000000   0.000000   0.000010  -0.000066  -0.000078  -0.000248
    16  C    0.000000   0.000000   0.000006   0.000057  -0.000018   0.000073
    17  C    0.000000   0.000000   0.000029  -0.000011  -0.000010   0.000002
    18  C    0.000000   0.000000   0.000004  -0.000018   0.000000   0.000000
    19  C    0.000000   0.000000   0.000000   0.000000   0.000000   0.000000
    20  H    0.000000   0.000000   0.000000   0.000000   0.000000   0.000000
    21  H    0.000000   0.000000   0.000000   0.000000   0.000000   0.000000
    22  H    0.000000   0.000000   0.000011  -0.000001   0.000000   0.000000
    23  H    0.000004   0.000001  -0.000006   0.000022   0.000000   0.000000
    24  H    0.000008   0.000000   0.000000   0.000000   0.000000   0.000000
    25  H    0.000731   0.000031  -0.000001   0.000001   0.000000   0.000000
    26  H    0.000031  -0.001396  -0.000033   0.000004   0.000000   0.000000
    27  H   -0.000001  -0.000033   0.000176  -0.000105   0.000001   0.000000
    28  H    0.000001   0.000004  -0.000105   0.001109  -0.000008   0.000004
    29  H    0.000000   0.000000   0.000001  -0.000008  -0.001646   0.000009
    30  H    0.000000   0.000000   0.000000   0.000004   0.000009   0.000788
    31  H    0.000000   0.000000   0.000000   0.000001   0.000000   0.000033
    32  H    0.000000   0.000000   0.000011  -0.000007   0.000000  -0.000001
    33  H    0.000000   0.000000  -0.000001   0.000022   0.000000   0.000001
    34  H    0.000000   0.000000   0.000000   0.000000   0.000000   0.000000
    35  Ag   0.000076   0.000323  -0.005896   0.001113  -0.000021   0.000082
              31         32         33         34         35
     1  C    0.000000   0.000010  -0.000065  -0.000074  -0.001364
     2  C    0.000000   0.000007   0.000056  -0.000017  -0.001381
     3  C    0.000000   0.000026   0.000000  -0.000009  -0.018355
     4  C   -0.000003   0.000389  -0.000169  -0.000024  -0.031990
     5  N    0.000001   0.000029   0.000241   0.000000  -0.006282
     6  C    0.000000   0.000065  -0.000043   0.000000  -0.029963
     7  C    0.000000   0.000005  -0.000019   0.000000  -0.006577
     8  C    0.000000   0.000000   0.000000   0.000000   0.001759
     9  C    0.000000   0.000000   0.000000   0.000000  -0.001362
    10  C    0.000000   0.000000   0.000000   0.000000  -0.001294
    11  C    0.000000   0.000008  -0.000005   0.000000  -0.018956
    12  C   -0.000017   0.000478   0.000304   0.000000  -0.032004
    13  C   -0.000025   0.000061  -0.000057   0.000000  -0.006915
    14  C    0.000002  -0.000019  -0.000025   0.000000   0.001900
    15  C   -0.000258   0.000106  -0.000035   0.000000  -0.001475
    16  C    0.000692  -0.000310   0.000198   0.000000  -0.001401
    17  C   -0.000397   0.003855  -0.000440   0.000001  -0.021142
    18  C   -0.000005   0.000484  -0.001375  -0.000046  -0.006674
    19  C    0.000001  -0.000075   0.000185   0.000479   0.001841
    20  H    0.000000   0.000000   0.000004   0.000009   0.000076
    21  H    0.000000   0.000000   0.000001   0.000000   0.000307
    22  H    0.000000   0.000012  -0.000007   0.000000  -0.006082
    23  H    0.000000  -0.000001   0.000023   0.000000   0.001110
    24  H    0.000000   0.000000   0.000000   0.000000  -0.000020
    25  H    0.000000   0.000000   0.000000   0.000000   0.000076
    26  H    0.000000   0.000000   0.000000   0.000000   0.000323
    27  H    0.000000   0.000011  -0.000001   0.000000  -0.005896
    28  H    0.000001  -0.000007   0.000022   0.000000   0.001113
    29  H    0.000000   0.000000   0.000000   0.000000  -0.000021
    30  H    0.000033  -0.000001   0.000001   0.000000   0.000082
    31  H   -0.001519  -0.000038   0.000004   0.000000   0.000350
    32  H   -0.000038   0.000332  -0.000116   0.000001  -0.006761
    33  H    0.000004  -0.000116   0.001107  -0.000009   0.001148
    34  H    0.000000   0.000001  -0.000009  -0.001549  -0.000021
    35  Ag   0.000350  -0.006761   0.001148  -0.000021   1.131002
 Mulliken charges and spin densities:
               1          2
     1  C    0.002074  -0.013483
     2  C   -0.008864   0.027439
     3  C   -0.025013  -0.013398
     4  C    0.073032   0.007700
     5  N   -0.307256   0.000280
     6  C    0.076836   0.007880
     7  C   -0.024027  -0.009986
     8  C   -0.016272   0.024597
     9  C    0.001912  -0.013231
    10  C   -0.009162   0.026760
    11  C   -0.026092  -0.013002
    12  C    0.073293   0.008871
    13  C   -0.023415  -0.010847
    14  C   -0.016273   0.026637
    15  C    0.002083  -0.014349
    16  C   -0.008332   0.028939
    17  C   -0.026827  -0.014346
    18  C   -0.023130  -0.010035
    19  C   -0.016400   0.025087
    20  H    0.014183   0.000602
    21  H    0.017673  -0.001132
    22  H    0.051890  -0.001312
    23  H    0.024162   0.000921
    24  H    0.016309  -0.001235
    25  H    0.014150   0.000598
    26  H    0.017581  -0.001087
    27  H    0.051636  -0.001295
    28  H    0.024339   0.000934
    29  H    0.016423  -0.001337
    30  H    0.014236   0.000646
    31  H    0.017822  -0.001181
    32  H    0.053372  -0.001449
    33  H    0.024192   0.000927
    34  H    0.016327  -0.001260
    35  Ag  -0.072462   0.935150
 Sum of Mulliken charges =   0.00000   1.00000
 Mulliken charges and spin densities with hydrogens summed into heavy atoms:
               1          2
     1  C    0.016257  -0.012881
     2  C    0.008809   0.026307
     3  C    0.026877  -0.014710
     4  C    0.073032   0.007700
     5  N   -0.307256   0.000280
     6  C    0.076836   0.007880
     7  C    0.000135  -0.009065
     8  C    0.000037   0.023361
     9  C    0.016062  -0.012633
    10  C    0.008419   0.025673
    11  C    0.025543  -0.014298
    12  C    0.073293   0.008871
    13  C    0.000924  -0.009913
    14  C    0.000150   0.025299
    15  C    0.016319  -0.013703
    16  C    0.009491   0.027757
    17  C    0.026545  -0.015795
    18  C    0.001062  -0.009108
    19  C   -0.000073   0.023827
    35  Ag  -0.072462   0.935150
 Electronic spatial extent (au):  <R**2>=           5355.9520
 Charge=              0.0000 electrons
 Dipole moment (field-independent basis, Debye):
    X=             -0.9022    Y=              1.4186    Z=              1.7581  Tot=              2.4326
 Quadrupole moment (field-independent basis, Debye-Ang):
   XX=           -122.6412   YY=           -127.1279   ZZ=           -131.4422
   XY=              4.7622   XZ=              5.9806   YZ=             -9.4770
 Traceless Quadrupole moment (field-independent basis, Debye-Ang):
   XX=              4.4292   YY=             -0.0575   ZZ=             -4.3717
   XY=              4.7622   XZ=              5.9806   YZ=             -9.4770
 Octapole moment (field-independent basis, Debye-Ang**2):
  XXX=            -50.5798  YYY=             98.9863  ZZZ=            127.0787  XYY=            -33.1946
  XXY=             27.1813  XXZ=             51.5973  XZZ=            -25.6400  YZZ=             48.9124
  YYZ=             43.5770  XYZ=             -1.8712
 Hexadecapole moment (field-independent basis, Debye-Ang**3):
 XXXX=          -2696.9322 YYYY=          -2369.0890 ZZZZ=          -2141.1874 XXXY=           -144.3516
 XXXZ=           -246.8548 YYYX=           -152.4218 YYYZ=            311.2729 ZZZX=           -146.7490
 ZZZY=            344.8621 XXYY=           -932.5525 XXZZ=           -835.2358 YYZZ=           -795.3753
 XXYZ=            109.5547 YYXZ=            -96.4600 ZZXY=           -100.0556
 N-N= 1.662685146133D+03 E-N=-5.374938355073D+03  KE= 7.973323168346D+02
                          Isotropic Fermi Contact Couplings
        Atom                 a.u.       MegaHertz       Gauss      10(-4) cm-1
     1  C(13)             -0.00247      -2.78168      -0.99257      -0.92787
     2  C(13)              0.00451       5.07054       1.80930       1.69135
     3  C(13)              0.01181      13.28175       4.73926       4.43032
     4  C(13)              0.00622       6.98978       2.49413       2.33154
     5  N(14)              0.00368       1.19024       0.42471       0.39702
     6  C(13)              0.00590       6.63666       2.36812       2.21375
     7  C(13)             -0.00156      -1.75469      -0.62612      -0.58530
     8  C(13)              0.00388       4.36362       1.55705       1.45555
     9  C(13)             -0.00241      -2.70566      -0.96545      -0.90251
    10  C(13)              0.00438       4.92699       1.75807       1.64347
    11  C(13)              0.01192      13.40486       4.78319       4.47138
    12  C(13)              0.00640       7.19196       2.56627       2.39898
    13  C(13)             -0.00174      -1.95558      -0.69780      -0.65231
    14  C(13)              0.00421       4.73379       1.68913       1.57902
    15  C(13)             -0.00262      -2.94589      -1.05117      -0.98264
    16  C(13)              0.00476       5.35199       1.90972       1.78523
    17  C(13)              0.01296      14.56871       5.19848       4.85960
    18  C(13)             -0.00158      -1.78142      -0.63566      -0.59422
    19  C(13)              0.00395       4.44434       1.58585       1.48247
    20  H(1)               0.00016       0.73386       0.26186       0.24479
    21  H(1)              -0.00037      -1.65212      -0.58952      -0.55109
    22  H(1)               0.00050       2.23152       0.79626       0.74435
    23  H(1)               0.00007       0.31490       0.11236       0.10504
    24  H(1)              -0.00035      -1.56231      -0.55747      -0.52113
    25  H(1)               0.00016       0.72962       0.26035       0.24337
    26  H(1)              -0.00036      -1.60014      -0.57097      -0.53375
    27  H(1)               0.00047       2.09456       0.74739       0.69867
    28  H(1)               0.00008       0.34863       0.12440       0.11629
    29  H(1)              -0.00038      -1.69130      -0.60350      -0.56416
    30  H(1)               0.00018       0.78752       0.28101       0.26269
    31  H(1)              -0.00039      -1.73618      -0.61951      -0.57913
    32  H(1)               0.00052       2.33767       0.83414       0.77976
    33  H(1)               0.00007       0.30946       0.11042       0.10322
    34  H(1)              -0.00036      -1.59322      -0.56850      -0.53144
    35  Ag(107             0.00031      -0.05627      -0.02008      -0.01877
 --------------------------------------------------------
       Center         ----  Spin Dipole Couplings  ----
                      3XX-RR        3YY-RR        3ZZ-RR
 --------------------------------------------------------
     1   Atom        0.005760      0.003231     -0.008992
     2   Atom       -0.012756     -0.011240      0.023996
     3   Atom        0.012719      0.000328     -0.013047
     4   Atom       -0.007106     -0.009639      0.016745
     5   Atom       -0.005318      0.000160      0.005158
     6   Atom       -0.010239      0.011367     -0.001128
     7   Atom        0.001299     -0.006829      0.005530
     8   Atom       -0.012061      0.019042     -0.006981
     9   Atom        0.003793     -0.008735      0.004942
    10   Atom       -0.011222      0.022356     -0.011134
    11   Atom        0.001854     -0.014463      0.012609
    12   Atom        0.007617     -0.002120     -0.005496
    13   Atom       -0.005289      0.006234     -0.000945
    14   Atom        0.013698     -0.008192     -0.005506
    15   Atom       -0.006266      0.005862      0.000405
    16   Atom        0.014633     -0.012252     -0.002382
    17   Atom       -0.011279      0.015251     -0.003971
    18   Atom        0.004376      0.000836     -0.005212
    19   Atom       -0.009900     -0.011607      0.021507
    20   Atom        0.000627     -0.000235     -0.000392
    21   Atom       -0.001778      0.001367      0.000411
    22   Atom       -0.001307     -0.004685      0.005991
    23   Atom       -0.000980     -0.001311      0.002291
    24   Atom       -0.001999     -0.000346      0.002344
    25   Atom       -0.000014     -0.000695      0.000708
    26   Atom        0.001511     -0.000390     -0.001121
    27   Atom       -0.003253      0.002119      0.001135
    28   Atom       -0.001503      0.001932     -0.000429
    29   Atom       -0.000528      0.002272     -0.001744
    30   Atom       -0.000440      0.000950     -0.000511
    31   Atom        0.000601     -0.001062      0.000461
    32   Atom        0.002985      0.002854     -0.005839
    33   Atom        0.001305     -0.000577     -0.000729
    34   Atom        0.002054     -0.001846     -0.000208
    35   Atom        0.006315     -0.000443     -0.005872
 --------------------------------------------------------
                        XY            XZ            YZ
 --------------------------------------------------------
     1   Atom       -0.000327     -0.002081     -0.003081
     2   Atom        0.002575      0.004061      0.009303
     3   Atom       -0.000787     -0.006696     -0.004488
     4   Atom       -0.001110     -0.005119      0.004738
     5   Atom       -0.005489     -0.006882      0.011094
     6   Atom       -0.000334      0.000393      0.011553
     7   Atom        0.001986      0.001367     -0.000128
     8   Atom       -0.002879     -0.000150      0.009272
     9   Atom        0.001943      0.001181     -0.003365
    10   Atom       -0.006576     -0.000316      0.009673
    11   Atom        0.003407      0.004644     -0.003627
    12   Atom       -0.010291     -0.010149      0.006116
    13   Atom       -0.000282      0.004155      0.000232
    14   Atom       -0.007699     -0.014694      0.004440
    15   Atom        0.002633      0.006351     -0.001547
    16   Atom       -0.007420     -0.018817      0.002966
    17   Atom        0.002647      0.008435     -0.001467
    18   Atom       -0.000773     -0.004171     -0.001842
    19   Atom        0.000200      0.001398      0.006207
    20   Atom        0.000047     -0.000678     -0.000421
    21   Atom        0.000170     -0.000929     -0.001490
    22   Atom        0.000314     -0.005017     -0.002921
    23   Atom       -0.000233     -0.000117      0.000575
    24   Atom       -0.000113      0.000412     -0.000146
    25   Atom        0.000428      0.000486      0.000110
    26   Atom        0.001675     -0.000160      0.000887
    27   Atom        0.004562      0.003191      0.005170
    28   Atom       -0.000091     -0.000101      0.001167
    29   Atom        0.000533     -0.000530      0.000898
    30   Atom       -0.000259      0.000463     -0.000081
    31   Atom       -0.001531      0.001663     -0.000134
    32   Atom       -0.006478      0.000081      0.000875
    33   Atom       -0.000903     -0.001349      0.000729
    34   Atom       -0.000912     -0.000604      0.000372
    35   Atom        0.007325      0.008313     -0.012854
 --------------------------------------------------------


 ---------------------------------------------------------------------------------
              Anisotropic Spin Dipole Couplings in Principal Axis System
 ---------------------------------------------------------------------------------

       Atom             a.u.   MegaHertz   Gauss  10(-4) cm-1        Axes

              Baa    -0.0100    -1.343    -0.479    -0.448  0.1321  0.2279  0.9647
     1 C(13)  Bbb     0.0040     0.530     0.189     0.177 -0.0764  0.9727 -0.2193
              Bcc     0.0061     0.812     0.290     0.271  0.9883  0.0448 -0.1459
 
              Baa    -0.0149    -2.004    -0.715    -0.668 -0.6715  0.7335 -0.1052
     2 C(13)  Bbb    -0.0119    -1.596    -0.570    -0.532  0.7321  0.6347 -0.2473
              Bcc     0.0268     3.600     1.285     1.201  0.1146  0.2431  0.9632
 
              Baa    -0.0160    -2.141    -0.764    -0.714  0.2260  0.2690  0.9362
     3 C(13)  Bbb     0.0016     0.213     0.076     0.071 -0.0859  0.9629 -0.2559
              Bcc     0.0144     1.927     0.688     0.643  0.9703  0.0226 -0.2407
 
              Baa    -0.0105    -1.407    -0.502    -0.469  0.0895  0.9840 -0.1544
     4 C(13)  Bbb    -0.0082    -1.094    -0.390    -0.365  0.9759 -0.0556  0.2112
              Bcc     0.0186     2.501     0.892     0.834 -0.1992  0.1696  0.9652
 
              Baa    -0.0087    -0.337    -0.120    -0.112  0.7801 -0.2396  0.5779
     5 N(14)  Bbb    -0.0087    -0.336    -0.120    -0.112  0.5111  0.7768 -0.3679
              Bcc     0.0174     0.672     0.240     0.224 -0.3608  0.5824  0.7284
 
              Baa    -0.0104    -1.389    -0.496    -0.463  0.9771  0.1114 -0.1813
     6 C(13)  Bbb    -0.0079    -1.061    -0.378    -0.354  0.2128 -0.4997  0.8397
              Bcc     0.0183     2.449     0.874     0.817 -0.0030  0.8590  0.5120
 
              Baa    -0.0073    -0.980    -0.350    -0.327 -0.2300  0.9726  0.0342
     7 C(13)  Bbb     0.0014     0.182     0.065     0.061  0.9270  0.2296 -0.2965
              Bcc     0.0059     0.798     0.285     0.266  0.2962  0.0365  0.9544
 
              Baa    -0.0125    -1.677    -0.598    -0.559  0.9581  0.1577 -0.2390
     8 C(13)  Bbb    -0.0097    -1.307    -0.466    -0.436  0.2747 -0.2699  0.9229
              Bcc     0.0222     2.984     1.065     0.995 -0.0811  0.9499  0.3019
 
              Baa    -0.0099    -1.323    -0.472    -0.441 -0.1566  0.9603  0.2308
     9 C(13)  Bbb     0.0039     0.519     0.185     0.173  0.9235  0.2253 -0.3105
              Bcc     0.0060     0.804     0.287     0.268  0.3501 -0.1645  0.9221
 
              Baa    -0.0146    -1.956    -0.698    -0.652 -0.5166 -0.3019  0.8013
    10 C(13)  Bbb    -0.0115    -1.541    -0.550    -0.514  0.8391  0.0076  0.5439
              Bcc     0.0261     3.497     1.248     1.167 -0.1703  0.9533  0.2494
 
              Baa    -0.0159    -2.129    -0.760    -0.710 -0.2265  0.9609  0.1593
    11 C(13)  Bbb     0.0014     0.182     0.065     0.061  0.9184  0.2651 -0.2935
              Bcc     0.0145     1.948     0.695     0.650  0.3243 -0.0799  0.9426
 
              Baa    -0.0111    -1.488    -0.531    -0.496  0.4090 -0.1451  0.9009
    12 C(13)  Bbb    -0.0086    -1.156    -0.412    -0.386  0.4949  0.8648 -0.0854
              Bcc     0.0197     2.644     0.943     0.882  0.7667 -0.4808 -0.4255
 
              Baa    -0.0078    -1.049    -0.374    -0.350  0.8550  0.0257 -0.5180
    13 C(13)  Bbb     0.0016     0.211     0.075     0.070  0.5184 -0.0113  0.8551
              Bcc     0.0062     0.838     0.299     0.279 -0.0161  0.9996  0.0230
 
              Baa    -0.0135    -1.808    -0.645    -0.603  0.4568 -0.0790  0.8861
    14 C(13)  Bbb    -0.0106    -1.425    -0.508    -0.475  0.2714  0.9609 -0.0543
              Bcc     0.0241     3.233     1.154     1.078  0.8472 -0.2653 -0.4603
 
              Baa    -0.0107    -1.432    -0.511    -0.478  0.8418 -0.1817 -0.5082
    15 C(13)  Bbb     0.0042     0.569     0.203     0.190  0.5141 -0.0165  0.8575
              Bcc     0.0064     0.862     0.308     0.288  0.1642  0.9832 -0.0795
 
              Baa    -0.0157    -2.107    -0.752    -0.703  0.5215  0.6044  0.6023
    16 C(13)  Bbb    -0.0126    -1.690    -0.603    -0.564 -0.2038  0.7737 -0.5999
              Bcc     0.0283     3.797     1.355     1.267  0.8286 -0.1901 -0.5266
 
              Baa    -0.0171    -2.295    -0.819    -0.765  0.8329 -0.0929 -0.5455
    17 C(13)  Bbb     0.0016     0.210     0.075     0.070  0.5466 -0.0160  0.8372
              Bcc     0.0155     2.085     0.744     0.695  0.0865  0.9955 -0.0375
 
              Baa    -0.0073    -0.975    -0.348    -0.325  0.3416  0.2393  0.9089
    18 C(13)  Bbb     0.0013     0.178     0.064     0.059 -0.0684  0.9708 -0.2299
              Bcc     0.0059     0.797     0.284     0.266  0.9374 -0.0163 -0.3480
 
              Baa    -0.0127    -1.709    -0.610    -0.570  0.0189  0.9837 -0.1791
    19 C(13)  Bbb    -0.0100    -1.336    -0.477    -0.446  0.9989 -0.0263 -0.0392
              Bcc     0.0227     3.045     1.087     1.016  0.0433  0.1782  0.9831
 
              Baa    -0.0009    -0.492    -0.176    -0.164  0.3409  0.4737  0.8120
    20 H(1)   Bbb    -0.0001    -0.047    -0.017    -0.016 -0.3803  0.8594 -0.3417
              Bcc     0.0010     0.539     0.192     0.180  0.8597  0.1923 -0.4732
 
              Baa    -0.0022    -1.155    -0.412    -0.385  0.9079  0.1251  0.4001
    21 H(1)   Bbb    -0.0004    -0.214    -0.076    -0.071 -0.3872  0.6157  0.6863
              Bcc     0.0026     1.369     0.488     0.457  0.1605  0.7780 -0.6075
 
              Baa    -0.0058    -3.084    -1.101    -1.029  0.3451  0.8660  0.3620
    22 H(1)   Bbb    -0.0033    -1.769    -0.631    -0.590  0.8339 -0.4598  0.3052
              Bcc     0.0091     4.853     1.732     1.619 -0.4307 -0.1965  0.8808
 
              Baa    -0.0015    -0.795    -0.284    -0.265  0.3880  0.9129 -0.1269
    23 H(1)   Bbb    -0.0009    -0.479    -0.171    -0.160  0.9206 -0.3771  0.1017
              Bcc     0.0024     1.274     0.454     0.425 -0.0450  0.1563  0.9867
 
              Baa    -0.0020    -1.090    -0.389    -0.364  0.9941  0.0585 -0.0914
    24 H(1)   Bbb    -0.0003    -0.186    -0.066    -0.062 -0.0530  0.9967  0.0620
              Bcc     0.0024     1.276     0.455     0.426  0.0947 -0.0568  0.9939
 
              Baa    -0.0009    -0.486    -0.173    -0.162 -0.4642  0.8821  0.0797
    25 H(1)   Bbb    -0.0001    -0.051    -0.018    -0.017  0.7421  0.4365 -0.5086
              Bcc     0.0010     0.536     0.191     0.179  0.4835  0.1770  0.8573
 
              Baa    -0.0021    -1.125    -0.401    -0.375 -0.3399  0.6715 -0.6584
    26 H(1)   Bbb    -0.0004    -0.217    -0.077    -0.072 -0.4006  0.5300  0.7474
              Bcc     0.0025     1.341     0.479     0.447  0.8508  0.5179  0.0889
 
              Baa    -0.0059    -3.134    -1.118    -1.045  0.8827 -0.4663 -0.0580
    27 H(1)   Bbb    -0.0034    -1.809    -0.645    -0.603 -0.2391 -0.5518  0.7990
              Bcc     0.0093     4.943     1.764     1.649  0.4046  0.6914  0.5986
 
              Baa    -0.0015    -0.807    -0.288    -0.269  0.9948 -0.0082  0.1015
    28 H(1)   Bbb    -0.0009    -0.482    -0.172    -0.161 -0.0969 -0.3814  0.9193
              Bcc     0.0024     1.288     0.460     0.430 -0.0312  0.9244  0.3803
 
              Baa    -0.0022    -1.164    -0.415    -0.388  0.3627 -0.2258  0.9041
    29 H(1)   Bbb    -0.0003    -0.181    -0.065    -0.060  0.9217 -0.0561 -0.3838
              Bcc     0.0025     1.345     0.480     0.449  0.1374  0.9725  0.1878
 
              Baa    -0.0009    -0.505    -0.180    -0.169 -0.6901 -0.0631  0.7210
    30 H(1)   Bbb    -0.0001    -0.037    -0.013    -0.012  0.6928  0.2304  0.6833
              Bcc     0.0010     0.542     0.193     0.181 -0.2092  0.9711 -0.1152
 
              Baa    -0.0022    -1.190    -0.425    -0.397  0.5912  0.7366 -0.3285
    31 H(1)   Bbb    -0.0004    -0.204    -0.073    -0.068 -0.3267  0.5911  0.7375
              Bcc     0.0026     1.395     0.498     0.465  0.7374 -0.3287  0.5901
 
              Baa    -0.0060    -3.225    -1.151    -1.076 -0.1604 -0.2116  0.9641
    32 H(1)   Bbb    -0.0034    -1.800    -0.642    -0.600  0.6869  0.6775  0.2630
              Bcc     0.0094     5.025     1.793     1.676  0.7089 -0.7044 -0.0366
 
              Baa    -0.0015    -0.806    -0.288    -0.269  0.2885 -0.3999  0.8700
    33 H(1)   Bbb    -0.0009    -0.480    -0.171    -0.160  0.4851  0.8444  0.2273
              Bcc     0.0024     1.286     0.459     0.429  0.8255 -0.3564 -0.4376
 
              Baa    -0.0021    -1.109    -0.396    -0.370  0.1955  0.9720 -0.1301
    34 H(1)   Bbb    -0.0003    -0.186    -0.066    -0.062  0.2696  0.0743  0.9601
              Bcc     0.0024     1.295     0.462     0.432  0.9429 -0.2228 -0.2475
 
              Baa    -0.0208     0.452     0.161     0.151 -0.3779  0.5874  0.7156
    35 Ag(107 Bbb     0.0098    -0.213    -0.076    -0.071  0.3495 -0.6252  0.6978
              Bcc     0.0110    -0.239    -0.085    -0.080  0.8573  0.5138  0.0309
 

 ---------------------------------------------------------------------------------

 No NMR shielding tensors so no spin-rotation constants.
 Leave Link  601 at Sat Sep 12 01:42:53 2026, MaxMem=  6442450944 cpu:               3.0 elap:               3.1
 (Enter C:\G16W\l9999.exe)
 Unable to Open any file for archive entry.
 1|1|UNPC-DESKTOP-2JKEGCA|SP|UPBE1PBE|def2SVP|C18H15Ag1N1(2)|JHKIM|12-S
 ep-2026|0||#P PBE1PBE/Def2SVP EmpiricalDispersion=GD3BJ SP SCF=(XQC,Ma
 xCycle=128) NoSymm Guess=Read||TPA t=0.250 dz=+0.00 class=toface||0,2|
 C,0,-2.892235,-2.902243,0.856125|C,0,-1.550328,-3.244136,0.818755|C,0,
 -0.592488,-2.291023,0.532809|C,0,-0.966825,-0.970209,0.286154|N,0,0.00
 0025,-0.000036,-0.000047|C,0,1.237148,-0.031197,0.653023|C,0,1.319853,
 -0.403699,1.994633|C,0,2.543855,-0.43667,2.633678|C,0,3.700795,-0.0932
 31,1.953573|C,0,3.623838,0.281274,0.622097|C,0,2.405612,0.309797,-0.02
 8101|C,0,-0.270279,1.001344,-0.939259|C,0,0.196201,2.300966,-0.742039|
 C,0,-0.069933,3.284954,-1.674018|C,0,-0.808596,2.995527,-2.809628|C,0,
 -1.277645,1.707329,-3.008482|C,0,-1.010141,0.714471,-2.086353|C,0,-2.3
 18985,-0.630584,0.328955|C,0,-3.269818,-1.592708,0.608027|H,0,-3.63809
 9,-3.650671,1.076924|H,0,-1.24671,-4.263922,1.005046|H,0,0.45246,-2.56
 2347,0.494733|H,0,0.41802,-0.662633,2.530014|H,0,2.593126,-0.724322,3.
 673717|H,0,4.655158,-0.117258,2.457379|H,0,4.521246,0.545089,0.081807|
 H,0,2.349602,0.59285,-1.069124|H,0,0.76419,2.531619,0.147439|H,0,0.295
 028,4.28789,-1.507357|H,0,-1.017132,3.768032,-3.534168|H,0,-1.84946,1.
 470676,-3.893849|H,0,-1.368838,-0.291501,-2.248647|H,0,-2.615351,0.391
 898,0.145433|H,0,-4.313292,-1.315323,0.640753|Ag,0,0.89781561,-1.44043
 091,-1.83557498||Version=EM64W-G16RevC.01|HF=-895.247513|S2=0.752637|S
 2-1=0.|S2A=0.750007|RMSD=5.063e-009|Dipole=-0.3549626,0.5581256,0.6917
 03|Quadrupole=3.2930007,-0.0427369,-3.2502638,3.5405555,4.4464232,-7.0
 459374|PG=C01 [X(C18H15Ag1N1)]||@
 The archive entry for this job was punched.


 HE WHO LAUGHS LAST PROBABLY DIDN'T GET THE JOKE.
 Job cpu time:       0 days  0 hours  6 minutes 57.0 seconds.
 Elapsed time:       0 days  0 hours  6 minutes 55.9 seconds.
 File lengths (MBytes):  RWF=    133 Int=      0 D2E=      0 Chk=     11 Scr=      1
 Normal termination of Gaussian 16 at Sat Sep 12 01:42:53 2026.
