 Entering Gaussian System, Link 0=C:\G16W\g16.exe
 Input=TPA_t1_z1.gjf
 Output=TPA_t1_z1.out
 Initial command:
 C:\G16W\l1.exe ".\Gau-42480.inp" "TPA_t1_z1.out" /scrdir=".\"
 Entering Link 1 = C:\G16W\l1.exe PID=    126660.
  
 Copyright (c) 1988-2019, Gaussian, Inc.  All Rights Reserved.
  
 This is part of the Gaussian(R) 16 program.  It is based on
 the Gaussian(R) 09 system (copyright 2009, Gaussian, Inc.),
 the Gaussian(R) 03 system (copyright 2003, Gaussian, Inc.),
 the Gaussian(R) 98 system (copyright 1998, Gaussian, Inc.),
 the Gaussian(R) 94 system (copyright 1995, Gaussian, Inc.),
 the Gaussian 92(TM) system (copyright 1992, Gaussian, Inc.),
 the Gaussian 90(TM) system (copyright 1990, Gaussian, Inc.),
 the Gaussian 88(TM) system (copyright 1988, Gaussian, Inc.),
 the Gaussian 86(TM) system (copyright 1986, Carnegie Mellon
 University), and the Gaussian 82(TM) system (copyright 1983,
 Carnegie Mellon University). Gaussian is a federally registered
 trademark of Gaussian, Inc.
  
 This software contains proprietary and confidential information,
 including trade secrets, belonging to Gaussian, Inc.
  
 This software is provided under written license and may be
 used, copied, transmitted, or stored only in accord with that
 written license.
  
 The following legend is applicable only to US Government
 contracts under FAR:
  
                    RESTRICTED RIGHTS LEGEND
  
 Use, reproduction and disclosure by the US Government is
 subject to restrictions as set forth in subparagraphs (a)
 and (c) of the Commercial Computer Software - Restricted
 Rights clause in FAR 52.227-19.
  
 Gaussian, Inc.
 340 Quinnipiac St., Bldg. 40, Wallingford CT 06492
  
  
 ---------------------------------------------------------------
 Warning -- This program may not be used in any manner that
 competes with the business of Gaussian, Inc. or will provide
 assistance to any competitor of Gaussian, Inc.  The licensee
 of this program is prohibited from giving any competitor of
 Gaussian, Inc. access to this program.  By using this program,
 the user acknowledges that Gaussian, Inc. is engaged in the
 business of creating and licensing software in the field of
 computational chemistry and represents and warrants to the
 licensee that it is not a competitor of Gaussian, Inc. and that
 it will not use this program in any manner prohibited above.
 ---------------------------------------------------------------
  

 Cite this work as:
 Gaussian 16, Revision C.01,
 M. J. Frisch, G. W. Trucks, H. B. Schlegel, G. E. Scuseria, 
 M. A. Robb, J. R. Cheeseman, G. Scalmani, V. Barone, 
 G. A. Petersson, H. Nakatsuji, X. Li, M. Caricato, A. V. Marenich, 
 J. Bloino, B. G. Janesko, R. Gomperts, B. Mennucci, H. P. Hratchian, 
 J. V. Ortiz, A. F. Izmaylov, J. L. Sonnenberg, D. Williams-Young, 
 F. Ding, F. Lipparini, F. Egidi, J. Goings, B. Peng, A. Petrone, 
 T. Henderson, D. Ranasinghe, V. G. Zakrzewski, J. Gao, N. Rega, 
 G. Zheng, W. Liang, M. Hada, M. Ehara, K. Toyota, R. Fukuda, 
 J. Hasegawa, M. Ishida, T. Nakajima, Y. Honda, O. Kitao, H. Nakai, 
 T. Vreven, K. Throssell, J. A. Montgomery, Jr., J. E. Peralta, 
 F. Ogliaro, M. J. Bearpark, J. J. Heyd, E. N. Brothers, K. N. Kudin, 
 V. N. Staroverov, T. A. Keith, R. Kobayashi, J. Normand, 
 K. Raghavachari, A. P. Rendell, J. C. Burant, S. S. Iyengar, 
 J. Tomasi, M. Cossi, J. M. Millam, M. Klene, C. Adamo, R. Cammi, 
 J. W. Ochterski, R. L. Martin, K. Morokuma, O. Farkas, 
 J. B. Foresman, and D. J. Fox, Gaussian, Inc., Wallingford CT, 2019.
 
 ******************************************
 Gaussian 16:  EM64W-G16RevC.01 30-May-2019
                12-Sep-2026 
 ******************************************
 %Chk=TPA.chk
 %NProcShared=8
 Will use up to    8 processors via shared memory.
 %Mem=48GB
 ----------------------------------------------------------------------
 #P PBE1PBE/Def2SVP EmpiricalDispersion=GD3BJ SP SCF=(XQC,MaxCycle=128)
  NoSymm Guess=Read
 ----------------------------------------------------------------------
 1/38=1,172=1/1;
 2/12=2,15=1,17=6,18=5,40=1/2;
 3/5=43,7=101,11=2,25=1,30=1,74=-13,116=-2,124=41/1,2,3;
 4/5=1/1;
 5/5=2,7=128,8=3,13=1,38=6/2,8;
 6/7=2,8=2,9=2,10=2,28=1/1;
 99/5=1,9=1/99;
 Leave Link    1 at Sat Sep 12 01:42:54 2026, MaxMem=  6442450944 cpu:               0.0 elap:               0.2
 (Enter C:\G16W\l101.exe)
 ---------------------------------
 TPA t=0.250 dz=+0.40 class=toface
 ---------------------------------
 Symbolic Z-matrix:
 Charge =  0 Multiplicity = 2
 C                    -2.89224  -2.90224   0.85613 
 C                    -1.55033  -3.24414   0.81876 
 C                    -0.59249  -2.29102   0.53281 
 C                    -0.96683  -0.97021   0.28615 
 N                     0.00003  -0.00004  -0.00005 
 C                     1.23715  -0.0312    0.65302 
 C                     1.31985  -0.4037    1.99463 
 C                     2.54386  -0.43667   2.63368 
 C                     3.7008   -0.09323   1.95357 
 C                     3.62384   0.28127   0.6221 
 C                     2.40561   0.3098   -0.0281 
 C                    -0.27028   1.00134  -0.93926 
 C                     0.1962    2.30097  -0.74204 
 C                    -0.06993   3.28495  -1.67402 
 C                    -0.8086    2.99553  -2.80963 
 C                    -1.27765   1.70733  -3.00848 
 C                    -1.01014   0.71447  -2.08635 
 C                    -2.31899  -0.63058   0.32896 
 C                    -3.26982  -1.59271   0.60803 
 H                    -3.6381   -3.65067   1.07692 
 H                    -1.24671  -4.26392   1.00505 
 H                     0.45246  -2.56235   0.49473 
 H                     0.41802  -0.66263   2.53001 
 H                     2.59313  -0.72432   3.67372 
 H                     4.65516  -0.11726   2.45738 
 H                     4.52125   0.54509   0.08181 
 H                     2.3496    0.59285  -1.06912 
 H                     0.76419   2.53162   0.14744 
 H                     0.29503   4.28789  -1.50736 
 H                    -1.01713   3.76803  -3.53417 
 H                    -1.84946   1.47068  -3.89385 
 H                    -1.36884  -0.2915   -2.24865 
 H                    -2.61535   0.3919    0.14543 
 H                    -4.31329  -1.31532   0.64075 
 Ag                    1.04146  -1.6709   -2.12926 
 
 ITRead=  0  0  0  0  0  0  0  0  0  0  0  0  0  0  0  0  0  0  0  0
 ITRead=  0  0  0  0  0  0  0  0  0  0  0  0  0  0  0
 MicOpt= -1 -1 -1 -1 -1 -1 -1 -1 -1 -1 -1 -1 -1 -1 -1 -1 -1 -1 -1 -1
 MicOpt= -1 -1 -1 -1 -1 -1 -1 -1 -1 -1 -1 -1 -1 -1 -1
 NAtoms=     35 NQM=       35 NQMF=       0 NMMI=      0 NMMIF=      0
                NMic=       0 NMicF=      0.
                    Isotopes and Nuclear Properties:
 (Nuclear quadrupole moments (NQMom) in fm**2, nuclear magnetic moments (NMagM)
  in nuclear magnetons)

  Atom         1           2           3           4           5           6           7           8           9          10
 IAtWgt=          12          12          12          12          14          12          12          12          12          12
 AtmWgt=  12.0000000  12.0000000  12.0000000  12.0000000  14.0030740  12.0000000  12.0000000  12.0000000  12.0000000  12.0000000
 NucSpn=           0           0           0           0           2           0           0           0           0           0
 AtZEff=   0.0000000   0.0000000   0.0000000   0.0000000   0.0000000   0.0000000   0.0000000   0.0000000   0.0000000   0.0000000
 NQMom=    0.0000000   0.0000000   0.0000000   0.0000000   2.0440000   0.0000000   0.0000000   0.0000000   0.0000000   0.0000000
 NMagM=    0.0000000   0.0000000   0.0000000   0.0000000   0.4037610   0.0000000   0.0000000   0.0000000   0.0000000   0.0000000
 AtZNuc=   6.0000000   6.0000000   6.0000000   6.0000000   7.0000000   6.0000000   6.0000000   6.0000000   6.0000000   6.0000000

  Atom        11          12          13          14          15          16          17          18          19          20
 IAtWgt=          12          12          12          12          12          12          12          12          12           1
 AtmWgt=  12.0000000  12.0000000  12.0000000  12.0000000  12.0000000  12.0000000  12.0000000  12.0000000  12.0000000   1.0078250
 NucSpn=           0           0           0           0           0           0           0           0           0           1
 AtZEff=   0.0000000   0.0000000   0.0000000   0.0000000   0.0000000   0.0000000   0.0000000   0.0000000   0.0000000   0.0000000
 NQMom=    0.0000000   0.0000000   0.0000000   0.0000000   0.0000000   0.0000000   0.0000000   0.0000000   0.0000000   0.0000000
 NMagM=    0.0000000   0.0000000   0.0000000   0.0000000   0.0000000   0.0000000   0.0000000   0.0000000   0.0000000   2.7928460
 AtZNuc=   6.0000000   6.0000000   6.0000000   6.0000000   6.0000000   6.0000000   6.0000000   6.0000000   6.0000000   1.0000000

  Atom        21          22          23          24          25          26          27          28          29          30
 IAtWgt=           1           1           1           1           1           1           1           1           1           1
 AtmWgt=   1.0078250   1.0078250   1.0078250   1.0078250   1.0078250   1.0078250   1.0078250   1.0078250   1.0078250   1.0078250
 NucSpn=           1           1           1           1           1           1           1           1           1           1
 AtZEff=   0.0000000   0.0000000   0.0000000   0.0000000   0.0000000   0.0000000   0.0000000   0.0000000   0.0000000   0.0000000
 NQMom=    0.0000000   0.0000000   0.0000000   0.0000000   0.0000000   0.0000000   0.0000000   0.0000000   0.0000000   0.0000000
 NMagM=    2.7928460   2.7928460   2.7928460   2.7928460   2.7928460   2.7928460   2.7928460   2.7928460   2.7928460   2.7928460
 AtZNuc=   1.0000000   1.0000000   1.0000000   1.0000000   1.0000000   1.0000000   1.0000000   1.0000000   1.0000000   1.0000000

  Atom        31          32          33          34          35
 IAtWgt=           1           1           1           1         107
 AtmWgt=   1.0078250   1.0078250   1.0078250   1.0078250 106.9050900
 NucSpn=           1           1           1           1           1
 AtZEff=   0.0000000   0.0000000   0.0000000   0.0000000   0.0000000
 NQMom=    0.0000000   0.0000000   0.0000000   0.0000000   0.0000000
 NMagM=    2.7928460   2.7928460   2.7928460   2.7928460  -0.1135700
 AtZNuc=   1.0000000   1.0000000   1.0000000   1.0000000  47.0000000
 Leave Link  101 at Sat Sep 12 01:42:54 2026, MaxMem=  6442450944 cpu:               0.0 elap:               0.2
 (Enter C:\G16W\l202.exe)
                          Input orientation:                          
 ---------------------------------------------------------------------
 Center     Atomic      Atomic             Coordinates (Angstroms)
 Number     Number       Type             X           Y           Z
 ---------------------------------------------------------------------
      1          6           0       -2.892235   -2.902243    0.856125
      2          6           0       -1.550328   -3.244136    0.818755
      3          6           0       -0.592488   -2.291023    0.532809
      4          6           0       -0.966825   -0.970209    0.286154
      5          7           0        0.000025   -0.000036   -0.000047
      6          6           0        1.237148   -0.031197    0.653023
      7          6           0        1.319853   -0.403699    1.994633
      8          6           0        2.543855   -0.436670    2.633678
      9          6           0        3.700795   -0.093231    1.953573
     10          6           0        3.623838    0.281274    0.622097
     11          6           0        2.405612    0.309797   -0.028101
     12          6           0       -0.270279    1.001344   -0.939259
     13          6           0        0.196201    2.300966   -0.742039
     14          6           0       -0.069933    3.284954   -1.674018
     15          6           0       -0.808596    2.995527   -2.809628
     16          6           0       -1.277645    1.707329   -3.008482
     17          6           0       -1.010141    0.714471   -2.086353
     18          6           0       -2.318985   -0.630584    0.328955
     19          6           0       -3.269818   -1.592708    0.608027
     20          1           0       -3.638099   -3.650671    1.076924
     21          1           0       -1.246710   -4.263922    1.005046
     22          1           0        0.452460   -2.562347    0.494733
     23          1           0        0.418020   -0.662633    2.530014
     24          1           0        2.593126   -0.724322    3.673717
     25          1           0        4.655158   -0.117258    2.457379
     26          1           0        4.521246    0.545089    0.081807
     27          1           0        2.349602    0.592850   -1.069124
     28          1           0        0.764190    2.531619    0.147439
     29          1           0        0.295028    4.287890   -1.507357
     30          1           0       -1.017132    3.768032   -3.534168
     31          1           0       -1.849460    1.470676   -3.893849
     32          1           0       -1.368838   -0.291501   -2.248647
     33          1           0       -2.615351    0.391898    0.145433
     34          1           0       -4.313292   -1.315323    0.640753
     35         47           0        1.041463   -1.670895   -2.129261
 ---------------------------------------------------------------------
                    Distance matrix (angstroms):
                    1          2          3          4          5
     1  C    0.000000
     2  C    1.385280   0.000000
     3  C    2.401449   1.381176   0.000000
     4  C    2.786544   2.407256   1.394818   0.000000
     5  N    4.185810   3.687576   2.425619   1.399266   0.000000
     6  C    5.033484   4.256814   2.910126   2.423599   1.399266
     7  C    5.027982   4.205795   3.058753   2.910108   2.425621
     8  C    6.228147   5.285655   4.205820   4.256807   3.687577
     9  C    7.250033   6.228186   5.028035   5.033493   4.185811
    10  C    7.255946   6.264119   4.939847   4.770037   3.687576
    11  C    6.258294   5.384892   4.008427   3.620843   2.425620
    12  C    5.033493   4.770036   3.620840   2.423600   1.399266
    13  C    6.258270   6.019518   4.830490   3.620828   2.425623
    14  C    7.255923   7.143844   6.019524   4.770021   3.687578
    15  C    7.250034   7.255944   6.258290   5.033484   4.185811
    16  C    6.228181   6.264112   5.384886   4.256812   3.687576
    17  C    5.028029   4.939840   4.008421   2.910122   2.425619
    18  C    2.401449   2.767922   2.404040   1.394817   2.425622
    19  C    1.385281   2.393380   2.767923   2.407257   3.687578
    20  H    1.079449   2.142594   3.379416   3.865993   5.265259
    21  H    2.141051   1.080209   2.131512   3.382852   4.554699
    22  H    3.381289   2.140324   1.080270   2.143077   2.648574
    23  H    4.333076   3.669736   2.767961   2.654676   2.648578
    24  H    6.539981   5.627476   4.740041   4.920294   4.554701
    25  H    8.202640   7.139363   5.997250   6.086743   5.265258
    26  H    8.212391   7.194813   5.864913   5.697088   4.554701
    27  H    6.587800   5.787573   4.420272   3.908788   2.648575
    28  H    6.587757   6.258355   5.024635   3.908766   2.648580
    29  H    8.212351   8.096144   6.944930   5.697066   4.554703
    30  H    8.202637   8.270595   7.309772   6.086733   5.265259
    31  H    6.540035   6.672898   5.943539   4.920304   4.554699
    32  H    4.333165   4.261449   3.512450   2.654708   2.648573
    33  H    3.381289   3.848166   3.382322   2.143076   2.648579
    34  H    2.141052   3.374311   3.848120   3.382852   4.554702
    35  Ag   5.089472   4.228861   3.184489   3.218449   2.899986
                    6          7          8          9         10
     6  C    0.000000
     7  C    1.394817   0.000000
     8  C    2.407257   1.381176   0.000000
     9  C    2.786545   2.401450   1.385281   0.000000
    10  C    2.407256   2.767922   2.393379   1.385281   0.000000
    11  C    1.394817   2.404039   2.767922   2.401450   1.381175
    12  C    2.423600   3.620827   4.770022   5.033488   4.256816
    13  C    2.910112   4.008389   4.939797   5.027990   4.205796
    14  C    4.256811   5.384855   6.264074   6.228157   5.285658
    15  C    5.033496   6.258271   7.255928   7.250043   6.228192
    16  C    4.770039   6.019518   7.143848   7.255954   6.264126
    17  C    3.620844   4.830489   6.019527   6.258299   5.384898
    18  C    3.620824   4.008379   5.384846   6.258265   6.019515
    19  C    4.770019   4.939787   6.264063   7.255920   7.143843
    20  H    6.086733   5.997191   7.139317   8.202637   8.270598
    21  H    4.920308   4.740026   5.627493   6.540044   6.672907
    22  H    2.654715   2.768001   3.669812   4.333178   4.261460
    23  H    2.143077   1.080270   2.140322   3.381289   3.848165
    24  H    3.382852   2.131513   1.080209   2.141052   3.374311
    25  H    3.865993   3.379414   2.142593   1.079447   2.142594
    26  H    3.382853   3.848119   3.374311   2.141051   1.080210
    27  H    2.143077   3.382322   3.848167   3.381291   2.140324
    28  H    2.654681   3.512404   4.261377   4.333083   3.669733
    29  H    4.920299   5.943501   6.672845   6.539993   5.627479
    30  H    6.086747   7.309752   8.270579   8.202651   7.139371
    31  H    5.697088   6.944930   8.096159   8.212398   7.194820
    32  H    3.908786   5.024647   6.258381   6.587803   5.787578
    33  H    3.908760   4.420220   5.787512   6.587748   6.258348
    34  H    5.697062   5.864842   7.194737   8.212344   8.096141
    35  Ag   3.235430   4.323169   5.144520   5.121582   4.248482
                   11         12         13         14         15
    11  C    0.000000
    12  C    2.910127   0.000000
    13  C    3.058751   1.394818   0.000000
    14  C    4.205820   2.407257   1.381175   0.000000
    15  C    5.028038   2.786545   2.401449   1.385280   0.000000
    16  C    4.939853   2.407257   2.767922   2.393379   1.385281
    17  C    4.008432   1.394818   2.404040   2.767922   2.401450
    18  C    4.830489   2.910112   4.008388   4.939795   5.027988
    19  C    6.019526   4.256810   5.384855   6.264071   6.228152
    20  H    7.309776   6.086744   7.309751   8.270573   8.202641
    21  H    5.943547   5.697084   6.944930   8.096154   8.212386
    22  H    3.512459   3.908782   5.024648   6.258379   6.587794
    23  H    3.382321   3.908763   4.420232   5.787523   6.587754
    24  H    3.848119   5.697066   5.864854   7.194751   8.212354
    25  H    3.379415   6.086736   5.997198   7.139326   8.202646
    26  H    2.131513   4.920311   4.740025   5.627496   6.540050
    27  H    1.080271   2.654714   2.767992   3.669805   4.333177
    28  H    2.767955   2.143077   1.080270   2.140323   3.381288
    29  H    4.740041   3.382853   2.131512   1.080210   2.141051
    30  H    5.997255   3.865993   3.379415   2.142594   1.079449
    31  H    5.864920   3.382852   3.848119   3.374310   2.141052
    32  H    4.420278   2.143077   3.382322   3.848166   3.381290
    33  H    5.024632   2.654683   3.512403   4.261376   4.333086
    34  H    6.944930   4.920299   5.943500   6.672841   6.539989
    35  Ag   3.193575   3.205875   4.291216   5.099303   5.065680
                   16         17         18         19         20
    16  C    0.000000
    17  C    1.381176   0.000000
    18  C    4.205795   3.058751   0.000000
    19  C    5.285654   4.205817   1.381176   0.000000
    20  H    7.139359   5.997245   3.379415   2.142594   0.000000
    21  H    7.194804   5.864905   3.848119   3.374311   2.469815
    22  H    5.787565   4.420265   3.382321   3.848167   4.272712
    23  H    6.258349   5.024630   3.512390   4.261364   5.243276
    24  H    8.096146   6.944931   5.943488   6.672830   7.357650
    25  H    8.270605   7.309780   7.309744   8.270568   9.119692
    26  H    6.672917   5.943555   6.944930   8.096157   9.228736
    27  H    4.261466   3.512466   5.024651   6.258385   7.646277
    28  H    3.848166   3.382322   4.420231   5.787524   7.646228
    29  H    3.374311   3.848120   5.864852   7.194749   9.228692
    30  H    2.142594   3.379416   5.997196   7.139321   9.119693
    31  H    1.080209   2.131512   4.740023   5.627488   7.357718
    32  H    2.140324   1.080270   2.767994   3.669803   5.243376
    33  H    3.669741   2.767963   1.080270   2.140323   4.272710
    34  H    5.627477   4.740040   2.131513   1.080209   2.469814
    35  Ag   4.190906   3.146568   4.291583   5.107446   6.008114
                   21         22         23         24         25
    21  H    0.000000
    22  H    2.458242   0.000000
    23  H    4.250428   2.784325   0.000000
    24  H    5.864718   4.250497   2.458241   0.000000
    25  H    7.357727   5.243387   4.272710   2.469814   0.000000
    26  H    7.566259   5.136311   4.928364   4.269762   2.469813
    27  H    6.389356   4.000008   4.273294   4.928366   4.272712
    28  H    7.138528   5.115298   3.999968   5.136224   5.243282
    29  H    9.045585   7.138550   6.389301   7.566178   7.357662
    30  H    9.228730   7.646270   7.646225   9.228695   9.119703
    31  H    7.566247   6.389348   7.138521   9.045587   9.228742
    32  H    5.136298   4.000000   5.115291   7.138549   7.646278
    33  H    4.928364   4.273294   3.999950   6.389285   7.646217
    34  H    4.269762   4.928365   5.136207   7.566159   9.228683
    35  Ag   4.667269   2.833188   4.807715   6.080972   6.042338
                   26         27         28         29         30
    26  H    0.000000
    27  H    2.458243   0.000000
    28  H    4.250421   2.784310   0.000000
    29  H    5.864718   4.250487   2.458241   0.000000
    30  H    7.357735   5.243388   4.272711   2.469814   0.000000
    31  H    7.566270   5.136319   4.928364   4.269762   2.469815
    32  H    6.389365   4.000018   4.273294   4.928365   4.272712
    33  H    7.138525   5.115299   3.999963   5.136222   5.243286
    34  H    9.045585   7.138554   6.389299   7.566174   7.357658
    35  Ag   4.680630   2.821287   4.787627   6.037471   5.982768
                   31         32         33         34         35
    31  H    0.000000
    32  H    2.458242   0.000000
    33  H    4.250429   2.784322   0.000000
    34  H    5.864714   4.250489   2.458241   0.000000
    35  Ag   4.619597   2.779664   4.775106   6.039272   0.000000
 Symmetry turned off by external request.
 Stoichiometry    C18H15AgN(2)
 Framework group  C1[X(C18H15AgN)]
 Deg. of freedom    99
 Full point group                 C1      NOp   1
 Rotational constants (GHZ):           0.2729777           0.2729342           0.2235849
 Leave Link  202 at Sat Sep 12 01:42:55 2026, MaxMem=  6442450944 cpu:               1.0 elap:               0.6
 (Enter C:\G16W\l301.exe)
 Standard basis: def2SVP (5D, 7F)
 Ernie: Thresh=  0.10000D-02 Tol=  0.10000D-05 Strict=F.
   372 basis functions,   645 primitive gaussians,   396 cartesian basis functions
    75 alpha electrons       74 beta electrons
       nuclear repulsion energy      1635.7740287386 Hartrees.
 IExCor= 1009 DFT=T Ex+Corr=PBE1PBE ExCW=0 ScaHFX=  0.250000
 ScaDFX=  0.750000  0.750000  1.000000  1.000000 ScalE2=  1.000000  1.000000
 IRadAn=      5 IRanWt=     -1 IRanGd=            0 ICorTp=0 IEmpDi=141
 NAtoms=   35 NActive=   35 NUniq=   35 SFac= 1.00D+00 NAtFMM=   60 NAOKFM=F Big=F
 Integral buffers will be    131072 words long.
 Raffenetti 2 integral format.
 Two-electron integral symmetry is turned off.
 R6Disp:  Grimme-D3(BJ) Dispersion energy=       -0.0521030840 Hartrees.
 Nuclear repulsion after empirical dispersion term =     1635.7219256546 Hartrees.
 Leave Link  301 at Sat Sep 12 01:42:55 2026, MaxMem=  6442450944 cpu:               0.0 elap:               0.2
 (Enter C:\G16W\l302.exe)
 NPDir=0 NMtPBC=     1 NCelOv=     1 NCel=       1 NClECP=     1 NCelD=      1
         NCelK=      1 NCelE2=     1 NClLst=     1 CellRange=     0.0.
 One-electron integrals computed using PRISM.
   1 Symmetry operations used in ECPInt.
 ECPInt:  NShTT=   14535 NPrTT=   52310 LenC2=   13672 LenP2D=   35456.
 LDataN:  DoStor=T MaxTD1= 7 Len=  274
 NBasis=   372 RedAO= T EigKep=  2.37D-04  NBF=   372
 NBsUse=   372 1.00D-06 EigRej= -1.00D+00 NBFU=   372
 Precomputing XC quadrature grid using
 IXCGrd= 4 IRadAn=           5 IRanWt=          -1 IRanGd=           0 AccXCQ= 0.00D+00.
 Defaulting to unpruned grid for atomic number  47.
 Generated NRdTot=       0 NPtTot=           0 NUsed=           0 NTot=          32
 NSgBfM=   395   395   395   395   395 MxSgAt=    35 MxSgA2=    35.
 Leave Link  302 at Sat Sep 12 01:43:02 2026, MaxMem=  6442450944 cpu:               7.0 elap:               6.9
 (Enter C:\G16W\l303.exe)
 DipDrv:  MaxL=1.
 Leave Link  303 at Sat Sep 12 01:43:03 2026, MaxMem=  6442450944 cpu:               1.0 elap:               0.5
 (Enter C:\G16W\l401.exe)
 Initial guess from the checkpoint file:  "TPA.chk"
 B after Tr=     0.072081   -0.115645   -0.147369
         Rot=    1.000000    0.000000    0.000000    0.000000 Ang=   0.00 deg.
 Guess basis will be translated and rotated to current coordinates.
 JPrj=2 DoOrth=T DoCkMO=T.
 Initial guess <Sx>= 0.0000 <Sy>= 0.0000 <Sz>= 0.5000 <S**2>= 0.7527 S= 0.5014
 Leave Link  401 at Sat Sep 12 01:43:22 2026, MaxMem=  6442450944 cpu:              19.0 elap:              18.6
 (Enter C:\G16W\l502.exe)
 Two-electron integral symmetry not used.
 UHF open shell SCF:
 Using DIIS extrapolation, IDIIS=  1040.
 NGot=  6442450944 LenX=  6442130178 LenY=  6441972921
 Requested convergence on RMS density matrix=1.00D-08 within 128 cycles.
 Requested convergence on MAX density matrix=1.00D-06.
 Requested convergence on             energy=1.00D-06.
 No special actions if energy rises.
 Fock matrices will be formed incrementally for  20 cycles.

 Cycle   1  Pass 1  IDiag  1:
 FoFJK:  IHMeth= 1 ICntrl=       0 DoSepK=F KAlg= 0 I1Cent=           0 FoldK=F
 IRaf= 890000000 NMat=       1 IRICut=       1 DoRegI=T DoRafI=F ISym2E= 0 IDoP0=0 IntGTp=1.
 FoFCou: FMM=F IPFlag=           0 FMFlag=      100000 FMFlg1=           0
         NFxFlg=           0 DoJE=F BraDBF=F KetDBF=F FulRan=T
         wScrn=  0.000000 ICntrl=         0 IOpCl=  1 I1Cent=           0 NGrid=           0
         NMat0=    1 NMatS0=      1 NMatT0=    0 NMatD0=    1 NMtDS0=    0 NMtDT0=    0
 Symmetry not used in FoFCou.
 Defaulting to unpruned grid for atomic number  47.
 Defaulting to unpruned grid for atomic number  47.
 Defaulting to unpruned grid for atomic number  47.
 Defaulting to unpruned grid for atomic number  47.
 Defaulting to unpruned grid for atomic number  47.
 Defaulting to unpruned grid for atomic number  47.
 Defaulting to unpruned grid for atomic number  47.
 Defaulting to unpruned grid for atomic number  47.
 E= -895.256653532238    
 DIIS: error= 9.53D-03 at cycle   1 NSaved=   1.
 NSaved= 1 IEnMin= 1 EnMin= -895.256653532238     IErMin= 1 ErrMin= 9.53D-03
 ErrMax= 9.53D-03  0.00D+00 EMaxC= 1.00D-01 BMatC= 5.24D-02 BMatP= 5.24D-02
 IDIUse=3 WtCom= 9.05D-01 WtEn= 9.53D-02
 Coeff-Com:  0.100D+01
 Coeff-En:   0.100D+01
 Coeff:      0.100D+01
 Gap=     0.145 Goal=   None    Shift=    0.000
 Gap=     0.162 Goal=   None    Shift=    0.000
 GapD=    0.145 DampG=1.000 DampE=1.000 DampFc=1.0000 IDamp=-1.
 RMSDP=7.46D-04 MaxDP=3.76D-02              OVMax= 5.58D-02

 Cycle   2  Pass 1  IDiag  1:
 RMSU=  7.46D-04    CP:  9.99D-01
 E= -895.260818872728     Delta-E=       -0.004165340490 Rises=F Damp=F
 DIIS: error= 2.09D-03 at cycle   2 NSaved=   2.
 NSaved= 2 IEnMin= 2 EnMin= -895.260818872728     IErMin= 2 ErrMin= 2.09D-03
 ErrMax= 2.09D-03  0.00D+00 EMaxC= 1.00D-01 BMatC= 3.92D-03 BMatP= 5.24D-02
 IDIUse=3 WtCom= 9.79D-01 WtEn= 2.09D-02
 Coeff-Com:  0.951D-01 0.905D+00
 Coeff-En:   0.000D+00 0.100D+01
 Coeff:      0.931D-01 0.907D+00
 Gap=     0.137 Goal=   None    Shift=    0.000
 Gap=     0.131 Goal=   None    Shift=    0.000
 RMSDP=2.99D-04 MaxDP=9.97D-03 DE=-4.17D-03 OVMax= 2.64D-02

 Cycle   3  Pass 1  IDiag  1:
 RMSU=  2.83D-04    CP:  9.99D-01  8.75D-01
 E= -895.258892529054     Delta-E=        0.001926343673 Rises=F Damp=F
 DIIS: error= 4.19D-03 at cycle   3 NSaved=   3.
 NSaved= 3 IEnMin= 2 EnMin= -895.260818872728     IErMin= 2 ErrMin= 2.09D-03
 ErrMax= 4.19D-03  0.00D+00 EMaxC= 1.00D-01 BMatC= 1.15D-02 BMatP= 3.92D-03
 IDIUse=3 WtCom= 1.34D-01 WtEn= 8.66D-01
 Coeff-Com:  0.199D-02 0.634D+00 0.364D+00
 Coeff-En:   0.000D+00 0.701D+00 0.299D+00
 Coeff:      0.266D-03 0.692D+00 0.308D+00
 Gap=     0.138 Goal=   None    Shift=    0.000
 Gap=     0.127 Goal=   None    Shift=    0.000
 RMSDP=1.66D-04 MaxDP=4.89D-03 DE= 1.93D-03 OVMax= 1.61D-02

 Cycle   4  Pass 1  IDiag  1:
 RMSU=  5.18D-05    CP:  9.99D-01  9.67D-01  5.02D-01
 E= -895.261793228357     Delta-E=       -0.002900699303 Rises=F Damp=F
 DIIS: error= 4.90D-04 at cycle   4 NSaved=   4.
 NSaved= 4 IEnMin= 4 EnMin= -895.261793228357     IErMin= 4 ErrMin= 4.90D-04
 ErrMax= 4.90D-04  0.00D+00 EMaxC= 1.00D-01 BMatC= 3.51D-04 BMatP= 3.92D-03
 IDIUse=3 WtCom= 9.95D-01 WtEn= 4.90D-03
 Coeff-Com: -0.316D-02 0.337D+00 0.118D+00 0.548D+00
 Coeff-En:   0.000D+00 0.000D+00 0.000D+00 0.100D+01
 Coeff:     -0.315D-02 0.335D+00 0.118D+00 0.550D+00
 Gap=     0.138 Goal=   None    Shift=    0.000
 Gap=     0.126 Goal=   None    Shift=    0.000
 RMSDP=3.50D-05 MaxDP=4.43D-03 DE=-2.90D-03 OVMax= 2.35D-03

 Cycle   5  Pass 1  IDiag  1:
 RMSU=  2.17D-05    CP:  9.99D-01  9.94D-01  4.44D-01  8.38D-01
 E= -895.261870189762     Delta-E=       -0.000076961405 Rises=F Damp=F
 DIIS: error= 9.63D-05 at cycle   5 NSaved=   5.
 NSaved= 5 IEnMin= 5 EnMin= -895.261870189762     IErMin= 5 ErrMin= 9.63D-05
 ErrMax= 9.63D-05  0.00D+00 EMaxC= 1.00D-01 BMatC= 7.13D-06 BMatP= 3.51D-04
 IDIUse=1 WtCom= 1.00D+00 WtEn= 0.00D+00
 Coeff-Com: -0.130D-02 0.525D-01 0.301D-02 0.170D+00 0.776D+00
 Coeff:     -0.130D-02 0.525D-01 0.301D-02 0.170D+00 0.776D+00
 Gap=     0.138 Goal=   None    Shift=    0.000
 Gap=     0.126 Goal=   None    Shift=    0.000
 RMSDP=1.02D-05 MaxDP=9.82D-04 DE=-7.70D-05 OVMax= 1.30D-03

 Cycle   6  Pass 1  IDiag  1:
 RMSU=  7.12D-06    CP:  9.99D-01  1.00D+00  4.44D-01  9.34D-01  1.11D+00
 E= -895.261873736552     Delta-E=       -0.000003546790 Rises=F Damp=F
 DIIS: error= 4.79D-05 at cycle   6 NSaved=   6.
 NSaved= 6 IEnMin= 6 EnMin= -895.261873736552     IErMin= 6 ErrMin= 4.79D-05
 ErrMax= 4.79D-05  0.00D+00 EMaxC= 1.00D-01 BMatC= 1.96D-06 BMatP= 7.13D-06
 IDIUse=1 WtCom= 1.00D+00 WtEn= 0.00D+00
 Coeff-Com:  0.172D-03-0.523D-01-0.265D-01-0.493D-01 0.356D+00 0.772D+00
 Coeff:      0.172D-03-0.523D-01-0.265D-01-0.493D-01 0.356D+00 0.772D+00
 Gap=     0.138 Goal=   None    Shift=    0.000
 Gap=     0.126 Goal=   None    Shift=    0.000
 RMSDP=5.92D-06 MaxDP=6.84D-04 DE=-3.55D-06 OVMax= 9.01D-04

 Cycle   7  Pass 1  IDiag  1:
 RMSU=  3.35D-06    CP:  9.99D-01  1.00D+00  4.49D-01  9.89D-01  1.26D+00
                    CP:  1.09D+00
 E= -895.261874945416     Delta-E=       -0.000001208864 Rises=F Damp=F
 DIIS: error= 2.32D-05 at cycle   7 NSaved=   7.
 NSaved= 7 IEnMin= 7 EnMin= -895.261874945416     IErMin= 7 ErrMin= 2.32D-05
 ErrMax= 2.32D-05  0.00D+00 EMaxC= 1.00D-01 BMatC= 4.28D-07 BMatP= 1.96D-06
 IDIUse=1 WtCom= 1.00D+00 WtEn= 0.00D+00
 Coeff-Com:  0.241D-03-0.271D-01-0.110D-01-0.407D-01 0.684D-01 0.364D+00
 Coeff-Com:  0.646D+00
 Coeff:      0.241D-03-0.271D-01-0.110D-01-0.407D-01 0.684D-01 0.364D+00
 Coeff:      0.646D+00
 Gap=     0.138 Goal=   None    Shift=    0.000
 Gap=     0.126 Goal=   None    Shift=    0.000
 RMSDP=2.04D-06 MaxDP=2.00D-04 DE=-1.21D-06 OVMax= 2.65D-04

 Cycle   8  Pass 1  IDiag  1:
 RMSU=  1.51D-06    CP:  9.99D-01  1.00D+00  4.50D-01  1.00D+00  1.30D+00
                    CP:  1.18D+00  1.07D+00
 E= -895.261875209884     Delta-E=       -0.000000264467 Rises=F Damp=F
 DIIS: error= 1.37D-05 at cycle   8 NSaved=   8.
 NSaved= 8 IEnMin= 8 EnMin= -895.261875209884     IErMin= 8 ErrMin= 1.37D-05
 ErrMax= 1.37D-05  0.00D+00 EMaxC= 1.00D-01 BMatC= 1.10D-07 BMatP= 4.28D-07
 IDIUse=1 WtCom= 1.00D+00 WtEn= 0.00D+00
 Coeff-Com:  0.170D-04 0.739D-02 0.551D-02-0.181D-02-0.108D+00-0.140D+00
 Coeff-Com:  0.218D+00 0.102D+01
 Coeff:      0.170D-04 0.739D-02 0.551D-02-0.181D-02-0.108D+00-0.140D+00
 Coeff:      0.218D+00 0.102D+01
 Gap=     0.138 Goal=   None    Shift=    0.000
 Gap=     0.126 Goal=   None    Shift=    0.000
 RMSDP=1.94D-06 MaxDP=1.75D-04 DE=-2.64D-07 OVMax= 2.37D-04

 Cycle   9  Pass 1  IDiag  1:
 RMSU=  1.09D-06    CP:  9.99D-01  1.00D+00  4.51D-01  1.01D+00  1.33D+00
                    CP:  1.30D+00  1.38D+00  1.30D+00
 E= -895.261875373093     Delta-E=       -0.000000163209 Rises=F Damp=F
 DIIS: error= 6.77D-06 at cycle   9 NSaved=   9.
 NSaved= 9 IEnMin= 9 EnMin= -895.261875373093     IErMin= 9 ErrMin= 6.77D-06
 ErrMax= 6.77D-06  0.00D+00 EMaxC= 1.00D-01 BMatC= 3.68D-08 BMatP= 1.10D-07
 IDIUse=1 WtCom= 1.00D+00 WtEn= 0.00D+00
 Coeff-Com: -0.646D-04 0.110D-01 0.511D-02 0.132D-01-0.529D-01-0.156D+00
 Coeff-Com: -0.111D+00 0.390D+00 0.900D+00
 Coeff:     -0.646D-04 0.110D-01 0.511D-02 0.132D-01-0.529D-01-0.156D+00
 Coeff:     -0.111D+00 0.390D+00 0.900D+00
 Gap=     0.138 Goal=   None    Shift=    0.000
 Gap=     0.126 Goal=   None    Shift=    0.000
 RMSDP=1.09D-06 MaxDP=4.77D-05 DE=-1.63D-07 OVMax= 1.27D-04

 Cycle  10  Pass 1  IDiag  1:
 RMSU=  6.00D-07    CP:  9.99D-01  1.00D+00  4.51D-01  1.01D+00  1.33D+00
                    CP:  1.34D+00  1.52D+00  1.71D+00  1.31D+00
 E= -895.261875427330     Delta-E=       -0.000000054237 Rises=F Damp=F
 DIIS: error= 4.67D-06 at cycle  10 NSaved=  10.
 NSaved=10 IEnMin=10 EnMin= -895.261875427330     IErMin=10 ErrMin= 4.67D-06
 ErrMax= 4.67D-06  0.00D+00 EMaxC= 1.00D-01 BMatC= 1.69D-08 BMatP= 3.68D-08
 IDIUse=1 WtCom= 1.00D+00 WtEn= 0.00D+00
 Coeff-Com: -0.472D-04 0.439D-02 0.118D-02 0.974D-02 0.635D-02-0.504D-01
 Coeff-Com: -0.144D+00-0.119D+00 0.509D+00 0.783D+00
 Coeff:     -0.472D-04 0.439D-02 0.118D-02 0.974D-02 0.635D-02-0.504D-01
 Coeff:     -0.144D+00-0.119D+00 0.509D+00 0.783D+00
 Gap=     0.138 Goal=   None    Shift=    0.000
 Gap=     0.126 Goal=   None    Shift=    0.000
 RMSDP=6.96D-07 MaxDP=3.07D-05 DE=-5.42D-08 OVMax= 8.42D-05

 Cycle  11  Pass 1  IDiag  1:
 RMSU=  2.85D-07    CP:  9.99D-01  1.00D+00  4.51D-01  1.01D+00  1.33D+00
                    CP:  1.35D+00  1.59D+00  1.91D+00  1.76D+00  1.24D+00
 E= -895.261875448446     Delta-E=       -0.000000021116 Rises=F Damp=F
 DIIS: error= 2.23D-06 at cycle  11 NSaved=  11.
 NSaved=11 IEnMin=11 EnMin= -895.261875448446     IErMin=11 ErrMin= 2.23D-06
 ErrMax= 2.23D-06  0.00D+00 EMaxC= 1.00D-01 BMatC= 4.54D-09 BMatP= 1.69D-08
 IDIUse=1 WtCom= 1.00D+00 WtEn= 0.00D+00
 Coeff-Com:  0.104D-04-0.371D-02-0.210D-02-0.180D-02 0.311D-01 0.496D-01
 Coeff-Com: -0.198D-01-0.255D+00-0.198D+00 0.403D+00 0.997D+00
 Coeff:      0.104D-04-0.371D-02-0.210D-02-0.180D-02 0.311D-01 0.496D-01
 Coeff:     -0.198D-01-0.255D+00-0.198D+00 0.403D+00 0.997D+00
 Gap=     0.138 Goal=   None    Shift=    0.000
 Gap=     0.126 Goal=   None    Shift=    0.000
 RMSDP=5.56D-07 MaxDP=2.53D-05 DE=-2.11D-08 OVMax= 6.14D-05

 Cycle  12  Pass 1  IDiag  1:
 RMSU=  1.49D-07    CP:  9.99D-01  1.00D+00  4.51D-01  1.01D+00  1.33D+00
                    CP:  1.35D+00  1.62D+00  2.07D+00  2.08D+00  1.72D+00
                    CP:  1.27D+00
 E= -895.261875454960     Delta-E=       -0.000000006514 Rises=F Damp=F
 DIIS: error= 3.17D-07 at cycle  12 NSaved=  12.
 NSaved=12 IEnMin=12 EnMin= -895.261875454960     IErMin=12 ErrMin= 3.17D-07
 ErrMax= 3.17D-07  0.00D+00 EMaxC= 1.00D-01 BMatC= 3.18D-10 BMatP= 4.54D-09
 IDIUse=1 WtCom= 1.00D+00 WtEn= 0.00D+00
 Coeff-Com:  0.709D-05-0.157D-02-0.750D-03-0.147D-02 0.951D-02 0.200D-01
 Coeff-Com:  0.349D-02-0.732D-01-0.100D+00 0.629D-01 0.334D+00 0.747D+00
 Coeff:      0.709D-05-0.157D-02-0.750D-03-0.147D-02 0.951D-02 0.200D-01
 Coeff:      0.349D-02-0.732D-01-0.100D+00 0.629D-01 0.334D+00 0.747D+00
 Gap=     0.138 Goal=   None    Shift=    0.000
 Gap=     0.126 Goal=   None    Shift=    0.000
 RMSDP=8.56D-08 MaxDP=6.74D-06 DE=-6.51D-09 OVMax= 8.76D-06

 Cycle  13  Pass 1  IDiag  1:
 RMSU=  4.77D-08    CP:  9.99D-01  1.00D+00  4.51D-01  1.01D+00  1.33D+00
                    CP:  1.35D+00  1.62D+00  2.08D+00  2.12D+00  1.78D+00
                    CP:  1.40D+00  1.04D+00
 E= -895.261875455276     Delta-E=       -0.000000000316 Rises=F Damp=F
 DIIS: error= 2.14D-07 at cycle  13 NSaved=  13.
 NSaved=13 IEnMin=13 EnMin= -895.261875455276     IErMin=13 ErrMin= 2.14D-07
 ErrMax= 2.14D-07  0.00D+00 EMaxC= 1.00D-01 BMatC= 1.26D-10 BMatP= 3.18D-10
 IDIUse=1 WtCom= 1.00D+00 WtEn= 0.00D+00
 Coeff-Com:  0.207D-05-0.131D-03 0.506D-05-0.482D-03-0.742D-03 0.173D-02
 Coeff-Com:  0.558D-02 0.924D-02-0.160D-01-0.479D-01-0.111D-01 0.423D+00
 Coeff-Com:  0.637D+00
 Coeff:      0.207D-05-0.131D-03 0.506D-05-0.482D-03-0.742D-03 0.173D-02
 Coeff:      0.558D-02 0.924D-02-0.160D-01-0.479D-01-0.111D-01 0.423D+00
 Coeff:      0.637D+00
 Gap=     0.138 Goal=   None    Shift=    0.000
 Gap=     0.126 Goal=   None    Shift=    0.000
 RMSDP=3.71D-08 MaxDP=3.60D-06 DE=-3.16D-10 OVMax= 4.56D-06

 Cycle  14  Pass 1  IDiag  1:
 RMSU=  2.28D-08    CP:  9.99D-01  1.00D+00  4.51D-01  1.01D+00  1.33D+00
                    CP:  1.35D+00  1.62D+00  2.08D+00  2.13D+00  1.81D+00
                    CP:  1.45D+00  1.16D+00  8.28D-01
 E= -895.261875455225     Delta-E=        0.000000000050 Rises=F Damp=F
 DIIS: error= 9.12D-08 at cycle  14 NSaved=  14.
 NSaved=14 IEnMin=13 EnMin= -895.261875455276     IErMin=14 ErrMin= 9.12D-08
 ErrMax= 9.12D-08  0.00D+00 EMaxC= 1.00D-01 BMatC= 2.00D-11 BMatP= 1.26D-10
 IDIUse=1 WtCom= 1.00D+00 WtEn= 0.00D+00
 Coeff-Com: -0.140D-06 0.202D-03 0.129D-03-0.517D-06-0.196D-02-0.241D-02
 Coeff-Com:  0.214D-02 0.169D-01 0.973D-02-0.351D-01-0.657D-01 0.830D-01
 Coeff-Com:  0.337D+00 0.656D+00
 Coeff:     -0.140D-06 0.202D-03 0.129D-03-0.517D-06-0.196D-02-0.241D-02
 Coeff:      0.214D-02 0.169D-01 0.973D-02-0.351D-01-0.657D-01 0.830D-01
 Coeff:      0.337D+00 0.656D+00
 Gap=     0.138 Goal=   None    Shift=    0.000
 Gap=     0.126 Goal=   None    Shift=    0.000
 RMSDP=1.35D-08 MaxDP=1.37D-06 DE= 5.05D-11 OVMax= 1.76D-06

 Cycle  15  Pass 1  IDiag  1:
 RMSU=  6.79D-09    CP:  9.99D-01  1.00D+00  4.51D-01  1.01D+00  1.33D+00
                    CP:  1.35D+00  1.62D+00  2.09D+00  2.13D+00  1.81D+00
                    CP:  1.46D+00  1.20D+00  9.65D-01  7.97D-01
 E= -895.261875455216     Delta-E=        0.000000000009 Rises=F Damp=F
 DIIS: error= 3.40D-08 at cycle  15 NSaved=  15.
 NSaved=15 IEnMin=13 EnMin= -895.261875455276     IErMin=15 ErrMin= 3.40D-08
 ErrMax= 3.40D-08  0.00D+00 EMaxC= 1.00D-01 BMatC= 2.86D-12 BMatP= 2.00D-11
 IDIUse=1 WtCom= 1.00D+00 WtEn= 0.00D+00
 Coeff-Com: -0.397D-06 0.123D-03 0.667D-04 0.614D-04-0.950D-03-0.155D-02
 Coeff-Com:  0.339D-03 0.749D-02 0.757D-02-0.109D-01-0.331D-01-0.171D-01
 Coeff-Com:  0.827D-01 0.330D+00 0.635D+00
 Coeff:     -0.397D-06 0.123D-03 0.667D-04 0.614D-04-0.950D-03-0.155D-02
 Coeff:      0.339D-03 0.749D-02 0.757D-02-0.109D-01-0.331D-01-0.171D-01
 Coeff:      0.827D-01 0.330D+00 0.635D+00
 Gap=     0.138 Goal=   None    Shift=    0.000
 Gap=     0.126 Goal=   None    Shift=    0.000
 RMSDP=4.16D-09 MaxDP=2.43D-07 DE= 9.09D-12 OVMax= 3.14D-07

 SCF Done:  E(UPBE1PBE) =  -895.261875455     A.U. after   15 cycles
            NFock= 15  Conv=0.42D-08     -V/T= 2.1229
 <Sx>= 0.0000 <Sy>= 0.0000 <Sz>= 0.5000 <S**2>= 0.7519 S= 0.5009
 <L.S>= 0.000000000000E+00
 KE= 7.972694698679D+02 PE=-5.321366664779D+03 EE= 1.993113393801D+03
 Annihilation of the first spin contaminant:
 S**2 before annihilation     0.7519,   after     0.7500
 Leave Link  502 at Sat Sep 12 01:49:31 2026, MaxMem=  6442450944 cpu:             369.0 elap:             369.1
 (Enter C:\G16W\l508.exe)
 QCSCF skips out because SCF is already converged.
 Leave Link  508 at Sat Sep 12 01:49:31 2026, MaxMem=  6442450944 cpu:               0.0 elap:               0.1
 (Enter C:\G16W\l601.exe)
 Copying SCF densities to generalized density rwf, IOpCl= 1 IROHF=0.

 **********************************************************************

            Population analysis using the SCF Density.

 **********************************************************************

 Alpha  occ. eigenvalues --  -14.43796 -10.28472 -10.28453 -10.28437 -10.24127
 Alpha  occ. eigenvalues --  -10.24112 -10.24105 -10.24099 -10.24096 -10.24090
 Alpha  occ. eigenvalues --  -10.24072 -10.24043 -10.24030 -10.23869 -10.23860
 Alpha  occ. eigenvalues --  -10.23851 -10.23555 -10.23544 -10.23535  -3.74433
 Alpha  occ. eigenvalues --   -2.32412  -2.32408  -2.32368  -1.01245  -0.88895
 Alpha  occ. eigenvalues --   -0.88879  -0.86766  -0.78908  -0.78903  -0.77018
 Alpha  occ. eigenvalues --   -0.76908  -0.76901  -0.73217  -0.65732  -0.65730
 Alpha  occ. eigenvalues --   -0.62855  -0.62350  -0.62343  -0.59387  -0.56347
 Alpha  occ. eigenvalues --   -0.56334  -0.52763  -0.50352  -0.50340  -0.49660
 Alpha  occ. eigenvalues --   -0.47395  -0.47392  -0.46014  -0.45328  -0.45319
 Alpha  occ. eigenvalues --   -0.44659  -0.44337  -0.44319  -0.40878  -0.39749
 Alpha  occ. eigenvalues --   -0.39724  -0.38867  -0.37735  -0.37723  -0.37238
 Alpha  occ. eigenvalues --   -0.36092  -0.36077  -0.34161  -0.32100  -0.32087
 Alpha  occ. eigenvalues --   -0.31877  -0.31868  -0.31484  -0.28517  -0.28109
 Alpha  occ. eigenvalues --   -0.28100  -0.27005  -0.26995  -0.20488  -0.16283
 Alpha virt. eigenvalues --   -0.02437  -0.02198  -0.02168  -0.00578  -0.00560
 Alpha virt. eigenvalues --    0.01795   0.01877   0.03051   0.04484   0.07127
 Alpha virt. eigenvalues --    0.07960   0.07969   0.11010   0.11764   0.11778
 Alpha virt. eigenvalues --    0.11985   0.13608   0.13639   0.14585   0.14607
 Alpha virt. eigenvalues --    0.15771   0.16057   0.16583   0.16597   0.17574
 Alpha virt. eigenvalues --    0.17621   0.18828   0.19250   0.23469   0.25176
 Alpha virt. eigenvalues --    0.25202   0.27293   0.27452   0.27503   0.28911
 Alpha virt. eigenvalues --    0.28966   0.29325   0.30586   0.30612   0.31051
 Alpha virt. eigenvalues --    0.32755   0.32776   0.35511   0.35665   0.36558
 Alpha virt. eigenvalues --    0.36575   0.38383   0.38404   0.40651   0.40694
 Alpha virt. eigenvalues --    0.40855   0.42116   0.42152   0.44088   0.45237
 Alpha virt. eigenvalues --    0.45300   0.45466   0.45938   0.46690   0.46778
 Alpha virt. eigenvalues --    0.47339   0.49050   0.49472   0.49502   0.50832
 Alpha virt. eigenvalues --    0.50861   0.50915   0.51511   0.51562   0.51588
 Alpha virt. eigenvalues --    0.54161   0.54283   0.55151   0.55283   0.56810
 Alpha virt. eigenvalues --    0.58698   0.59021   0.59060   0.59358   0.59394
 Alpha virt. eigenvalues --    0.59716   0.61805   0.61889   0.62221   0.63877
 Alpha virt. eigenvalues --    0.65280   0.65306   0.66521   0.66543   0.66954
 Alpha virt. eigenvalues --    0.68642   0.68662   0.69540   0.70432   0.70460
 Alpha virt. eigenvalues --    0.70595   0.71849   0.71933   0.71941   0.74010
 Alpha virt. eigenvalues --    0.74091   0.74153   0.75556   0.76297   0.76331
 Alpha virt. eigenvalues --    0.76468   0.78004   0.78040   0.79220   0.79841
 Alpha virt. eigenvalues --    0.79852   0.81512   0.81905   0.82042   0.84016
 Alpha virt. eigenvalues --    0.84083   0.84951   0.85727   0.87756   0.87908
 Alpha virt. eigenvalues --    0.89932   0.91386   0.91616   0.93646   0.95519
 Alpha virt. eigenvalues --    0.95579   0.96157   0.96175   0.96749   1.02771
 Alpha virt. eigenvalues --    1.08979   1.09019   1.12029   1.12067   1.12522
 Alpha virt. eigenvalues --    1.18411   1.18500   1.21593   1.21633   1.22178
 Alpha virt. eigenvalues --    1.22292   1.25029   1.25088   1.25660   1.27060
 Alpha virt. eigenvalues --    1.28613   1.28619   1.29142   1.29148   1.30339
 Alpha virt. eigenvalues --    1.30771   1.31178   1.31352   1.32387   1.33065
 Alpha virt. eigenvalues --    1.33192   1.36775   1.36797   1.42816   1.44423
 Alpha virt. eigenvalues --    1.53032   1.53046   1.54589   1.63416   1.63423
 Alpha virt. eigenvalues --    1.64354   1.68359   1.69969   1.69979   1.70009
 Alpha virt. eigenvalues --    1.70065   1.70090   1.72637   1.72646   1.74513
 Alpha virt. eigenvalues --    1.74536   1.76831   1.76846   1.77229   1.77678
 Alpha virt. eigenvalues --    1.77694   1.78781   1.78813   1.79085   1.79177
 Alpha virt. eigenvalues --    1.79182   1.80664   1.82743   1.82756   1.83495
 Alpha virt. eigenvalues --    1.84939   1.84982   1.86731   1.86748   1.86764
 Alpha virt. eigenvalues --    1.87790   1.87842   1.88363   1.92108   1.96261
 Alpha virt. eigenvalues --    1.96264   1.96783   1.99729   1.99746   2.00104
 Alpha virt. eigenvalues --    2.01555   2.02743   2.02757   2.02858   2.05720
 Alpha virt. eigenvalues --    2.05763   2.05788   2.08436   2.08477   2.11771
 Alpha virt. eigenvalues --    2.11779   2.13326   2.15841   2.15891   2.16311
 Alpha virt. eigenvalues --    2.17883   2.19540   2.19544   2.20114   2.21128
 Alpha virt. eigenvalues --    2.21849   2.21864   2.22652   2.22692   2.29632
 Alpha virt. eigenvalues --    2.31098   2.31104   2.31166   2.32792   2.32809
 Alpha virt. eigenvalues --    2.33327   2.34309   2.35559   2.35583   2.37466
 Alpha virt. eigenvalues --    2.37493   2.37789   2.39866   2.44740   2.44782
 Alpha virt. eigenvalues --    2.48775   2.48780   2.56435   2.60300   2.60314
 Alpha virt. eigenvalues --    2.62228   2.62255   2.62696   2.63012   2.63719
 Alpha virt. eigenvalues --    2.63987   2.64024   2.64424   2.64484   2.64624
 Alpha virt. eigenvalues --    2.66084   2.66642   2.67301   2.67316   2.69724
 Alpha virt. eigenvalues --    2.69744   2.77063   2.77301   2.77307   2.77948
 Alpha virt. eigenvalues --    2.77963   2.78400   2.82049   2.86649   2.86765
 Alpha virt. eigenvalues --    2.86790   2.91238   2.91262   2.92287   2.93374
 Alpha virt. eigenvalues --    2.93386   2.99192   3.05112   3.05119   3.13224
 Alpha virt. eigenvalues --    3.16732   3.16739   3.17265   3.21440   3.21452
 Alpha virt. eigenvalues --    3.26400   3.42160   3.42175   3.68873   3.72644
 Alpha virt. eigenvalues --    3.72656  53.86522
  Beta  occ. eigenvalues --  -14.43796 -10.28451 -10.28433 -10.28419 -10.24108
  Beta  occ. eigenvalues --  -10.24090 -10.24085 -10.24079 -10.24076 -10.24070
  Beta  occ. eigenvalues --  -10.24058 -10.24032 -10.24020 -10.23876 -10.23867
  Beta  occ. eigenvalues --  -10.23858 -10.23565 -10.23553 -10.23544  -3.74314
  Beta  occ. eigenvalues --   -2.32375  -2.32371  -2.32348  -1.01217  -0.88867
  Beta  occ. eigenvalues --   -0.88852  -0.86742  -0.78879  -0.78874  -0.76983
  Beta  occ. eigenvalues --   -0.76876  -0.76869  -0.73210  -0.65714  -0.65712
  Beta  occ. eigenvalues --   -0.62802  -0.62319  -0.62313  -0.59360  -0.56319
  Beta  occ. eigenvalues --   -0.56307  -0.52737  -0.50331  -0.50320  -0.49604
  Beta  occ. eigenvalues --   -0.47372  -0.47369  -0.45979  -0.45300  -0.45292
  Beta  occ. eigenvalues --   -0.44612  -0.44311  -0.44294  -0.40804  -0.39679
  Beta  occ. eigenvalues --   -0.39658  -0.38851  -0.37713  -0.37702  -0.37188
  Beta  occ. eigenvalues --   -0.36064  -0.36050  -0.34021  -0.31496  -0.31481
  Beta  occ. eigenvalues --   -0.31264  -0.31255  -0.30900  -0.28355  -0.28022
  Beta  occ. eigenvalues --   -0.28012  -0.26898  -0.26892  -0.20459
  Beta virt. eigenvalues --   -0.07905  -0.02097  -0.02075  -0.01785  -0.00113
  Beta virt. eigenvalues --   -0.00093   0.03132   0.03588   0.03669   0.06637
  Beta virt. eigenvalues --    0.07830   0.08042   0.08054   0.11392   0.11876
  Beta virt. eigenvalues --    0.11893   0.12114   0.13687   0.13721   0.14667
  Beta virt. eigenvalues --    0.14684   0.15975   0.16472   0.16669   0.16679
  Beta virt. eigenvalues --    0.17889   0.17961   0.18984   0.19404   0.23757
  Beta virt. eigenvalues --    0.25398   0.25418   0.27678   0.27717   0.28150
  Beta virt. eigenvalues --    0.29229   0.29255   0.29693   0.30846   0.30868
  Beta virt. eigenvalues --    0.32289   0.33722   0.33765   0.35613   0.35739
  Beta virt. eigenvalues --    0.36733   0.36748   0.38682   0.38693   0.40991
  Beta virt. eigenvalues --    0.41067   0.41120   0.42319   0.42367   0.44149
  Beta virt. eigenvalues --    0.45511   0.45583   0.45626   0.46007   0.47040
  Beta virt. eigenvalues --    0.47128   0.47705   0.49099   0.49819   0.49848
  Beta virt. eigenvalues --    0.50972   0.51004   0.51010   0.51791   0.51834
  Beta virt. eigenvalues --    0.51880   0.54642   0.54762   0.56190   0.56346
  Beta virt. eigenvalues --    0.57109   0.58800   0.59155   0.59171   0.59619
  Beta virt. eigenvalues --    0.59682   0.59796   0.62007   0.62105   0.63054
  Beta virt. eigenvalues --    0.63955   0.65371   0.65404   0.66594   0.66616
  Beta virt. eigenvalues --    0.66985   0.68693   0.68716   0.69578   0.70487
  Beta virt. eigenvalues --    0.70517   0.70631   0.71995   0.72019   0.72038
  Beta virt. eigenvalues --    0.74131   0.74189   0.74223   0.75618   0.76399
  Beta virt. eigenvalues --    0.76436   0.76519   0.78125   0.78174   0.79413
  Beta virt. eigenvalues --    0.79871   0.79881   0.81569   0.82097   0.82216
  Beta virt. eigenvalues --    0.84119   0.84192   0.85036   0.85856   0.87967
  Beta virt. eigenvalues --    0.88108   0.90009   0.91604   0.91856   0.93683
  Beta virt. eigenvalues --    0.95585   0.95650   0.96179   0.96198   0.96829
  Beta virt. eigenvalues --    1.02990   1.09018   1.09060   1.12079   1.12117
  Beta virt. eigenvalues --    1.12616   1.18488   1.18581   1.21628   1.21670
  Beta virt. eigenvalues --    1.22278   1.22324   1.25076   1.25137   1.25698
  Beta virt. eigenvalues --    1.27107   1.28649   1.28655   1.29173   1.29179
  Beta virt. eigenvalues --    1.30377   1.30803   1.31255   1.31428   1.32438
  Beta virt. eigenvalues --    1.33112   1.33247   1.36814   1.36838   1.42890
  Beta virt. eigenvalues --    1.44452   1.53060   1.53074   1.54625   1.63436
  Beta virt. eigenvalues --    1.63443   1.64390   1.68377   1.69987   1.69996
  Beta virt. eigenvalues --    1.70035   1.70085   1.70110   1.72652   1.72662
  Beta virt. eigenvalues --    1.74541   1.74565   1.76859   1.76874   1.77249
  Beta virt. eigenvalues --    1.77703   1.77720   1.78812   1.78844   1.79126
  Beta virt. eigenvalues --    1.79190   1.79195   1.80693   1.82762   1.82774
  Beta virt. eigenvalues --    1.83509   1.84961   1.85004   1.86771   1.86780
  Beta virt. eigenvalues --    1.86800   1.87841   1.87896   1.88447   1.92139
  Beta virt. eigenvalues --    1.96282   1.96284   1.96805   1.99760   1.99779
  Beta virt. eigenvalues --    2.00289   2.01582   2.02764   2.02779   2.02891
  Beta virt. eigenvalues --    2.05739   2.05787   2.05810   2.08452   2.08492
  Beta virt. eigenvalues --    2.11801   2.11809   2.13500   2.15868   2.15920
  Beta virt. eigenvalues --    2.16369   2.18166   2.19564   2.19567   2.20199
  Beta virt. eigenvalues --    2.21563   2.21862   2.21899   2.22674   2.22715
  Beta virt. eigenvalues --    2.29658   2.31129   2.31133   2.31196   2.32831
  Beta virt. eigenvalues --    2.32845   2.33357   2.34345   2.35580   2.35605
  Beta virt. eigenvalues --    2.37500   2.37529   2.37828   2.39902   2.44762
  Beta virt. eigenvalues --    2.44805   2.48802   2.48807   2.56468   2.60331
  Beta virt. eigenvalues --    2.60345   2.62257   2.62284   2.62720   2.63039
  Beta virt. eigenvalues --    2.63745   2.64021   2.64059   2.64456   2.64517
  Beta virt. eigenvalues --    2.64657   2.66116   2.66670   2.67336   2.67350
  Beta virt. eigenvalues --    2.69751   2.69770   2.77067   2.77305   2.77311
  Beta virt. eigenvalues --    2.77966   2.77981   2.78419   2.82065   2.86670
  Beta virt. eigenvalues --    2.86786   2.86811   2.91261   2.91285   2.92313
  Beta virt. eigenvalues --    2.93394   2.93405   2.99215   3.05124   3.05131
  Beta virt. eigenvalues --    3.13237   3.16748   3.16754   3.17282   3.21454
  Beta virt. eigenvalues --    3.21466   3.26412   3.42173   3.42188   3.68888
  Beta virt. eigenvalues --    3.72659   3.72670  53.86682
          Condensed to atoms (all electrons):
               1          2          3          4          5          6
     1  C    5.149061   0.252039   0.099598  -0.178876  -0.000760   0.000129
     2  C    0.252039   5.085051   0.245896   0.133258   0.011689  -0.000647
     3  C    0.099598   0.245896   5.257139   0.225275  -0.097679  -0.000623
     4  C   -0.178876   0.133258   0.225275   5.275217   0.269452  -0.056183
     5  N   -0.000760   0.011689  -0.097679   0.269452   7.024920   0.269798
     6  C    0.000129  -0.000647  -0.000623  -0.056183   0.269798   5.271774
     7  C    0.000024  -0.001528  -0.006414  -0.000933  -0.081580   0.256824
     8  C   -0.000004   0.000066  -0.001228  -0.000980   0.011389   0.137750
     9  C    0.000000  -0.000006   0.000000   0.000156  -0.000755  -0.178701
    10  C    0.000000   0.000008   0.000035  -0.000423   0.011622   0.133046
    11  C    0.000000  -0.000084   0.000757   0.006439  -0.097246   0.225849
    12  C    0.000157  -0.000420   0.006488  -0.056678   0.270209  -0.056668
    13  C    0.000000   0.000011  -0.000900   0.005567  -0.081397  -0.000932
    14  C    0.000000   0.000000   0.000012  -0.000320   0.011375  -0.000966
    15  C    0.000000   0.000000   0.000001   0.000128  -0.000748   0.000154
    16  C   -0.000006   0.000007  -0.000086  -0.000630   0.011634  -0.000418
    17  C    0.000001   0.000035   0.000769  -0.000575  -0.098063   0.006459
    18  C    0.097025  -0.155909   0.058112   0.256433  -0.081720   0.005556
    19  C    0.245685   0.115826  -0.164980   0.138030   0.011410  -0.000324
    20  H    0.452947  -0.071833   0.015671  -0.001660   0.000011   0.000001
    21  H   -0.073717   0.449930  -0.067265   0.016652  -0.000165  -0.000037
    22  H    0.014638  -0.065089   0.452893  -0.067973  -0.015315   0.006037
    23  H    0.000148  -0.001071   0.001389   0.007111  -0.016024  -0.065968
    24  H    0.000000   0.000003   0.000051  -0.000035  -0.000168   0.016014
    25  H    0.000000   0.000000   0.000000   0.000001   0.000011  -0.001654
    26  H    0.000000   0.000000  -0.000002   0.000012  -0.000164   0.016654
    27  H    0.000000   0.000000   0.000070  -0.000103  -0.015410  -0.068259
    28  H    0.000000   0.000000  -0.000007  -0.000352  -0.016033   0.007093
    29  H    0.000000   0.000000   0.000000   0.000011  -0.000168  -0.000035
    30  H    0.000000   0.000000   0.000000   0.000001   0.000011   0.000001
    31  H    0.000000   0.000000   0.000000  -0.000037  -0.000165   0.000012
    32  H    0.000106  -0.000086  -0.001916   0.006080  -0.015173  -0.000098
    33  H    0.015026  -0.002525   0.017095  -0.066008  -0.016043  -0.000352
    34  H   -0.072650   0.014422  -0.001614   0.016017  -0.000168   0.000012
    35  Ag  -0.001338   0.002450  -0.002885  -0.009609   0.006464  -0.009317
               7          8          9         10         11         12
     1  C    0.000024  -0.000004   0.000000   0.000000   0.000000   0.000157
     2  C   -0.001528   0.000066  -0.000006   0.000008  -0.000084  -0.000420
     3  C   -0.006414  -0.001228   0.000000   0.000035   0.000757   0.006488
     4  C   -0.000933  -0.000980   0.000156  -0.000423   0.006439  -0.056678
     5  N   -0.081580   0.011389  -0.000755   0.011622  -0.097246   0.270209
     6  C    0.256824   0.137750  -0.178701   0.133046   0.225849  -0.056668
     7  C    5.192788   0.245002   0.096850  -0.155773   0.058182   0.005571
     8  C    0.245002   5.111166   0.246086   0.115551  -0.164807  -0.000323
     9  C    0.096850   0.246086   5.148791   0.252401   0.099330   0.000131
    10  C   -0.155773   0.115551   0.252401   5.083758   0.247205  -0.000665
    11  C    0.058182  -0.164807   0.099330   0.247205   5.256164  -0.000551
    12  C    0.005571  -0.000323   0.000131  -0.000665  -0.000551   5.274214
    13  C    0.001229   0.000001   0.000022  -0.001512  -0.006394   0.258210
    14  C   -0.000064   0.000006  -0.000004   0.000067  -0.001227   0.137838
    15  C    0.000000   0.000000   0.000000  -0.000006   0.000001  -0.178464
    16  C    0.000011   0.000000   0.000000   0.000007   0.000038   0.132440
    17  C   -0.000907   0.000013   0.000000  -0.000086   0.000737   0.224531
    18  C    0.001219  -0.000065   0.000000   0.000011  -0.000903  -0.000960
    19  C    0.000002   0.000006   0.000000   0.000000   0.000012  -0.000986
    20  H   -0.000001   0.000000   0.000000   0.000000   0.000000   0.000001
    21  H    0.000053   0.000000   0.000000   0.000000   0.000000   0.000012
    22  H    0.003721  -0.000625   0.000113  -0.000087  -0.001910  -0.000114
    23  H    0.457573  -0.073108   0.015016  -0.002519   0.017089  -0.000352
    24  H   -0.067650   0.449123  -0.072653   0.014422  -0.001612   0.000011
    25  H    0.015368  -0.071945   0.452897  -0.071797   0.015662   0.000001
    26  H   -0.001684   0.014486  -0.073742   0.449954  -0.067263  -0.000038
    27  H    0.015191  -0.002385   0.014651  -0.064961   0.452723   0.006106
    28  H   -0.000990   0.000053   0.000148  -0.001079   0.001396  -0.065997
    29  H    0.000001   0.000000   0.000000   0.000003   0.000051   0.016019
    30  H    0.000000   0.000000   0.000000   0.000000   0.000000  -0.001665
    31  H    0.000000   0.000000   0.000000   0.000000  -0.000002   0.016653
    32  H    0.000000   0.000000   0.000000   0.000000   0.000075  -0.068085
    33  H    0.000001   0.000001   0.000000   0.000000  -0.000008   0.007125
    34  H   -0.000002   0.000000   0.000000   0.000000   0.000000  -0.000035
    35  Ag  -0.006204   0.000650  -0.001338   0.002492  -0.003485  -0.009629
              13         14         15         16         17         18
     1  C    0.000000   0.000000   0.000000  -0.000006   0.000001   0.097025
     2  C    0.000011   0.000000   0.000000   0.000007   0.000035  -0.155909
     3  C   -0.000900   0.000012   0.000001  -0.000086   0.000769   0.058112
     4  C    0.005567  -0.000320   0.000128  -0.000630  -0.000575   0.256433
     5  N   -0.081397   0.011375  -0.000748   0.011634  -0.098063  -0.081720
     6  C   -0.000932  -0.000966   0.000154  -0.000418   0.006459   0.005556
     7  C    0.001229  -0.000064   0.000000   0.000011  -0.000907   0.001219
     8  C    0.000001   0.000006   0.000000   0.000000   0.000013  -0.000065
     9  C    0.000022  -0.000004   0.000000   0.000000   0.000000   0.000000
    10  C   -0.001512   0.000067  -0.000006   0.000007  -0.000086   0.000011
    11  C   -0.006394  -0.001227   0.000001   0.000038   0.000737  -0.000903
    12  C    0.258210   0.137838  -0.178464   0.132440   0.224531  -0.000960
    13  C    5.190972   0.244949   0.096580  -0.155166   0.057665   0.001214
    14  C    0.244949   5.111811   0.245848   0.115547  -0.165113   0.000002
    15  C    0.096580   0.245848   5.148133   0.253223   0.099262   0.000024
    16  C   -0.155166   0.115547   0.253223   5.082289   0.246554  -0.001524
    17  C    0.057665  -0.165113   0.099262   0.246554   5.262228  -0.006312
    18  C    0.001214   0.000002   0.000024  -0.001524  -0.006312   5.193139
    19  C   -0.000065   0.000006  -0.000004   0.000066  -0.001222   0.244598
    20  H    0.000000   0.000000   0.000000   0.000000   0.000000   0.015377
    21  H    0.000000   0.000000   0.000000   0.000000  -0.000002  -0.001682
    22  H    0.000000   0.000000   0.000000   0.000000   0.000075   0.015199
    23  H    0.000001   0.000001   0.000000   0.000000  -0.000008  -0.000981
    24  H   -0.000002   0.000000   0.000000   0.000000   0.000000   0.000001
    25  H   -0.000001   0.000000   0.000000   0.000000   0.000000   0.000000
    26  H    0.000053   0.000000   0.000000   0.000000   0.000000   0.000000
    27  H    0.003693  -0.000628   0.000109  -0.000087  -0.001920  -0.000001
    28  H    0.457780  -0.073259   0.015034  -0.002530   0.017149   0.000001
    29  H   -0.067630   0.449134  -0.072650   0.014422  -0.001613  -0.000002
    30  H    0.015377  -0.072004   0.452995  -0.071864   0.015705  -0.000001
    31  H   -0.001675   0.014473  -0.073655   0.449881  -0.067236   0.000053
    32  H    0.015061  -0.002345   0.014575  -0.064328   0.451946   0.003707
    33  H   -0.000975   0.000051   0.000148  -0.001073   0.001357   0.457675
    34  H    0.000001   0.000000   0.000000   0.000003   0.000051  -0.067660
    35  Ag  -0.006482   0.000711  -0.001456   0.002594  -0.003964  -0.006362
              19         20         21         22         23         24
     1  C    0.245685   0.452947  -0.073717   0.014638   0.000148   0.000000
     2  C    0.115826  -0.071833   0.449930  -0.065089  -0.001071   0.000003
     3  C   -0.164980   0.015671  -0.067265   0.452893   0.001389   0.000051
     4  C    0.138030  -0.001660   0.016652  -0.067973   0.007111  -0.000035
     5  N    0.011410   0.000011  -0.000165  -0.015315  -0.016024  -0.000168
     6  C   -0.000324   0.000001  -0.000037   0.006037  -0.065968   0.016014
     7  C    0.000002  -0.000001   0.000053   0.003721   0.457573  -0.067650
     8  C    0.000006   0.000000   0.000000  -0.000625  -0.073108   0.449123
     9  C    0.000000   0.000000   0.000000   0.000113   0.015016  -0.072653
    10  C    0.000000   0.000000   0.000000  -0.000087  -0.002519   0.014422
    11  C    0.000012   0.000000   0.000000  -0.001910   0.017089  -0.001612
    12  C   -0.000986   0.000001   0.000012  -0.000114  -0.000352   0.000011
    13  C   -0.000065   0.000000   0.000000   0.000000   0.000001  -0.000002
    14  C    0.000006   0.000000   0.000000   0.000000   0.000001   0.000000
    15  C   -0.000004   0.000000   0.000000   0.000000   0.000000   0.000000
    16  C    0.000066   0.000000   0.000000   0.000000   0.000000   0.000000
    17  C   -0.001222   0.000000  -0.000002   0.000075  -0.000008   0.000000
    18  C    0.244598   0.015377  -0.001682   0.015199  -0.000981   0.000001
    19  C    5.111727  -0.071963   0.014485  -0.002378   0.000052   0.000000
    20  H   -0.071963   0.673412  -0.012257  -0.000239   0.000001   0.000000
    21  H    0.014485  -0.012257   0.670501  -0.013563  -0.000008   0.000000
    22  H   -0.002378  -0.000239  -0.013563   0.629328  -0.001175   0.000027
    23  H    0.000052   0.000001  -0.000008  -0.001175   0.651267  -0.012473
    24  H    0.000000   0.000000   0.000000   0.000027  -0.012473   0.672074
    25  H    0.000000   0.000000   0.000000  -0.000001  -0.000245  -0.012300
    26  H    0.000000   0.000000   0.000000  -0.000010   0.000025  -0.000314
    27  H    0.000000   0.000000   0.000000   0.000017  -0.000163   0.000027
    28  H    0.000001   0.000000   0.000000   0.000002   0.000007  -0.000005
    29  H    0.000000   0.000000   0.000000   0.000000   0.000000   0.000000
    30  H    0.000000   0.000000   0.000000   0.000000   0.000000   0.000000
    31  H    0.000000   0.000000   0.000000   0.000000   0.000000   0.000000
    32  H   -0.000615  -0.000001  -0.000010   0.000023   0.000002   0.000000
    33  H   -0.073149  -0.000245   0.000025  -0.000164   0.000007   0.000000
    34  H    0.449136  -0.012297  -0.000314   0.000027  -0.000005   0.000000
    35  Ag   0.000666   0.000070   0.001100   0.003637   0.000286  -0.000075
              25         26         27         28         29         30
     1  C    0.000000   0.000000   0.000000   0.000000   0.000000   0.000000
     2  C    0.000000   0.000000   0.000000   0.000000   0.000000   0.000000
     3  C    0.000000  -0.000002   0.000070  -0.000007   0.000000   0.000000
     4  C    0.000001   0.000012  -0.000103  -0.000352   0.000011   0.000001
     5  N    0.000011  -0.000164  -0.015410  -0.016033  -0.000168   0.000011
     6  C   -0.001654   0.016654  -0.068259   0.007093  -0.000035   0.000001
     7  C    0.015368  -0.001684   0.015191  -0.000990   0.000001   0.000000
     8  C   -0.071945   0.014486  -0.002385   0.000053   0.000000   0.000000
     9  C    0.452897  -0.073742   0.014651   0.000148   0.000000   0.000000
    10  C   -0.071797   0.449954  -0.064961  -0.001079   0.000003   0.000000
    11  C    0.015662  -0.067263   0.452723   0.001396   0.000051   0.000000
    12  C    0.000001  -0.000038   0.006106  -0.065997   0.016019  -0.001665
    13  C   -0.000001   0.000053   0.003693   0.457780  -0.067630   0.015377
    14  C    0.000000   0.000000  -0.000628  -0.073259   0.449134  -0.072004
    15  C    0.000000   0.000000   0.000109   0.015034  -0.072650   0.452995
    16  C    0.000000   0.000000  -0.000087  -0.002530   0.014422  -0.071864
    17  C    0.000000   0.000000  -0.001920   0.017149  -0.001613   0.015705
    18  C    0.000000   0.000000  -0.000001   0.000001  -0.000002  -0.000001
    19  C    0.000000   0.000000   0.000000   0.000001   0.000000   0.000000
    20  H    0.000000   0.000000   0.000000   0.000000   0.000000   0.000000
    21  H    0.000000   0.000000   0.000000   0.000000   0.000000   0.000000
    22  H   -0.000001  -0.000010   0.000017   0.000002   0.000000   0.000000
    23  H   -0.000245   0.000025  -0.000163   0.000007   0.000000   0.000000
    24  H   -0.012300  -0.000314   0.000027  -0.000005   0.000000   0.000000
    25  H    0.673449  -0.012256  -0.000239   0.000001   0.000000   0.000000
    26  H   -0.012256   0.670631  -0.013614  -0.000007   0.000000   0.000000
    27  H   -0.000239  -0.013614   0.629719  -0.001193   0.000027  -0.000001
    28  H    0.000001  -0.000007  -0.001193   0.651100  -0.012466  -0.000244
    29  H    0.000000   0.000000   0.000027  -0.012466   0.671921  -0.012294
    30  H    0.000000   0.000000  -0.000001  -0.000244  -0.012294   0.673344
    31  H    0.000000   0.000000  -0.000010   0.000024  -0.000314  -0.012252
    32  H    0.000000   0.000000   0.000026  -0.000162   0.000027  -0.000240
    33  H    0.000000   0.000000   0.000002   0.000007  -0.000005   0.000001
    34  H    0.000000   0.000000   0.000000   0.000000   0.000000   0.000000
    35  Ag   0.000062   0.001105   0.004033   0.000301  -0.000078   0.000078
              31         32         33         34         35
     1  C    0.000000   0.000106   0.015026  -0.072650  -0.001338
     2  C    0.000000  -0.000086  -0.002525   0.014422   0.002450
     3  C    0.000000  -0.001916   0.017095  -0.001614  -0.002885
     4  C   -0.000037   0.006080  -0.066008   0.016017  -0.009609
     5  N   -0.000165  -0.015173  -0.016043  -0.000168   0.006464
     6  C    0.000012  -0.000098  -0.000352   0.000012  -0.009317
     7  C    0.000000   0.000000   0.000001  -0.000002  -0.006204
     8  C    0.000000   0.000000   0.000001   0.000000   0.000650
     9  C    0.000000   0.000000   0.000000   0.000000  -0.001338
    10  C    0.000000   0.000000   0.000000   0.000000   0.002492
    11  C   -0.000002   0.000075  -0.000008   0.000000  -0.003485
    12  C    0.016653  -0.068085   0.007125  -0.000035  -0.009629
    13  C   -0.001675   0.015061  -0.000975   0.000001  -0.006482
    14  C    0.014473  -0.002345   0.000051   0.000000   0.000711
    15  C   -0.073655   0.014575   0.000148   0.000000  -0.001456
    16  C    0.449881  -0.064328  -0.001073   0.000003   0.002594
    17  C   -0.067236   0.451946   0.001357   0.000051  -0.003964
    18  C    0.000053   0.003707   0.457675  -0.067660  -0.006362
    19  C    0.000000  -0.000615  -0.073149   0.449136   0.000666
    20  H    0.000000  -0.000001  -0.000245  -0.012297   0.000070
    21  H    0.000000  -0.000010   0.000025  -0.000314   0.001100
    22  H    0.000000   0.000023  -0.000164   0.000027   0.003637
    23  H    0.000000   0.000002   0.000007  -0.000005   0.000286
    24  H    0.000000   0.000000   0.000000   0.000000  -0.000075
    25  H    0.000000   0.000000   0.000000   0.000000   0.000062
    26  H    0.000000   0.000000   0.000000   0.000000   0.001105
    27  H   -0.000010   0.000026   0.000002   0.000000   0.004033
    28  H    0.000024  -0.000162   0.000007   0.000000   0.000301
    29  H   -0.000314   0.000027  -0.000005   0.000000  -0.000078
    30  H   -0.012252  -0.000240   0.000001   0.000000   0.000078
    31  H    0.670302  -0.013624  -0.000008   0.000000   0.001204
    32  H   -0.013624   0.628424  -0.001193   0.000028   0.003876
    33  H   -0.000008  -0.001193   0.651246  -0.012471   0.000321
    34  H    0.000000   0.000028  -0.012471   0.672040  -0.000078
    35  Ag   0.001204   0.003876   0.000321  -0.000078  19.085473
          Atomic-Atomic Spin Densities.
               1          2          3          4          5          6
     1  C   -0.004928  -0.003417   0.001000  -0.000498  -0.000021   0.000013
     2  C   -0.003417   0.021681  -0.001511   0.001233   0.000043  -0.000087
     3  C    0.001000  -0.001511   0.001073   0.001117  -0.000377   0.000886
     4  C   -0.000498   0.001233   0.001117   0.014800  -0.000076   0.001141
     5  N   -0.000021   0.000043  -0.000377  -0.000076  -0.000925  -0.000049
     6  C    0.000013  -0.000087   0.000886   0.001141  -0.000049   0.014317
     7  C    0.000020  -0.000158   0.000779  -0.000107  -0.000513   0.001634
     8  C    0.000000   0.000012  -0.000085  -0.000013   0.000028  -0.000462
     9  C    0.000000   0.000000   0.000008   0.000003  -0.000022  -0.000527
    10  C    0.000000   0.000000  -0.000004  -0.000004   0.000044   0.001267
    11  C    0.000000  -0.000001   0.000054   0.000174  -0.000401   0.000931
    12  C    0.000002  -0.000004   0.000163   0.001157  -0.000064   0.001128
    13  C    0.000000  -0.000001   0.000013   0.000206  -0.000528  -0.000127
    14  C    0.000000   0.000000   0.000000  -0.000010   0.000028  -0.000012
    15  C    0.000000   0.000000   0.000000   0.000014  -0.000023   0.000003
    16  C    0.000000   0.000000  -0.000001  -0.000097   0.000048  -0.000004
    17  C    0.000008  -0.000005   0.000059   0.001036  -0.000420   0.000183
    18  C    0.000758  -0.000537   0.000854   0.001816  -0.000502   0.000189
    19  C    0.000311  -0.000464  -0.000247  -0.000505   0.000027  -0.000010
    20  H   -0.000152   0.000064  -0.000007   0.000007   0.000000   0.000000
    21  H   -0.000151   0.000426  -0.000255  -0.000002   0.000001  -0.000001
    22  H    0.000050  -0.000218   0.002241   0.000335  -0.000028   0.000036
    23  H   -0.000026   0.000126  -0.000175   0.000250   0.000107   0.000063
    24  H    0.000000   0.000000   0.000000   0.000000   0.000000  -0.000017
    25  H    0.000000   0.000000   0.000000   0.000000   0.000000   0.000008
    26  H    0.000000   0.000000   0.000000   0.000000   0.000001   0.000000
    27  H    0.000000   0.000000   0.000005   0.000031  -0.000026   0.000297
    28  H    0.000000   0.000000  -0.000002  -0.000016   0.000108   0.000253
    29  H    0.000000   0.000000   0.000000   0.000000   0.000000   0.000000
    30  H    0.000000   0.000000   0.000000   0.000000   0.000000   0.000000
    31  H    0.000000   0.000000   0.000000  -0.000002   0.000001   0.000000
    32  H    0.000007  -0.000002   0.000021   0.000068  -0.000028   0.000034
    33  H   -0.000059   0.000045  -0.000017   0.000047   0.000108  -0.000015
    34  H   -0.000043  -0.000009  -0.000006  -0.000017   0.000000   0.000000
    35  Ag  -0.000921  -0.000116  -0.014552  -0.015112   0.002809  -0.014129
               7          8          9         10         11         12
     1  C    0.000020   0.000000   0.000000   0.000000   0.000000   0.000002
     2  C   -0.000158   0.000012   0.000000   0.000000  -0.000001  -0.000004
     3  C    0.000779  -0.000085   0.000008  -0.000004   0.000054   0.000163
     4  C   -0.000107  -0.000013   0.000003  -0.000004   0.000174   0.001157
     5  N   -0.000513   0.000028  -0.000022   0.000044  -0.000401  -0.000064
     6  C    0.001634  -0.000462  -0.000527   0.001267   0.000931   0.001128
     7  C   -0.001883  -0.003121   0.000780  -0.000559   0.000873   0.000201
     8  C   -0.003121   0.017909   0.000260  -0.000436  -0.000239  -0.000010
     9  C    0.000780   0.000260  -0.004719  -0.003356   0.000995   0.000014
    10  C   -0.000559  -0.000436  -0.003356   0.021058  -0.001543  -0.000091
    11  C    0.000873  -0.000239   0.000995  -0.001543   0.001687   0.000968
    12  C    0.000201  -0.000010   0.000014  -0.000091   0.000968   0.015901
    13  C    0.000075   0.000003   0.000020  -0.000156   0.000834   0.001751
    14  C   -0.000002   0.000000  -0.000001   0.000012  -0.000093  -0.000522
    15  C    0.000000   0.000000   0.000000   0.000000   0.000008  -0.000584
    16  C   -0.000001   0.000000   0.000000   0.000000  -0.000005   0.001417
    17  C    0.000015   0.000000   0.000000  -0.000001   0.000066   0.001042
    18  C    0.000070  -0.000002   0.000000  -0.000001   0.000014  -0.000163
    19  C    0.000003   0.000000   0.000000   0.000000   0.000000  -0.000011
    20  H    0.000000   0.000000   0.000000   0.000000   0.000000   0.000000
    21  H   -0.000003   0.000000   0.000000   0.000000   0.000000   0.000000
    22  H    0.000289  -0.000025   0.000007  -0.000002   0.000017   0.000033
    23  H   -0.000899   0.000100  -0.000059   0.000044  -0.000019  -0.000016
    24  H   -0.000030   0.000281  -0.000041  -0.000009  -0.000005   0.000000
    25  H   -0.000013  -0.000035  -0.000162   0.000069  -0.000008   0.000000
    26  H   -0.000017   0.000006  -0.000163   0.000427  -0.000266  -0.000002
    27  H    0.000013  -0.000011   0.000048  -0.000202   0.002240   0.000034
    28  H   -0.000052  -0.000011  -0.000025   0.000122  -0.000186   0.000066
    29  H    0.000000   0.000000   0.000000   0.000000   0.000000  -0.000018
    30  H    0.000000   0.000000   0.000000   0.000000   0.000000   0.000009
    31  H    0.000000   0.000000   0.000000   0.000000   0.000000   0.000001
    32  H    0.000003   0.000000   0.000000   0.000000   0.000006   0.000312
    33  H   -0.000015   0.000000   0.000000   0.000000  -0.000002   0.000277
    34  H    0.000000   0.000000   0.000000   0.000000   0.000000   0.000000
    35  Ag  -0.004035   0.001040  -0.000908  -0.000071  -0.014721  -0.015062
              13         14         15         16         17         18
     1  C    0.000000   0.000000   0.000000   0.000000   0.000008   0.000758
     2  C   -0.000001   0.000000   0.000000   0.000000  -0.000005  -0.000537
     3  C    0.000013   0.000000   0.000000  -0.000001   0.000059   0.000854
     4  C    0.000206  -0.000010   0.000014  -0.000097   0.001036   0.001816
     5  N   -0.000528   0.000028  -0.000023   0.000048  -0.000420  -0.000502
     6  C   -0.000127  -0.000012   0.000003  -0.000004   0.000183   0.000189
     7  C    0.000075  -0.000002   0.000000  -0.000001   0.000015   0.000070
     8  C    0.000003   0.000000   0.000000   0.000000   0.000000  -0.000002
     9  C    0.000020  -0.000001   0.000000   0.000000   0.000000   0.000000
    10  C   -0.000156   0.000012   0.000000   0.000000  -0.000001  -0.000001
    11  C    0.000834  -0.000093   0.000008  -0.000005   0.000066   0.000014
    12  C    0.001751  -0.000522  -0.000584   0.001417   0.001042  -0.000163
    13  C   -0.002513  -0.003334   0.000841  -0.000619   0.001019   0.000074
    14  C   -0.003334   0.019712   0.000274  -0.000483  -0.000282   0.000003
    15  C    0.000841   0.000274  -0.005381  -0.003617   0.001129   0.000021
    16  C   -0.000619  -0.000483  -0.003617   0.023168  -0.001785  -0.000165
    17  C    0.001019  -0.000282   0.001129  -0.001785   0.002040   0.000871
    18  C    0.000074   0.000003   0.000021  -0.000165   0.000871  -0.002053
    19  C   -0.000002   0.000000  -0.000001   0.000012  -0.000095  -0.003177
    20  H    0.000000   0.000000   0.000000   0.000000   0.000000  -0.000012
    21  H    0.000000   0.000000   0.000000   0.000000   0.000000  -0.000016
    22  H    0.000003   0.000000   0.000000   0.000000   0.000006   0.000016
    23  H   -0.000015   0.000000   0.000000   0.000000  -0.000003  -0.000050
    24  H    0.000000   0.000000   0.000000   0.000000   0.000000   0.000000
    25  H    0.000000   0.000000   0.000000   0.000000   0.000000   0.000000
    26  H   -0.000003   0.000000   0.000000   0.000000   0.000000   0.000000
    27  H    0.000279  -0.000023   0.000007  -0.000002   0.000019   0.000002
    28  H   -0.000890   0.000098  -0.000059   0.000046  -0.000025  -0.000014
    29  H   -0.000035   0.000310  -0.000046  -0.000010  -0.000006   0.000000
    30  H   -0.000013  -0.000039  -0.000173   0.000071  -0.000008   0.000000
    31  H   -0.000019   0.000006  -0.000174   0.000465  -0.000292  -0.000003
    32  H    0.000025  -0.000013   0.000060  -0.000265   0.002608   0.000309
    33  H   -0.000054  -0.000012  -0.000027   0.000132  -0.000203  -0.000896
    34  H    0.000000   0.000000   0.000000   0.000000   0.000000  -0.000032
    35  Ag  -0.004275   0.001143  -0.001008  -0.000032  -0.016718  -0.004141
              19         20         21         22         23         24
     1  C    0.000311  -0.000152  -0.000151   0.000050  -0.000026   0.000000
     2  C   -0.000464   0.000064   0.000426  -0.000218   0.000126   0.000000
     3  C   -0.000247  -0.000007  -0.000255   0.002241  -0.000175   0.000000
     4  C   -0.000505   0.000007  -0.000002   0.000335   0.000250   0.000000
     5  N    0.000027   0.000000   0.000001  -0.000028   0.000107   0.000000
     6  C   -0.000010   0.000000  -0.000001   0.000036   0.000063  -0.000017
     7  C    0.000003   0.000000  -0.000003   0.000289  -0.000899  -0.000030
     8  C    0.000000   0.000000   0.000000  -0.000025   0.000100   0.000281
     9  C    0.000000   0.000000   0.000000   0.000007  -0.000059  -0.000041
    10  C    0.000000   0.000000   0.000000  -0.000002   0.000044  -0.000009
    11  C    0.000000   0.000000   0.000000   0.000017  -0.000019  -0.000005
    12  C   -0.000011   0.000000   0.000000   0.000033  -0.000016   0.000000
    13  C   -0.000002   0.000000   0.000000   0.000003  -0.000015   0.000000
    14  C    0.000000   0.000000   0.000000   0.000000   0.000000   0.000000
    15  C   -0.000001   0.000000   0.000000   0.000000   0.000000   0.000000
    16  C    0.000012   0.000000   0.000000   0.000000   0.000000   0.000000
    17  C   -0.000095   0.000000   0.000000   0.000006  -0.000003   0.000000
    18  C   -0.003177  -0.000012  -0.000016   0.000016  -0.000050   0.000000
    19  C    0.018337  -0.000038   0.000005  -0.000011  -0.000012   0.000000
    20  H   -0.000038   0.000429   0.000018   0.000000   0.000000   0.000000
    21  H    0.000005   0.000018  -0.000870  -0.000013   0.000002   0.000000
    22  H   -0.000011   0.000000  -0.000013  -0.000109  -0.000059   0.000000
    23  H   -0.000012   0.000000   0.000002  -0.000059   0.000659   0.000000
    24  H    0.000000   0.000000   0.000000   0.000000   0.000000  -0.000936
    25  H    0.000000   0.000000   0.000000   0.000000   0.000002   0.000007
    26  H    0.000000   0.000000   0.000000   0.000000   0.000000   0.000000
    27  H    0.000000   0.000000   0.000000   0.000005  -0.000002   0.000000
    28  H    0.000000   0.000000   0.000000   0.000000   0.000012   0.000000
    29  H    0.000000   0.000000   0.000000   0.000000   0.000000   0.000000
    30  H    0.000000   0.000000   0.000000   0.000000   0.000000   0.000000
    31  H    0.000000   0.000000   0.000000   0.000000   0.000000   0.000000
    32  H   -0.000030   0.000000   0.000000   0.000006  -0.000001   0.000000
    33  H    0.000097   0.000002   0.000000  -0.000002   0.000012   0.000000
    34  H    0.000290   0.000007   0.000000   0.000000   0.000000   0.000000
    35  Ag   0.001100   0.000043   0.000193  -0.003299   0.000550  -0.000006
              25         26         27         28         29         30
     1  C    0.000000   0.000000   0.000000   0.000000   0.000000   0.000000
     2  C    0.000000   0.000000   0.000000   0.000000   0.000000   0.000000
     3  C    0.000000   0.000000   0.000005  -0.000002   0.000000   0.000000
     4  C    0.000000   0.000000   0.000031  -0.000016   0.000000   0.000000
     5  N    0.000000   0.000001  -0.000026   0.000108   0.000000   0.000000
     6  C    0.000008   0.000000   0.000297   0.000253   0.000000   0.000000
     7  C   -0.000013  -0.000017   0.000013  -0.000052   0.000000   0.000000
     8  C   -0.000035   0.000006  -0.000011  -0.000011   0.000000   0.000000
     9  C   -0.000162  -0.000163   0.000048  -0.000025   0.000000   0.000000
    10  C    0.000069   0.000427  -0.000202   0.000122   0.000000   0.000000
    11  C   -0.000008  -0.000266   0.002240  -0.000186   0.000000   0.000000
    12  C    0.000000  -0.000002   0.000034   0.000066  -0.000018   0.000009
    13  C    0.000000  -0.000003   0.000279  -0.000890  -0.000035  -0.000013
    14  C    0.000000   0.000000  -0.000023   0.000098   0.000310  -0.000039
    15  C    0.000000   0.000000   0.000007  -0.000059  -0.000046  -0.000173
    16  C    0.000000   0.000000  -0.000002   0.000046  -0.000010   0.000071
    17  C    0.000000   0.000000   0.000019  -0.000025  -0.000006  -0.000008
    18  C    0.000000   0.000000   0.000002  -0.000014   0.000000   0.000000
    19  C    0.000000   0.000000   0.000000   0.000000   0.000000   0.000000
    20  H    0.000000   0.000000   0.000000   0.000000   0.000000   0.000000
    21  H    0.000000   0.000000   0.000000   0.000000   0.000000   0.000000
    22  H    0.000000   0.000000   0.000005   0.000000   0.000000   0.000000
    23  H    0.000002   0.000000  -0.000002   0.000012   0.000000   0.000000
    24  H    0.000007   0.000000   0.000000   0.000000   0.000000   0.000000
    25  H    0.000428   0.000019   0.000000   0.000000   0.000000   0.000000
    26  H    0.000019  -0.000828  -0.000015   0.000002   0.000000   0.000000
    27  H    0.000000  -0.000015  -0.000197  -0.000056   0.000000   0.000000
    28  H    0.000000   0.000002  -0.000056   0.000678   0.000001   0.000002
    29  H    0.000000   0.000000   0.000000   0.000001  -0.001032   0.000007
    30  H    0.000000   0.000000   0.000000   0.000002   0.000007   0.000473
    31  H    0.000000   0.000000   0.000000   0.000000   0.000000   0.000020
    32  H    0.000000   0.000000   0.000006  -0.000003   0.000000   0.000000
    33  H    0.000000   0.000000   0.000000   0.000012   0.000000   0.000000
    34  H    0.000000   0.000000   0.000000   0.000000   0.000000   0.000000
    35  Ag   0.000043   0.000204  -0.003162   0.000554  -0.000007   0.000047
              31         32         33         34         35
     1  C    0.000000   0.000007  -0.000059  -0.000043  -0.000921
     2  C    0.000000  -0.000002   0.000045  -0.000009  -0.000116
     3  C    0.000000   0.000021  -0.000017  -0.000006  -0.014552
     4  C   -0.000002   0.000068   0.000047  -0.000017  -0.015112
     5  N    0.000001  -0.000028   0.000108   0.000000   0.002809
     6  C    0.000000   0.000034  -0.000015   0.000000  -0.014129
     7  C    0.000000   0.000003  -0.000015   0.000000  -0.004035
     8  C    0.000000   0.000000   0.000000   0.000000   0.001040
     9  C    0.000000   0.000000   0.000000   0.000000  -0.000908
    10  C    0.000000   0.000000   0.000000   0.000000  -0.000071
    11  C    0.000000   0.000006  -0.000002   0.000000  -0.014721
    12  C    0.000001   0.000312   0.000277   0.000000  -0.015062
    13  C   -0.000019   0.000025  -0.000054   0.000000  -0.004275
    14  C    0.000006  -0.000013  -0.000012   0.000000   0.001143
    15  C   -0.000174   0.000060  -0.000027   0.000000  -0.001008
    16  C    0.000465  -0.000265   0.000132   0.000000  -0.000032
    17  C   -0.000292   0.002608  -0.000203   0.000000  -0.016718
    18  C   -0.000003   0.000309  -0.000896  -0.000032  -0.004141
    19  C    0.000000  -0.000030   0.000097   0.000290   0.001100
    20  H    0.000000   0.000000   0.000002   0.000007   0.000043
    21  H    0.000000   0.000000   0.000000   0.000000   0.000193
    22  H    0.000000   0.000006  -0.000002   0.000000  -0.003299
    23  H    0.000000  -0.000001   0.000012   0.000000   0.000550
    24  H    0.000000   0.000000   0.000000   0.000000  -0.000006
    25  H    0.000000   0.000000   0.000000   0.000000   0.000043
    26  H    0.000000   0.000000   0.000000   0.000000   0.000204
    27  H    0.000000   0.000006   0.000000   0.000000  -0.003162
    28  H    0.000000  -0.000003   0.000012   0.000000   0.000554
    29  H    0.000000   0.000000   0.000000   0.000000  -0.000007
    30  H    0.000020   0.000000   0.000000   0.000000   0.000047
    31  H   -0.000918  -0.000019   0.000002   0.000000   0.000228
    32  H   -0.000019  -0.000070  -0.000064   0.000000  -0.003792
    33  H    0.000002  -0.000064   0.000664   0.000000   0.000573
    34  H    0.000000   0.000000   0.000000  -0.000960  -0.000007
    35  Ag   0.000228  -0.003792   0.000573  -0.000007   1.063368
 Mulliken charges and spin densities:
               1          2
     1  C    0.000768  -0.008047
     2  C   -0.011492   0.017098
     3  C   -0.035650  -0.008966
     4  C    0.085532   0.006972
     5  N   -0.275052  -0.000650
     6  C    0.088019   0.006942
     7  C   -0.025881  -0.006654
     8  C   -0.015879   0.015189
     9  C    0.000606  -0.007849
    10  C   -0.011675   0.016607
    11  C   -0.036218  -0.008624
    12  C    0.085910   0.007928
    13  C   -0.025254  -0.007443
    14  C   -0.015900   0.016760
    15  C    0.000769  -0.008734
    16  C   -0.011003   0.018273
    17  C   -0.037517  -0.009740
    18  C   -0.025265  -0.006767
    19  C   -0.016022   0.015579
    20  H    0.013006   0.000361
    21  H    0.016263  -0.000667
    22  H    0.042906  -0.000724
    23  H    0.024124   0.000596
    24  H    0.015535  -0.000757
    25  H    0.012987   0.000358
    26  H    0.016175  -0.000634
    27  H    0.042579  -0.000710
    28  H    0.024230   0.000613
    29  H    0.015638  -0.000834
    30  H    0.013051   0.000396
    31  H    0.016377  -0.000701
    32  H    0.043920  -0.000821
    33  H    0.024129   0.000604
    34  H    0.015557  -0.000776
    35  Ag  -0.055274   0.955822
 Sum of Mulliken charges =   0.00000   1.00000
 Mulliken charges and spin densities with hydrogens summed into heavy atoms:
               1          2
     1  C    0.013774  -0.007686
     2  C    0.004770   0.016432
     3  C    0.007257  -0.009690
     4  C    0.085532   0.006972
     5  N   -0.275052  -0.000650
     6  C    0.088019   0.006942
     7  C   -0.001756  -0.006058
     8  C   -0.000344   0.014433
     9  C    0.013593  -0.007491
    10  C    0.004500   0.015973
    11  C    0.006361  -0.009335
    12  C    0.085910   0.007928
    13  C   -0.001024  -0.006830
    14  C   -0.000262   0.015926
    15  C    0.013820  -0.008338
    16  C    0.005374   0.017572
    17  C    0.006403  -0.010561
    18  C   -0.001136  -0.006164
    19  C   -0.000464   0.014803
    35  Ag  -0.055274   0.955822
 Electronic spatial extent (au):  <R**2>=           5501.9393
 Charge=              0.0000 electrons
 Dipole moment (field-independent basis, Debye):
    X=             -0.6403    Y=              1.0071    Z=              1.2460  Tot=              1.7254
 Quadrupole moment (field-independent basis, Debye-Ang):
   XX=           -123.0870   YY=           -126.8629   ZZ=           -130.4922
   XY=              4.0081   XZ=              5.0336   YZ=             -7.9749
 Traceless Quadrupole moment (field-independent basis, Debye-Ang):
   XX=              3.7270   YY=             -0.0488   ZZ=             -3.6782
   XY=              4.0081   XZ=              5.0336   YZ=             -7.9749
 Octapole moment (field-independent basis, Debye-Ang**2):
  XXX=            -59.2060  YYY=            110.6071  ZZZ=            141.0340  XYY=            -34.0240
  XXY=             31.2692  XXZ=             55.6234  XZZ=            -26.7006  YZZ=             50.1995
  YYZ=             47.4368  XYZ=             -1.0999
 Hexadecapole moment (field-independent basis, Debye-Ang**3):
 XXXX=          -2742.6645 YYYY=          -2458.5797 ZZZZ=          -2274.9500 XXXY=           -122.2558
 XXXZ=           -217.8453 YYYX=           -131.1404 YYYZ=            266.0896 ZZZX=           -119.8997
 ZZZY=            300.0494 XXYY=           -953.4082 XXZZ=           -864.1101 YYZZ=           -831.1581
 XXYZ=             94.4420 YYXZ=            -86.9551 ZZXY=            -92.3370
 N-N= 1.635721925655D+03 E-N=-5.321366666555D+03  KE= 7.972694698679D+02
                          Isotropic Fermi Contact Couplings
        Atom                 a.u.       MegaHertz       Gauss      10(-4) cm-1
     1  C(13)             -0.00142      -1.59442      -0.56893      -0.53184
     2  C(13)              0.00269       3.02855       1.08066       1.01022
     3  C(13)              0.01016      11.41624       4.07360       3.80805
     4  C(13)              0.00416       4.67575       1.66842       1.55966
     5  N(14)              0.00091       0.29313       0.10460       0.09778
     6  C(13)              0.00391       4.40021       1.57010       1.46775
     7  C(13)             -0.00107      -1.20758      -0.43089      -0.40280
     8  C(13)              0.00238       2.67317       0.95385       0.89167
     9  C(13)             -0.00137      -1.53566      -0.54796      -0.51224
    10  C(13)              0.00260       2.92606       1.04409       0.97603
    11  C(13)              0.01027      11.54599       4.11990       3.85133
    12  C(13)              0.00428       4.81359       1.71761       1.60564
    13  C(13)             -0.00123      -1.38211      -0.49317      -0.46102
    14  C(13)              0.00263       2.95981       1.05614       0.98729
    15  C(13)             -0.00153      -1.72144      -0.61425      -0.57421
    16  C(13)              0.00288       3.24197       1.15681       1.08140
    17  C(13)              0.01125      12.64285       4.51128       4.21720
    18  C(13)             -0.00111      -1.24266      -0.44341      -0.41451
    19  C(13)              0.00244       2.73774       0.97690       0.91321
    20  H(1)               0.00010       0.44803       0.15987       0.14945
    21  H(1)              -0.00023      -1.00944      -0.36019      -0.33671
    22  H(1)               0.00052       2.31231       0.82509       0.77130
    23  H(1)               0.00005       0.21740       0.07757       0.07252
    24  H(1)              -0.00021      -0.95866      -0.34207      -0.31977
    25  H(1)               0.00010       0.44524       0.15887       0.14852
    26  H(1)              -0.00022      -0.97199      -0.34683      -0.32422
    27  H(1)               0.00049       2.20477       0.78672       0.73543
    28  H(1)               0.00006       0.25253       0.09011       0.08423
    29  H(1)              -0.00024      -1.05642      -0.37696      -0.35238
    30  H(1)               0.00011       0.49185       0.17550       0.16406
    31  H(1)              -0.00024      -1.07349      -0.38305      -0.35808
    32  H(1)               0.00055       2.45297       0.87528       0.81822
    33  H(1)               0.00005       0.21765       0.07766       0.07260
    34  H(1)              -0.00022      -0.98269      -0.35065      -0.32779
    35  Ag(107             0.00033      -0.06055      -0.02160      -0.02020
 --------------------------------------------------------
       Center         ----  Spin Dipole Couplings  ----
                      3XX-RR        3YY-RR        3ZZ-RR
 --------------------------------------------------------
     1   Atom        0.003746      0.001512     -0.005258
     2   Atom       -0.007732     -0.007263      0.014995
     3   Atom        0.007813     -0.001923     -0.005890
     4   Atom       -0.005464     -0.007481      0.012945
     5   Atom       -0.002495      0.000063      0.002432
     6   Atom       -0.008163      0.008429     -0.000266
     7   Atom        0.000472     -0.004750      0.004278
     8   Atom       -0.007712      0.011526     -0.003814
     9   Atom        0.002044     -0.005218      0.003174
    10   Atom       -0.006830      0.013534     -0.006703
    11   Atom       -0.001009     -0.009837      0.010845
    12   Atom        0.005513     -0.001396     -0.004118
    13   Atom       -0.003907      0.004696     -0.000788
    14   Atom        0.008375     -0.004611     -0.003765
    15   Atom       -0.003880      0.004021     -0.000141
    16   Atom        0.008933     -0.007151     -0.001782
    17   Atom       -0.008427      0.012843     -0.004416
    18   Atom        0.003197      0.000327     -0.003524
    19   Atom       -0.005796     -0.007518      0.013314
    20   Atom        0.000542     -0.000304     -0.000238
    21   Atom       -0.001211      0.000706      0.000505
    22   Atom       -0.001205     -0.004583      0.005788
    23   Atom       -0.000917     -0.001111      0.002028
    24   Atom       -0.001408     -0.000399      0.001807
    25   Atom       -0.000009     -0.000586      0.000595
    26   Atom        0.001130     -0.000358     -0.000773
    27   Atom       -0.003380      0.002546      0.000833
    28   Atom       -0.001280      0.001637     -0.000357
    29   Atom       -0.000519      0.001790     -0.001271
    30   Atom       -0.000401      0.000912     -0.000511
    31   Atom        0.000458     -0.000411     -0.000046
    32   Atom        0.003255      0.002269     -0.005523
    33   Atom        0.001018     -0.000487     -0.000531
    34   Atom        0.001521     -0.001328     -0.000193
    35   Atom        0.003012     -0.000384     -0.002628
 --------------------------------------------------------
                        XY            XZ            YZ
 --------------------------------------------------------
     1   Atom        0.000000     -0.001512     -0.001915
     2   Atom        0.002036      0.001917      0.005575
     3   Atom       -0.001243     -0.008762     -0.002220
     4   Atom       -0.001240     -0.004370      0.004117
     5   Atom       -0.002529     -0.003190      0.005164
     6   Atom       -0.000432      0.000014      0.009257
     7   Atom        0.001301      0.000836      0.000151
     8   Atom       -0.001702      0.000108      0.005905
     9   Atom        0.001211      0.001127     -0.001871
    10   Atom       -0.003902      0.000445      0.006359
    11   Atom        0.003190      0.003703      0.001968
    12   Atom       -0.008085     -0.008081      0.005331
    13   Atom       -0.000227      0.002773      0.000551
    14   Atom       -0.004988     -0.009252      0.002916
    15   Atom        0.001416      0.003768     -0.001099
    16   Atom       -0.005225     -0.011813      0.001535
    17   Atom       -0.002320      0.004705      0.001429
    18   Atom       -0.000828     -0.003158     -0.001037
    19   Atom        0.000055      0.000475      0.003860
    20   Atom        0.000187     -0.000715     -0.000372
    21   Atom        0.000467     -0.001105     -0.001397
    22   Atom        0.000149     -0.003955     -0.002517
    23   Atom       -0.000157     -0.000222      0.000625
    24   Atom       -0.000040      0.000353      0.000017
    25   Atom        0.000375      0.000588      0.000228
    26   Atom        0.001510      0.000418      0.000942
    27   Atom        0.003963      0.002782      0.004385
    28   Atom       -0.000163     -0.000088      0.001180
    29   Atom        0.000260     -0.000336      0.000676
    30   Atom       -0.000395      0.000335     -0.000165
    31   Atom       -0.001624      0.001305     -0.000395
    32   Atom       -0.005481     -0.000306      0.000855
    33   Atom       -0.000909     -0.001264      0.000674
    34   Atom       -0.000643     -0.000633      0.000262
    35   Atom        0.003670      0.004006     -0.005979
 --------------------------------------------------------


 ---------------------------------------------------------------------------------
              Anisotropic Spin Dipole Couplings in Principal Axis System
 ---------------------------------------------------------------------------------

       Atom             a.u.   MegaHertz   Gauss  10(-4) cm-1        Axes

              Baa    -0.0060    -0.803    -0.286    -0.268  0.1489  0.2448  0.9581
     1 C(13)  Bbb     0.0019     0.261     0.093     0.087 -0.1819  0.9591 -0.2168
              Bcc     0.0040     0.542     0.193     0.181  0.9720  0.1420 -0.1874
 
              Baa    -0.0098    -1.320    -0.471    -0.440 -0.6299  0.7668 -0.1235
     2 C(13)  Bbb    -0.0067    -0.900    -0.321    -0.300  0.7707  0.5974 -0.2216
              Bcc     0.0165     2.219     0.792     0.740  0.0961  0.2348  0.9673
 
              Baa    -0.0109    -1.460    -0.521    -0.487  0.4231  0.2728  0.8640
     3 C(13)  Bbb    -0.0012    -0.162    -0.058    -0.054 -0.1101  0.9620 -0.2498
              Bcc     0.0121     1.622     0.579     0.541  0.8994 -0.0105 -0.4371
 
              Baa    -0.0084    -1.121    -0.400    -0.374  0.1921  0.9701 -0.1481
     4 C(13)  Bbb    -0.0064    -0.859    -0.307    -0.287  0.9567 -0.1516  0.2483
              Bcc     0.0148     1.980     0.707     0.661 -0.2185  0.1894  0.9573
 
              Baa    -0.0041    -0.157    -0.056    -0.052  0.7738 -0.2527  0.5809
     5 N(14)  Bbb    -0.0040    -0.156    -0.056    -0.052  0.5223  0.7733 -0.3593
              Bcc     0.0081     0.313     0.112     0.104 -0.3584  0.5814  0.7304
 
              Baa    -0.0082    -1.100    -0.393    -0.367  0.9929  0.0764 -0.0910
     6 C(13)  Bbb    -0.0061    -0.821    -0.293    -0.274  0.1178 -0.5307  0.8393
              Bcc     0.0143     1.921     0.685     0.641 -0.0159  0.8441  0.5359
 
              Baa    -0.0051    -0.678    -0.242    -0.226 -0.2297  0.9733  0.0048
     7 C(13)  Bbb     0.0006     0.078     0.028     0.026  0.9483  0.2249 -0.2238
              Bcc     0.0045     0.600     0.214     0.200  0.2189  0.0468  0.9746
 
              Baa    -0.0080    -1.076    -0.384    -0.359  0.9564  0.1576 -0.2458
     8 C(13)  Bbb    -0.0056    -0.756    -0.270    -0.252  0.2825 -0.2870  0.9153
              Bcc     0.0137     1.832     0.654     0.611 -0.0737  0.9449  0.3190
 
              Baa    -0.0059    -0.788    -0.281    -0.263 -0.1781  0.9590  0.2205
     9 C(13)  Bbb     0.0019     0.253     0.090     0.084  0.8806  0.2553 -0.3993
              Bcc     0.0040     0.535     0.191     0.179  0.4392 -0.1231  0.8899
 
              Baa    -0.0096    -1.284    -0.458    -0.428 -0.5621 -0.3064  0.7682
    10 C(13)  Bbb    -0.0064    -0.856    -0.306    -0.286  0.8119 -0.0271  0.5832
              Bcc     0.0159     2.140     0.764     0.714 -0.1579  0.9515  0.2640
 
              Baa    -0.0109    -1.462    -0.522    -0.488 -0.2945  0.9550 -0.0363
    11 C(13)  Bbb    -0.0014    -0.183    -0.065    -0.061  0.9090  0.2683 -0.3189
              Bcc     0.0123     1.645     0.587     0.549  0.2948  0.1269  0.9471
 
              Baa    -0.0089    -1.190    -0.425    -0.397  0.3685 -0.2416  0.8977
    12 C(13)  Bbb    -0.0067    -0.904    -0.322    -0.301  0.5504  0.8349 -0.0012
              Bcc     0.0156     2.094     0.747     0.698  0.7492 -0.4945 -0.4407
 
              Baa    -0.0056    -0.745    -0.266    -0.248  0.8610  0.0463 -0.5066
    13 C(13)  Bbb     0.0008     0.107     0.038     0.036  0.5086 -0.0914  0.8561
              Bcc     0.0048     0.638     0.227     0.213  0.0067  0.9947  0.1022
 
              Baa    -0.0088    -1.177    -0.420    -0.393  0.4568 -0.0737  0.8865
    14 C(13)  Bbb    -0.0063    -0.844    -0.301    -0.282  0.2834  0.9567 -0.0666
              Bcc     0.0151     2.022     0.721     0.674  0.8432 -0.2816 -0.4579
 
              Baa    -0.0065    -0.875    -0.312    -0.292  0.8360 -0.1668 -0.5227
    15 C(13)  Bbb     0.0022     0.293     0.104     0.098  0.5403  0.0843  0.8373
              Bcc     0.0043     0.582     0.208     0.194  0.0956  0.9824 -0.1606
 
              Baa    -0.0104    -1.401    -0.500    -0.467  0.5367  0.5573  0.6336
    16 C(13)  Bbb    -0.0072    -0.968    -0.345    -0.323 -0.1588  0.8042 -0.5728
              Bcc     0.0177     2.369     0.845     0.790  0.8287 -0.2068 -0.5201
 
              Baa    -0.0118    -1.588    -0.567    -0.530  0.8298  0.1097 -0.5472
    17 C(13)  Bbb    -0.0013    -0.175    -0.063    -0.059  0.5500  0.0058  0.8351
              Bcc     0.0131     1.764     0.629     0.588 -0.0948  0.9939  0.0555
 
              Baa    -0.0051    -0.681    -0.243    -0.227  0.3672  0.2294  0.9014
    18 C(13)  Bbb     0.0006     0.079     0.028     0.026  0.0061  0.9685 -0.2490
              Bcc     0.0045     0.602     0.215     0.201  0.9301 -0.0970 -0.3542
 
              Baa    -0.0082    -1.102    -0.393    -0.367  0.0124  0.9842 -0.1768
    19 C(13)  Bbb    -0.0058    -0.779    -0.278    -0.260  0.9996 -0.0165 -0.0215
              Bcc     0.0140     1.881     0.671     0.627  0.0241  0.1764  0.9840
 
              Baa    -0.0008    -0.419    -0.149    -0.140  0.3638  0.4771  0.8000
    20 H(1)   Bbb    -0.0003    -0.146    -0.052    -0.049 -0.4521  0.8414 -0.2961
              Bcc     0.0011     0.565     0.202     0.188  0.8144  0.2539 -0.5218
 
              Baa    -0.0018    -0.946    -0.338    -0.316  0.8655  0.1121  0.4882
    21 H(1)   Bbb    -0.0006    -0.307    -0.110    -0.103 -0.4016  0.7377  0.5426
              Bcc     0.0024     1.254     0.447     0.418 -0.2994 -0.6657  0.6835
 
              Baa    -0.0054    -2.856    -1.019    -0.953  0.2499  0.9216  0.2970
    22 H(1)   Bbb    -0.0027    -1.419    -0.506    -0.473  0.8863 -0.3412  0.3132
              Bcc     0.0080     4.276     1.526     1.426 -0.3900 -0.1849  0.9021
 
              Baa    -0.0013    -0.677    -0.242    -0.226  0.3187  0.9350 -0.1557
    23 H(1)   Bbb    -0.0009    -0.480    -0.171    -0.160  0.9445 -0.2994  0.1354
              Bcc     0.0022     1.157     0.413     0.386 -0.0800  0.1902  0.9785
 
              Baa    -0.0014    -0.773    -0.276    -0.258  0.9934  0.0399 -0.1078
    24 H(1)   Bbb    -0.0004    -0.212    -0.076    -0.071 -0.0402  0.9992 -0.0012
              Bcc     0.0018     0.985     0.351     0.328  0.1077  0.0055  0.9942
 
              Baa    -0.0008    -0.413    -0.147    -0.138 -0.4750  0.8781  0.0580
    25 H(1)   Bbb    -0.0003    -0.146    -0.052    -0.049  0.6988  0.4165 -0.5816
              Bcc     0.0010     0.559     0.200     0.187  0.5348  0.2357  0.8114
 
              Baa    -0.0017    -0.925    -0.330    -0.308 -0.3046  0.7428 -0.5962
    26 H(1)   Bbb    -0.0006    -0.309    -0.110    -0.103 -0.5282  0.3891  0.7547
              Bcc     0.0023     1.234     0.440     0.412  0.7926  0.5448  0.2738
 
              Baa    -0.0054    -2.903    -1.036    -0.968  0.9156 -0.3754 -0.1437
    27 H(1)   Bbb    -0.0027    -1.459    -0.521    -0.487 -0.1129 -0.5831  0.8045
              Bcc     0.0082     4.363     1.557     1.455  0.3858  0.7204  0.5763
 
              Baa    -0.0013    -0.688    -0.246    -0.230  0.9982  0.0359  0.0485
    28 H(1)   Bbb    -0.0009    -0.483    -0.172    -0.161 -0.0288 -0.4225  0.9059
              Bcc     0.0022     1.171     0.418     0.391 -0.0530  0.9057  0.4207
 
              Baa    -0.0016    -0.830    -0.296    -0.277  0.3484 -0.2116  0.9131
    29 H(1)   Bbb    -0.0004    -0.209    -0.074    -0.070  0.9342 -0.0008 -0.3566
              Bcc     0.0019     1.039     0.371     0.347  0.0762  0.9774  0.1974
 
              Baa    -0.0008    -0.431    -0.154    -0.144 -0.6837 -0.0875  0.7245
    30 H(1)   Bbb    -0.0003    -0.136    -0.049    -0.045  0.6690  0.3213  0.6702
              Bcc     0.0011     0.567     0.202     0.189 -0.2914  0.9429 -0.1611
 
              Baa    -0.0018    -0.978    -0.349    -0.326  0.6650  0.6657 -0.3386
    31 H(1)   Bbb    -0.0006    -0.297    -0.106    -0.099 -0.1479  0.5617  0.8140
              Bcc     0.0024     1.274     0.455     0.425  0.7321 -0.4912  0.4720
 
              Baa    -0.0056    -3.005    -1.072    -1.002 -0.0558 -0.1456  0.9878
    32 H(1)   Bbb    -0.0027    -1.430    -0.510    -0.477  0.6754  0.7231  0.1447
              Bcc     0.0083     4.435     1.582     1.479  0.7353 -0.6752 -0.0580
 
              Baa    -0.0013    -0.690    -0.246    -0.230  0.3423 -0.3450  0.8739
    33 H(1)   Bbb    -0.0009    -0.483    -0.172    -0.161  0.4981  0.8553  0.1425
              Bcc     0.0022     1.172     0.418     0.391  0.7967 -0.3865 -0.4647
 
              Baa    -0.0015    -0.789    -0.282    -0.263  0.1865  0.9766 -0.1074
    34 H(1)   Bbb    -0.0004    -0.213    -0.076    -0.071  0.3252  0.0418  0.9447
              Bcc     0.0019     1.002     0.358     0.334  0.9271 -0.2111 -0.3098
 
              Baa    -0.0099     0.214     0.076     0.071 -0.3882  0.5940  0.7046
    35 Ag(107 Bbb     0.0045    -0.098    -0.035    -0.033  0.2687 -0.6584  0.7030
              Bcc     0.0054    -0.117    -0.042    -0.039  0.8815  0.4623  0.0960
 

 ---------------------------------------------------------------------------------

 No NMR shielding tensors so no spin-rotation constants.
 Leave Link  601 at Sat Sep 12 01:49:34 2026, MaxMem=  6442450944 cpu:               3.0 elap:               3.1
 (Enter C:\G16W\l9999.exe)
 Unable to Open any file for archive entry.
 1|1|UNPC-DESKTOP-2JKEGCA|SP|UPBE1PBE|def2SVP|C18H15Ag1N1(2)|JHKIM|12-S
 ep-2026|0||#P PBE1PBE/Def2SVP EmpiricalDispersion=GD3BJ SP SCF=(XQC,Ma
 xCycle=128) NoSymm Guess=Read||TPA t=0.250 dz=+0.40 class=toface||0,2|
 C,0,-2.892235,-2.902243,0.856125|C,0,-1.550328,-3.244136,0.818755|C,0,
 -0.592488,-2.291023,0.532809|C,0,-0.966825,-0.970209,0.286154|N,0,0.00
 0025,-0.000036,-0.000047|C,0,1.237148,-0.031197,0.653023|C,0,1.319853,
 -0.403699,1.994633|C,0,2.543855,-0.43667,2.633678|C,0,3.700795,-0.0932
 31,1.953573|C,0,3.623838,0.281274,0.622097|C,0,2.405612,0.309797,-0.02
 8101|C,0,-0.270279,1.001344,-0.939259|C,0,0.196201,2.300966,-0.742039|
 C,0,-0.069933,3.284954,-1.674018|C,0,-0.808596,2.995527,-2.809628|C,0,
 -1.277645,1.707329,-3.008482|C,0,-1.010141,0.714471,-2.086353|C,0,-2.3
 18985,-0.630584,0.328955|C,0,-3.269818,-1.592708,0.608027|H,0,-3.63809
 9,-3.650671,1.076924|H,0,-1.24671,-4.263922,1.005046|H,0,0.45246,-2.56
 2347,0.494733|H,0,0.41802,-0.662633,2.530014|H,0,2.593126,-0.724322,3.
 673717|H,0,4.655158,-0.117258,2.457379|H,0,4.521246,0.545089,0.081807|
 H,0,2.349602,0.59285,-1.069124|H,0,0.76419,2.531619,0.147439|H,0,0.295
 028,4.28789,-1.507357|H,0,-1.017132,3.768032,-3.534168|H,0,-1.84946,1.
 470676,-3.893849|H,0,-1.368838,-0.291501,-2.248647|H,0,-2.615351,0.391
 898,0.145433|H,0,-4.313292,-1.315323,0.640753|Ag,0,1.041463,-1.6708953
 8,-2.12926113||Version=EM64W-G16RevC.01|HF=-895.2618755|S2=0.751873|S2
 -1=0.|S2A=0.750003|RMSD=4.164e-009|Dipole=-0.2519293,0.3962425,0.49022
 23|Quadrupole=2.7709262,-0.0363115,-2.7346146,2.979911,3.7423399,-5.92
 91736|PG=C01 [X(C18H15Ag1N1)]||@
 The archive entry for this job was punched.


 IT'S WHAT YOU LEARN AFTER YOU KNOW IT ALL
 THAT COUNTS.
 Job cpu time:       0 days  0 hours  6 minutes 41.0 seconds.
 Elapsed time:       0 days  0 hours  6 minutes 39.9 seconds.
 File lengths (MBytes):  RWF=    133 Int=      0 D2E=      0 Chk=     11 Scr=      1
 Normal termination of Gaussian 16 at Sat Sep 12 01:49:35 2026.
