 Entering Gaussian System, Link 0=C:\G16W\g16.exe
 Input=TPA_t3_z0.gjf
 Output=TPA_t3_z0.out
 Initial command:
 C:\G16W\l1.exe ".\Gau-71460.inp" "TPA_t3_z0.out" /scrdir=".\"
 Entering Link 1 = C:\G16W\l1.exe PID=    139128.
  
 Copyright (c) 1988-2019, Gaussian, Inc.  All Rights Reserved.
  
 This is part of the Gaussian(R) 16 program.  It is based on
 the Gaussian(R) 09 system (copyright 2009, Gaussian, Inc.),
 the Gaussian(R) 03 system (copyright 2003, Gaussian, Inc.),
 the Gaussian(R) 98 system (copyright 1998, Gaussian, Inc.),
 the Gaussian(R) 94 system (copyright 1995, Gaussian, Inc.),
 the Gaussian 92(TM) system (copyright 1992, Gaussian, Inc.),
 the Gaussian 90(TM) system (copyright 1990, Gaussian, Inc.),
 the Gaussian 88(TM) system (copyright 1988, Gaussian, Inc.),
 the Gaussian 86(TM) system (copyright 1986, Carnegie Mellon
 University), and the Gaussian 82(TM) system (copyright 1983,
 Carnegie Mellon University). Gaussian is a federally registered
 trademark of Gaussian, Inc.
  
 This software contains proprietary and confidential information,
 including trade secrets, belonging to Gaussian, Inc.
  
 This software is provided under written license and may be
 used, copied, transmitted, or stored only in accord with that
 written license.
  
 The following legend is applicable only to US Government
 contracts under FAR:
  
                    RESTRICTED RIGHTS LEGEND
  
 Use, reproduction and disclosure by the US Government is
 subject to restrictions as set forth in subparagraphs (a)
 and (c) of the Commercial Computer Software - Restricted
 Rights clause in FAR 52.227-19.
  
 Gaussian, Inc.
 340 Quinnipiac St., Bldg. 40, Wallingford CT 06492
  
  
 ---------------------------------------------------------------
 Warning -- This program may not be used in any manner that
 competes with the business of Gaussian, Inc. or will provide
 assistance to any competitor of Gaussian, Inc.  The licensee
 of this program is prohibited from giving any competitor of
 Gaussian, Inc. access to this program.  By using this program,
 the user acknowledges that Gaussian, Inc. is engaged in the
 business of creating and licensing software in the field of
 computational chemistry and represents and warrants to the
 licensee that it is not a competitor of Gaussian, Inc. and that
 it will not use this program in any manner prohibited above.
 ---------------------------------------------------------------
  

 Cite this work as:
 Gaussian 16, Revision C.01,
 M. J. Frisch, G. W. Trucks, H. B. Schlegel, G. E. Scuseria, 
 M. A. Robb, J. R. Cheeseman, G. Scalmani, V. Barone, 
 G. A. Petersson, H. Nakatsuji, X. Li, M. Caricato, A. V. Marenich, 
 J. Bloino, B. G. Janesko, R. Gomperts, B. Mennucci, H. P. Hratchian, 
 J. V. Ortiz, A. F. Izmaylov, J. L. Sonnenberg, D. Williams-Young, 
 F. Ding, F. Lipparini, F. Egidi, J. Goings, B. Peng, A. Petrone, 
 T. Henderson, D. Ranasinghe, V. G. Zakrzewski, J. Gao, N. Rega, 
 G. Zheng, W. Liang, M. Hada, M. Ehara, K. Toyota, R. Fukuda, 
 J. Hasegawa, M. Ishida, T. Nakajima, Y. Honda, O. Kitao, H. Nakai, 
 T. Vreven, K. Throssell, J. A. Montgomery, Jr., J. E. Peralta, 
 F. Ogliaro, M. J. Bearpark, J. J. Heyd, E. N. Brothers, K. N. Kudin, 
 V. N. Staroverov, T. A. Keith, R. Kobayashi, J. Normand, 
 K. Raghavachari, A. P. Rendell, J. C. Burant, S. S. Iyengar, 
 J. Tomasi, M. Cossi, J. M. Millam, M. Klene, C. Adamo, R. Cammi, 
 J. W. Ochterski, R. L. Martin, K. Morokuma, O. Farkas, 
 J. B. Foresman, and D. J. Fox, Gaussian, Inc., Wallingford CT, 2019.
 
 ******************************************
 Gaussian 16:  EM64W-G16RevC.01 30-May-2019
                12-Sep-2026 
 ******************************************
 %Chk=TPA.chk
 %NProcShared=8
 Will use up to    8 processors via shared memory.
 %Mem=48GB
 ----------------------------------------------------------------------
 #P PBE1PBE/Def2SVP EmpiricalDispersion=GD3BJ SP SCF=(XQC,MaxCycle=128)
  NoSymm Guess=Read
 ----------------------------------------------------------------------
 1/38=1,172=1/1;
 2/12=2,15=1,17=6,18=5,40=1/2;
 3/5=43,7=101,11=2,25=1,30=1,74=-13,116=-2,124=41/1,2,3;
 4/5=1/1;
 5/5=2,7=128,8=3,13=1,38=6/2,8;
 6/7=2,8=2,9=2,10=2,28=1/1;
 99/5=1,9=1/99;
 Leave Link    1 at Sat Sep 12 02:02:26 2026, MaxMem=  6442450944 cpu:               0.0 elap:               0.2
 (Enter C:\G16W\l101.exe)
 ---------------------------------
 TPA t=0.750 dz=+0.00 class=toface
 ---------------------------------
 Symbolic Z-matrix:
 Charge =  0 Multiplicity = 2
 C                    -2.89224  -2.90224   0.85613 
 C                    -1.55033  -3.24414   0.81876 
 C                    -0.59249  -2.29102   0.53281 
 C                    -0.96683  -0.97021   0.28615 
 N                     0.00003  -0.00004  -0.00005 
 C                     1.23715  -0.0312    0.65302 
 C                     1.31985  -0.4037    1.99463 
 C                     2.54386  -0.43667   2.63368 
 C                     3.7008   -0.09323   1.95357 
 C                     3.62384   0.28127   0.6221 
 C                     2.40561   0.3098   -0.0281 
 C                    -0.27028   1.00134  -0.93926 
 C                     0.1962    2.30097  -0.74204 
 C                    -0.06993   3.28495  -1.67402 
 C                    -0.8086    2.99553  -2.80963 
 C                    -1.27765   1.70733  -3.00848 
 C                    -1.01014   0.71447  -2.08635 
 C                    -2.31899  -0.63058   0.32896 
 C                    -3.26982  -1.59271   0.60803 
 H                    -3.6381   -3.65067   1.07692 
 H                    -1.24671  -4.26392   1.00505 
 H                     0.45246  -2.56235   0.49473 
 H                     0.41802  -0.66263   2.53001 
 H                     2.59313  -0.72432   3.67372 
 H                     4.65516  -0.11726   2.45738 
 H                     4.52125   0.54509   0.08181 
 H                     2.3496    0.59285  -1.06912 
 H                     0.76419   2.53162   0.14744 
 H                     0.29503   4.28789  -1.50736 
 H                    -1.01713   3.76803  -3.53417 
 H                    -1.84946   1.47068  -3.89385 
 H                    -1.36884  -0.2915   -2.24865 
 H                    -2.61535   0.3919    0.14543 
 H                    -4.31329  -1.31532   0.64075 
 Ag                    0.85092  -1.41459  -1.87749 
 
 ITRead=  0  0  0  0  0  0  0  0  0  0  0  0  0  0  0  0  0  0  0  0
 ITRead=  0  0  0  0  0  0  0  0  0  0  0  0  0  0  0
 MicOpt= -1 -1 -1 -1 -1 -1 -1 -1 -1 -1 -1 -1 -1 -1 -1 -1 -1 -1 -1 -1
 MicOpt= -1 -1 -1 -1 -1 -1 -1 -1 -1 -1 -1 -1 -1 -1 -1
 NAtoms=     35 NQM=       35 NQMF=       0 NMMI=      0 NMMIF=      0
                NMic=       0 NMicF=      0.
                    Isotopes and Nuclear Properties:
 (Nuclear quadrupole moments (NQMom) in fm**2, nuclear magnetic moments (NMagM)
  in nuclear magnetons)

  Atom         1           2           3           4           5           6           7           8           9          10
 IAtWgt=          12          12          12          12          14          12          12          12          12          12
 AtmWgt=  12.0000000  12.0000000  12.0000000  12.0000000  14.0030740  12.0000000  12.0000000  12.0000000  12.0000000  12.0000000
 NucSpn=           0           0           0           0           2           0           0           0           0           0
 AtZEff=   0.0000000   0.0000000   0.0000000   0.0000000   0.0000000   0.0000000   0.0000000   0.0000000   0.0000000   0.0000000
 NQMom=    0.0000000   0.0000000   0.0000000   0.0000000   2.0440000   0.0000000   0.0000000   0.0000000   0.0000000   0.0000000
 NMagM=    0.0000000   0.0000000   0.0000000   0.0000000   0.4037610   0.0000000   0.0000000   0.0000000   0.0000000   0.0000000
 AtZNuc=   6.0000000   6.0000000   6.0000000   6.0000000   7.0000000   6.0000000   6.0000000   6.0000000   6.0000000   6.0000000

  Atom        11          12          13          14          15          16          17          18          19          20
 IAtWgt=          12          12          12          12          12          12          12          12          12           1
 AtmWgt=  12.0000000  12.0000000  12.0000000  12.0000000  12.0000000  12.0000000  12.0000000  12.0000000  12.0000000   1.0078250
 NucSpn=           0           0           0           0           0           0           0           0           0           1
 AtZEff=   0.0000000   0.0000000   0.0000000   0.0000000   0.0000000   0.0000000   0.0000000   0.0000000   0.0000000   0.0000000
 NQMom=    0.0000000   0.0000000   0.0000000   0.0000000   0.0000000   0.0000000   0.0000000   0.0000000   0.0000000   0.0000000
 NMagM=    0.0000000   0.0000000   0.0000000   0.0000000   0.0000000   0.0000000   0.0000000   0.0000000   0.0000000   2.7928460
 AtZNuc=   6.0000000   6.0000000   6.0000000   6.0000000   6.0000000   6.0000000   6.0000000   6.0000000   6.0000000   1.0000000

  Atom        21          22          23          24          25          26          27          28          29          30
 IAtWgt=           1           1           1           1           1           1           1           1           1           1
 AtmWgt=   1.0078250   1.0078250   1.0078250   1.0078250   1.0078250   1.0078250   1.0078250   1.0078250   1.0078250   1.0078250
 NucSpn=           1           1           1           1           1           1           1           1           1           1
 AtZEff=   0.0000000   0.0000000   0.0000000   0.0000000   0.0000000   0.0000000   0.0000000   0.0000000   0.0000000   0.0000000
 NQMom=    0.0000000   0.0000000   0.0000000   0.0000000   0.0000000   0.0000000   0.0000000   0.0000000   0.0000000   0.0000000
 NMagM=    2.7928460   2.7928460   2.7928460   2.7928460   2.7928460   2.7928460   2.7928460   2.7928460   2.7928460   2.7928460
 AtZNuc=   1.0000000   1.0000000   1.0000000   1.0000000   1.0000000   1.0000000   1.0000000   1.0000000   1.0000000   1.0000000

  Atom        31          32          33          34          35
 IAtWgt=           1           1           1           1         107
 AtmWgt=   1.0078250   1.0078250   1.0078250   1.0078250 106.9050900
 NucSpn=           1           1           1           1           1
 AtZEff=   0.0000000   0.0000000   0.0000000   0.0000000   0.0000000
 NQMom=    0.0000000   0.0000000   0.0000000   0.0000000   0.0000000
 NMagM=    2.7928460   2.7928460   2.7928460   2.7928460  -0.1135700
 AtZNuc=   1.0000000   1.0000000   1.0000000   1.0000000  47.0000000
 Leave Link  101 at Sat Sep 12 02:02:26 2026, MaxMem=  6442450944 cpu:               0.0 elap:               0.5
 (Enter C:\G16W\l202.exe)
                          Input orientation:                          
 ---------------------------------------------------------------------
 Center     Atomic      Atomic             Coordinates (Angstroms)
 Number     Number       Type             X           Y           Z
 ---------------------------------------------------------------------
      1          6           0       -2.892235   -2.902243    0.856125
      2          6           0       -1.550328   -3.244136    0.818755
      3          6           0       -0.592488   -2.291023    0.532809
      4          6           0       -0.966825   -0.970209    0.286154
      5          7           0        0.000025   -0.000036   -0.000047
      6          6           0        1.237148   -0.031197    0.653023
      7          6           0        1.319853   -0.403699    1.994633
      8          6           0        2.543855   -0.436670    2.633678
      9          6           0        3.700795   -0.093231    1.953573
     10          6           0        3.623838    0.281274    0.622097
     11          6           0        2.405612    0.309797   -0.028101
     12          6           0       -0.270279    1.001344   -0.939259
     13          6           0        0.196201    2.300966   -0.742039
     14          6           0       -0.069933    3.284954   -1.674018
     15          6           0       -0.808596    2.995527   -2.809628
     16          6           0       -1.277645    1.707329   -3.008482
     17          6           0       -1.010141    0.714471   -2.086353
     18          6           0       -2.318985   -0.630584    0.328955
     19          6           0       -3.269818   -1.592708    0.608027
     20          1           0       -3.638099   -3.650671    1.076924
     21          1           0       -1.246710   -4.263922    1.005046
     22          1           0        0.452460   -2.562347    0.494733
     23          1           0        0.418020   -0.662633    2.530014
     24          1           0        2.593126   -0.724322    3.673717
     25          1           0        4.655158   -0.117258    2.457379
     26          1           0        4.521246    0.545089    0.081807
     27          1           0        2.349602    0.592850   -1.069124
     28          1           0        0.764190    2.531619    0.147439
     29          1           0        0.295028    4.287890   -1.507357
     30          1           0       -1.017132    3.768032   -3.534168
     31          1           0       -1.849460    1.470676   -3.893849
     32          1           0       -1.368838   -0.291501   -2.248647
     33          1           0       -2.615351    0.391898    0.145433
     34          1           0       -4.313292   -1.315323    0.640753
     35         47           0        0.850916   -1.414595   -1.877491
 ---------------------------------------------------------------------
                    Distance matrix (angstroms):
                    1          2          3          4          5
     1  C    0.000000
     2  C    1.385280   0.000000
     3  C    2.401449   1.381176   0.000000
     4  C    2.786544   2.407256   1.394818   0.000000
     5  N    4.185810   3.687576   2.425619   1.399266   0.000000
     6  C    5.033484   4.256814   2.910126   2.423599   1.399266
     7  C    5.027982   4.205795   3.058753   2.910108   2.425621
     8  C    6.228147   5.285655   4.205820   4.256807   3.687577
     9  C    7.250033   6.228186   5.028035   5.033493   4.185811
    10  C    7.255946   6.264119   4.939847   4.770037   3.687576
    11  C    6.258294   5.384892   4.008427   3.620843   2.425620
    12  C    5.033493   4.770036   3.620840   2.423600   1.399266
    13  C    6.258270   6.019518   4.830490   3.620828   2.425623
    14  C    7.255923   7.143844   6.019524   4.770021   3.687578
    15  C    7.250034   7.255944   6.258290   5.033484   4.185811
    16  C    6.228181   6.264112   5.384886   4.256812   3.687576
    17  C    5.028029   4.939840   4.008421   2.910122   2.425619
    18  C    2.401449   2.767922   2.404040   1.394817   2.425622
    19  C    1.385281   2.393380   2.767923   2.407257   3.687578
    20  H    1.079449   2.142594   3.379416   3.865993   5.265259
    21  H    2.141051   1.080209   2.131512   3.382852   4.554699
    22  H    3.381289   2.140324   1.080270   2.143077   2.648574
    23  H    4.333076   3.669736   2.767961   2.654676   2.648578
    24  H    6.539981   5.627476   4.740041   4.920294   4.554701
    25  H    8.202640   7.139363   5.997250   6.086743   5.265258
    26  H    8.212391   7.194813   5.864913   5.697088   4.554701
    27  H    6.587800   5.787573   4.420272   3.908788   2.648575
    28  H    6.587757   6.258355   5.024635   3.908766   2.648580
    29  H    8.212351   8.096144   6.944930   5.697066   4.554703
    30  H    8.202637   8.270595   7.309772   6.086733   5.265259
    31  H    6.540035   6.672898   5.943539   4.920304   4.554699
    32  H    4.333165   4.261449   3.512450   2.654708   2.648573
    33  H    3.381289   3.848166   3.382322   2.143076   2.648579
    34  H    2.141052   3.374311   3.848120   3.382852   4.554702
    35  Ag   4.867949   4.047584   2.942972   2.860598   2.499957
                    6          7          8          9         10
     6  C    0.000000
     7  C    1.394817   0.000000
     8  C    2.407257   1.381176   0.000000
     9  C    2.786545   2.401450   1.385281   0.000000
    10  C    2.407256   2.767922   2.393379   1.385281   0.000000
    11  C    1.394817   2.404039   2.767922   2.401450   1.381175
    12  C    2.423600   3.620827   4.770022   5.033488   4.256816
    13  C    2.910112   4.008389   4.939797   5.027990   4.205796
    14  C    4.256811   5.384855   6.264074   6.228157   5.285658
    15  C    5.033496   6.258271   7.255928   7.250043   6.228192
    16  C    4.770039   6.019518   7.143848   7.255954   6.264126
    17  C    3.620844   4.830489   6.019527   6.258299   5.384898
    18  C    3.620824   4.008379   5.384846   6.258265   6.019515
    19  C    4.770019   4.939787   6.264063   7.255920   7.143843
    20  H    6.086733   5.997191   7.139317   8.202637   8.270598
    21  H    4.920308   4.740026   5.627493   6.540044   6.672907
    22  H    2.654715   2.768001   3.669812   4.333178   4.261460
    23  H    2.143077   1.080270   2.140322   3.381289   3.848165
    24  H    3.382852   2.131513   1.080209   2.141052   3.374311
    25  H    3.865993   3.379414   2.142593   1.079447   2.142594
    26  H    3.382853   3.848119   3.374311   2.141051   1.080210
    27  H    2.143077   3.382322   3.848167   3.381291   2.140324
    28  H    2.654681   3.512404   4.261377   4.333083   3.669733
    29  H    4.920299   5.943501   6.672845   6.539993   5.627479
    30  H    6.086747   7.309752   8.270579   8.202651   7.139371
    31  H    5.697088   6.944930   8.096159   8.212398   7.194820
    32  H    3.908786   5.024647   6.258381   6.587803   5.787578
    33  H    3.908760   4.420220   5.787512   6.587748   6.258348
    34  H    5.697062   5.864842   7.194737   8.212344   8.096141
    35  Ag   2.909719   4.029287   4.916607   4.954277   4.100366
                   11         12         13         14         15
    11  C    0.000000
    12  C    2.910127   0.000000
    13  C    3.058751   1.394818   0.000000
    14  C    4.205820   2.407257   1.381175   0.000000
    15  C    5.028038   2.786545   2.401449   1.385280   0.000000
    16  C    4.939853   2.407257   2.767922   2.393379   1.385281
    17  C    4.008432   1.394818   2.404040   2.767922   2.401450
    18  C    4.830489   2.910112   4.008388   4.939795   5.027988
    19  C    6.019526   4.256810   5.384855   6.264071   6.228152
    20  H    7.309776   6.086744   7.309751   8.270573   8.202641
    21  H    5.943547   5.697084   6.944930   8.096154   8.212386
    22  H    3.512459   3.908782   5.024648   6.258379   6.587794
    23  H    3.382321   3.908763   4.420232   5.787523   6.587754
    24  H    3.848119   5.697066   5.864854   7.194751   8.212354
    25  H    3.379415   6.086736   5.997198   7.139326   8.202646
    26  H    2.131513   4.920311   4.740025   5.627496   6.540050
    27  H    1.080271   2.654714   2.767992   3.669805   4.333177
    28  H    2.767955   2.143077   1.080270   2.140323   3.381288
    29  H    4.740041   3.382853   2.131512   1.080210   2.141051
    30  H    5.997255   3.865993   3.379415   2.142594   1.079449
    31  H    5.864920   3.382852   3.848119   3.374310   2.141052
    32  H    4.420278   2.143077   3.382322   3.848166   3.381290
    33  H    5.024632   2.654683   3.512403   4.261376   4.333086
    34  H    6.944930   4.920299   5.943500   6.672841   6.539989
    35  Ag   2.968307   2.823848   3.939961   4.793237   4.803336
                   16         17         18         19         20
    16  C    0.000000
    17  C    1.381176   0.000000
    18  C    4.205795   3.058751   0.000000
    19  C    5.285654   4.205817   1.381176   0.000000
    20  H    7.139359   5.997245   3.379415   2.142594   0.000000
    21  H    7.194804   5.864905   3.848119   3.374311   2.469815
    22  H    5.787565   4.420265   3.382321   3.848167   4.272712
    23  H    6.258349   5.024630   3.512390   4.261364   5.243276
    24  H    8.096146   6.944931   5.943488   6.672830   7.357650
    25  H    8.270605   7.309780   7.309744   8.270568   9.119692
    26  H    6.672917   5.943555   6.944930   8.096157   9.228736
    27  H    4.261466   3.512466   5.024651   6.258385   7.646277
    28  H    3.848166   3.382322   4.420231   5.787524   7.646228
    29  H    3.374311   3.848120   5.864852   7.194749   9.228692
    30  H    2.142594   3.379416   5.997196   7.139321   9.119693
    31  H    1.080209   2.131512   4.740023   5.627488   7.357718
    32  H    2.140324   1.080270   2.767994   3.669803   5.243376
    33  H    3.669741   2.767963   1.080270   2.140323   4.272710
    34  H    5.627477   4.740040   2.131513   1.080209   2.469814
    35  Ag   3.944150   2.835503   3.940983   4.815596   5.820641
                   21         22         23         24         25
    21  H    0.000000
    22  H    2.458242   0.000000
    23  H    4.250428   2.784325   0.000000
    24  H    5.864718   4.250497   2.458241   0.000000
    25  H    7.357727   5.243387   4.272710   2.469814   0.000000
    26  H    7.566259   5.136311   4.928364   4.269762   2.469813
    27  H    6.389356   4.000008   4.273294   4.928366   4.272712
    28  H    7.138528   5.115298   3.999968   5.136224   5.243282
    29  H    9.045585   7.138550   6.389301   7.566178   7.357662
    30  H    9.228730   7.646270   7.646225   9.228695   9.119703
    31  H    7.566247   6.389348   7.138521   9.045587   9.228742
    32  H    5.136298   4.000000   5.115291   7.138549   7.646278
    33  H    4.928364   4.273294   3.999950   6.389285   7.646217
    34  H    4.269762   4.928365   5.136207   7.566159   9.228683
    35  Ag   4.563739   2.665248   4.492098   5.858983   5.911551
                   26         27         28         29         30
    26  H    0.000000
    27  H    2.458243   0.000000
    28  H    4.250421   2.784310   0.000000
    29  H    5.864718   4.250487   2.458241   0.000000
    30  H    7.357735   5.243388   4.272711   2.469814   0.000000
    31  H    7.566270   5.136319   4.928364   4.269762   2.469815
    32  H    6.389365   4.000018   4.273294   4.928365   4.272712
    33  H    7.138525   5.115299   3.999963   5.136222   5.243286
    34  H    9.045585   7.138554   6.389299   7.566174   7.357658
    35  Ag   4.598971   2.632366   4.436267   5.741458   5.752721
                   31         32         33         34         35
    31  H    0.000000
    32  H    2.458242   0.000000
    33  H    4.250429   2.784322   0.000000
    34  H    5.864714   4.250489   2.458241   0.000000
    35  Ag   4.436498   2.515234   4.401209   5.746342   0.000000
 Symmetry turned off by external request.
 Stoichiometry    C18H15AgN(2)
 Framework group  C1[X(C18H15AgN)]
 Deg. of freedom    99
 Full point group                 C1      NOp   1
 Rotational constants (GHZ):           0.2991393           0.2988908           0.2234752
 Leave Link  202 at Sat Sep 12 02:02:27 2026, MaxMem=  6442450944 cpu:               0.0 elap:               0.1
 (Enter C:\G16W\l301.exe)
 Standard basis: def2SVP (5D, 7F)
 Ernie: Thresh=  0.10000D-02 Tol=  0.10000D-05 Strict=F.
   372 basis functions,   645 primitive gaussians,   396 cartesian basis functions
    75 alpha electrons       74 beta electrons
       nuclear repulsion energy      1662.8229028562 Hartrees.
 IExCor= 1009 DFT=T Ex+Corr=PBE1PBE ExCW=0 ScaHFX=  0.250000
 ScaDFX=  0.750000  0.750000  1.000000  1.000000 ScalE2=  1.000000  1.000000
 IRadAn=      5 IRanWt=     -1 IRanGd=            0 ICorTp=0 IEmpDi=141
 NAtoms=   35 NActive=   35 NUniq=   35 SFac= 1.00D+00 NAtFMM=   60 NAOKFM=F Big=F
 Integral buffers will be    131072 words long.
 Raffenetti 2 integral format.
 Two-electron integral symmetry is turned off.
 R6Disp:  Grimme-D3(BJ) Dispersion energy=       -0.0514346257 Hartrees.
 Nuclear repulsion after empirical dispersion term =     1662.7714682305 Hartrees.
 Leave Link  301 at Sat Sep 12 02:02:27 2026, MaxMem=  6442450944 cpu:               0.0 elap:               0.2
 (Enter C:\G16W\l302.exe)
 NPDir=0 NMtPBC=     1 NCelOv=     1 NCel=       1 NClECP=     1 NCelD=      1
         NCelK=      1 NCelE2=     1 NClLst=     1 CellRange=     0.0.
 One-electron integrals computed using PRISM.
   1 Symmetry operations used in ECPInt.
 ECPInt:  NShTT=   14535 NPrTT=   52310 LenC2=   13689 LenP2D=   35578.
 LDataN:  DoStor=T MaxTD1= 7 Len=  274
 NBasis=   372 RedAO= T EigKep=  2.35D-04  NBF=   372
 NBsUse=   372 1.00D-06 EigRej= -1.00D+00 NBFU=   372
 Precomputing XC quadrature grid using
 IXCGrd= 4 IRadAn=           5 IRanWt=          -1 IRanGd=           0 AccXCQ= 0.00D+00.
 Defaulting to unpruned grid for atomic number  47.
 Generated NRdTot=       0 NPtTot=           0 NUsed=           0 NTot=          32
 NSgBfM=   395   395   395   395   395 MxSgAt=    35 MxSgA2=    35.
 Leave Link  302 at Sat Sep 12 02:02:34 2026, MaxMem=  6442450944 cpu:               7.0 elap:               6.8
 (Enter C:\G16W\l303.exe)
 DipDrv:  MaxL=1.
 Leave Link  303 at Sat Sep 12 02:02:35 2026, MaxMem=  6442450944 cpu:               1.0 elap:               1.2
 (Enter C:\G16W\l401.exe)
 Initial guess from the checkpoint file:  "TPA.chk"
 B after Tr=    -0.078337    0.119140    0.141914
         Rot=    0.999998   -0.001161   -0.001332    0.000478 Ang=  -0.21 deg.
 Guess basis will be translated and rotated to current coordinates.
 JPrj=2 DoOrth=T DoCkMO=T.
 Initial guess <Sx>= 0.0000 <Sy>= 0.0000 <Sz>= 0.5000 <S**2>= 0.7518 S= 0.5009
 Leave Link  401 at Sat Sep 12 02:02:48 2026, MaxMem=  6442450944 cpu:              12.0 elap:              12.4
 (Enter C:\G16W\l502.exe)
 Two-electron integral symmetry not used.
 UHF open shell SCF:
 Using DIIS extrapolation, IDIIS=  1040.
 NGot=  6442450944 LenX=  6442130178 LenY=  6441972921
 Requested convergence on RMS density matrix=1.00D-08 within 128 cycles.
 Requested convergence on MAX density matrix=1.00D-06.
 Requested convergence on             energy=1.00D-06.
 No special actions if energy rises.
 Fock matrices will be formed incrementally for  20 cycles.

 Cycle   1  Pass 1  IDiag  1:
 FoFJK:  IHMeth= 1 ICntrl=       0 DoSepK=F KAlg= 0 I1Cent=           0 FoldK=F
 IRaf= 890000000 NMat=       1 IRICut=       1 DoRegI=T DoRafI=F ISym2E= 0 IDoP0=0 IntGTp=1.
 FoFCou: FMM=F IPFlag=           0 FMFlag=      100000 FMFlg1=           0
         NFxFlg=           0 DoJE=F BraDBF=F KetDBF=F FulRan=T
         wScrn=  0.000000 ICntrl=         0 IOpCl=  1 I1Cent=           0 NGrid=           0
         NMat0=    1 NMatS0=      1 NMatT0=    0 NMatD0=    1 NMtDS0=    0 NMtDT0=    0
 Symmetry not used in FoFCou.
 Defaulting to unpruned grid for atomic number  47.
 Defaulting to unpruned grid for atomic number  47.
 Defaulting to unpruned grid for atomic number  47.
 Defaulting to unpruned grid for atomic number  47.
 Defaulting to unpruned grid for atomic number  47.
 Defaulting to unpruned grid for atomic number  47.
 Defaulting to unpruned grid for atomic number  47.
 Defaulting to unpruned grid for atomic number  47.
 E= -895.242142350159    
 DIIS: error= 8.77D-03 at cycle   1 NSaved=   1.
 NSaved= 1 IEnMin= 1 EnMin= -895.242142350159     IErMin= 1 ErrMin= 8.77D-03
 ErrMax= 8.77D-03  0.00D+00 EMaxC= 1.00D-01 BMatC= 5.23D-02 BMatP= 5.23D-02
 IDIUse=3 WtCom= 9.12D-01 WtEn= 8.77D-02
 Coeff-Com:  0.100D+01
 Coeff-En:   0.100D+01
 Coeff:      0.100D+01
 Gap=     0.127 Goal=   None    Shift=    0.000
 Gap=     0.174 Goal=   None    Shift=    0.000
 GapD=    0.127 DampG=1.000 DampE=1.000 DampFc=1.0000 IDamp=-1.
 RMSDP=7.65D-04 MaxDP=4.23D-02              OVMax= 5.87D-02

 Cycle   2  Pass 1  IDiag  1:
 RMSU=  7.64D-04    CP:  9.99D-01
 E= -895.246324121199     Delta-E=       -0.004181771040 Rises=F Damp=F
 DIIS: error= 1.45D-03 at cycle   2 NSaved=   2.
 NSaved= 2 IEnMin= 2 EnMin= -895.246324121199     IErMin= 2 ErrMin= 1.45D-03
 ErrMax= 1.45D-03  0.00D+00 EMaxC= 1.00D-01 BMatC= 4.05D-03 BMatP= 5.23D-02
 IDIUse=3 WtCom= 9.85D-01 WtEn= 1.45D-02
 Coeff-Com:  0.999D-01 0.900D+00
 Coeff-En:   0.000D+00 0.100D+01
 Coeff:      0.985D-01 0.902D+00
 Gap=     0.124 Goal=   None    Shift=    0.000
 Gap=     0.136 Goal=   None    Shift=    0.000
 RMSDP=2.77D-04 MaxDP=9.77D-03 DE=-4.18D-03 OVMax= 2.13D-02

 Cycle   3  Pass 1  IDiag  1:
 RMSU=  2.56D-04    CP:  9.99D-01  8.61D-01
 E= -895.245173398855     Delta-E=        0.001150722343 Rises=F Damp=F
 DIIS: error= 3.01D-03 at cycle   3 NSaved=   3.
 NSaved= 3 IEnMin= 2 EnMin= -895.246324121199     IErMin= 2 ErrMin= 1.45D-03
 ErrMax= 3.01D-03  0.00D+00 EMaxC= 1.00D-01 BMatC= 8.57D-03 BMatP= 4.05D-03
 IDIUse=3 WtCom= 1.54D-01 WtEn= 8.46D-01
 Coeff-Com:  0.433D-02 0.595D+00 0.400D+00
 Coeff-En:   0.000D+00 0.659D+00 0.341D+00
 Coeff:      0.667D-03 0.650D+00 0.350D+00
 Gap=     0.123 Goal=   None    Shift=    0.000
 Gap=     0.140 Goal=   None    Shift=    0.000
 RMSDP=1.63D-04 MaxDP=4.45D-03 DE= 1.15D-03 OVMax= 1.50D-02

 Cycle   4  Pass 1  IDiag  1:
 RMSU=  6.54D-05    CP:  9.99D-01  9.62D-01  5.01D-01
 E= -895.247254566731     Delta-E=       -0.002081167876 Rises=F Damp=F
 DIIS: error= 3.99D-04 at cycle   4 NSaved=   4.
 NSaved= 4 IEnMin= 4 EnMin= -895.247254566731     IErMin= 4 ErrMin= 3.99D-04
 ErrMax= 3.99D-04  0.00D+00 EMaxC= 1.00D-01 BMatC= 3.12D-04 BMatP= 4.05D-03
 IDIUse=3 WtCom= 9.96D-01 WtEn= 3.99D-03
 Coeff-Com: -0.323D-02 0.323D+00 0.187D+00 0.493D+00
 Coeff-En:   0.000D+00 0.000D+00 0.000D+00 0.100D+01
 Coeff:     -0.322D-02 0.322D+00 0.186D+00 0.495D+00
 Gap=     0.121 Goal=   None    Shift=    0.000
 Gap=     0.140 Goal=   None    Shift=    0.000
 RMSDP=3.80D-05 MaxDP=6.85D-03 DE=-2.08D-03 OVMax= 3.57D-03

 Cycle   5  Pass 1  IDiag  1:
 RMSU=  2.85D-05    CP:  9.99D-01  9.85D-01  5.05D-01  7.36D-01
 E= -895.247324484593     Delta-E=       -0.000069917862 Rises=F Damp=F
 DIIS: error= 1.06D-04 at cycle   5 NSaved=   5.
 NSaved= 5 IEnMin= 5 EnMin= -895.247324484593     IErMin= 5 ErrMin= 1.06D-04
 ErrMax= 1.06D-04  0.00D+00 EMaxC= 1.00D-01 BMatC= 1.26D-05 BMatP= 3.12D-04
 IDIUse=3 WtCom= 9.99D-01 WtEn= 1.06D-03
 Coeff-Com: -0.175D-02 0.695D-01 0.328D-01 0.198D+00 0.702D+00
 Coeff-En:   0.000D+00 0.000D+00 0.000D+00 0.000D+00 0.100D+01
 Coeff:     -0.175D-02 0.694D-01 0.328D-01 0.197D+00 0.702D+00
 Gap=     0.121 Goal=   None    Shift=    0.000
 Gap=     0.140 Goal=   None    Shift=    0.000
 RMSDP=1.25D-05 MaxDP=1.01D-03 DE=-6.99D-05 OVMax= 1.24D-03

 Cycle   6  Pass 1  IDiag  1:
 RMSU=  9.52D-06    CP:  9.99D-01  9.93D-01  5.10D-01  8.21D-01  1.00D+00
 E= -895.247329525256     Delta-E=       -0.000005040662 Rises=F Damp=F
 DIIS: error= 3.63D-05 at cycle   6 NSaved=   6.
 NSaved= 6 IEnMin= 6 EnMin= -895.247329525256     IErMin= 6 ErrMin= 3.63D-05
 ErrMax= 3.63D-05  0.00D+00 EMaxC= 1.00D-01 BMatC= 1.72D-06 BMatP= 1.26D-05
 IDIUse=1 WtCom= 1.00D+00 WtEn= 0.00D+00
 Coeff-Com:  0.235D-03-0.538D-01-0.361D-01-0.391D-01 0.251D+00 0.878D+00
 Coeff:      0.235D-03-0.538D-01-0.361D-01-0.391D-01 0.251D+00 0.878D+00
 Gap=     0.121 Goal=   None    Shift=    0.000
 Gap=     0.140 Goal=   None    Shift=    0.000
 RMSDP=7.93D-06 MaxDP=8.51D-04 DE=-5.04D-06 OVMax= 1.15D-03

 Cycle   7  Pass 1  IDiag  1:
 RMSU=  3.74D-06    CP:  9.99D-01  9.95D-01  5.19D-01  8.88D-01  1.15D+00
                    CP:  1.15D+00
 E= -895.247330953170     Delta-E=       -0.000001427914 Rises=F Damp=F
 DIIS: error= 1.74D-05 at cycle   7 NSaved=   7.
 NSaved= 7 IEnMin= 7 EnMin= -895.247330953170     IErMin= 7 ErrMin= 1.74D-05
 ErrMax= 1.74D-05  0.00D+00 EMaxC= 1.00D-01 BMatC= 3.49D-07 BMatP= 1.72D-06
 IDIUse=1 WtCom= 1.00D+00 WtEn= 0.00D+00
 Coeff-Com:  0.219D-03-0.245D-01-0.153D-01-0.302D-01 0.488D-01 0.339D+00
 Coeff-Com:  0.682D+00
 Coeff:      0.219D-03-0.245D-01-0.153D-01-0.302D-01 0.488D-01 0.339D+00
 Coeff:      0.682D+00
 Gap=     0.121 Goal=   None    Shift=    0.000
 Gap=     0.140 Goal=   None    Shift=    0.000
 RMSDP=2.13D-06 MaxDP=2.00D-04 DE=-1.43D-06 OVMax= 2.57D-04

 Cycle   8  Pass 1  IDiag  1:
 RMSU=  1.60D-06    CP:  9.99D-01  9.95D-01  5.21D-01  8.97D-01  1.18D+00
                    CP:  1.23D+00  1.09D+00
 E= -895.247331186405     Delta-E=       -0.000000233235 Rises=F Damp=F
 DIIS: error= 1.20D-05 at cycle   8 NSaved=   8.
 NSaved= 8 IEnMin= 8 EnMin= -895.247331186405     IErMin= 8 ErrMin= 1.20D-05
 ErrMax= 1.20D-05  0.00D+00 EMaxC= 1.00D-01 BMatC= 1.70D-07 BMatP= 3.49D-07
 IDIUse=1 WtCom= 1.00D+00 WtEn= 0.00D+00
 Coeff-Com:  0.375D-04 0.595D-02 0.498D-02-0.535D-02-0.692D-01-0.152D+00
 Coeff-Com:  0.399D+00 0.816D+00
 Coeff:      0.375D-04 0.595D-02 0.498D-02-0.535D-02-0.692D-01-0.152D+00
 Coeff:      0.399D+00 0.816D+00
 Gap=     0.121 Goal=   None    Shift=    0.000
 Gap=     0.140 Goal=   None    Shift=    0.000
 RMSDP=1.87D-06 MaxDP=1.59D-04 DE=-2.33D-07 OVMax= 2.04D-04

 Cycle   9  Pass 1  IDiag  1:
 RMSU=  1.14D-06    CP:  9.99D-01  9.96D-01  5.22D-01  9.01D-01  1.20D+00
                    CP:  1.31D+00  1.37D+00  1.18D+00
 E= -895.247331359234     Delta-E=       -0.000000172829 Rises=F Damp=F
 DIIS: error= 6.25D-06 at cycle   9 NSaved=   9.
 NSaved= 9 IEnMin= 9 EnMin= -895.247331359234     IErMin= 9 ErrMin= 6.25D-06
 ErrMax= 6.25D-06  0.00D+00 EMaxC= 1.00D-01 BMatC= 4.43D-08 BMatP= 1.70D-07
 IDIUse=1 WtCom= 1.00D+00 WtEn= 0.00D+00
 Coeff-Com: -0.586D-04 0.109D-01 0.711D-02 0.966D-02-0.420D-01-0.171D+00
 Coeff-Com: -0.738D-01 0.311D+00 0.948D+00
 Coeff:     -0.586D-04 0.109D-01 0.711D-02 0.966D-02-0.420D-01-0.171D+00
 Coeff:     -0.738D-01 0.311D+00 0.948D+00
 Gap=     0.121 Goal=   None    Shift=    0.000
 Gap=     0.140 Goal=   None    Shift=    0.000
 RMSDP=1.26D-06 MaxDP=5.72D-05 DE=-1.73D-07 OVMax= 1.56D-04

 Cycle  10  Pass 1  IDiag  1:
 RMSU=  6.53D-07    CP:  9.99D-01  9.96D-01  5.22D-01  9.03D-01  1.20D+00
                    CP:  1.34D+00  1.52D+00  1.65D+00  1.36D+00
 E= -895.247331428444     Delta-E=       -0.000000069210 Rises=F Damp=F
 DIIS: error= 4.71D-06 at cycle  10 NSaved=  10.
 NSaved=10 IEnMin=10 EnMin= -895.247331428444     IErMin=10 ErrMin= 4.71D-06
 ErrMax= 4.71D-06  0.00D+00 EMaxC= 1.00D-01 BMatC= 2.13D-08 BMatP= 4.43D-08
 IDIUse=1 WtCom= 1.00D+00 WtEn= 0.00D+00
 Coeff-Com: -0.480D-04 0.438D-02 0.243D-02 0.807D-02-0.135D-02-0.490D-01
 Coeff-Com: -0.178D+00-0.973D-01 0.555D+00 0.756D+00
 Coeff:     -0.480D-04 0.438D-02 0.243D-02 0.807D-02-0.135D-02-0.490D-01
 Coeff:     -0.178D+00-0.973D-01 0.555D+00 0.756D+00
 Gap=     0.121 Goal=   None    Shift=    0.000
 Gap=     0.140 Goal=   None    Shift=    0.000
 RMSDP=7.54D-07 MaxDP=3.68D-05 DE=-6.92D-08 OVMax= 9.03D-05

 Cycle  11  Pass 1  IDiag  1:
 RMSU=  3.34D-07    CP:  9.99D-01  9.96D-01  5.22D-01  9.03D-01  1.20D+00
                    CP:  1.35D+00  1.59D+00  1.81D+00  1.82D+00  1.26D+00
 E= -895.247331453179     Delta-E=       -0.000000024736 Rises=F Damp=F
 DIIS: error= 2.20D-06 at cycle  11 NSaved=  11.
 NSaved=11 IEnMin=11 EnMin= -895.247331453179     IErMin=11 ErrMin= 2.20D-06
 ErrMax= 2.20D-06  0.00D+00 EMaxC= 1.00D-01 BMatC= 5.44D-09 BMatP= 2.13D-08
 IDIUse=1 WtCom= 1.00D+00 WtEn= 0.00D+00
 Coeff-Com:  0.790D-05-0.365D-02-0.244D-02-0.115D-02 0.214D-01 0.617D-01
 Coeff-Com: -0.505D-01-0.205D+00-0.214D+00 0.372D+00 0.102D+01
 Coeff:      0.790D-05-0.365D-02-0.244D-02-0.115D-02 0.214D-01 0.617D-01
 Coeff:     -0.505D-01-0.205D+00-0.214D+00 0.372D+00 0.102D+01
 Gap=     0.121 Goal=   None    Shift=    0.000
 Gap=     0.140 Goal=   None    Shift=    0.000
 RMSDP=6.17D-07 MaxDP=2.78D-05 DE=-2.47D-08 OVMax= 6.77D-05

 Cycle  12  Pass 1  IDiag  1:
 RMSU=  2.02D-07    CP:  9.99D-01  9.96D-01  5.22D-01  9.03D-01  1.20D+00
                    CP:  1.35D+00  1.62D+00  1.98D+00  2.15D+00  1.75D+00
                    CP:  1.30D+00
 E= -895.247331461515     Delta-E=       -0.000000008336 Rises=F Damp=F
 DIIS: error= 4.67D-07 at cycle  12 NSaved=  12.
 NSaved=12 IEnMin=12 EnMin= -895.247331461515     IErMin=12 ErrMin= 4.67D-07
 ErrMax= 4.67D-07  0.00D+00 EMaxC= 1.00D-01 BMatC= 6.14D-10 BMatP= 5.44D-09
 IDIUse=1 WtCom= 1.00D+00 WtEn= 0.00D+00
 Coeff-Com:  0.729D-05-0.165D-02-0.104D-02-0.117D-02 0.869D-02 0.264D-01
 Coeff-Com: -0.242D-02-0.631D-01-0.139D+00 0.551D-01 0.395D+00 0.723D+00
 Coeff:      0.729D-05-0.165D-02-0.104D-02-0.117D-02 0.869D-02 0.264D-01
 Coeff:     -0.242D-02-0.631D-01-0.139D+00 0.551D-01 0.395D+00 0.723D+00
 Gap=     0.121 Goal=   None    Shift=    0.000
 Gap=     0.140 Goal=   None    Shift=    0.000
 RMSDP=1.32D-07 MaxDP=1.15D-05 DE=-8.34D-09 OVMax= 1.41D-05

 Cycle  13  Pass 1  IDiag  1:
 RMSU=  6.13D-08    CP:  9.99D-01  9.95D-01  5.22D-01  9.03D-01  1.20D+00
                    CP:  1.35D+00  1.62D+00  2.00D+00  2.20D+00  1.85D+00
                    CP:  1.47D+00  9.98D-01
 E= -895.247331461824     Delta-E=       -0.000000000310 Rises=F Damp=F
 DIIS: error= 2.04D-07 at cycle  13 NSaved=  13.
 NSaved=13 IEnMin=13 EnMin= -895.247331461824     IErMin=13 ErrMin= 2.04D-07
 ErrMax= 2.04D-07  0.00D+00 EMaxC= 1.00D-01 BMatC= 1.73D-10 BMatP= 6.14D-10
 IDIUse=1 WtCom= 1.00D+00 WtEn= 0.00D+00
 Coeff-Com:  0.251D-05-0.215D-03-0.102D-03-0.550D-03 0.329D-03 0.199D-02
 Coeff-Com:  0.930D-02 0.851D-02-0.328D-01-0.486D-01 0.621D-02 0.384D+00
 Coeff-Com:  0.672D+00
 Coeff:      0.251D-05-0.215D-03-0.102D-03-0.550D-03 0.329D-03 0.199D-02
 Coeff:      0.930D-02 0.851D-02-0.328D-01-0.486D-01 0.621D-02 0.384D+00
 Coeff:      0.672D+00
 Gap=     0.121 Goal=   None    Shift=    0.000
 Gap=     0.140 Goal=   None    Shift=    0.000
 RMSDP=4.78D-08 MaxDP=4.06D-06 DE=-3.10D-10 OVMax= 4.63D-06

 Cycle  14  Pass 1  IDiag  1:
 RMSU=  2.52D-08    CP:  9.99D-01  9.95D-01  5.22D-01  9.03D-01  1.20D+00
                    CP:  1.35D+00  1.62D+00  2.00D+00  2.21D+00  1.88D+00
                    CP:  1.52D+00  1.12D+00  9.42D-01
 E= -895.247331461934     Delta-E=       -0.000000000110 Rises=F Damp=F
 DIIS: error= 7.65D-08 at cycle  14 NSaved=  14.
 NSaved=14 IEnMin=14 EnMin= -895.247331461934     IErMin=14 ErrMin= 7.65D-08
 ErrMax= 7.65D-08  0.00D+00 EMaxC= 1.00D-01 BMatC= 2.15D-11 BMatP= 1.73D-10
 IDIUse=1 WtCom= 1.00D+00 WtEn= 0.00D+00
 Coeff-Com: -0.102D-06 0.210D-03 0.141D-03-0.267D-04-0.141D-02-0.379D-02
 Coeff-Com:  0.468D-02 0.151D-01 0.100D-01-0.326D-01-0.678D-01 0.484D-01
 Coeff-Com:  0.298D+00 0.729D+00
 Coeff:     -0.102D-06 0.210D-03 0.141D-03-0.267D-04-0.141D-02-0.379D-02
 Coeff:      0.468D-02 0.151D-01 0.100D-01-0.326D-01-0.678D-01 0.484D-01
 Coeff:      0.298D+00 0.729D+00
 Gap=     0.121 Goal=   None    Shift=    0.000
 Gap=     0.140 Goal=   None    Shift=    0.000
 RMSDP=1.74D-08 MaxDP=1.60D-06 DE=-1.10D-10 OVMax= 1.85D-06

 Cycle  15  Pass 1  IDiag  1:
 RMSU=  7.96D-09    CP:  9.99D-01  9.95D-01  5.22D-01  9.03D-01  1.20D+00
                    CP:  1.35D+00  1.62D+00  2.00D+00  2.21D+00  1.89D+00
                    CP:  1.55D+00  1.17D+00  1.07D+00  8.92D-01
 E= -895.247331461906     Delta-E=        0.000000000029 Rises=F Damp=F
 DIIS: error= 3.65D-08 at cycle  15 NSaved=  15.
 NSaved=15 IEnMin=14 EnMin= -895.247331461934     IErMin=15 ErrMin= 3.65D-08
 ErrMax= 3.65D-08  0.00D+00 EMaxC= 1.00D-01 BMatC= 4.37D-12 BMatP= 2.15D-11
 IDIUse=1 WtCom= 1.00D+00 WtEn= 0.00D+00
 Coeff-Com: -0.415D-06 0.144D-03 0.908D-04 0.666D-04-0.806D-03-0.230D-02
 Coeff-Com:  0.116D-02 0.667D-02 0.987D-02-0.102D-01-0.363D-01-0.254D-01
 Coeff-Com:  0.625D-01 0.369D+00 0.625D+00
 Coeff:     -0.415D-06 0.144D-03 0.908D-04 0.666D-04-0.806D-03-0.230D-02
 Coeff:      0.116D-02 0.667D-02 0.987D-02-0.102D-01-0.363D-01-0.254D-01
 Coeff:      0.625D-01 0.369D+00 0.625D+00
 Gap=     0.121 Goal=   None    Shift=    0.000
 Gap=     0.140 Goal=   None    Shift=    0.000
 RMSDP=5.26D-09 MaxDP=2.44D-07 DE= 2.86D-11 OVMax= 4.66D-07

 SCF Done:  E(UPBE1PBE) =  -895.247331462     A.U. after   15 cycles
            NFock= 15  Conv=0.53D-08     -V/T= 2.1228
 <Sx>= 0.0000 <Sy>= 0.0000 <Sz>= 0.5000 <S**2>= 0.7527 S= 0.5013
 <L.S>= 0.000000000000E+00
 KE= 7.973329422886D+02 PE=-5.375106304245D+03 EE= 2.019754562264D+03
 Annihilation of the first spin contaminant:
 S**2 before annihilation     0.7527,   after     0.7500
 Leave Link  502 at Sat Sep 12 02:08:44 2026, MaxMem=  6442450944 cpu:             356.0 elap:             356.2
 (Enter C:\G16W\l508.exe)
 QCSCF skips out because SCF is already converged.
 Leave Link  508 at Sat Sep 12 02:08:45 2026, MaxMem=  6442450944 cpu:               0.0 elap:               0.1
 (Enter C:\G16W\l601.exe)
 Copying SCF densities to generalized density rwf, IOpCl= 1 IROHF=0.

 **********************************************************************

            Population analysis using the SCF Density.

 **********************************************************************

 Alpha  occ. eigenvalues --  -14.44695 -10.28997 -10.28916 -10.28845 -10.24534
 Alpha  occ. eigenvalues --  -10.24402 -10.24349 -10.24339 -10.24334 -10.24297
 Alpha  occ. eigenvalues --  -10.24264 -10.24260 -10.24235 -10.24165 -10.24135
 Alpha  occ. eigenvalues --  -10.24101 -10.23811 -10.23766 -10.23732  -3.74162
 Alpha  occ. eigenvalues --   -2.32177  -2.32156  -2.32086  -1.02202  -0.89257
 Alpha  occ. eigenvalues --   -0.89184  -0.87068  -0.79337  -0.79307  -0.77324
 Alpha  occ. eigenvalues --   -0.77203  -0.77178  -0.73562  -0.66163  -0.66155
 Alpha  occ. eigenvalues --   -0.63322  -0.62699  -0.62665  -0.59662  -0.56743
 Alpha  occ. eigenvalues --   -0.56686  -0.53078  -0.50739  -0.50685  -0.50413
 Alpha  occ. eigenvalues --   -0.47718  -0.47700  -0.46283  -0.45713  -0.45677
 Alpha  occ. eigenvalues --   -0.44973  -0.44635  -0.44567  -0.41592  -0.40250
 Alpha  occ. eigenvalues --   -0.40125  -0.39133  -0.38057  -0.38003  -0.37791
 Alpha  occ. eigenvalues --   -0.36426  -0.36368  -0.34877  -0.32171  -0.32080
 Alpha  occ. eigenvalues --   -0.31553  -0.31495  -0.30754  -0.28729  -0.28158
 Alpha  occ. eigenvalues --   -0.28084  -0.27179  -0.27133  -0.20704  -0.14656
 Alpha virt. eigenvalues --   -0.02526  -0.02455  -0.02416  -0.00852  -0.00749
 Alpha virt. eigenvalues --    0.02593   0.02654   0.02901   0.06153   0.07300
 Alpha virt. eigenvalues --    0.07838   0.07861   0.11037   0.11733   0.11763
 Alpha virt. eigenvalues --    0.11776   0.13474   0.13550   0.14257   0.14337
 Alpha virt. eigenvalues --    0.15749   0.15871   0.16565   0.16584   0.17909
 Alpha virt. eigenvalues --    0.18080   0.18563   0.18926   0.23623   0.24532
 Alpha virt. eigenvalues --    0.24645   0.26767   0.26917   0.27963   0.28716
 Alpha virt. eigenvalues --    0.28857   0.29476   0.30443   0.30508   0.32024
 Alpha virt. eigenvalues --    0.32651   0.32767   0.35301   0.35644   0.36478
 Alpha virt. eigenvalues --    0.36535   0.38611   0.38627   0.40913   0.41090
 Alpha virt. eigenvalues --    0.41433   0.42202   0.42316   0.43797   0.45220
 Alpha virt. eigenvalues --    0.45387   0.45473   0.46008   0.47227   0.47414
 Alpha virt. eigenvalues --    0.48091   0.48968   0.49841   0.49891   0.50671
 Alpha virt. eigenvalues --    0.50884   0.50935   0.51837   0.52285   0.52447
 Alpha virt. eigenvalues --    0.54958   0.55280   0.57403   0.57593   0.57741
 Alpha virt. eigenvalues --    0.58754   0.58927   0.58943   0.59400   0.60130
 Alpha virt. eigenvalues --    0.60234   0.62121   0.62593   0.63661   0.64962
 Alpha virt. eigenvalues --    0.65240   0.65344   0.66482   0.66561   0.66767
 Alpha virt. eigenvalues --    0.68585   0.68657   0.69712   0.70160   0.70321
 Alpha virt. eigenvalues --    0.70413   0.71873   0.71894   0.72328   0.74110
 Alpha virt. eigenvalues --    0.74212   0.74377   0.75695   0.76169   0.76329
 Alpha virt. eigenvalues --    0.76859   0.77593   0.77761   0.79559   0.79591
 Alpha virt. eigenvalues --    0.80369   0.81305   0.82199   0.82320   0.84207
 Alpha virt. eigenvalues --    0.84453   0.85228   0.86305   0.88610   0.88652
 Alpha virt. eigenvalues --    0.90516   0.91823   0.92509   0.93403   0.95826
 Alpha virt. eigenvalues --    0.95875   0.96554   0.96820   0.96995   1.07938
 Alpha virt. eigenvalues --    1.09168   1.09326   1.11695   1.11806   1.13383
 Alpha virt. eigenvalues --    1.20137   1.20383   1.21627   1.21994   1.22137
 Alpha virt. eigenvalues --    1.24960   1.25069   1.25160   1.26063   1.27202
 Alpha virt. eigenvalues --    1.28450   1.28475   1.29039   1.29135   1.30261
 Alpha virt. eigenvalues --    1.30462   1.32112   1.32216   1.33891   1.34888
 Alpha virt. eigenvalues --    1.35155   1.37217   1.37658   1.41355   1.44464
 Alpha virt. eigenvalues --    1.52909   1.52962   1.54520   1.63001   1.63041
 Alpha virt. eigenvalues --    1.63574   1.68059   1.69820   1.69864   1.69912
 Alpha virt. eigenvalues --    1.70101   1.70227   1.72390   1.72440   1.74203
 Alpha virt. eigenvalues --    1.74284   1.76538   1.76565   1.76950   1.77582
 Alpha virt. eigenvalues --    1.77697   1.78624   1.78701   1.78923   1.78954
 Alpha virt. eigenvalues --    1.78993   1.80688   1.82507   1.82571   1.83334
 Alpha virt. eigenvalues --    1.84829   1.84897   1.86141   1.86374   1.86450
 Alpha virt. eigenvalues --    1.88333   1.88462   1.89351   1.91712   1.96149
 Alpha virt. eigenvalues --    1.96158   1.96601   1.99601   1.99656   2.01147
 Alpha virt. eigenvalues --    2.01925   2.02650   2.02667   2.02985   2.05412
 Alpha virt. eigenvalues --    2.05512   2.05575   2.08532   2.08660   2.11580
 Alpha virt. eigenvalues --    2.11646   2.13682   2.15367   2.15831   2.15958
 Alpha virt. eigenvalues --    2.18694   2.19325   2.19418   2.19757   2.21515
 Alpha virt. eigenvalues --    2.21572   2.22468   2.22541   2.25241   2.29542
 Alpha virt. eigenvalues --    2.30773   2.30818   2.31253   2.32660   2.32705
 Alpha virt. eigenvalues --    2.33308   2.34311   2.35414   2.35496   2.37344
 Alpha virt. eigenvalues --    2.37410   2.38050   2.40263   2.44389   2.44534
 Alpha virt. eigenvalues --    2.48456   2.48477   2.56119   2.60169   2.60279
 Alpha virt. eigenvalues --    2.61985   2.62060   2.62273   2.63289   2.64792
 Alpha virt. eigenvalues --    2.64857   2.65038   2.65668   2.66227   2.66517
 Alpha virt. eigenvalues --    2.66642   2.67267   2.67381   2.68137   2.69992
 Alpha virt. eigenvalues --    2.70218   2.76975   2.77152   2.77175   2.77875
 Alpha virt. eigenvalues --    2.77907   2.78340   2.82426   2.86517   2.86698
 Alpha virt. eigenvalues --    2.87171   2.91239   2.91314   2.92207   2.93276
 Alpha virt. eigenvalues --    2.93345   2.99162   3.04944   3.04981   3.13123
 Alpha virt. eigenvalues --    3.16565   3.16609   3.17117   3.21158   3.21207
 Alpha virt. eigenvalues --    3.26144   3.41757   3.41832   3.68673   3.72334
 Alpha virt. eigenvalues --    3.72381  53.91077
  Beta  occ. eigenvalues --  -14.44686 -10.28966 -10.28891 -10.28822 -10.24531
  Beta  occ. eigenvalues --  -10.24402 -10.24345 -10.24301 -10.24290 -10.24265
  Beta  occ. eigenvalues --  -10.24230 -10.24226 -10.24201 -10.24176 -10.24144
  Beta  occ. eigenvalues --  -10.24109 -10.23829 -10.23782 -10.23746  -3.74047
  Beta  occ. eigenvalues --   -2.32131  -2.32114  -2.32074  -1.02145  -0.89217
  Beta  occ. eigenvalues --   -0.89149  -0.87032  -0.79292  -0.79263  -0.77271
  Beta  occ. eigenvalues --   -0.77157  -0.77134  -0.73553  -0.66135  -0.66127
  Beta  occ. eigenvalues --   -0.63237  -0.62650  -0.62621  -0.59624  -0.56701
  Beta  occ. eigenvalues --   -0.56650  -0.53043  -0.50709  -0.50657  -0.50316
  Beta  occ. eigenvalues --   -0.47685  -0.47666  -0.46233  -0.45674  -0.45638
  Beta  occ. eigenvalues --   -0.44916  -0.44601  -0.44537  -0.41481  -0.40147
  Beta  occ. eigenvalues --   -0.40034  -0.39110  -0.38028  -0.37976  -0.37703
  Beta  occ. eigenvalues --   -0.36388  -0.36333  -0.34728  -0.31675  -0.31570
  Beta  occ. eigenvalues --   -0.31004  -0.30944  -0.30213  -0.28524  -0.28014
  Beta  occ. eigenvalues --   -0.27931  -0.26996  -0.26958  -0.20674
  Beta virt. eigenvalues --   -0.06641  -0.02427  -0.02352  -0.01486  -0.00385
  Beta virt. eigenvalues --   -0.00309   0.02764   0.04251   0.04533   0.06859
  Beta virt. eigenvalues --    0.07934   0.07968   0.09249   0.11400   0.11856
  Beta virt. eigenvalues --    0.11887   0.11914   0.13563   0.13645   0.14382
  Beta virt. eigenvalues --    0.14447   0.15923   0.16208   0.16631   0.16643
  Beta virt. eigenvalues --    0.18316   0.18553   0.18698   0.19097   0.23885
  Beta virt. eigenvalues --    0.24830   0.24915   0.27052   0.27196   0.28570
  Beta virt. eigenvalues --    0.28983   0.29067   0.29695   0.30635   0.30689
  Beta virt. eigenvalues --    0.33448   0.33542   0.33802   0.35394   0.35895
  Beta virt. eigenvalues --    0.36635   0.36691   0.38780   0.38823   0.41347
  Beta virt. eigenvalues --    0.41479   0.41643   0.42453   0.42613   0.43861
  Beta virt. eigenvalues --    0.45267   0.45560   0.45632   0.46097   0.47465
  Beta virt. eigenvalues --    0.47618   0.48327   0.49019   0.50005   0.50043
  Beta virt. eigenvalues --    0.50758   0.51001   0.51040   0.52270   0.52632
  Beta virt. eigenvalues --    0.52794   0.55523   0.55848   0.57807   0.58010
  Beta virt. eigenvalues --    0.58132   0.58865   0.59018   0.59048   0.59511
  Beta virt. eigenvalues --    0.60922   0.61180   0.62537   0.63099   0.63834
  Beta virt. eigenvalues --    0.65270   0.65472   0.65950   0.66603   0.66689
  Beta virt. eigenvalues --    0.66831   0.68666   0.68755   0.69812   0.70205
  Beta virt. eigenvalues --    0.70383   0.70480   0.71973   0.72008   0.72452
  Beta virt. eigenvalues --    0.74250   0.74286   0.74506   0.75743   0.76274
  Beta virt. eigenvalues --    0.76444   0.76929   0.77690   0.77893   0.79589
  Beta virt. eigenvalues --    0.79617   0.80669   0.81393   0.82333   0.82430
  Beta virt. eigenvalues --    0.84395   0.84648   0.85370   0.86415   0.88730
  Beta virt. eigenvalues --    0.88761   0.90718   0.92071   0.92734   0.93451
  Beta virt. eigenvalues --    0.95859   0.95909   0.96733   0.96924   0.97198
  Beta virt. eigenvalues --    1.08051   1.09234   1.09392   1.11754   1.11864
  Beta virt. eigenvalues --    1.13486   1.20246   1.20481   1.21688   1.22076
  Beta virt. eigenvalues --    1.22168   1.25047   1.25125   1.25217   1.26168
  Beta virt. eigenvalues --    1.27289   1.28498   1.28518   1.29095   1.29194
  Beta virt. eigenvalues --    1.30310   1.30518   1.32195   1.32293   1.34009
  Beta virt. eigenvalues --    1.35007   1.35337   1.37305   1.37786   1.41489
  Beta virt. eigenvalues --    1.44532   1.52948   1.53003   1.54575   1.63036
  Beta virt. eigenvalues --    1.63074   1.63636   1.68090   1.69841   1.69885
  Beta virt. eigenvalues --    1.69942   1.70138   1.70265   1.72411   1.72460
  Beta virt. eigenvalues --    1.74245   1.74322   1.76580   1.76608   1.76977
  Beta virt. eigenvalues --    1.77615   1.77735   1.78666   1.78745   1.78951
  Beta virt. eigenvalues --    1.78978   1.79052   1.80708   1.82536   1.82599
  Beta virt. eigenvalues --    1.83355   1.84858   1.84927   1.86205   1.86415
  Beta virt. eigenvalues --    1.86496   1.88402   1.88535   1.89409   1.91756
  Beta virt. eigenvalues --    1.96183   1.96188   1.96633   1.99643   1.99703
  Beta virt. eigenvalues --    2.01203   2.01967   2.02683   2.02700   2.03077
  Beta virt. eigenvalues --    2.05440   2.05558   2.05603   2.08553   2.08681
  Beta virt. eigenvalues --    2.11626   2.11688   2.13806   2.15446   2.15871
  Beta virt. eigenvalues --    2.16003   2.18773   2.19364   2.19449   2.19808
  Beta virt. eigenvalues --    2.21538   2.21588   2.22498   2.22568   2.25959
  Beta virt. eigenvalues --    2.29634   2.30815   2.30856   2.31315   2.32721
  Beta virt. eigenvalues --    2.32764   2.33352   2.34346   2.35447   2.35529
  Beta virt. eigenvalues --    2.37391   2.37461   2.38107   2.40334   2.44418
  Beta virt. eigenvalues --    2.44563   2.48499   2.48522   2.56168   2.60209
  Beta virt. eigenvalues --    2.60317   2.62021   2.62096   2.62300   2.63304
  Beta virt. eigenvalues --    2.64828   2.64896   2.65066   2.65706   2.66264
  Beta virt. eigenvalues --    2.66555   2.66676   2.67317   2.67428   2.68192
  Beta virt. eigenvalues --    2.70031   2.70261   2.76982   2.77160   2.77182
  Beta virt. eigenvalues --    2.77897   2.77930   2.78362   2.82449   2.86549
  Beta virt. eigenvalues --    2.86730   2.87208   2.91267   2.91345   2.92243
  Beta virt. eigenvalues --    2.93307   2.93372   2.99206   3.04960   3.04999
  Beta virt. eigenvalues --    3.13145   3.16586   3.16629   3.17141   3.21177
  Beta virt. eigenvalues --    3.21226   3.26160   3.41777   3.41851   3.68693
  Beta virt. eigenvalues --    3.72356   3.72400  53.91230
          Condensed to atoms (all electrons):
               1          2          3          4          5          6
     1  C    5.145041   0.254919   0.099317  -0.178888  -0.000771   0.000122
     2  C    0.254919   5.074701   0.251920   0.127945   0.011896  -0.000641
     3  C    0.099317   0.251920   5.255801   0.216688  -0.102445  -0.000378
     4  C   -0.178888   0.127945   0.216688   5.337298   0.242011  -0.055731
     5  N   -0.000771   0.011896  -0.102445   0.242011   7.136887   0.245849
     6  C    0.000122  -0.000641  -0.000378  -0.055731   0.245849   5.318198
     7  C    0.000037  -0.001571  -0.005827   0.000361  -0.080671   0.263881
     8  C   -0.000004   0.000080  -0.001100  -0.001176   0.011413   0.136414
     9  C    0.000000  -0.000006  -0.000020   0.000193  -0.000749  -0.178066
    10  C    0.000000   0.000006   0.000073  -0.000488   0.011596   0.127798
    11  C    0.000001  -0.000102   0.000496   0.008401  -0.101015   0.220110
    12  C    0.000198  -0.000495   0.008990  -0.058693   0.243984  -0.058531
    13  C    0.000000   0.000008  -0.000900   0.005407  -0.080000  -0.000015
    14  C    0.000000   0.000000   0.000011  -0.000235   0.011365  -0.001108
    15  C    0.000000   0.000000   0.000002   0.000117  -0.000731   0.000180
    16  C   -0.000006   0.000006  -0.000118  -0.000532   0.011714  -0.000461
    17  C   -0.000020   0.000077   0.000567  -0.000045  -0.104284   0.008967
    18  C    0.097110  -0.154270   0.059197   0.262880  -0.081445   0.005382
    19  C    0.246404   0.114806  -0.165010   0.137415   0.011493  -0.000249
    20  H    0.453111  -0.071811   0.015790  -0.001660   0.000011   0.000001
    21  H   -0.073645   0.449748  -0.066650   0.016782  -0.000170  -0.000039
    22  H    0.014333  -0.060857   0.450984  -0.066383  -0.015248   0.005508
    23  H    0.000155  -0.001053   0.001234   0.007281  -0.016065  -0.066856
    24  H    0.000000   0.000003   0.000050  -0.000036  -0.000169   0.016147
    25  H    0.000000   0.000000   0.000000   0.000001   0.000011  -0.001635
    26  H    0.000000   0.000000  -0.000002   0.000012  -0.000169   0.016751
    27  H    0.000000   0.000002   0.000038   0.000195  -0.015622  -0.067811
    28  H    0.000000   0.000000  -0.000004  -0.000448  -0.016072   0.007244
    29  H    0.000000   0.000000   0.000000   0.000011  -0.000169  -0.000036
    30  H    0.000000   0.000000   0.000000   0.000001   0.000011   0.000001
    31  H    0.000000   0.000000   0.000000  -0.000038  -0.000170   0.000012
    32  H    0.000137  -0.000108  -0.001825   0.005484  -0.014720   0.000180
    33  H    0.015060  -0.002526   0.017096  -0.067124  -0.016116  -0.000438
    34  H   -0.072563   0.014393  -0.001603   0.016188  -0.000170   0.000011
    35  Ag  -0.002222   0.001950  -0.009329  -0.023495   0.015860  -0.022218
               7          8          9         10         11         12
     1  C    0.000037  -0.000004   0.000000   0.000000   0.000001   0.000198
     2  C   -0.001571   0.000080  -0.000006   0.000006  -0.000102  -0.000495
     3  C   -0.005827  -0.001100  -0.000020   0.000073   0.000496   0.008990
     4  C    0.000361  -0.001176   0.000193  -0.000488   0.008401  -0.058693
     5  N   -0.080671   0.011413  -0.000749   0.011596  -0.101015   0.243984
     6  C    0.263881   0.136414  -0.178066   0.127798   0.220110  -0.058531
     7  C    5.180526   0.246034   0.096273  -0.153842   0.060115   0.005632
     8  C    0.246034   5.110336   0.247829   0.113918  -0.164661  -0.000250
     9  C    0.096273   0.247829   5.143946   0.256088   0.098407   0.000130
    10  C   -0.153842   0.113918   0.256088   5.070799   0.255277  -0.000707
    11  C    0.060115  -0.164661   0.098407   0.255277   5.253804  -0.000195
    12  C    0.005632  -0.000250   0.000130  -0.000707  -0.000195   5.336441
    13  C    0.001265  -0.000007   0.000032  -0.001514  -0.005650   0.269445
    14  C   -0.000061   0.000005  -0.000004   0.000081  -0.001111   0.136596
    15  C    0.000000   0.000000   0.000000  -0.000005  -0.000017  -0.177118
    16  C    0.000008   0.000000   0.000000   0.000006   0.000091   0.124315
    17  C   -0.000921   0.000013   0.000001  -0.000114   0.000400   0.213231
    18  C    0.001220  -0.000063   0.000000   0.000008  -0.000914   0.000087
    19  C   -0.000006   0.000005   0.000000   0.000000   0.000012  -0.001205
    20  H   -0.000001   0.000000   0.000000   0.000000   0.000000   0.000001
    21  H    0.000052   0.000000   0.000000   0.000000   0.000000   0.000012
    22  H    0.004089  -0.000739   0.000155  -0.000115  -0.001888   0.000108
    23  H    0.457967  -0.072661   0.015020  -0.002503   0.017105  -0.000444
    24  H   -0.067799   0.449346  -0.072528   0.014383  -0.001587   0.000011
    25  H    0.015297  -0.071906   0.452941  -0.071688   0.015763   0.000001
    26  H   -0.001600   0.014373  -0.073672   0.449840  -0.066719  -0.000039
    27  H    0.014668  -0.002273   0.014377  -0.060348   0.450657   0.005615
    28  H   -0.000942   0.000033   0.000155  -0.001075   0.001264  -0.067095
    29  H    0.000001   0.000000   0.000000   0.000003   0.000050   0.016196
    30  H    0.000000   0.000000   0.000000   0.000000   0.000000  -0.001680
    31  H    0.000000   0.000000   0.000000   0.000000  -0.000002   0.016751
    32  H    0.000015   0.000000   0.000000   0.000004   0.000044  -0.066350
    33  H   -0.000001   0.000001   0.000000   0.000000  -0.000007   0.007291
    34  H   -0.000002   0.000000   0.000000   0.000000   0.000000  -0.000037
    35  Ag  -0.009239   0.001226  -0.002218   0.002407  -0.011839  -0.023391
              13         14         15         16         17         18
     1  C    0.000000   0.000000   0.000000  -0.000006  -0.000020   0.097110
     2  C    0.000008   0.000000   0.000000   0.000006   0.000077  -0.154270
     3  C   -0.000900   0.000011   0.000002  -0.000118   0.000567   0.059197
     4  C    0.005407  -0.000235   0.000117  -0.000532  -0.000045   0.262880
     5  N   -0.080000   0.011365  -0.000731   0.011714  -0.104284  -0.081445
     6  C   -0.000015  -0.001108   0.000180  -0.000461   0.008967   0.005382
     7  C    0.001265  -0.000061   0.000000   0.000008  -0.000921   0.001220
     8  C   -0.000007   0.000005   0.000000   0.000000   0.000013  -0.000063
     9  C    0.000032  -0.000004   0.000000   0.000000   0.000001   0.000000
    10  C   -0.001514   0.000081  -0.000005   0.000006  -0.000114   0.000008
    11  C   -0.005650  -0.001111  -0.000017   0.000091   0.000400  -0.000914
    12  C    0.269445   0.136596  -0.177118   0.124315   0.213231   0.000087
    13  C    5.174798   0.245589   0.095403  -0.151423   0.057577   0.001229
    14  C    0.245589   5.112612   0.247085   0.113793  -0.165561  -0.000004
    15  C    0.095403   0.247085   5.141013   0.259432   0.098184   0.000039
    16  C   -0.151423   0.113793   0.259432   5.067137   0.252562  -0.001552
    17  C    0.057577  -0.165561   0.098184   0.252562   5.276279  -0.005137
    18  C    0.001229  -0.000004   0.000039  -0.001552  -0.005137   5.181764
    19  C   -0.000066   0.000005  -0.000004   0.000078  -0.001083   0.244417
    20  H    0.000000   0.000000   0.000000   0.000000   0.000000   0.015324
    21  H    0.000000   0.000000   0.000000   0.000000  -0.000002  -0.001603
    22  H    0.000013   0.000000   0.000000   0.000004   0.000058   0.014737
    23  H    0.000000   0.000001   0.000000   0.000000  -0.000008  -0.000909
    24  H   -0.000002   0.000000   0.000000   0.000000   0.000000   0.000001
    25  H   -0.000001   0.000000   0.000000   0.000000   0.000000   0.000000
    26  H    0.000050   0.000000   0.000000   0.000000   0.000000   0.000000
    27  H    0.003991  -0.000759   0.000148  -0.000101  -0.001902   0.000012
    28  H    0.458763  -0.073059   0.015086  -0.002541   0.017289   0.000000
    29  H   -0.067747   0.449402  -0.072554   0.014383  -0.001595  -0.000002
    30  H    0.015325  -0.072126   0.453293  -0.071954   0.015947  -0.000001
    31  H   -0.001564   0.014322  -0.073310   0.449603  -0.066665   0.000048
    32  H    0.014111  -0.002103   0.014025  -0.057801   0.446865   0.004094
    33  H   -0.000854   0.000028   0.000160  -0.001055   0.001104   0.458383
    34  H    0.000001   0.000000   0.000000   0.000004   0.000050  -0.067870
    35  Ag  -0.010039   0.001420  -0.002638   0.001761  -0.013107  -0.009873
              19         20         21         22         23         24
     1  C    0.246404   0.453111  -0.073645   0.014333   0.000155   0.000000
     2  C    0.114806  -0.071811   0.449748  -0.060857  -0.001053   0.000003
     3  C   -0.165010   0.015790  -0.066650   0.450984   0.001234   0.000050
     4  C    0.137415  -0.001660   0.016782  -0.066383   0.007281  -0.000036
     5  N    0.011493   0.000011  -0.000170  -0.015248  -0.016065  -0.000169
     6  C   -0.000249   0.000001  -0.000039   0.005508  -0.066856   0.016147
     7  C   -0.000006  -0.000001   0.000052   0.004089   0.457967  -0.067799
     8  C    0.000005   0.000000   0.000000  -0.000739  -0.072661   0.449346
     9  C    0.000000   0.000000   0.000000   0.000155   0.015020  -0.072528
    10  C    0.000000   0.000000   0.000000  -0.000115  -0.002503   0.014383
    11  C    0.000012   0.000000   0.000000  -0.001888   0.017105  -0.001587
    12  C   -0.001205   0.000001   0.000012   0.000108  -0.000444   0.000011
    13  C   -0.000066   0.000000   0.000000   0.000013   0.000000  -0.000002
    14  C    0.000005   0.000000   0.000000   0.000000   0.000001   0.000000
    15  C   -0.000004   0.000000   0.000000   0.000000   0.000000   0.000000
    16  C    0.000078   0.000000   0.000000   0.000004   0.000000   0.000000
    17  C   -0.001083   0.000000  -0.000002   0.000058  -0.000008   0.000000
    18  C    0.244417   0.015324  -0.001603   0.014737  -0.000909   0.000001
    19  C    5.112029  -0.071947   0.014377  -0.002249   0.000034   0.000000
    20  H   -0.071947   0.671755  -0.012185  -0.000237   0.000001   0.000000
    21  H    0.014377  -0.012185   0.668022  -0.013515  -0.000011   0.000000
    22  H   -0.002249  -0.000237  -0.013515   0.620961  -0.001227   0.000033
    23  H    0.000034   0.000001  -0.000011  -0.001227   0.650827  -0.012435
    24  H    0.000000   0.000000   0.000000   0.000033  -0.012435   0.670982
    25  H    0.000000   0.000000   0.000000  -0.000002  -0.000242  -0.012248
    26  H    0.000000   0.000000   0.000000  -0.000012   0.000024  -0.000310
    27  H    0.000000   0.000000   0.000000   0.000075  -0.000151   0.000026
    28  H    0.000001   0.000000   0.000000   0.000002   0.000018  -0.000006
    29  H    0.000000   0.000000   0.000000   0.000000   0.000000   0.000000
    30  H    0.000000   0.000000   0.000000   0.000000   0.000000   0.000000
    31  H   -0.000001   0.000000   0.000000   0.000000   0.000000   0.000000
    32  H   -0.000731  -0.000003  -0.000012   0.000092   0.000002   0.000000
    33  H   -0.072704  -0.000243   0.000023  -0.000153   0.000018   0.000000
    34  H    0.449421  -0.012236  -0.000309   0.000026  -0.000006   0.000000
    35  Ag   0.001321   0.000154   0.001482   0.000337   0.000855  -0.000090
              25         26         27         28         29         30
     1  C    0.000000   0.000000   0.000000   0.000000   0.000000   0.000000
     2  C    0.000000   0.000000   0.000002   0.000000   0.000000   0.000000
     3  C    0.000000  -0.000002   0.000038  -0.000004   0.000000   0.000000
     4  C    0.000001   0.000012   0.000195  -0.000448   0.000011   0.000001
     5  N    0.000011  -0.000169  -0.015622  -0.016072  -0.000169   0.000011
     6  C   -0.001635   0.016751  -0.067811   0.007244  -0.000036   0.000001
     7  C    0.015297  -0.001600   0.014668  -0.000942   0.000001   0.000000
     8  C   -0.071906   0.014373  -0.002273   0.000033   0.000000   0.000000
     9  C    0.452941  -0.073672   0.014377   0.000155   0.000000   0.000000
    10  C   -0.071688   0.449840  -0.060348  -0.001075   0.000003   0.000000
    11  C    0.015763  -0.066719   0.450657   0.001264   0.000050   0.000000
    12  C    0.000001  -0.000039   0.005615  -0.067095   0.016196  -0.001680
    13  C   -0.000001   0.000050   0.003991   0.458763  -0.067747   0.015325
    14  C    0.000000   0.000000  -0.000759  -0.073059   0.449402  -0.072126
    15  C    0.000000   0.000000   0.000148   0.015086  -0.072554   0.453293
    16  C    0.000000   0.000000  -0.000101  -0.002541   0.014383  -0.071954
    17  C    0.000000   0.000000  -0.001902   0.017289  -0.001595   0.015947
    18  C    0.000000   0.000000   0.000012   0.000000  -0.000002  -0.000001
    19  C    0.000000   0.000000   0.000000   0.000001   0.000000   0.000000
    20  H    0.000000   0.000000   0.000000   0.000000   0.000000   0.000000
    21  H    0.000000   0.000000   0.000000   0.000000   0.000000   0.000000
    22  H   -0.000002  -0.000012   0.000075   0.000002   0.000000   0.000000
    23  H   -0.000242   0.000024  -0.000151   0.000018   0.000000   0.000000
    24  H   -0.012248  -0.000310   0.000026  -0.000006   0.000000   0.000000
    25  H    0.671933  -0.012182  -0.000236   0.000001   0.000000   0.000000
    26  H   -0.012182   0.668454  -0.013686  -0.000010   0.000000   0.000000
    27  H   -0.000236  -0.013686   0.621824  -0.001272   0.000034  -0.000003
    28  H    0.000001  -0.000010  -0.001272   0.649948  -0.012413  -0.000241
    29  H    0.000000   0.000000   0.000034  -0.012413   0.670457  -0.012220
    30  H    0.000000   0.000000  -0.000003  -0.000241  -0.012220   0.671527
    31  H    0.000000   0.000000  -0.000012   0.000023  -0.000308  -0.012171
    32  H    0.000000   0.000000   0.000102  -0.000148   0.000026  -0.000239
    33  H    0.000000   0.000000   0.000002   0.000019  -0.000006   0.000001
    34  H    0.000000   0.000000   0.000000   0.000000   0.000000   0.000000
    35  Ag   0.000115   0.001520   0.002027   0.000913  -0.000088   0.000192
              31         32         33         34         35
     1  C    0.000000   0.000137   0.015060  -0.072563  -0.002222
     2  C    0.000000  -0.000108  -0.002526   0.014393   0.001950
     3  C    0.000000  -0.001825   0.017096  -0.001603  -0.009329
     4  C   -0.000038   0.005484  -0.067124   0.016188  -0.023495
     5  N   -0.000170  -0.014720  -0.016116  -0.000170   0.015860
     6  C    0.000012   0.000180  -0.000438   0.000011  -0.022218
     7  C    0.000000   0.000015  -0.000001  -0.000002  -0.009239
     8  C    0.000000   0.000000   0.000001   0.000000   0.001226
     9  C    0.000000   0.000000   0.000000   0.000000  -0.002218
    10  C    0.000000   0.000004   0.000000   0.000000   0.002407
    11  C   -0.000002   0.000044  -0.000007   0.000000  -0.011839
    12  C    0.016751  -0.066350   0.007291  -0.000037  -0.023391
    13  C   -0.001564   0.014111  -0.000854   0.000001  -0.010039
    14  C    0.014322  -0.002103   0.000028   0.000000   0.001420
    15  C   -0.073310   0.014025   0.000160   0.000000  -0.002638
    16  C    0.449603  -0.057801  -0.001055   0.000004   0.001761
    17  C   -0.066665   0.446865   0.001104   0.000050  -0.013107
    18  C    0.000048   0.004094   0.458383  -0.067870  -0.009873
    19  C   -0.000001  -0.000731  -0.072704   0.449421   0.001321
    20  H    0.000000  -0.000003  -0.000243  -0.012236   0.000154
    21  H    0.000000  -0.000012   0.000023  -0.000309   0.001482
    22  H    0.000000   0.000092  -0.000153   0.000026   0.000337
    23  H    0.000000   0.000002   0.000018  -0.000006   0.000855
    24  H    0.000000   0.000000   0.000000   0.000000  -0.000090
    25  H    0.000000   0.000000   0.000000   0.000000   0.000115
    26  H    0.000000   0.000000   0.000000   0.000000   0.001520
    27  H   -0.000012   0.000102   0.000002   0.000000   0.002027
    28  H    0.000023  -0.000148   0.000019   0.000000   0.000913
    29  H   -0.000308   0.000026  -0.000006   0.000000  -0.000088
    30  H   -0.012171  -0.000239   0.000001   0.000000   0.000192
    31  H    0.667152  -0.013652  -0.000011   0.000000   0.001871
    32  H   -0.013652   0.616774  -0.001294   0.000036   0.001235
    33  H   -0.000011  -0.001294   0.650651  -0.012432   0.001019
    34  H    0.000000   0.000036  -0.012432   0.670909  -0.000084
    35  Ag   0.001871   0.001235   0.001019  -0.000084  19.175180
          Atomic-Atomic Spin Densities.
               1          2          3          4          5          6
     1  C   -0.009591  -0.003805   0.001088  -0.000293  -0.000021   0.000020
     2  C   -0.003805   0.033946  -0.002408   0.001724   0.000049  -0.000133
     3  C    0.001088  -0.002408  -0.003168   0.002373  -0.000410   0.001420
     4  C   -0.000293   0.001724   0.002373   0.022175   0.001509   0.002725
     5  N   -0.000021   0.000049  -0.000410   0.001509   0.003868   0.001338
     6  C    0.000020  -0.000133   0.001420   0.002725   0.001338   0.020081
     7  C    0.000022  -0.000202   0.001156   0.000333  -0.000551   0.003272
     8  C   -0.000001   0.000016  -0.000148  -0.000029   0.000011  -0.000920
     9  C    0.000000   0.000000   0.000010   0.000006  -0.000022  -0.000428
    10  C    0.000000   0.000000  -0.000002   0.000002   0.000052   0.001826
    11  C    0.000000   0.000002   0.000054   0.000144  -0.000427   0.001479
    12  C    0.000004   0.000004   0.000040   0.003093   0.001726   0.002728
    13  C    0.000000  -0.000001   0.000021   0.000342  -0.000620   0.000185
    14  C    0.000000   0.000000   0.000000  -0.000018   0.000011  -0.000023
    15  C    0.000000   0.000000   0.000000   0.000026  -0.000024   0.000004
    16  C    0.000000   0.000000   0.000005  -0.000175   0.000058   0.000004
    17  C    0.000012  -0.000001   0.000043   0.002197  -0.000463   0.000156
    18  C    0.000774  -0.000381   0.000890   0.004065  -0.000520   0.000254
    19  C    0.000493  -0.001127  -0.000204  -0.001092   0.000006  -0.000016
    20  H   -0.000196   0.000055   0.000004   0.000005   0.000000   0.000000
    21  H   -0.000205   0.000622  -0.000325  -0.000024   0.000001  -0.000002
    22  H    0.000090  -0.000252   0.003134   0.000539   0.000016   0.000284
    23  H   -0.000033   0.000191  -0.000356   0.000232   0.000241  -0.000102
    24  H    0.000000   0.000000   0.000001   0.000000   0.000000  -0.000023
    25  H    0.000000   0.000000   0.000000   0.000000   0.000000   0.000009
    26  H    0.000000   0.000000   0.000000   0.000000   0.000001  -0.000013
    27  H    0.000000   0.000000   0.000005   0.000052   0.000025   0.000326
    28  H    0.000000   0.000000  -0.000003  -0.000046   0.000238   0.000280
    29  H    0.000000   0.000000   0.000000   0.000000   0.000000   0.000000
    30  H    0.000000   0.000000   0.000000   0.000000   0.000000   0.000000
    31  H    0.000000   0.000000   0.000000  -0.000004   0.000001   0.000000
    32  H    0.000011   0.000008   0.000025   0.000478   0.000032   0.000068
    33  H   -0.000063   0.000054   0.000012  -0.000225   0.000243  -0.000041
    34  H   -0.000075  -0.000016  -0.000010  -0.000022   0.000000   0.000000
    35  Ag  -0.001288  -0.001454  -0.016243  -0.033311  -0.006122  -0.027405
               7          8          9         10         11         12
     1  C    0.000022  -0.000001   0.000000   0.000000   0.000000   0.000004
     2  C   -0.000202   0.000016   0.000000   0.000000   0.000002   0.000004
     3  C    0.001156  -0.000148   0.000010  -0.000002   0.000054   0.000040
     4  C    0.000333  -0.000029   0.000006   0.000002   0.000144   0.003093
     5  N   -0.000551   0.000011  -0.000022   0.000052  -0.000427   0.001726
     6  C    0.003272  -0.000920  -0.000428   0.001826   0.001479   0.002728
     7  C   -0.003320  -0.004600   0.000882  -0.000493   0.001070   0.000309
     8  C   -0.004600   0.027543   0.000239  -0.001003  -0.000188  -0.000018
     9  C    0.000882   0.000239  -0.008793  -0.003541   0.001089   0.000024
    10  C   -0.000493  -0.001003  -0.003541   0.031337  -0.002414  -0.000151
    11  C    0.001070  -0.000188   0.001089  -0.002414  -0.000346   0.001886
    12  C    0.000309  -0.000018   0.000024  -0.000151   0.001886   0.025952
    13  C    0.000071   0.000005   0.000023  -0.000194   0.001423   0.004007
    14  C   -0.000002   0.000000  -0.000001   0.000017  -0.000187  -0.001213
    15  C    0.000000   0.000000   0.000000   0.000000   0.000012  -0.000562
    16  C   -0.000001   0.000000   0.000000   0.000000  -0.000002   0.002409
    17  C    0.000029   0.000000   0.000000   0.000002   0.000091   0.002550
    18  C    0.000047  -0.000002   0.000000  -0.000001   0.000024   0.000085
    19  C    0.000007   0.000000   0.000000   0.000000   0.000000  -0.000019
    20  H    0.000000   0.000000   0.000000   0.000000   0.000000   0.000000
    21  H   -0.000004   0.000000   0.000000   0.000000   0.000000   0.000000
    22  H    0.000447  -0.000063   0.000009   0.000005   0.000020   0.000072
    23  H   -0.001413   0.000194  -0.000067   0.000055  -0.000009  -0.000045
    24  H   -0.000038   0.000434  -0.000064  -0.000017  -0.000008   0.000000
    25  H   -0.000021  -0.000072  -0.000233   0.000075   0.000001   0.000000
    26  H   -0.000023   0.000002  -0.000247   0.000609  -0.000359  -0.000003
    27  H    0.000032  -0.000013   0.000080  -0.000196   0.003138   0.000301
    28  H   -0.000059  -0.000022  -0.000032   0.000176  -0.000408  -0.000115
    29  H    0.000000   0.000000   0.000000   0.000000   0.000001  -0.000029
    30  H    0.000000   0.000000   0.000000   0.000000   0.000000   0.000011
    31  H    0.000000   0.000000   0.000000   0.000000   0.000000  -0.000016
    32  H    0.000005   0.000000   0.000000   0.000000   0.000009   0.000521
    33  H   -0.000020   0.000000   0.000000   0.000000  -0.000005   0.000344
    34  H    0.000000   0.000000   0.000000   0.000000   0.000000   0.000000
    35  Ag  -0.006302   0.001622  -0.001288  -0.001182  -0.018002  -0.033463
              13         14         15         16         17         18
     1  C    0.000000   0.000000   0.000000   0.000000   0.000012   0.000774
     2  C   -0.000001   0.000000   0.000000   0.000000  -0.000001  -0.000381
     3  C    0.000021   0.000000   0.000000   0.000005   0.000043   0.000890
     4  C    0.000342  -0.000018   0.000026  -0.000175   0.002197   0.004065
     5  N   -0.000620   0.000011  -0.000024   0.000058  -0.000463  -0.000520
     6  C    0.000185  -0.000023   0.000004   0.000004   0.000156   0.000254
     7  C    0.000071  -0.000002   0.000000  -0.000001   0.000029   0.000047
     8  C    0.000005   0.000000   0.000000   0.000000   0.000000  -0.000002
     9  C    0.000023  -0.000001   0.000000   0.000000   0.000000   0.000000
    10  C   -0.000194   0.000017   0.000000   0.000000   0.000002  -0.000001
    11  C    0.001423  -0.000187   0.000012  -0.000002   0.000091   0.000024
    12  C    0.004007  -0.001213  -0.000562   0.002409   0.002550   0.000085
    13  C   -0.005313  -0.005601   0.001067  -0.000627   0.001469   0.000062
    14  C   -0.005601   0.034888   0.000335  -0.001287  -0.000287   0.000007
    15  C    0.001067   0.000335  -0.011516  -0.004321   0.001423   0.000025
    16  C   -0.000627  -0.001287  -0.004321   0.039564  -0.003029  -0.000214
    17  C    0.001469  -0.000287   0.001423  -0.003029  -0.000284   0.001533
    18  C    0.000062   0.000007   0.000025  -0.000214   0.001533  -0.003726
    19  C   -0.000002   0.000000  -0.000001   0.000017  -0.000194  -0.004894
    20  H    0.000000   0.000000   0.000000   0.000000   0.000000  -0.000015
    21  H    0.000000   0.000000   0.000000   0.000000   0.000000  -0.000020
    22  H    0.000005   0.000000   0.000000   0.000000   0.000010   0.000038
    23  H   -0.000019   0.000000   0.000000   0.000000  -0.000006  -0.000042
    24  H    0.000000   0.000000   0.000000   0.000000   0.000000   0.000000
    25  H    0.000000   0.000000   0.000000   0.000000   0.000000   0.000000
    26  H   -0.000005   0.000001   0.000000   0.000000   0.000000   0.000000
    27  H    0.000414  -0.000058   0.000009   0.000006   0.000033   0.000004
    28  H   -0.001344   0.000174  -0.000066   0.000058  -0.000021  -0.000017
    29  H   -0.000063   0.000561  -0.000085  -0.000019  -0.000010   0.000000
    30  H   -0.000023  -0.000093  -0.000275   0.000078   0.000003   0.000000
    31  H   -0.000029   0.000002  -0.000286   0.000755  -0.000446  -0.000005
    32  H    0.000086  -0.000024   0.000126  -0.000389   0.004541   0.000534
    33  H   -0.000062  -0.000027  -0.000037   0.000210  -0.000492  -0.001368
    34  H    0.000000   0.000000   0.000000   0.000000   0.000002  -0.000044
    35  Ag  -0.007311   0.002039  -0.001627  -0.001526  -0.024830  -0.006574
              19         20         21         22         23         24
     1  C    0.000493  -0.000196  -0.000205   0.000090  -0.000033   0.000000
     2  C   -0.001127   0.000055   0.000622  -0.000252   0.000191   0.000000
     3  C   -0.000204   0.000004  -0.000325   0.003134  -0.000356   0.000001
     4  C   -0.001092   0.000005  -0.000024   0.000539   0.000232   0.000000
     5  N    0.000006   0.000000   0.000001   0.000016   0.000241   0.000000
     6  C   -0.000016   0.000000  -0.000002   0.000284  -0.000102  -0.000023
     7  C    0.000007   0.000000  -0.000004   0.000447  -0.001413  -0.000038
     8  C    0.000000   0.000000   0.000000  -0.000063   0.000194   0.000434
     9  C    0.000000   0.000000   0.000000   0.000009  -0.000067  -0.000064
    10  C    0.000000   0.000000   0.000000   0.000005   0.000055  -0.000017
    11  C    0.000000   0.000000   0.000000   0.000020  -0.000009  -0.000008
    12  C   -0.000019   0.000000   0.000000   0.000072  -0.000045   0.000000
    13  C   -0.000002   0.000000   0.000000   0.000005  -0.000019   0.000000
    14  C    0.000000   0.000000   0.000000   0.000000   0.000000   0.000000
    15  C   -0.000001   0.000000   0.000000   0.000000   0.000000   0.000000
    16  C    0.000017   0.000000   0.000000   0.000000   0.000000   0.000000
    17  C   -0.000194   0.000000   0.000000   0.000010  -0.000006   0.000000
    18  C   -0.004894  -0.000015  -0.000020   0.000038  -0.000042   0.000000
    19  C    0.029105  -0.000084  -0.000001  -0.000016  -0.000025   0.000000
    20  H   -0.000084   0.000694   0.000027  -0.000001   0.000000   0.000000
    21  H   -0.000001   0.000027  -0.001447  -0.000026   0.000003   0.000000
    22  H   -0.000016  -0.000001  -0.000026   0.000327  -0.000108   0.000001
    23  H   -0.000025   0.000000   0.000003  -0.000108   0.001096  -0.000010
    24  H    0.000000   0.000000   0.000000   0.000001  -0.000010  -0.001421
    25  H    0.000000   0.000000   0.000000   0.000000   0.000004   0.000007
    26  H    0.000000   0.000000   0.000000   0.000000   0.000001   0.000000
    27  H    0.000000   0.000000   0.000000   0.000010  -0.000005   0.000000
    28  H    0.000000   0.000000   0.000000  -0.000001   0.000022   0.000000
    29  H    0.000000   0.000000   0.000000   0.000000   0.000000   0.000000
    30  H    0.000000   0.000000   0.000000   0.000000   0.000000   0.000000
    31  H    0.000001   0.000000   0.000000   0.000000   0.000000   0.000000
    32  H   -0.000088   0.000000   0.000000   0.000013  -0.000001   0.000000
    33  H    0.000184   0.000004   0.000001  -0.000007   0.000023   0.000000
    34  H    0.000468   0.000009   0.000000   0.000000   0.000000   0.000000
    35  Ag   0.001855   0.000073   0.000271  -0.005798   0.001086  -0.000018
              25         26         27         28         29         30
     1  C    0.000000   0.000000   0.000000   0.000000   0.000000   0.000000
     2  C    0.000000   0.000000   0.000000   0.000000   0.000000   0.000000
     3  C    0.000000   0.000000   0.000005  -0.000003   0.000000   0.000000
     4  C    0.000000   0.000000   0.000052  -0.000046   0.000000   0.000000
     5  N    0.000000   0.000001   0.000025   0.000238   0.000000   0.000000
     6  C    0.000009  -0.000013   0.000326   0.000280   0.000000   0.000000
     7  C   -0.000021  -0.000023   0.000032  -0.000059   0.000000   0.000000
     8  C   -0.000072   0.000002  -0.000013  -0.000022   0.000000   0.000000
     9  C   -0.000233  -0.000247   0.000080  -0.000032   0.000000   0.000000
    10  C    0.000075   0.000609  -0.000196   0.000176   0.000000   0.000000
    11  C    0.000001  -0.000359   0.003138  -0.000408   0.000001   0.000000
    12  C    0.000000  -0.000003   0.000301  -0.000115  -0.000029   0.000011
    13  C    0.000000  -0.000005   0.000414  -0.001344  -0.000063  -0.000023
    14  C    0.000000   0.000001  -0.000058   0.000174   0.000561  -0.000093
    15  C    0.000000   0.000000   0.000009  -0.000066  -0.000085  -0.000275
    16  C    0.000000   0.000000   0.000006   0.000058  -0.000019   0.000078
    17  C    0.000000   0.000000   0.000033  -0.000021  -0.000010   0.000003
    18  C    0.000000   0.000000   0.000004  -0.000017   0.000000   0.000000
    19  C    0.000000   0.000000   0.000000   0.000000   0.000000   0.000000
    20  H    0.000000   0.000000   0.000000   0.000000   0.000000   0.000000
    21  H    0.000000   0.000000   0.000000   0.000000   0.000000   0.000000
    22  H    0.000000   0.000000   0.000010  -0.000001   0.000000   0.000000
    23  H    0.000004   0.000001  -0.000005   0.000022   0.000000   0.000000
    24  H    0.000007   0.000000   0.000000   0.000000   0.000000   0.000000
    25  H    0.000692   0.000031  -0.000001   0.000001   0.000000   0.000000
    26  H    0.000031  -0.001282  -0.000031   0.000004   0.000000   0.000000
    27  H   -0.000001  -0.000031   0.000016  -0.000096   0.000001   0.000000
    28  H    0.000001   0.000004  -0.000096   0.001121  -0.000005   0.000004
    29  H    0.000000   0.000000   0.000001  -0.000005  -0.001806   0.000010
    30  H    0.000000   0.000000   0.000000   0.000004   0.000010   0.000871
    31  H    0.000000   0.000000   0.000000   0.000001   0.000000   0.000037
    32  H    0.000000   0.000000   0.000011  -0.000008   0.000000  -0.000002
    33  H    0.000000   0.000000  -0.000001   0.000022   0.000000   0.000001
    34  H    0.000000   0.000000   0.000000   0.000000   0.000000   0.000000
    35  Ag   0.000071   0.000315  -0.005261   0.001095  -0.000022   0.000092
              31         32         33         34         35
     1  C    0.000000   0.000011  -0.000063  -0.000075  -0.001288
     2  C    0.000000   0.000008   0.000054  -0.000016  -0.001454
     3  C    0.000000   0.000025   0.000012  -0.000010  -0.016243
     4  C   -0.000004   0.000478  -0.000225  -0.000022  -0.033311
     5  N    0.000001   0.000032   0.000243   0.000000  -0.006122
     6  C    0.000000   0.000068  -0.000041   0.000000  -0.027405
     7  C    0.000000   0.000005  -0.000020   0.000000  -0.006302
     8  C    0.000000   0.000000   0.000000   0.000000   0.001622
     9  C    0.000000   0.000000   0.000000   0.000000  -0.001288
    10  C    0.000000   0.000000   0.000000   0.000000  -0.001182
    11  C    0.000000   0.000009  -0.000005   0.000000  -0.018002
    12  C   -0.000016   0.000521   0.000344   0.000000  -0.033463
    13  C   -0.000029   0.000086  -0.000062   0.000000  -0.007311
    14  C    0.000002  -0.000024  -0.000027   0.000000   0.002039
    15  C   -0.000286   0.000126  -0.000037   0.000000  -0.001627
    16  C    0.000755  -0.000389   0.000210   0.000000  -0.001526
    17  C   -0.000446   0.004541  -0.000492   0.000002  -0.024830
    18  C   -0.000005   0.000534  -0.001368  -0.000044  -0.006574
    19  C    0.000001  -0.000088   0.000184   0.000468   0.001855
    20  H    0.000000   0.000000   0.000004   0.000009   0.000073
    21  H    0.000000   0.000000   0.000001   0.000000   0.000271
    22  H    0.000000   0.000013  -0.000007   0.000000  -0.005798
    23  H    0.000000  -0.000001   0.000023   0.000000   0.001086
    24  H    0.000000   0.000000   0.000000   0.000000  -0.000018
    25  H    0.000000   0.000000   0.000000   0.000000   0.000071
    26  H    0.000000   0.000000   0.000000   0.000000   0.000315
    27  H    0.000000   0.000011  -0.000001   0.000000  -0.005261
    28  H    0.000001  -0.000008   0.000022   0.000000   0.001095
    29  H    0.000000   0.000000   0.000000   0.000000  -0.000022
    30  H    0.000037  -0.000002   0.000001   0.000000   0.000092
    31  H   -0.001655  -0.000048   0.000004   0.000000   0.000404
    32  H   -0.000048   0.000486  -0.000129   0.000001  -0.007952
    33  H    0.000004  -0.000129   0.001109  -0.000011   0.001201
    34  H    0.000000   0.000001  -0.000011  -0.001504  -0.000022
    35  Ag   0.000404  -0.007952   0.001201  -0.000022   1.131752
 Mulliken charges and spin densities:
               1          2
     1  C    0.002172  -0.013056
     2  C   -0.009022   0.026893
     3  C   -0.023042  -0.012997
     4  C    0.070301   0.006781
     5  N   -0.307132   0.000246
     6  C    0.081458   0.007357
     7  C   -0.024959  -0.009368
     8  C   -0.016185   0.022989
     9  C    0.001717  -0.012352
    10  C   -0.009887   0.024962
    11  C   -0.026288  -0.011913
    12  C    0.071195   0.010434
    13  C   -0.023226  -0.012031
    14  C   -0.016180   0.029215
    15  C    0.002210  -0.015774
    16  C   -0.007352   0.031574
    17  C   -0.028727  -0.015974
    18  C   -0.022290  -0.009481
    19  C   -0.016563   0.024372
    20  H    0.014173   0.000575
    21  H    0.017645  -0.001128
    22  H    0.051112  -0.001251
    23  H    0.024029   0.000907
    24  H    0.016227  -0.001155
    25  H    0.014076   0.000564
    26  H    0.017378  -0.001000
    27  H    0.050384  -0.001199
    28  H    0.024569   0.000952
    29  H    0.016576  -0.001466
    30  H    0.014336   0.000712
    31  H    0.018124  -0.001284
    32  H    0.055761  -0.001684
    33  H    0.024109   0.000925
    34  H    0.016275  -0.001225
    35  Ag  -0.072973   0.934879
 Sum of Mulliken charges =   0.00000   1.00000
 Mulliken charges and spin densities with hydrogens summed into heavy atoms:
               1          2
     1  C    0.016345  -0.012481
     2  C    0.008623   0.025766
     3  C    0.028070  -0.014248
     4  C    0.070301   0.006781
     5  N   -0.307132   0.000246
     6  C    0.081458   0.007357
     7  C   -0.000930  -0.008461
     8  C    0.000042   0.021834
     9  C    0.015793  -0.011789
    10  C    0.007491   0.023962
    11  C    0.024096  -0.013111
    12  C    0.071195   0.010434
    13  C    0.001342  -0.011079
    14  C    0.000396   0.027749
    15  C    0.016546  -0.015062
    16  C    0.010772   0.030290
    17  C    0.027034  -0.017658
    18  C    0.001820  -0.008556
    19  C   -0.000289   0.023148
    35  Ag  -0.072973   0.934879
 Electronic spatial extent (au):  <R**2>=           5355.9510
 Charge=              0.0000 electrons
 Dipole moment (field-independent basis, Debye):
    X=             -0.9158    Y=              1.4330    Z=              1.7468  Tot=              2.4379
 Quadrupole moment (field-independent basis, Debye-Ang):
   XX=           -122.6454   YY=           -127.0512   ZZ=           -131.5264
   XY=              4.6892   XZ=              5.9607   YZ=             -9.5309
 Traceless Quadrupole moment (field-independent basis, Debye-Ang):
   XX=              4.4289   YY=              0.0232   ZZ=             -4.4521
   XY=              4.6892   XZ=              5.9607   YZ=             -9.5309
 Octapole moment (field-independent basis, Debye-Ang**2):
  XXX=            -47.8239  YYY=             97.4642  ZZZ=            129.9484  XYY=            -32.0679
  XXY=             26.4979  XXZ=             52.2254  XZZ=            -24.8250  YZZ=             48.6947
  YYZ=             44.3101  XYZ=             -1.7158
 Hexadecapole moment (field-independent basis, Debye-Ang**3):
 XXXX=          -2687.4605 YYYY=          -2358.7675 ZZZZ=          -2162.4460 XXXY=           -150.4082
 XXXZ=           -250.4754 YYYX=           -158.6232 YYYZ=            310.3473 ZZZX=           -149.6040
 ZZZY=            342.8115 XXYY=           -928.8830 XXZZ=           -836.6293 YYZZ=           -797.0652
 XXYZ=            109.6190 YYXZ=            -97.8298 ZZXY=           -102.1759
 N-N= 1.662771468230D+03 E-N=-5.375106303538D+03  KE= 7.973329422886D+02
                          Isotropic Fermi Contact Couplings
        Atom                 a.u.       MegaHertz       Gauss      10(-4) cm-1
     1  C(13)             -0.00242      -2.71854      -0.97004      -0.90681
     2  C(13)              0.00443       4.98130       1.77745       1.66158
     3  C(13)              0.01104      12.41488       4.42994       4.14116
     4  C(13)              0.00630       7.07710       2.52528       2.36067
     5  N(14)              0.00362       1.17026       0.41758       0.39036
     6  C(13)              0.00538       6.05093       2.15912       2.01837
     7  C(13)             -0.00143      -1.60390      -0.57231      -0.53500
     8  C(13)              0.00363       4.07634       1.45454       1.35972
     9  C(13)             -0.00223      -2.50627      -0.89430      -0.83600
    10  C(13)              0.00407       4.57203       1.63141       1.52506
    11  C(13)              0.01133      12.73217       4.54316       4.24700
    12  C(13)              0.00687       7.71802       2.75398       2.57445
    13  C(13)             -0.00198      -2.22538      -0.79407      -0.74231
    14  C(13)              0.00463       5.20957       1.85890       1.73772
    15  C(13)             -0.00288      -3.23777      -1.15532      -1.08000
    16  C(13)              0.00521       5.86048       2.09116       1.95484
    17  C(13)              0.01454      16.34729       5.83312       5.45287
    18  C(13)             -0.00149      -1.67616      -0.59810      -0.55911
    19  C(13)              0.00383       4.30343       1.53557       1.43547
    20  H(1)               0.00016       0.70052       0.24996       0.23367
    21  H(1)              -0.00036      -1.63053      -0.58182      -0.54389
    22  H(1)               0.00050       2.23709       0.79825       0.74621
    23  H(1)               0.00007       0.29419       0.10498       0.09813
    24  H(1)              -0.00033      -1.46095      -0.52130      -0.48732
    25  H(1)               0.00015       0.68859       0.24571       0.22969
    26  H(1)              -0.00033      -1.48275      -0.52908      -0.49459
    27  H(1)               0.00041       1.85025       0.66021       0.61718
    28  H(1)               0.00009       0.40001       0.14273       0.13343
    29  H(1)              -0.00041      -1.85496      -0.66190      -0.61875
    30  H(1)               0.00019       0.86784       0.30967       0.28948
    31  H(1)              -0.00042      -1.89471      -0.67608      -0.63201
    32  H(1)               0.00058       2.58362       0.92190       0.86180
    33  H(1)               0.00006       0.27689       0.09880       0.09236
    34  H(1)              -0.00035      -1.54826      -0.55246      -0.51644
    35  Ag(107             0.00031      -0.05620      -0.02005      -0.01874
 --------------------------------------------------------
       Center         ----  Spin Dipole Couplings  ----
                      3XX-RR        3YY-RR        3ZZ-RR
 --------------------------------------------------------
     1   Atom        0.005546      0.003105     -0.008651
     2   Atom       -0.012618     -0.011112      0.023730
     3   Atom        0.011743      0.000502     -0.012244
     4   Atom       -0.006851     -0.009349      0.016201
     5   Atom       -0.005546      0.000250      0.005295
     6   Atom       -0.009664      0.010501     -0.000837
     7   Atom        0.001178     -0.006508      0.005330
     8   Atom       -0.011310      0.017758     -0.006448
     9   Atom        0.003536     -0.008206      0.004671
    10   Atom       -0.010369      0.020737     -0.010368
    11   Atom        0.001574     -0.013623      0.012049
    12   Atom        0.008605     -0.002810     -0.005794
    13   Atom       -0.005836      0.006659     -0.000822
    14   Atom        0.015059     -0.009148     -0.005911
    15   Atom       -0.006865      0.006358      0.000507
    16   Atom        0.015917     -0.013488     -0.002429
    17   Atom       -0.012465      0.016710     -0.004246
    18   Atom        0.004105      0.000634     -0.004739
    19   Atom       -0.009615     -0.011307      0.020922
    20   Atom        0.000603     -0.000232     -0.000370
    21   Atom       -0.001787      0.001344      0.000443
    22   Atom       -0.001552     -0.004456      0.006007
    23   Atom       -0.000973     -0.001290      0.002262
    24   Atom       -0.001886     -0.000351      0.002237
    25   Atom       -0.000006     -0.000677      0.000683
    26   Atom        0.001463     -0.000414     -0.001049
    27   Atom       -0.003099      0.001952      0.001147
    28   Atom       -0.001520      0.001946     -0.000426
    29   Atom       -0.000530      0.002390     -0.001860
    30   Atom       -0.000456      0.000982     -0.000526
    31   Atom        0.000632     -0.001177      0.000545
    32   Atom        0.002772      0.003331     -0.006104
    33   Atom        0.001270     -0.000571     -0.000699
    34   Atom        0.002010     -0.001812     -0.000198
    35   Atom        0.006598     -0.001118     -0.005480
 --------------------------------------------------------
                        XY            XZ            YZ
 --------------------------------------------------------
     1   Atom       -0.000286     -0.002039     -0.002993
     2   Atom        0.002456      0.003823      0.008970
     3   Atom       -0.000601     -0.006748     -0.004427
     4   Atom       -0.001080     -0.005254      0.004543
     5   Atom       -0.005216     -0.006593      0.011100
     6   Atom       -0.000245      0.000485      0.010848
     7   Atom        0.001895      0.001354     -0.000104
     8   Atom       -0.002645     -0.000083      0.008703
     9   Atom        0.001829      0.001165     -0.003110
    10   Atom       -0.006168     -0.000184      0.008971
    11   Atom        0.003247      0.004561     -0.003506
    12   Atom       -0.010973     -0.011251      0.006615
    13   Atom       -0.000133      0.004595      0.000200
    14   Atom       -0.008325     -0.016156      0.004860
    15   Atom        0.002993      0.006988     -0.001660
    16   Atom       -0.007914     -0.020668      0.003296
    17   Atom        0.003434      0.009182     -0.001534
    18   Atom       -0.000748     -0.004095     -0.001777
    19   Atom        0.000205      0.001298      0.006012
    20   Atom        0.000065     -0.000685     -0.000427
    21   Atom        0.000158     -0.000909     -0.001502
    22   Atom        0.000343     -0.004595     -0.002983
    23   Atom       -0.000221     -0.000099      0.000550
    24   Atom       -0.000103      0.000415     -0.000133
    25   Atom        0.000407      0.000497      0.000111
    26   Atom        0.001599     -0.000067      0.000862
    27   Atom        0.004575      0.003254      0.005172
    28   Atom       -0.000058     -0.000091      0.001180
    29   Atom        0.000619     -0.000583      0.000980
    30   Atom       -0.000230      0.000491     -0.000049
    31   Atom       -0.001567      0.001750     -0.000077
    32   Atom       -0.006645     -0.000065      0.001113
    33   Atom       -0.000897     -0.001385      0.000747
    34   Atom       -0.000887     -0.000627      0.000361
    35   Atom        0.008657      0.008243     -0.012265
 --------------------------------------------------------


 ---------------------------------------------------------------------------------
              Anisotropic Spin Dipole Couplings in Principal Axis System
 ---------------------------------------------------------------------------------

       Atom             a.u.   MegaHertz   Gauss  10(-4) cm-1        Axes

              Baa    -0.0096    -1.294    -0.462    -0.432  0.1337  0.2293  0.9641
     1 C(13)  Bbb     0.0038     0.510     0.182     0.170 -0.0952  0.9713 -0.2178
              Bcc     0.0058     0.784     0.280     0.261  0.9864  0.0627 -0.1518
 
              Baa    -0.0147    -1.968    -0.702    -0.657 -0.6796  0.7265 -0.1020
     2 C(13)  Bbb    -0.0117    -1.571    -0.561    -0.524  0.7254  0.6447 -0.2414
              Bcc     0.0264     3.540     1.263     1.181  0.1096  0.2381  0.9650
 
              Baa    -0.0153    -2.048    -0.731    -0.683  0.2390  0.2710  0.9324
     3 C(13)  Bbb     0.0017     0.232     0.083     0.077 -0.1114  0.9616 -0.2509
              Bcc     0.0135     1.816     0.648     0.606  0.9646  0.0439 -0.2600
 
              Baa    -0.0101    -1.362    -0.486    -0.454  0.0761  0.9850 -0.1547
     4 C(13)  Bbb    -0.0080    -1.072    -0.383    -0.358  0.9748 -0.0409  0.2194
              Bcc     0.0181     2.434     0.868     0.812 -0.2098  0.1675  0.9633
 
              Baa    -0.0087    -0.334    -0.119    -0.111  0.7995 -0.2253  0.5567
     5 N(14)  Bbb    -0.0086    -0.331    -0.118    -0.111  0.4910  0.7791 -0.3898
              Bcc     0.0173     0.666     0.237     0.222 -0.3459  0.5850  0.7336
 
              Baa    -0.0098    -1.313    -0.469    -0.438  0.9750  0.1137 -0.1907
     6 C(13)  Bbb    -0.0073    -0.978    -0.349    -0.326  0.2220 -0.5055  0.8338
              Bcc     0.0171     2.291     0.817     0.764  0.0015  0.8553  0.5181
 
              Baa    -0.0070    -0.934    -0.333    -0.312 -0.2319  0.9721  0.0337
     7 C(13)  Bbb     0.0012     0.163     0.058     0.054  0.9259  0.2313 -0.2987
              Bcc     0.0057     0.771     0.275     0.257  0.2982  0.0381  0.9537
 
              Baa    -0.0117    -1.574    -0.561    -0.525  0.9562  0.1584 -0.2460
     8 C(13)  Bbb    -0.0090    -1.213    -0.433    -0.404  0.2817 -0.2711  0.9204
              Bcc     0.0208     2.786     0.994     0.929 -0.0791  0.9494  0.3039
 
              Baa    -0.0092    -1.241    -0.443    -0.414 -0.1583  0.9607  0.2280
     9 C(13)  Bbb     0.0036     0.480     0.171     0.160  0.9171  0.2286 -0.3267
              Bcc     0.0057     0.761     0.271     0.254  0.3660 -0.1574  0.9172
 
              Baa    -0.0136    -1.831    -0.653    -0.611 -0.5235 -0.3018  0.7968
    10 C(13)  Bbb    -0.0105    -1.414    -0.505    -0.472  0.8346  0.0066  0.5508
              Bcc     0.0242     3.245     1.158     1.083 -0.1715  0.9533  0.2484
 
              Baa    -0.0150    -2.014    -0.719    -0.672 -0.2327  0.9587  0.1635
    11 C(13)  Bbb     0.0011     0.144     0.052     0.048  0.9162  0.2724 -0.2938
              Bcc     0.0139     1.870     0.667     0.624  0.3262 -0.0814  0.9418
 
              Baa    -0.0120    -1.616    -0.577    -0.539  0.4011 -0.1685  0.9004
    12 C(13)  Bbb    -0.0095    -1.270    -0.453    -0.423  0.4923  0.8686 -0.0567
              Bcc     0.0215     2.886     1.030     0.963  0.7725 -0.4660 -0.4313
 
              Baa    -0.0086    -1.150    -0.410    -0.383  0.8598  0.0142 -0.5105
    13 C(13)  Bbb     0.0019     0.255     0.091     0.085  0.5107 -0.0219  0.8595
              Bcc     0.0067     0.894     0.319     0.298 -0.0011  0.9997  0.0261
 
              Baa    -0.0147    -1.975    -0.705    -0.659  0.4545 -0.0936  0.8858
    14 C(13)  Bbb    -0.0117    -1.574    -0.562    -0.525  0.2748  0.9607 -0.0395
              Bcc     0.0264     3.548     1.266     1.184  0.8473 -0.2613 -0.4624
 
              Baa    -0.0117    -1.574    -0.562    -0.525  0.8421 -0.1859 -0.5062
    15 C(13)  Bbb     0.0047     0.633     0.226     0.211  0.5061 -0.0520  0.8609
              Bcc     0.0070     0.941     0.336     0.314  0.1864  0.9812 -0.0502
 
              Baa    -0.0171    -2.288    -0.816    -0.763  0.5226  0.6031  0.6027
    16 C(13)  Bbb    -0.0139    -1.866    -0.666    -0.622 -0.2074  0.7756 -0.5962
              Bcc     0.0310     4.154     1.482     1.386  0.8270 -0.1866 -0.5304
 
              Baa    -0.0188    -2.523    -0.900    -0.842  0.8362 -0.1041 -0.5384
    17 C(13)  Bbb     0.0017     0.226     0.081     0.075  0.5377 -0.0369  0.8423
              Bcc     0.0171     2.297     0.820     0.766  0.1076  0.9939 -0.0251
 
              Baa    -0.0068    -0.918    -0.328    -0.306  0.3542  0.2497  0.9012
    18 C(13)  Bbb     0.0011     0.152     0.054     0.051 -0.0817  0.9683 -0.2362
              Bcc     0.0057     0.766     0.273     0.256  0.9316 -0.0101 -0.3633
 
              Baa    -0.0124    -1.663    -0.593    -0.555  0.0106  0.9840 -0.1780
    19 C(13)  Bbb    -0.0097    -1.297    -0.463    -0.433  0.9991 -0.0178 -0.0389
              Bcc     0.0221     2.960     1.056     0.988  0.0414  0.1774  0.9833
 
              Baa    -0.0009    -0.487    -0.174    -0.162  0.3455  0.4747  0.8095
    20 H(1)   Bbb    -0.0001    -0.053    -0.019    -0.018 -0.4015  0.8545 -0.3297
              Bcc     0.0010     0.540     0.193     0.180  0.8482  0.2111 -0.4858
 
              Baa    -0.0022    -1.151    -0.411    -0.384  0.9111  0.1272  0.3921
    21 H(1)   Bbb    -0.0004    -0.219    -0.078    -0.073 -0.3815  0.6207  0.6850
              Bcc     0.0026     1.370     0.489     0.457  0.1563  0.7737 -0.6140
 
              Baa    -0.0056    -2.962    -1.057    -0.988  0.3374  0.8703  0.3587
    22 H(1)   Bbb    -0.0032    -1.729    -0.617    -0.577  0.8509 -0.4450  0.2793
              Bcc     0.0088     4.691     1.674     1.565 -0.4027 -0.2110  0.8907
 
              Baa    -0.0015    -0.778    -0.278    -0.260  0.3891  0.9127 -0.1245
    23 H(1)   Bbb    -0.0009    -0.476    -0.170    -0.159  0.9203 -0.3794  0.0949
              Bcc     0.0024     1.254     0.448     0.418 -0.0394  0.1515  0.9877
 
              Baa    -0.0019    -1.031    -0.368    -0.344  0.9937  0.0566 -0.0971
    24 H(1)   Bbb    -0.0004    -0.189    -0.067    -0.063 -0.0510  0.9969  0.0594
              Bcc     0.0023     1.220     0.435     0.407  0.1002 -0.0540  0.9935
 
              Baa    -0.0009    -0.469    -0.167    -0.156 -0.4599  0.8841  0.0834
    25 H(1)   Bbb    -0.0001    -0.062    -0.022    -0.021  0.7378  0.4327 -0.5181
              Bcc     0.0010     0.531     0.189     0.177  0.4941  0.1767  0.8513
 
              Baa    -0.0020    -1.065    -0.380    -0.355 -0.3299  0.6864 -0.6481
    26 H(1)   Bbb    -0.0004    -0.226    -0.081    -0.076 -0.4093  0.5146  0.7534
              Bcc     0.0024     1.292     0.461     0.431  0.8507  0.5138  0.1112
 
              Baa    -0.0058    -3.099    -1.106    -1.034  0.8748 -0.4818 -0.0509
    27 H(1)   Bbb    -0.0034    -1.839    -0.656    -0.613 -0.2551 -0.5474  0.7970
              Bcc     0.0093     4.938     1.762     1.647  0.4119  0.6842  0.6018
 
              Baa    -0.0015    -0.815    -0.291    -0.272  0.9948 -0.0176  0.1008
    28 H(1)   Bbb    -0.0009    -0.484    -0.173    -0.161 -0.0999 -0.3820  0.9188
              Bcc     0.0024     1.299     0.463     0.433 -0.0223  0.9240  0.3818
 
              Baa    -0.0024    -1.256    -0.448    -0.419  0.3674 -0.2339  0.9001
    29 H(1)   Bbb    -0.0003    -0.174    -0.062    -0.058  0.9175 -0.0674 -0.3920
              Bcc     0.0027     1.429     0.510     0.477  0.1524  0.9699  0.1899
 
              Baa    -0.0010    -0.529    -0.189    -0.176 -0.6893 -0.0626  0.7217
    30 H(1)   Bbb     0.0000    -0.020    -0.007    -0.007  0.7015  0.1912  0.6866
              Bcc     0.0010     0.549     0.196     0.183 -0.1810  0.9795 -0.0879
 
              Baa    -0.0024    -1.263    -0.451    -0.421  0.5812  0.7440 -0.3298
    31 H(1)   Bbb    -0.0004    -0.189    -0.067    -0.063 -0.3471  0.5932  0.7264
              Bcc     0.0027     1.452     0.518     0.484  0.7361 -0.3077  0.6029
 
              Baa    -0.0063    -3.382    -1.207    -1.128 -0.1486 -0.2133  0.9656
    32 H(1)   Bbb    -0.0034    -1.819    -0.649    -0.607  0.7094  0.6573  0.2543
              Bcc     0.0097     5.201     1.856     1.735 -0.6890  0.7228  0.0536
 
              Baa    -0.0015    -0.813    -0.290    -0.271  0.3032 -0.3949  0.8672
    33 H(1)   Bbb    -0.0009    -0.479    -0.171    -0.160  0.4874  0.8463  0.2150
              Bcc     0.0024     1.292     0.461     0.431  0.8188 -0.3575 -0.4491
 
              Baa    -0.0020    -1.086    -0.387    -0.362  0.1939  0.9730 -0.1249
    34 H(1)   Bbb    -0.0004    -0.190    -0.068    -0.063  0.2791  0.0673  0.9579
              Bcc     0.0024     1.276     0.455     0.425  0.9405 -0.2206 -0.2586
 
              Baa    -0.0209     0.453     0.162     0.151 -0.3972  0.6029  0.6919
    35 Ag(107 Bbb     0.0087    -0.188    -0.067    -0.063  0.3363 -0.6059  0.7210
              Bcc     0.0122    -0.265    -0.095    -0.088  0.8539  0.5191  0.0379
 

 ---------------------------------------------------------------------------------

 No NMR shielding tensors so no spin-rotation constants.
 Leave Link  601 at Sat Sep 12 02:08:47 2026, MaxMem=  6442450944 cpu:               2.0 elap:               2.1
 (Enter C:\G16W\l9999.exe)
 Unable to Open any file for archive entry.
 1|1|UNPC-DESKTOP-2JKEGCA|SP|UPBE1PBE|def2SVP|C18H15Ag1N1(2)|JHKIM|12-S
 ep-2026|0||#P PBE1PBE/Def2SVP EmpiricalDispersion=GD3BJ SP SCF=(XQC,Ma
 xCycle=128) NoSymm Guess=Read||TPA t=0.750 dz=+0.00 class=toface||0,2|
 C,0,-2.892235,-2.902243,0.856125|C,0,-1.550328,-3.244136,0.818755|C,0,
 -0.592488,-2.291023,0.532809|C,0,-0.966825,-0.970209,0.286154|N,0,0.00
 0025,-0.000036,-0.000047|C,0,1.237148,-0.031197,0.653023|C,0,1.319853,
 -0.403699,1.994633|C,0,2.543855,-0.43667,2.633678|C,0,3.700795,-0.0932
 31,1.953573|C,0,3.623838,0.281274,0.622097|C,0,2.405612,0.309797,-0.02
 8101|C,0,-0.270279,1.001344,-0.939259|C,0,0.196201,2.300966,-0.742039|
 C,0,-0.069933,3.284954,-1.674018|C,0,-0.808596,2.995527,-2.809628|C,0,
 -1.277645,1.707329,-3.008482|C,0,-1.010141,0.714471,-2.086353|C,0,-2.3
 18985,-0.630584,0.328955|C,0,-3.269818,-1.592708,0.608027|H,0,-3.63809
 9,-3.650671,1.076924|H,0,-1.24671,-4.263922,1.005046|H,0,0.45246,-2.56
 2347,0.494733|H,0,0.41802,-0.662633,2.530014|H,0,2.593126,-0.724322,3.
 673717|H,0,4.655158,-0.117258,2.457379|H,0,4.521246,0.545089,0.081807|
 H,0,2.349602,0.59285,-1.069124|H,0,0.76419,2.531619,0.147439|H,0,0.295
 028,4.28789,-1.507357|H,0,-1.017132,3.768032,-3.534168|H,0,-1.84946,1.
 470676,-3.893849|H,0,-1.368838,-0.291501,-2.248647|H,0,-2.615351,0.391
 898,0.145433|H,0,-4.313292,-1.315323,0.640753|Ag,0,0.85091588,-1.41459
 467,-1.87749052||Version=EM64W-G16RevC.01|HF=-895.2473315|S2=0.752651|
 S2-1=0.|S2A=0.750007|RMSD=5.260e-009|Dipole=-0.3603087,0.5637987,0.687
 2398|Quadrupole=3.2928108,0.0172165,-3.3100273,3.4863316,4.4316686,-7.
 0859798|PG=C01 [X(C18H15Ag1N1)]||@
 The archive entry for this job was punched.


 I SUPPOSE A BABY LLAMA HAS A MMAMA AND A PPOPA.
     -- RICHARD AMOUR
 Job cpu time:       0 days  0 hours  6 minutes 21.0 seconds.
 Elapsed time:       0 days  0 hours  6 minutes 20.0 seconds.
 File lengths (MBytes):  RWF=    133 Int=      0 D2E=      0 Chk=     11 Scr=      1
 Normal termination of Gaussian 16 at Sat Sep 12 02:08:47 2026.
