 Entering Gaussian System, Link 0=C:\G16W\g16.exe
 Input=TPA_t4_z1.gjf
 Output=TPA_t4_z1.out
 Initial command:
 C:\G16W\l1.exe ".\Gau-153524.inp" "TPA_t4_z1.out" /scrdir=".\"
 Entering Link 1 = C:\G16W\l1.exe PID=     72804.
  
 Copyright (c) 1988-2019, Gaussian, Inc.  All Rights Reserved.
  
 This is part of the Gaussian(R) 16 program.  It is based on
 the Gaussian(R) 09 system (copyright 2009, Gaussian, Inc.),
 the Gaussian(R) 03 system (copyright 2003, Gaussian, Inc.),
 the Gaussian(R) 98 system (copyright 1998, Gaussian, Inc.),
 the Gaussian(R) 94 system (copyright 1995, Gaussian, Inc.),
 the Gaussian 92(TM) system (copyright 1992, Gaussian, Inc.),
 the Gaussian 90(TM) system (copyright 1990, Gaussian, Inc.),
 the Gaussian 88(TM) system (copyright 1988, Gaussian, Inc.),
 the Gaussian 86(TM) system (copyright 1986, Carnegie Mellon
 University), and the Gaussian 82(TM) system (copyright 1983,
 Carnegie Mellon University). Gaussian is a federally registered
 trademark of Gaussian, Inc.
  
 This software contains proprietary and confidential information,
 including trade secrets, belonging to Gaussian, Inc.
  
 This software is provided under written license and may be
 used, copied, transmitted, or stored only in accord with that
 written license.
  
 The following legend is applicable only to US Government
 contracts under FAR:
  
                    RESTRICTED RIGHTS LEGEND
  
 Use, reproduction and disclosure by the US Government is
 subject to restrictions as set forth in subparagraphs (a)
 and (c) of the Commercial Computer Software - Restricted
 Rights clause in FAR 52.227-19.
  
 Gaussian, Inc.
 340 Quinnipiac St., Bldg. 40, Wallingford CT 06492
  
  
 ---------------------------------------------------------------
 Warning -- This program may not be used in any manner that
 competes with the business of Gaussian, Inc. or will provide
 assistance to any competitor of Gaussian, Inc.  The licensee
 of this program is prohibited from giving any competitor of
 Gaussian, Inc. access to this program.  By using this program,
 the user acknowledges that Gaussian, Inc. is engaged in the
 business of creating and licensing software in the field of
 computational chemistry and represents and warrants to the
 licensee that it is not a competitor of Gaussian, Inc. and that
 it will not use this program in any manner prohibited above.
 ---------------------------------------------------------------
  

 Cite this work as:
 Gaussian 16, Revision C.01,
 M. J. Frisch, G. W. Trucks, H. B. Schlegel, G. E. Scuseria, 
 M. A. Robb, J. R. Cheeseman, G. Scalmani, V. Barone, 
 G. A. Petersson, H. Nakatsuji, X. Li, M. Caricato, A. V. Marenich, 
 J. Bloino, B. G. Janesko, R. Gomperts, B. Mennucci, H. P. Hratchian, 
 J. V. Ortiz, A. F. Izmaylov, J. L. Sonnenberg, D. Williams-Young, 
 F. Ding, F. Lipparini, F. Egidi, J. Goings, B. Peng, A. Petrone, 
 T. Henderson, D. Ranasinghe, V. G. Zakrzewski, J. Gao, N. Rega, 
 G. Zheng, W. Liang, M. Hada, M. Ehara, K. Toyota, R. Fukuda, 
 J. Hasegawa, M. Ishida, T. Nakajima, Y. Honda, O. Kitao, H. Nakai, 
 T. Vreven, K. Throssell, J. A. Montgomery, Jr., J. E. Peralta, 
 F. Ogliaro, M. J. Bearpark, J. J. Heyd, E. N. Brothers, K. N. Kudin, 
 V. N. Staroverov, T. A. Keith, R. Kobayashi, J. Normand, 
 K. Raghavachari, A. P. Rendell, J. C. Burant, S. S. Iyengar, 
 J. Tomasi, M. Cossi, J. M. Millam, M. Klene, C. Adamo, R. Cammi, 
 J. W. Ochterski, R. L. Martin, K. Morokuma, O. Farkas, 
 J. B. Foresman, and D. J. Fox, Gaussian, Inc., Wallingford CT, 2019.
 
 ******************************************
 Gaussian 16:  EM64W-G16RevC.01 30-May-2019
                12-Sep-2026 
 ******************************************
 %Chk=TPA.chk
 %NProcShared=8
 Will use up to    8 processors via shared memory.
 %Mem=48GB
 ----------------------------------------------------------------------
 #P PBE1PBE/Def2SVP EmpiricalDispersion=GD3BJ SP SCF=(XQC,MaxCycle=128)
  NoSymm Guess=Read
 ----------------------------------------------------------------------
 1/38=1,172=1/1;
 2/12=2,15=1,17=6,18=5,40=1/2;
 3/5=43,7=101,11=2,25=1,30=1,74=-13,116=-2,124=41/1,2,3;
 4/5=1/1;
 5/5=2,7=128,8=3,13=1,38=6/2,8;
 6/7=2,8=2,9=2,10=2,28=1/1;
 99/5=1,9=1/99;
 Leave Link    1 at Sat Sep 12 02:20:46 2026, MaxMem=  6442450944 cpu:               0.0 elap:               0.3
 (Enter C:\G16W\l101.exe)
 ---------------------------------
 TPA t=1.000 dz=+0.40 class=toface
 ---------------------------------
 Symbolic Z-matrix:
 Charge =  0 Multiplicity = 2
 C                    -2.89224  -2.90224   0.85613 
 C                    -1.55033  -3.24414   0.81876 
 C                    -0.59249  -2.29102   0.53281 
 C                    -0.96683  -0.97021   0.28615 
 N                     0.00003  -0.00004  -0.00005 
 C                     1.23715  -0.0312    0.65302 
 C                     1.31985  -0.4037    1.99463 
 C                     2.54386  -0.43667   2.63368 
 C                     3.7008   -0.09323   1.95357 
 C                     3.62384   0.28127   0.6221 
 C                     2.40561   0.3098   -0.0281 
 C                    -0.27028   1.00134  -0.93926 
 C                     0.1962    2.30097  -0.74204 
 C                    -0.06993   3.28495  -1.67402 
 C                    -0.8086    2.99553  -2.80963 
 C                    -1.27765   1.70733  -3.00848 
 C                    -1.01014   0.71447  -2.08635 
 C                    -2.31899  -0.63058   0.32896 
 C                    -3.26982  -1.59271   0.60803 
 H                    -3.6381   -3.65067   1.07692 
 H                    -1.24671  -4.26392   1.00505 
 H                     0.45246  -2.56235   0.49473 
 H                     0.41802  -0.66263   2.53001 
 H                     2.59313  -0.72432   3.67372 
 H                     4.65516  -0.11726   2.45738 
 H                     4.52125   0.54509   0.08181 
 H                     2.3496    0.59285  -1.06912 
 H                     0.76419   2.53162   0.14744 
 H                     0.29503   4.28789  -1.50736 
 H                    -1.01713   3.76803  -3.53417 
 H                    -1.84946   1.47068  -3.89385 
 H                    -1.36884  -0.2915   -2.24865 
 H                    -2.61535   0.3919    0.14543 
 H                    -4.31329  -1.31532   0.64075 
 Ag                    0.95959  -1.62549  -2.20159 
 
 ITRead=  0  0  0  0  0  0  0  0  0  0  0  0  0  0  0  0  0  0  0  0
 ITRead=  0  0  0  0  0  0  0  0  0  0  0  0  0  0  0
 MicOpt= -1 -1 -1 -1 -1 -1 -1 -1 -1 -1 -1 -1 -1 -1 -1 -1 -1 -1 -1 -1
 MicOpt= -1 -1 -1 -1 -1 -1 -1 -1 -1 -1 -1 -1 -1 -1 -1
 NAtoms=     35 NQM=       35 NQMF=       0 NMMI=      0 NMMIF=      0
                NMic=       0 NMicF=      0.
                    Isotopes and Nuclear Properties:
 (Nuclear quadrupole moments (NQMom) in fm**2, nuclear magnetic moments (NMagM)
  in nuclear magnetons)

  Atom         1           2           3           4           5           6           7           8           9          10
 IAtWgt=          12          12          12          12          14          12          12          12          12          12
 AtmWgt=  12.0000000  12.0000000  12.0000000  12.0000000  14.0030740  12.0000000  12.0000000  12.0000000  12.0000000  12.0000000
 NucSpn=           0           0           0           0           2           0           0           0           0           0
 AtZEff=   0.0000000   0.0000000   0.0000000   0.0000000   0.0000000   0.0000000   0.0000000   0.0000000   0.0000000   0.0000000
 NQMom=    0.0000000   0.0000000   0.0000000   0.0000000   2.0440000   0.0000000   0.0000000   0.0000000   0.0000000   0.0000000
 NMagM=    0.0000000   0.0000000   0.0000000   0.0000000   0.4037610   0.0000000   0.0000000   0.0000000   0.0000000   0.0000000
 AtZNuc=   6.0000000   6.0000000   6.0000000   6.0000000   7.0000000   6.0000000   6.0000000   6.0000000   6.0000000   6.0000000

  Atom        11          12          13          14          15          16          17          18          19          20
 IAtWgt=          12          12          12          12          12          12          12          12          12           1
 AtmWgt=  12.0000000  12.0000000  12.0000000  12.0000000  12.0000000  12.0000000  12.0000000  12.0000000  12.0000000   1.0078250
 NucSpn=           0           0           0           0           0           0           0           0           0           1
 AtZEff=   0.0000000   0.0000000   0.0000000   0.0000000   0.0000000   0.0000000   0.0000000   0.0000000   0.0000000   0.0000000
 NQMom=    0.0000000   0.0000000   0.0000000   0.0000000   0.0000000   0.0000000   0.0000000   0.0000000   0.0000000   0.0000000
 NMagM=    0.0000000   0.0000000   0.0000000   0.0000000   0.0000000   0.0000000   0.0000000   0.0000000   0.0000000   2.7928460
 AtZNuc=   6.0000000   6.0000000   6.0000000   6.0000000   6.0000000   6.0000000   6.0000000   6.0000000   6.0000000   1.0000000

  Atom        21          22          23          24          25          26          27          28          29          30
 IAtWgt=           1           1           1           1           1           1           1           1           1           1
 AtmWgt=   1.0078250   1.0078250   1.0078250   1.0078250   1.0078250   1.0078250   1.0078250   1.0078250   1.0078250   1.0078250
 NucSpn=           1           1           1           1           1           1           1           1           1           1
 AtZEff=   0.0000000   0.0000000   0.0000000   0.0000000   0.0000000   0.0000000   0.0000000   0.0000000   0.0000000   0.0000000
 NQMom=    0.0000000   0.0000000   0.0000000   0.0000000   0.0000000   0.0000000   0.0000000   0.0000000   0.0000000   0.0000000
 NMagM=    2.7928460   2.7928460   2.7928460   2.7928460   2.7928460   2.7928460   2.7928460   2.7928460   2.7928460   2.7928460
 AtZNuc=   1.0000000   1.0000000   1.0000000   1.0000000   1.0000000   1.0000000   1.0000000   1.0000000   1.0000000   1.0000000

  Atom        31          32          33          34          35
 IAtWgt=           1           1           1           1         107
 AtmWgt=   1.0078250   1.0078250   1.0078250   1.0078250 106.9050900
 NucSpn=           1           1           1           1           1
 AtZEff=   0.0000000   0.0000000   0.0000000   0.0000000   0.0000000
 NQMom=    0.0000000   0.0000000   0.0000000   0.0000000   0.0000000
 NMagM=    2.7928460   2.7928460   2.7928460   2.7928460  -0.1135700
 AtZNuc=   1.0000000   1.0000000   1.0000000   1.0000000  47.0000000
 Leave Link  101 at Sat Sep 12 02:20:46 2026, MaxMem=  6442450944 cpu:               0.0 elap:               0.3
 (Enter C:\G16W\l202.exe)
                          Input orientation:                          
 ---------------------------------------------------------------------
 Center     Atomic      Atomic             Coordinates (Angstroms)
 Number     Number       Type             X           Y           Z
 ---------------------------------------------------------------------
      1          6           0       -2.892235   -2.902243    0.856125
      2          6           0       -1.550328   -3.244136    0.818755
      3          6           0       -0.592488   -2.291023    0.532809
      4          6           0       -0.966825   -0.970209    0.286154
      5          7           0        0.000025   -0.000036   -0.000047
      6          6           0        1.237148   -0.031197    0.653023
      7          6           0        1.319853   -0.403699    1.994633
      8          6           0        2.543855   -0.436670    2.633678
      9          6           0        3.700795   -0.093231    1.953573
     10          6           0        3.623838    0.281274    0.622097
     11          6           0        2.405612    0.309797   -0.028101
     12          6           0       -0.270279    1.001344   -0.939259
     13          6           0        0.196201    2.300966   -0.742039
     14          6           0       -0.069933    3.284954   -1.674018
     15          6           0       -0.808596    2.995527   -2.809628
     16          6           0       -1.277645    1.707329   -3.008482
     17          6           0       -1.010141    0.714471   -2.086353
     18          6           0       -2.318985   -0.630584    0.328955
     19          6           0       -3.269818   -1.592708    0.608027
     20          1           0       -3.638099   -3.650671    1.076924
     21          1           0       -1.246710   -4.263922    1.005046
     22          1           0        0.452460   -2.562347    0.494733
     23          1           0        0.418020   -0.662633    2.530014
     24          1           0        2.593126   -0.724322    3.673717
     25          1           0        4.655158   -0.117258    2.457379
     26          1           0        4.521246    0.545089    0.081807
     27          1           0        2.349602    0.592850   -1.069124
     28          1           0        0.764190    2.531619    0.147439
     29          1           0        0.295028    4.287890   -1.507357
     30          1           0       -1.017132    3.768032   -3.534168
     31          1           0       -1.849460    1.470676   -3.893849
     32          1           0       -1.368838   -0.291501   -2.248647
     33          1           0       -2.615351    0.391898    0.145433
     34          1           0       -4.313292   -1.315323    0.640753
     35         47           0        0.959594   -1.625493   -2.201588
 ---------------------------------------------------------------------
                    Distance matrix (angstroms):
                    1          2          3          4          5
     1  C    0.000000
     2  C    1.385280   0.000000
     3  C    2.401449   1.381176   0.000000
     4  C    2.786544   2.407256   1.394818   0.000000
     5  N    4.185810   3.687576   2.425619   1.399266   0.000000
     6  C    5.033484   4.256814   2.910126   2.423599   1.399266
     7  C    5.027982   4.205795   3.058753   2.910108   2.425621
     8  C    6.228147   5.285655   4.205820   4.256807   3.687577
     9  C    7.250033   6.228186   5.028035   5.033493   4.185811
    10  C    7.255946   6.264119   4.939847   4.770037   3.687576
    11  C    6.258294   5.384892   4.008427   3.620843   2.425620
    12  C    5.033493   4.770036   3.620840   2.423600   1.399266
    13  C    6.258270   6.019518   4.830490   3.620828   2.425623
    14  C    7.255923   7.143844   6.019524   4.770021   3.687578
    15  C    7.250034   7.255944   6.258290   5.033484   4.185811
    16  C    6.228181   6.264112   5.384886   4.256812   3.687576
    17  C    5.028029   4.939840   4.008421   2.910122   2.425619
    18  C    2.401449   2.767922   2.404040   1.394817   2.425622
    19  C    1.385281   2.393380   2.767923   2.407257   3.687578
    20  H    1.079449   2.142594   3.379416   3.865993   5.265259
    21  H    2.141051   1.080209   2.131512   3.382852   4.554699
    22  H    3.381289   2.140324   1.080270   2.143077   2.648574
    23  H    4.333076   3.669736   2.767961   2.654676   2.648578
    24  H    6.539981   5.627476   4.740041   4.920294   4.554701
    25  H    8.202640   7.139363   5.997250   6.086743   5.265258
    26  H    8.212391   7.194813   5.864913   5.697088   4.554701
    27  H    6.587800   5.787573   4.420272   3.908788   2.648575
    28  H    6.587757   6.258355   5.024635   3.908766   2.648580
    29  H    8.212351   8.096144   6.944930   5.697066   4.554703
    30  H    8.202637   8.270595   7.309772   6.086733   5.265259
    31  H    6.540035   6.672898   5.943539   4.920304   4.554699
    32  H    4.333165   4.261449   3.512450   2.654708   2.648573
    33  H    3.381289   3.848166   3.382322   2.143076   2.648579
    34  H    2.141052   3.374311   3.848120   3.382852   4.554702
    35  Ag   5.080973   4.247610   3.213848   3.213931   2.899943
                    6          7          8          9         10
     6  C    0.000000
     7  C    1.394817   0.000000
     8  C    2.407257   1.381176   0.000000
     9  C    2.786545   2.401450   1.385281   0.000000
    10  C    2.407256   2.767922   2.393379   1.385281   0.000000
    11  C    1.394817   2.404039   2.767922   2.401450   1.381175
    12  C    2.423600   3.620827   4.770022   5.033488   4.256816
    13  C    2.910112   4.008389   4.939797   5.027990   4.205796
    14  C    4.256811   5.384855   6.264074   6.228157   5.285658
    15  C    5.033496   6.258271   7.255928   7.250043   6.228192
    16  C    4.770039   6.019518   7.143848   7.255954   6.264126
    17  C    3.620844   4.830489   6.019527   6.258299   5.384898
    18  C    3.620824   4.008379   5.384846   6.258265   6.019515
    19  C    4.770019   4.939787   6.264063   7.255920   7.143843
    20  H    6.086733   5.997191   7.139317   8.202637   8.270598
    21  H    4.920308   4.740026   5.627493   6.540044   6.672907
    22  H    2.654715   2.768001   3.669812   4.333178   4.261460
    23  H    2.143077   1.080270   2.140322   3.381289   3.848165
    24  H    3.382852   2.131513   1.080209   2.141052   3.374311
    25  H    3.865993   3.379414   2.142593   1.079447   2.142594
    26  H    3.382853   3.848119   3.374311   2.141051   1.080210
    27  H    2.143077   3.382322   3.848167   3.381291   2.140324
    28  H    2.654681   3.512404   4.261377   4.333083   3.669733
    29  H    4.920299   5.943501   6.672845   6.539993   5.627479
    30  H    6.086747   7.309752   8.270579   8.202651   7.139371
    31  H    5.697088   6.944930   8.096159   8.212398   7.194820
    32  H    3.908786   5.024647   6.258381   6.587803   5.787578
    33  H    3.908760   4.420220   5.787512   6.587748   6.258348
    34  H    5.697062   5.864842   7.194737   8.212344   8.096141
    35  Ag   3.281406   4.385298   5.225226   5.208395   4.325177
                   11         12         13         14         15
    11  C    0.000000
    12  C    2.910127   0.000000
    13  C    3.058751   1.394818   0.000000
    14  C    4.205820   2.407257   1.381175   0.000000
    15  C    5.028038   2.786545   2.401449   1.385280   0.000000
    16  C    4.939853   2.407257   2.767922   2.393379   1.385281
    17  C    4.008432   1.394818   2.404040   2.767922   2.401450
    18  C    4.830489   2.910112   4.008388   4.939795   5.027988
    19  C    6.019526   4.256810   5.384855   6.264071   6.228152
    20  H    7.309776   6.086744   7.309751   8.270573   8.202641
    21  H    5.943547   5.697084   6.944930   8.096154   8.212386
    22  H    3.512459   3.908782   5.024648   6.258379   6.587794
    23  H    3.382321   3.908763   4.420232   5.787523   6.587754
    24  H    3.848119   5.697066   5.864854   7.194751   8.212354
    25  H    3.379415   6.086736   5.997198   7.139326   8.202646
    26  H    2.131513   4.920311   4.740025   5.627496   6.540050
    27  H    1.080271   2.654714   2.767992   3.669805   4.333177
    28  H    2.767955   2.143077   1.080270   2.140323   3.381288
    29  H    4.740041   3.382853   2.131512   1.080210   2.141051
    30  H    5.997255   3.865993   3.379415   2.142594   1.079449
    31  H    5.864920   3.382852   3.848119   3.374310   2.141052
    32  H    4.420278   2.143077   3.382322   3.848166   3.381290
    33  H    5.024632   2.654683   3.512403   4.261376   4.333086
    34  H    6.944930   4.920299   5.943500   6.672841   6.539989
    35  Ag   3.249671   3.163280   4.257950   5.044874   4.984981
                   16         17         18         19         20
    16  C    0.000000
    17  C    1.381176   0.000000
    18  C    4.205795   3.058751   0.000000
    19  C    5.285654   4.205817   1.381176   0.000000
    20  H    7.139359   5.997245   3.379415   2.142594   0.000000
    21  H    7.194804   5.864905   3.848119   3.374311   2.469815
    22  H    5.787565   4.420265   3.382321   3.848167   4.272712
    23  H    6.258349   5.024630   3.512390   4.261364   5.243276
    24  H    8.096146   6.944931   5.943488   6.672830   7.357650
    25  H    8.270605   7.309780   7.309744   8.270568   9.119692
    26  H    6.672917   5.943555   6.944930   8.096157   9.228736
    27  H    4.261466   3.512466   5.024651   6.258385   7.646277
    28  H    3.848166   3.382322   4.420231   5.787524   7.646228
    29  H    3.374311   3.848120   5.864852   7.194749   9.228692
    30  H    2.142594   3.379416   5.997196   7.139321   9.119693
    31  H    1.080209   2.131512   4.740023   5.627488   7.357718
    32  H    2.140324   1.080270   2.767994   3.669803   5.243376
    33  H    3.669741   2.767963   1.080270   2.140323   4.272710
    34  H    5.627477   4.740040   2.131513   1.080209   2.469814
    35  Ag   4.094389   3.060812   4.259410   5.077690   5.999064
                   21         22         23         24         25
    21  H    0.000000
    22  H    2.458242   0.000000
    23  H    4.250428   2.784325   0.000000
    24  H    5.864718   4.250497   2.458241   0.000000
    25  H    7.357727   5.243387   4.272710   2.469814   0.000000
    26  H    7.566259   5.136311   4.928364   4.269762   2.469813
    27  H    6.389356   4.000008   4.273294   4.928366   4.272712
    28  H    7.138528   5.115298   3.999968   5.136224   5.243282
    29  H    9.045585   7.138550   6.389301   7.566178   7.357662
    30  H    9.228730   7.646270   7.646225   9.228695   9.119703
    31  H    7.566247   6.389348   7.138521   9.045587   9.228742
    32  H    5.136298   4.000000   5.115291   7.138549   7.646278
    33  H    4.928364   4.273294   3.999950   6.389285   7.646217
    34  H    4.269762   4.928365   5.136207   7.566159   9.228683
    35  Ag   4.702296   2.899143   4.858854   6.164394   6.134977
                   26         27         28         29         30
    26  H    0.000000
    27  H    2.458243   0.000000
    28  H    4.250421   2.784310   0.000000
    29  H    5.864718   4.250487   2.458241   0.000000
    30  H    7.357735   5.243388   4.272711   2.469814   0.000000
    31  H    7.566270   5.136319   4.928364   4.269762   2.469815
    32  H    6.389365   4.000018   4.273294   4.928365   4.272712
    33  H    7.138525   5.115299   3.999963   5.136222   5.243286
    34  H    9.045585   7.138554   6.389299   7.566174   7.357658
    35  Ag   4.755070   2.852305   4.778880   5.990969   5.896891
                   31         32         33         34         35
    31  H    0.000000
    32  H    2.458242   0.000000
    33  H    4.250429   2.784322   0.000000
    34  H    5.864714   4.250489   2.458241   0.000000
    35  Ag   4.510077   2.683905   4.728489   5.998203   0.000000
 Symmetry turned off by external request.
 Stoichiometry    C18H15AgN(2)
 Framework group  C1[X(C18H15AgN)]
 Deg. of freedom    99
 Full point group                 C1      NOp   1
 Rotational constants (GHZ):           0.2736220           0.2729370           0.2231564
 Leave Link  202 at Sat Sep 12 02:20:47 2026, MaxMem=  6442450944 cpu:               1.0 elap:               0.6
 (Enter C:\G16W\l301.exe)
 Standard basis: def2SVP (5D, 7F)
 Ernie: Thresh=  0.10000D-02 Tol=  0.10000D-05 Strict=F.
   372 basis functions,   645 primitive gaussians,   396 cartesian basis functions
    75 alpha electrons       74 beta electrons
       nuclear repulsion energy      1635.9249622307 Hartrees.
 IExCor= 1009 DFT=T Ex+Corr=PBE1PBE ExCW=0 ScaHFX=  0.250000
 ScaDFX=  0.750000  0.750000  1.000000  1.000000 ScalE2=  1.000000  1.000000
 IRadAn=      5 IRanWt=     -1 IRanGd=            0 ICorTp=0 IEmpDi=141
 NAtoms=   35 NActive=   35 NUniq=   35 SFac= 1.00D+00 NAtFMM=   60 NAOKFM=F Big=F
 Integral buffers will be    131072 words long.
 Raffenetti 2 integral format.
 Two-electron integral symmetry is turned off.
 R6Disp:  Grimme-D3(BJ) Dispersion energy=       -0.0520758359 Hartrees.
 Nuclear repulsion after empirical dispersion term =     1635.8728863948 Hartrees.
 Leave Link  301 at Sat Sep 12 02:20:47 2026, MaxMem=  6442450944 cpu:               0.0 elap:               0.2
 (Enter C:\G16W\l302.exe)
 NPDir=0 NMtPBC=     1 NCelOv=     1 NCel=       1 NClECP=     1 NCelD=      1
         NCelK=      1 NCelE2=     1 NClLst=     1 CellRange=     0.0.
 One-electron integrals computed using PRISM.
   1 Symmetry operations used in ECPInt.
 ECPInt:  NShTT=   14535 NPrTT=   52310 LenC2=   13675 LenP2D=   35454.
 LDataN:  DoStor=T MaxTD1= 7 Len=  274
 NBasis=   372 RedAO= T EigKep=  2.37D-04  NBF=   372
 NBsUse=   372 1.00D-06 EigRej= -1.00D+00 NBFU=   372
 Precomputing XC quadrature grid using
 IXCGrd= 4 IRadAn=           5 IRanWt=          -1 IRanGd=           0 AccXCQ= 0.00D+00.
 Defaulting to unpruned grid for atomic number  47.
 Generated NRdTot=       0 NPtTot=           0 NUsed=           0 NTot=          32
 NSgBfM=   395   395   395   395   395 MxSgAt=    35 MxSgA2=    35.
 Leave Link  302 at Sat Sep 12 02:20:53 2026, MaxMem=  6442450944 cpu:               6.0 elap:               6.0
 (Enter C:\G16W\l303.exe)
 DipDrv:  MaxL=1.
 Leave Link  303 at Sat Sep 12 02:20:55 2026, MaxMem=  6442450944 cpu:               1.0 elap:               1.0
 (Enter C:\G16W\l401.exe)
 Initial guess from the checkpoint file:  "TPA.chk"
 B after Tr=     0.066416   -0.112504   -0.152377
         Rot=    1.000000    0.000000    0.000000    0.000000 Ang=   0.00 deg.
 Guess basis will be translated and rotated to current coordinates.
 JPrj=2 DoOrth=T DoCkMO=T.
 Initial guess <Sx>= 0.0000 <Sy>= 0.0000 <Sz>= 0.5000 <S**2>= 0.7527 S= 0.5014
 Leave Link  401 at Sat Sep 12 02:21:10 2026, MaxMem=  6442450944 cpu:              15.0 elap:              15.6
 (Enter C:\G16W\l502.exe)
 Two-electron integral symmetry not used.
 UHF open shell SCF:
 Using DIIS extrapolation, IDIIS=  1040.
 NGot=  6442450944 LenX=  6442130178 LenY=  6441972921
 Requested convergence on RMS density matrix=1.00D-08 within 128 cycles.
 Requested convergence on MAX density matrix=1.00D-06.
 Requested convergence on             energy=1.00D-06.
 No special actions if energy rises.
 Fock matrices will be formed incrementally for  20 cycles.

 Cycle   1  Pass 1  IDiag  1:
 FoFJK:  IHMeth= 1 ICntrl=       0 DoSepK=F KAlg= 0 I1Cent=           0 FoldK=F
 IRaf= 890000000 NMat=       1 IRICut=       1 DoRegI=T DoRafI=F ISym2E= 0 IDoP0=0 IntGTp=1.
 FoFCou: FMM=F IPFlag=           0 FMFlag=      100000 FMFlg1=           0
         NFxFlg=           0 DoJE=F BraDBF=F KetDBF=F FulRan=T
         wScrn=  0.000000 ICntrl=         0 IOpCl=  1 I1Cent=           0 NGrid=           0
         NMat0=    1 NMatS0=      1 NMatT0=    0 NMatD0=    1 NMtDS0=    0 NMtDT0=    0
 Symmetry not used in FoFCou.
 Defaulting to unpruned grid for atomic number  47.
 Defaulting to unpruned grid for atomic number  47.
 Defaulting to unpruned grid for atomic number  47.
 Defaulting to unpruned grid for atomic number  47.
 Defaulting to unpruned grid for atomic number  47.
 Defaulting to unpruned grid for atomic number  47.
 Defaulting to unpruned grid for atomic number  47.
 Defaulting to unpruned grid for atomic number  47.
 E= -895.256422609624    
 DIIS: error= 9.51D-03 at cycle   1 NSaved=   1.
 NSaved= 1 IEnMin= 1 EnMin= -895.256422609624     IErMin= 1 ErrMin= 9.51D-03
 ErrMax= 9.51D-03  0.00D+00 EMaxC= 1.00D-01 BMatC= 5.36D-02 BMatP= 5.36D-02
 IDIUse=3 WtCom= 9.05D-01 WtEn= 9.51D-02
 Coeff-Com:  0.100D+01
 Coeff-En:   0.100D+01
 Coeff:      0.100D+01
 Gap=     0.145 Goal=   None    Shift=    0.000
 Gap=     0.162 Goal=   None    Shift=    0.000
 GapD=    0.145 DampG=1.000 DampE=1.000 DampFc=1.0000 IDamp=-1.
 RMSDP=7.52D-04 MaxDP=3.77D-02              OVMax= 5.60D-02

 Cycle   2  Pass 1  IDiag  1:
 RMSU=  7.52D-04    CP:  9.99D-01
 E= -895.260654972143     Delta-E=       -0.004232362518 Rises=F Damp=F
 DIIS: error= 2.09D-03 at cycle   2 NSaved=   2.
 NSaved= 2 IEnMin= 2 EnMin= -895.260654972143     IErMin= 2 ErrMin= 2.09D-03
 ErrMax= 2.09D-03  0.00D+00 EMaxC= 1.00D-01 BMatC= 3.96D-03 BMatP= 5.36D-02
 IDIUse=3 WtCom= 9.79D-01 WtEn= 2.09D-02
 Coeff-Com:  0.939D-01 0.906D+00
 Coeff-En:   0.000D+00 0.100D+01
 Coeff:      0.920D-01 0.908D+00
 Gap=     0.137 Goal=   None    Shift=    0.000
 Gap=     0.131 Goal=   None    Shift=    0.000
 RMSDP=3.00D-04 MaxDP=1.00D-02 DE=-4.23D-03 OVMax= 2.65D-02

 Cycle   3  Pass 1  IDiag  1:
 RMSU=  2.85D-04    CP:  9.99D-01  8.75D-01
 E= -895.258706099755     Delta-E=        0.001948872388 Rises=F Damp=F
 DIIS: error= 4.19D-03 at cycle   3 NSaved=   3.
 NSaved= 3 IEnMin= 2 EnMin= -895.260654972143     IErMin= 2 ErrMin= 2.09D-03
 ErrMax= 4.19D-03  0.00D+00 EMaxC= 1.00D-01 BMatC= 1.16D-02 BMatP= 3.96D-03
 IDIUse=3 WtCom= 1.34D-01 WtEn= 8.66D-01
 Coeff-Com:  0.192D-02 0.634D+00 0.364D+00
 Coeff-En:   0.000D+00 0.701D+00 0.299D+00
 Coeff:      0.256D-03 0.692D+00 0.307D+00
 Gap=     0.137 Goal=   None    Shift=    0.000
 Gap=     0.127 Goal=   None    Shift=    0.000
 RMSDP=1.67D-04 MaxDP=4.90D-03 DE= 1.95D-03 OVMax= 1.62D-02

 Cycle   4  Pass 1  IDiag  1:
 RMSU=  5.21D-05    CP:  9.99D-01  9.67D-01  5.02D-01
 E= -895.261637064783     Delta-E=       -0.002930965028 Rises=F Damp=F
 DIIS: error= 4.87D-04 at cycle   4 NSaved=   4.
 NSaved= 4 IEnMin= 4 EnMin= -895.261637064783     IErMin= 4 ErrMin= 4.87D-04
 ErrMax= 4.87D-04  0.00D+00 EMaxC= 1.00D-01 BMatC= 3.55D-04 BMatP= 3.96D-03
 IDIUse=3 WtCom= 9.95D-01 WtEn= 4.87D-03
 Coeff-Com: -0.314D-02 0.337D+00 0.118D+00 0.548D+00
 Coeff-En:   0.000D+00 0.000D+00 0.000D+00 0.100D+01
 Coeff:     -0.312D-02 0.335D+00 0.118D+00 0.550D+00
 Gap=     0.138 Goal=   None    Shift=    0.000
 Gap=     0.126 Goal=   None    Shift=    0.000
 RMSDP=3.53D-05 MaxDP=4.46D-03 DE=-2.93D-03 OVMax= 2.38D-03

 Cycle   5  Pass 1  IDiag  1:
 RMSU=  2.19D-05    CP:  9.99D-01  9.94D-01  4.43D-01  8.36D-01
 E= -895.261715014505     Delta-E=       -0.000077949723 Rises=F Damp=F
 DIIS: error= 9.25D-05 at cycle   5 NSaved=   5.
 NSaved= 5 IEnMin= 5 EnMin= -895.261715014505     IErMin= 5 ErrMin= 9.25D-05
 ErrMax= 9.25D-05  0.00D+00 EMaxC= 1.00D-01 BMatC= 7.25D-06 BMatP= 3.55D-04
 IDIUse=1 WtCom= 1.00D+00 WtEn= 0.00D+00
 Coeff-Com: -0.130D-02 0.540D-01 0.358D-02 0.172D+00 0.772D+00
 Coeff:     -0.130D-02 0.540D-01 0.358D-02 0.172D+00 0.772D+00
 Gap=     0.138 Goal=   None    Shift=    0.000
 Gap=     0.126 Goal=   None    Shift=    0.000
 RMSDP=1.02D-05 MaxDP=9.57D-04 DE=-7.79D-05 OVMax= 1.28D-03

 Cycle   6  Pass 1  IDiag  1:
 RMSU=  7.17D-06    CP:  9.99D-01  1.00D+00  4.44D-01  9.32D-01  1.10D+00
 E= -895.261718563417     Delta-E=       -0.000003548912 Rises=F Damp=F
 DIIS: error= 4.68D-05 at cycle   6 NSaved=   6.
 NSaved= 6 IEnMin= 6 EnMin= -895.261718563417     IErMin= 6 ErrMin= 4.68D-05
 ErrMax= 4.68D-05  0.00D+00 EMaxC= 1.00D-01 BMatC= 2.01D-06 BMatP= 7.25D-06
 IDIUse=1 WtCom= 1.00D+00 WtEn= 0.00D+00
 Coeff-Com:  0.162D-03-0.516D-01-0.263D-01-0.477D-01 0.357D+00 0.769D+00
 Coeff:      0.162D-03-0.516D-01-0.263D-01-0.477D-01 0.357D+00 0.769D+00
 Gap=     0.138 Goal=   None    Shift=    0.000
 Gap=     0.126 Goal=   None    Shift=    0.000
 RMSDP=5.95D-06 MaxDP=6.71D-04 DE=-3.55D-06 OVMax= 8.84D-04

 Cycle   7  Pass 1  IDiag  1:
 RMSU=  3.43D-06    CP:  9.99D-01  1.00D+00  4.49D-01  9.86D-01  1.26D+00
                    CP:  1.07D+00
 E= -895.261719780066     Delta-E=       -0.000001216649 Rises=F Damp=F
 DIIS: error= 2.27D-05 at cycle   7 NSaved=   7.
 NSaved= 7 IEnMin= 7 EnMin= -895.261719780066     IErMin= 7 ErrMin= 2.27D-05
 ErrMax= 2.27D-05  0.00D+00 EMaxC= 1.00D-01 BMatC= 4.59D-07 BMatP= 2.01D-06
 IDIUse=1 WtCom= 1.00D+00 WtEn= 0.00D+00
 Coeff-Com:  0.240D-03-0.278D-01-0.114D-01-0.411D-01 0.736D-01 0.373D+00
 Coeff-Com:  0.633D+00
 Coeff:      0.240D-03-0.278D-01-0.114D-01-0.411D-01 0.736D-01 0.373D+00
 Coeff:      0.633D+00
 Gap=     0.138 Goal=   None    Shift=    0.000
 Gap=     0.126 Goal=   None    Shift=    0.000
 RMSDP=2.09D-06 MaxDP=1.96D-04 DE=-1.22D-06 OVMax= 2.59D-04

 Cycle   8  Pass 1  IDiag  1:
 RMSU=  1.58D-06    CP:  9.99D-01  1.00D+00  4.50D-01  1.00D+00  1.29D+00
                    CP:  1.17D+00  1.04D+00
 E= -895.261720052341     Delta-E=       -0.000000272275 Rises=F Damp=F
 DIIS: error= 1.32D-05 at cycle   8 NSaved=   8.
 NSaved= 8 IEnMin= 8 EnMin= -895.261720052341     IErMin= 8 ErrMin= 1.32D-05
 ErrMax= 1.32D-05  0.00D+00 EMaxC= 1.00D-01 BMatC= 1.17D-07 BMatP= 4.59D-07
 IDIUse=1 WtCom= 1.00D+00 WtEn= 0.00D+00
 Coeff-Com:  0.261D-04 0.632D-02 0.502D-02-0.324D-02-0.103D+00-0.125D+00
 Coeff-Com:  0.228D+00 0.993D+00
 Coeff:      0.261D-04 0.632D-02 0.502D-02-0.324D-02-0.103D+00-0.125D+00
 Coeff:      0.228D+00 0.993D+00
 Gap=     0.138 Goal=   None    Shift=    0.000
 Gap=     0.126 Goal=   None    Shift=    0.000
 RMSDP=1.93D-06 MaxDP=1.70D-04 DE=-2.72D-07 OVMax= 2.31D-04

 Cycle   9  Pass 1  IDiag  1:
 RMSU=  1.11D-06    CP:  9.99D-01  1.00D+00  4.50D-01  1.01D+00  1.32D+00
                    CP:  1.28D+00  1.36D+00  1.25D+00
 E= -895.261720216206     Delta-E=       -0.000000163865 Rises=F Damp=F
 DIIS: error= 7.50D-06 at cycle   9 NSaved=   9.
 NSaved= 9 IEnMin= 9 EnMin= -895.261720216206     IErMin= 9 ErrMin= 7.50D-06
 ErrMax= 7.50D-06  0.00D+00 EMaxC= 1.00D-01 BMatC= 4.49D-08 BMatP= 1.17D-07
 IDIUse=1 WtCom= 1.00D+00 WtEn= 0.00D+00
 Coeff-Com: -0.592D-04 0.113D-01 0.551D-02 0.120D-01-0.637D-01-0.165D+00
 Coeff-Com: -0.842D-01 0.470D+00 0.815D+00
 Coeff:     -0.592D-04 0.113D-01 0.551D-02 0.120D-01-0.637D-01-0.165D+00
 Coeff:     -0.842D-01 0.470D+00 0.815D+00
 Gap=     0.138 Goal=   None    Shift=    0.000
 Gap=     0.126 Goal=   None    Shift=    0.000
 RMSDP=1.07D-06 MaxDP=5.03D-05 DE=-1.64D-07 OVMax= 1.37D-04

 Cycle  10  Pass 1  IDiag  1:
 RMSU=  6.02D-07    CP:  9.99D-01  1.00D+00  4.50D-01  1.01D+00  1.32D+00
                    CP:  1.33D+00  1.48D+00  1.65D+00  1.28D+00
 E= -895.261720272768     Delta-E=       -0.000000056562 Rises=F Damp=F
 DIIS: error= 5.12D-06 at cycle  10 NSaved=  10.
 NSaved=10 IEnMin=10 EnMin= -895.261720272768     IErMin=10 ErrMin= 5.12D-06
 ErrMax= 5.12D-06  0.00D+00 EMaxC= 1.00D-01 BMatC= 1.99D-08 BMatP= 4.49D-08
 IDIUse=1 WtCom= 1.00D+00 WtEn= 0.00D+00
 Coeff-Com: -0.507D-04 0.509D-02 0.149D-02 0.105D-01 0.337D-02-0.591D-01
 Coeff-Com: -0.149D+00-0.101D+00 0.489D+00 0.800D+00
 Coeff:     -0.507D-04 0.509D-02 0.149D-02 0.105D-01 0.337D-02-0.591D-01
 Coeff:     -0.149D+00-0.101D+00 0.489D+00 0.800D+00
 Gap=     0.138 Goal=   None    Shift=    0.000
 Gap=     0.126 Goal=   None    Shift=    0.000
 RMSDP=7.57D-07 MaxDP=3.54D-05 DE=-5.66D-08 OVMax= 9.45D-05

 Cycle  11  Pass 1  IDiag  1:
 RMSU=  3.26D-07    CP:  9.99D-01  1.00D+00  4.50D-01  1.01D+00  1.32D+00
                    CP:  1.34D+00  1.56D+00  1.85D+00  1.73D+00  1.27D+00
 E= -895.261720297654     Delta-E=       -0.000000024886 Rises=F Damp=F
 DIIS: error= 2.16D-06 at cycle  11 NSaved=  11.
 NSaved=11 IEnMin=11 EnMin= -895.261720297654     IErMin=11 ErrMin= 2.16D-06
 ErrMax= 2.16D-06  0.00D+00 EMaxC= 1.00D-01 BMatC= 4.16D-09 BMatP= 1.99D-08
 IDIUse=1 WtCom= 1.00D+00 WtEn= 0.00D+00
 Coeff-Com:  0.858D-05-0.351D-02-0.204D-02-0.144D-02 0.308D-01 0.478D-01
 Coeff-Com: -0.215D-01-0.250D+00-0.189D+00 0.318D+00 0.107D+01
 Coeff:      0.858D-05-0.351D-02-0.204D-02-0.144D-02 0.308D-01 0.478D-01
 Coeff:     -0.215D-01-0.250D+00-0.189D+00 0.318D+00 0.107D+01
 Gap=     0.138 Goal=   None    Shift=    0.000
 Gap=     0.126 Goal=   None    Shift=    0.000
 RMSDP=5.87D-07 MaxDP=2.55D-05 DE=-2.49D-08 OVMax= 6.55D-05

 Cycle  12  Pass 1  IDiag  1:
 RMSU=  1.65D-07    CP:  9.99D-01  1.00D+00  4.50D-01  1.01D+00  1.32D+00
                    CP:  1.34D+00  1.59D+00  2.01D+00  2.07D+00  1.76D+00
                    CP:  1.27D+00
 E= -895.261720304770     Delta-E=       -0.000000007116 Rises=F Damp=F
 DIIS: error= 4.87D-07 at cycle  12 NSaved=  12.
 NSaved=12 IEnMin=12 EnMin= -895.261720304770     IErMin=12 ErrMin= 4.87D-07
 ErrMax= 4.87D-07  0.00D+00 EMaxC= 1.00D-01 BMatC= 6.31D-10 BMatP= 4.16D-09
 IDIUse=1 WtCom= 1.00D+00 WtEn= 0.00D+00
 Coeff-Com:  0.844D-05-0.210D-02-0.107D-02-0.165D-02 0.143D-01 0.273D-01
 Coeff-Com:  0.111D-02-0.108D+00-0.125D+00 0.776D-01 0.500D+00 0.618D+00
 Coeff:      0.844D-05-0.210D-02-0.107D-02-0.165D-02 0.143D-01 0.273D-01
 Coeff:      0.111D-02-0.108D+00-0.125D+00 0.776D-01 0.500D+00 0.618D+00
 Gap=     0.138 Goal=   None    Shift=    0.000
 Gap=     0.126 Goal=   None    Shift=    0.000
 RMSDP=9.68D-08 MaxDP=6.57D-06 DE=-7.12D-09 OVMax= 9.20D-06

 Cycle  13  Pass 1  IDiag  1:
 RMSU=  5.63D-08    CP:  9.99D-01  1.00D+00  4.50D-01  1.01D+00  1.32D+00
                    CP:  1.34D+00  1.59D+00  2.02D+00  2.11D+00  1.82D+00
                    CP:  1.42D+00  9.71D-01
 E= -895.261720305003     Delta-E=       -0.000000000233 Rises=F Damp=F
 DIIS: error= 2.57D-07 at cycle  13 NSaved=  13.
 NSaved=13 IEnMin=13 EnMin= -895.261720305003     IErMin=13 ErrMin= 2.57D-07
 ErrMax= 2.57D-07  0.00D+00 EMaxC= 1.00D-01 BMatC= 1.68D-10 BMatP= 6.31D-10
 IDIUse=1 WtCom= 1.00D+00 WtEn= 0.00D+00
 Coeff-Com:  0.247D-05-0.230D-03-0.406D-04-0.580D-03-0.223D-03 0.286D-02
 Coeff-Com:  0.594D-02 0.513D-02-0.188D-01-0.434D-01-0.543D-03 0.353D+00
 Coeff-Com:  0.697D+00
 Coeff:      0.247D-05-0.230D-03-0.406D-04-0.580D-03-0.223D-03 0.286D-02
 Coeff:      0.594D-02 0.513D-02-0.188D-01-0.434D-01-0.543D-03 0.353D+00
 Coeff:      0.697D+00
 Gap=     0.138 Goal=   None    Shift=    0.000
 Gap=     0.126 Goal=   None    Shift=    0.000
 RMSDP=4.53D-08 MaxDP=4.32D-06 DE=-2.33D-10 OVMax= 5.37D-06

 Cycle  14  Pass 1  IDiag  1:
 RMSU=  2.47D-08    CP:  9.99D-01  1.00D+00  4.50D-01  1.01D+00  1.33D+00
                    CP:  1.34D+00  1.59D+00  2.03D+00  2.13D+00  1.85D+00
                    CP:  1.46D+00  1.12D+00  8.52D-01
 E= -895.261720305187     Delta-E=       -0.000000000184 Rises=F Damp=F
 DIIS: error= 7.15D-08 at cycle  14 NSaved=  14.
 NSaved=14 IEnMin=14 EnMin= -895.261720305187     IErMin=14 ErrMin= 7.15D-08
 ErrMax= 7.15D-08  0.00D+00 EMaxC= 1.00D-01 BMatC= 1.65D-11 BMatP= 1.68D-10
 IDIUse=1 WtCom= 1.00D+00 WtEn= 0.00D+00
 Coeff-Com: -0.941D-07 0.201D-03 0.130D-03-0.988D-05-0.199D-02-0.243D-02
 Coeff-Com:  0.214D-02 0.168D-01 0.105D-01-0.287D-01-0.737D-01 0.540D-01
 Coeff-Com:  0.298D+00 0.725D+00
 Coeff:     -0.941D-07 0.201D-03 0.130D-03-0.988D-05-0.199D-02-0.243D-02
 Coeff:      0.214D-02 0.168D-01 0.105D-01-0.287D-01-0.737D-01 0.540D-01
 Coeff:      0.298D+00 0.725D+00
 Gap=     0.138 Goal=   None    Shift=    0.000
 Gap=     0.126 Goal=   None    Shift=    0.000
 RMSDP=1.40D-08 MaxDP=1.66D-06 DE=-1.84D-10 OVMax= 2.11D-06

 Cycle  15  Pass 1  IDiag  1:
 RMSU=  6.91D-09    CP:  9.99D-01  1.00D+00  4.50D-01  1.01D+00  1.33D+00
                    CP:  1.34D+00  1.59D+00  2.03D+00  2.13D+00  1.86D+00
                    CP:  1.48D+00  1.15D+00  9.61D-01  9.23D-01
 E= -895.261720305150     Delta-E=        0.000000000037 Rises=F Damp=F
 DIIS: error= 3.90D-08 at cycle  15 NSaved=  15.
 NSaved=15 IEnMin=14 EnMin= -895.261720305187     IErMin=15 ErrMin= 3.90D-08
 ErrMax= 3.90D-08  0.00D+00 EMaxC= 1.00D-01 BMatC= 2.67D-12 BMatP= 1.65D-11
 IDIUse=1 WtCom= 1.00D+00 WtEn= 0.00D+00
 Coeff-Com: -0.399D-06 0.125D-03 0.680D-04 0.610D-04-0.969D-03-0.158D-02
 Coeff-Com:  0.290D-03 0.743D-02 0.761D-02-0.766D-02-0.356D-01-0.201D-01
 Coeff-Com:  0.536D-01 0.333D+00 0.664D+00
 Coeff:     -0.399D-06 0.125D-03 0.680D-04 0.610D-04-0.969D-03-0.158D-02
 Coeff:      0.290D-03 0.743D-02 0.761D-02-0.766D-02-0.356D-01-0.201D-01
 Coeff:      0.536D-01 0.333D+00 0.664D+00
 Gap=     0.138 Goal=   None    Shift=    0.000
 Gap=     0.126 Goal=   None    Shift=    0.000
 RMSDP=4.27D-09 MaxDP=2.67D-07 DE= 3.73D-11 OVMax= 3.32D-07

 SCF Done:  E(UPBE1PBE) =  -895.261720305     A.U. after   15 cycles
            NFock= 15  Conv=0.43D-08     -V/T= 2.1229
 <Sx>= 0.0000 <Sy>= 0.0000 <Sz>= 0.5000 <S**2>= 0.7519 S= 0.5009
 <L.S>= 0.000000000000E+00
 KE= 7.972697386553D+02 PE=-5.321661581213D+03 EE= 1.993257235858D+03
 Annihilation of the first spin contaminant:
 S**2 before annihilation     0.7519,   after     0.7500
 Leave Link  502 at Sat Sep 12 02:26:26 2026, MaxMem=  6442450944 cpu:             316.0 elap:             315.5
 (Enter C:\G16W\l508.exe)
 QCSCF skips out because SCF is already converged.
 Leave Link  508 at Sat Sep 12 02:26:26 2026, MaxMem=  6442450944 cpu:               0.0 elap:               0.1
 (Enter C:\G16W\l601.exe)
 Copying SCF densities to generalized density rwf, IOpCl= 1 IROHF=0.

 **********************************************************************

            Population analysis using the SCF Density.

 **********************************************************************

 Alpha  occ. eigenvalues --  -14.43799 -10.28533 -10.28451 -10.28394 -10.24198
 Alpha  occ. eigenvalues --  -10.24153 -10.24145 -10.24099 -10.24094 -10.24063
 Alpha  occ. eigenvalues --  -10.24062 -10.24027 -10.23981 -10.23900 -10.23864
 Alpha  occ. eigenvalues --  -10.23829 -10.23594 -10.23543 -10.23510  -3.74436
 Alpha  occ. eigenvalues --   -2.32422  -2.32403  -2.32370  -1.01250  -0.88928
 Alpha  occ. eigenvalues --   -0.88858  -0.86770  -0.78923  -0.78901  -0.77041
 Alpha  occ. eigenvalues --   -0.76913  -0.76889  -0.73222  -0.65741  -0.65732
 Alpha  occ. eigenvalues --   -0.62866  -0.62364  -0.62337  -0.59392  -0.56373
 Alpha  occ. eigenvalues --   -0.56318  -0.52771  -0.50378  -0.50328  -0.49665
 Alpha  occ. eigenvalues --   -0.47406  -0.47394  -0.46023  -0.45347  -0.45309
 Alpha  occ. eigenvalues --   -0.44674  -0.44364  -0.44294  -0.40885  -0.39796
 Alpha  occ. eigenvalues --   -0.39691  -0.38873  -0.37761  -0.37710  -0.37247
 Alpha  occ. eigenvalues --   -0.36121  -0.36059  -0.34165  -0.32124  -0.32072
 Alpha  occ. eigenvalues --   -0.31892  -0.31845  -0.31485  -0.28523  -0.28126
 Alpha  occ. eigenvalues --   -0.28087  -0.27026  -0.26981  -0.20493  -0.16255
 Alpha virt. eigenvalues --   -0.02446  -0.02248  -0.02128  -0.00606  -0.00533
 Alpha virt. eigenvalues --    0.01677   0.01995   0.03047   0.04511   0.07129
 Alpha virt. eigenvalues --    0.07946   0.07981   0.11012   0.11740   0.11798
 Alpha virt. eigenvalues --    0.11982   0.13560   0.13684   0.14545   0.14635
 Alpha virt. eigenvalues --    0.15772   0.16051   0.16557   0.16616   0.17509
 Alpha virt. eigenvalues --    0.17691   0.18826   0.19239   0.23439   0.25155
 Alpha virt. eigenvalues --    0.25252   0.27248   0.27411   0.27622   0.28832
 Alpha virt. eigenvalues --    0.29050   0.29335   0.30552   0.30658   0.31067
 Alpha virt. eigenvalues --    0.32736   0.32825   0.35505   0.35662   0.36528
 Alpha virt. eigenvalues --    0.36604   0.38334   0.38422   0.40590   0.40750
 Alpha virt. eigenvalues --    0.40891   0.42063   0.42207   0.44085   0.45112
 Alpha virt. eigenvalues --    0.45329   0.45513   0.45939   0.46575   0.46902
 Alpha virt. eigenvalues --    0.47359   0.49010   0.49440   0.49573   0.50782
 Alpha virt. eigenvalues --    0.50896   0.50921   0.51451   0.51567   0.51631
 Alpha virt. eigenvalues --    0.53942   0.54447   0.55004   0.55517   0.56881
 Alpha virt. eigenvalues --    0.58703   0.58949   0.59097   0.59308   0.59465
 Alpha virt. eigenvalues --    0.59718   0.61688   0.61956   0.62308   0.63900
 Alpha virt. eigenvalues --    0.65245   0.65350   0.66488   0.66570   0.66955
 Alpha virt. eigenvalues --    0.68612   0.68688   0.69544   0.70378   0.70492
 Alpha virt. eigenvalues --    0.70605   0.71793   0.71940   0.71986   0.73881
 Alpha virt. eigenvalues --    0.74121   0.74243   0.75527   0.76233   0.76375
 Alpha virt. eigenvalues --    0.76475   0.77928   0.78032   0.79206   0.79835
 Alpha virt. eigenvalues --    0.79862   0.81436   0.81729   0.82243   0.83901
 Alpha virt. eigenvalues --    0.84150   0.84941   0.85791   0.87514   0.88101
 Alpha virt. eigenvalues --    0.89966   0.91096   0.92100   0.93656   0.95441
 Alpha virt. eigenvalues --    0.95669   0.96131   0.96203   0.96788   1.02777
 Alpha virt. eigenvalues --    1.08910   1.09083   1.11937   1.12056   1.12573
 Alpha virt. eigenvalues --    1.18268   1.18630   1.21540   1.21694   1.22176
 Alpha virt. eigenvalues --    1.22293   1.24939   1.25175   1.25660   1.27102
 Alpha virt. eigenvalues --    1.28593   1.28627   1.29131   1.29152   1.30329
 Alpha virt. eigenvalues --    1.30710   1.30946   1.31633   1.32401   1.32932
 Alpha virt. eigenvalues --    1.33517   1.36741   1.36846   1.42847   1.44424
 Alpha virt. eigenvalues --    1.53002   1.53063   1.54609   1.63395   1.63430
 Alpha virt. eigenvalues --    1.64379   1.68356   1.69936   1.69984   1.69998
 Alpha virt. eigenvalues --    1.70037   1.70139   1.72619   1.72655   1.74508
 Alpha virt. eigenvalues --    1.74537   1.76801   1.76862   1.77230   1.77653
 Alpha virt. eigenvalues --    1.77711   1.78728   1.78856   1.79077   1.79165
 Alpha virt. eigenvalues --    1.79186   1.80674   1.82716   1.82770   1.83491
 Alpha virt. eigenvalues --    1.84851   1.85040   1.86685   1.86738   1.86810
 Alpha virt. eigenvalues --    1.87687   1.87754   1.88575   1.92104   1.96252
 Alpha virt. eigenvalues --    1.96269   1.96780   1.99689   1.99730   2.00212
 Alpha virt. eigenvalues --    2.01558   2.02717   2.02772   2.02863   2.05628
 Alpha virt. eigenvalues --    2.05747   2.05877   2.08372   2.08533   2.11698
 Alpha virt. eigenvalues --    2.11764   2.13391   2.15744   2.15959   2.16294
 Alpha virt. eigenvalues --    2.17919   2.19488   2.19544   2.20140   2.20957
 Alpha virt. eigenvalues --    2.21855   2.22037   2.22600   2.22749   2.29624
 Alpha virt. eigenvalues --    2.31079   2.31102   2.31179   2.32762   2.32831
 Alpha virt. eigenvalues --    2.33321   2.34305   2.35531   2.35609   2.37426
 Alpha virt. eigenvalues --    2.37535   2.37794   2.39864   2.44670   2.44839
 Alpha virt. eigenvalues --    2.48765   2.48785   2.56432   2.60270   2.60326
 Alpha virt. eigenvalues --    2.62173   2.62294   2.62705   2.63010   2.63691
 Alpha virt. eigenvalues --    2.63904   2.64047   2.64323   2.64433   2.64959
 Alpha virt. eigenvalues --    2.66079   2.66661   2.67278   2.67339   2.69708
 Alpha virt. eigenvalues --    2.69785   2.77059   2.77290   2.77315   2.77921
 Alpha virt. eigenvalues --    2.77980   2.78405   2.82047   2.86579   2.86785
 Alpha virt. eigenvalues --    2.86840   2.91198   2.91300   2.92305   2.93352
 Alpha virt. eigenvalues --    2.93403   2.99196   3.05096   3.05126   3.13222
 Alpha virt. eigenvalues --    3.16720   3.16745   3.17265   3.21417   3.21467
 Alpha virt. eigenvalues --    3.26395   3.42132   3.42193   3.68869   3.72620
 Alpha virt. eigenvalues --    3.72671  53.86570
  Beta  occ. eigenvalues --  -14.43799 -10.28509 -10.28433 -10.28378 -10.24183
  Beta  occ. eigenvalues --  -10.24127 -10.24120 -10.24079 -10.24074 -10.24045
  Beta  occ. eigenvalues --  -10.24043 -10.24018 -10.23973 -10.23909 -10.23870
  Beta  occ. eigenvalues --  -10.23835 -10.23606 -10.23551 -10.23518  -3.74317
  Beta  occ. eigenvalues --   -2.32384  -2.32368  -2.32348  -1.01222  -0.88897
  Beta  occ. eigenvalues --   -0.88833  -0.86746  -0.78892  -0.78872  -0.77002
  Beta  occ. eigenvalues --   -0.76881  -0.76859  -0.73214  -0.65723  -0.65713
  Beta  occ. eigenvalues --   -0.62812  -0.62331  -0.62308  -0.59365  -0.56344
  Beta  occ. eigenvalues --   -0.56294  -0.52744  -0.50355  -0.50309  -0.49609
  Beta  occ. eigenvalues --   -0.47382  -0.47370  -0.45987  -0.45318  -0.45284
  Beta  occ. eigenvalues --   -0.44626  -0.44337  -0.44272  -0.40810  -0.39720
  Beta  occ. eigenvalues --   -0.39631  -0.38858  -0.37738  -0.37690  -0.37196
  Beta  occ. eigenvalues --   -0.36091  -0.36033  -0.34025  -0.31524  -0.31465
  Beta  occ. eigenvalues --   -0.31279  -0.31235  -0.30902  -0.28359  -0.28040
  Beta  occ. eigenvalues --   -0.27997  -0.26911  -0.26884  -0.20464
  Beta virt. eigenvalues --   -0.07885  -0.02134  -0.02049  -0.01787  -0.00144
  Beta virt. eigenvalues --   -0.00066   0.03128   0.03470   0.03790   0.06644
  Beta virt. eigenvalues --    0.07831   0.08037   0.08069   0.11394   0.11850
  Beta virt. eigenvalues --    0.11917   0.12112   0.13637   0.13770   0.14634
  Beta virt. eigenvalues --    0.14707   0.15974   0.16468   0.16652   0.16691
  Beta virt. eigenvalues --    0.17789   0.18070   0.18981   0.19396   0.23734
  Beta virt. eigenvalues --    0.25380   0.25453   0.27617   0.27767   0.28159
  Beta virt. eigenvalues --    0.29196   0.29298   0.29695   0.30816   0.30905
  Beta virt. eigenvalues --    0.32313   0.33674   0.33862   0.35612   0.35736
  Beta virt. eigenvalues --    0.36709   0.36771   0.38649   0.38698   0.40899
  Beta virt. eigenvalues --    0.41070   0.41232   0.42253   0.42447   0.44148
  Beta virt. eigenvalues --    0.45481   0.45506   0.45693   0.46010   0.46914
  Beta virt. eigenvalues --    0.47251   0.47713   0.49072   0.49782   0.49899
  Beta virt. eigenvalues --    0.50911   0.51031   0.51045   0.51723   0.51868
  Beta virt. eigenvalues --    0.51907   0.54462   0.54927   0.55961   0.56557
  Beta virt. eigenvalues --    0.57209   0.58807   0.59123   0.59184   0.59519
  Beta virt. eigenvalues --    0.59779   0.59805   0.61878   0.62248   0.63090
  Beta virt. eigenvalues --    0.63984   0.65330   0.65462   0.66560   0.66646
  Beta virt. eigenvalues --    0.66987   0.68660   0.68745   0.69584   0.70431
  Beta virt. eigenvalues --    0.70550   0.70645   0.71937   0.72019   0.72101
  Beta virt. eigenvalues --    0.74002   0.74179   0.74351   0.75596   0.76334
  Beta virt. eigenvalues --    0.76486   0.76524   0.78030   0.78189   0.79384
  Beta virt. eigenvalues --    0.79864   0.79905   0.81525   0.81916   0.82387
  Beta virt. eigenvalues --    0.83993   0.84256   0.85033   0.85929   0.87734
  Beta virt. eigenvalues --    0.88276   0.90042   0.91278   0.92369   0.93694
  Beta virt. eigenvalues --    0.95500   0.95748   0.96153   0.96230   0.96868
  Beta virt. eigenvalues --    1.02996   1.08948   1.09126   1.11986   1.12108
  Beta virt. eigenvalues --    1.12665   1.18341   1.18713   1.21573   1.21735
  Beta virt. eigenvalues --    1.22275   1.22326   1.24983   1.25226   1.25698
  Beta virt. eigenvalues --    1.27150   1.28632   1.28660   1.29162   1.29183
  Beta virt. eigenvalues --    1.30368   1.30742   1.31020   1.31701   1.32452
  Beta virt. eigenvalues --    1.32970   1.33595   1.36779   1.36890   1.42920
  Beta virt. eigenvalues --    1.44453   1.53030   1.53092   1.54645   1.63416
  Beta virt. eigenvalues --    1.63449   1.64416   1.68374   1.69956   1.70001
  Beta virt. eigenvalues --    1.70023   1.70055   1.70161   1.72635   1.72670
  Beta virt. eigenvalues --    1.74536   1.74566   1.76828   1.76890   1.77250
  Beta virt. eigenvalues --    1.77677   1.77739   1.78758   1.78888   1.79115
  Beta virt. eigenvalues --    1.79184   1.79199   1.80703   1.82736   1.82788
  Beta virt. eigenvalues --    1.83505   1.84873   1.85062   1.86726   1.86768
  Beta virt. eigenvalues --    1.86848   1.87737   1.87816   1.88651   1.92136
  Beta virt. eigenvalues --    1.96274   1.96287   1.96801   1.99722   1.99777
  Beta virt. eigenvalues --    2.00377   2.01586   2.02737   2.02793   2.02898
  Beta virt. eigenvalues --    2.05647   2.05772   2.05899   2.08388   2.08548
  Beta virt. eigenvalues --    2.11741   2.11793   2.13555   2.15774   2.15989
  Beta virt. eigenvalues --    2.16353   2.18200   2.19521   2.19565   2.20221
  Beta virt. eigenvalues --    2.21267   2.21868   2.22184   2.22630   2.22776
  Beta virt. eigenvalues --    2.29650   2.31115   2.31130   2.31207   2.32804
  Beta virt. eigenvalues --    2.32865   2.33352   2.34341   2.35553   2.35632
  Beta virt. eigenvalues --    2.37459   2.37573   2.37833   2.39899   2.44692
  Beta virt. eigenvalues --    2.44863   2.48792   2.48811   2.56465   2.60302
  Beta virt. eigenvalues --    2.60357   2.62203   2.62323   2.62730   2.63037
  Beta virt. eigenvalues --    2.63715   2.63937   2.64080   2.64357   2.64468
  Beta virt. eigenvalues --    2.64992   2.66112   2.66688   2.67316   2.67370
  Beta virt. eigenvalues --    2.69737   2.69810   2.77064   2.77295   2.77319
  Beta virt. eigenvalues --    2.77938   2.77998   2.78424   2.82063   2.86599
  Beta virt. eigenvalues --    2.86806   2.86862   2.91220   2.91325   2.92331
  Beta virt. eigenvalues --    2.93373   2.93422   2.99219   3.05108   3.05138
  Beta virt. eigenvalues --    3.13235   3.16736   3.16759   3.17283   3.21432
  Beta virt. eigenvalues --    3.21480   3.26407   3.42146   3.42205   3.68884
  Beta virt. eigenvalues --    3.72637   3.72684  53.86731
          Condensed to atoms (all electrons):
               1          2          3          4          5          6
     1  C    5.150163   0.250561   0.100155  -0.179420  -0.000776   0.000128
     2  C    0.250561   5.088984   0.244050   0.134186   0.011809  -0.000647
     3  C    0.100155   0.244050   5.252985   0.225643  -0.097616  -0.000761
     4  C   -0.179420   0.134186   0.225643   5.279508   0.268287  -0.055206
     5  N   -0.000776   0.011809  -0.097616   0.268287   7.024890   0.269581
     6  C    0.000128  -0.000647  -0.000761  -0.055206   0.269581   5.266436
     7  C    0.000025  -0.001549  -0.006516  -0.000909  -0.081644   0.255877
     8  C   -0.000004   0.000066  -0.001235  -0.000988   0.011384   0.137437
     9  C    0.000000  -0.000006  -0.000001   0.000158  -0.000757  -0.178766
    10  C    0.000000   0.000008   0.000033  -0.000430   0.011558   0.133409
    11  C    0.000000  -0.000079   0.000761   0.006383  -0.095980   0.227534
    12  C    0.000159  -0.000421   0.006565  -0.057220   0.271376  -0.057113
    13  C    0.000000   0.000011  -0.000890   0.005572  -0.080855  -0.000894
    14  C    0.000000   0.000000   0.000012  -0.000313   0.011324  -0.000933
    15  C    0.000000   0.000000   0.000001   0.000124  -0.000728   0.000150
    16  C   -0.000006   0.000007  -0.000090  -0.000568   0.011587  -0.000409
    17  C    0.000001   0.000032   0.000821  -0.000551  -0.099214   0.006448
    18  C    0.097629  -0.156763   0.058404   0.254337  -0.082222   0.005524
    19  C    0.245173   0.116354  -0.164982   0.138467   0.011466  -0.000328
    20  H    0.452950  -0.071834   0.015647  -0.001662   0.000011   0.000001
    21  H   -0.073749   0.449952  -0.067288   0.016646  -0.000165  -0.000037
    22  H    0.014682  -0.065937   0.453843  -0.067516  -0.015370   0.005927
    23  H    0.000147  -0.001061   0.001415   0.007112  -0.015994  -0.065910
    24  H    0.000000   0.000003   0.000052  -0.000035  -0.000168   0.016008
    25  H    0.000000   0.000000   0.000000   0.000001   0.000011  -0.001640
    26  H    0.000000   0.000000  -0.000002   0.000012  -0.000164   0.016655
    27  H    0.000000   0.000000   0.000059  -0.000097  -0.015734  -0.068582
    28  H    0.000000   0.000000  -0.000006  -0.000355  -0.016026   0.007043
    29  H    0.000000   0.000000   0.000000   0.000011  -0.000168  -0.000035
    30  H    0.000000   0.000000   0.000000   0.000001   0.000011   0.000001
    31  H    0.000000   0.000000   0.000000  -0.000037  -0.000165   0.000012
    32  H    0.000095  -0.000082  -0.001916   0.006078  -0.014735  -0.000076
    33  H    0.015026  -0.002525   0.017045  -0.066066  -0.016068  -0.000352
    34  H   -0.072648   0.014423  -0.001617   0.016022  -0.000168   0.000012
    35  Ag  -0.001208   0.002236  -0.001376  -0.009940   0.006363  -0.008753
               7          8          9         10         11         12
     1  C    0.000025  -0.000004   0.000000   0.000000   0.000000   0.000159
     2  C   -0.001549   0.000066  -0.000006   0.000008  -0.000079  -0.000421
     3  C   -0.006516  -0.001235  -0.000001   0.000033   0.000761   0.006565
     4  C   -0.000909  -0.000988   0.000158  -0.000430   0.006383  -0.057220
     5  N   -0.081644   0.011384  -0.000757   0.011558  -0.095980   0.271376
     6  C    0.255877   0.137437  -0.178766   0.133409   0.227534  -0.057113
     7  C    5.194273   0.245343   0.096971  -0.156221   0.058675   0.005595
     8  C    0.245343   5.110159   0.246608   0.115359  -0.164416  -0.000324
     9  C    0.096971   0.246608   5.149145   0.251941   0.099171   0.000135
    10  C   -0.156221   0.115359   0.251941   5.084098   0.248924  -0.000721
    11  C    0.058675  -0.164416   0.099171   0.248924   5.249745  -0.000474
    12  C    0.005595  -0.000324   0.000135  -0.000721  -0.000474   5.275120
    13  C    0.001254  -0.000001   0.000020  -0.001487  -0.006437   0.261829
    14  C   -0.000062   0.000006  -0.000004   0.000068  -0.001229   0.137611
    15  C   -0.000001   0.000000   0.000000  -0.000006   0.000001  -0.177611
    16  C    0.000011   0.000000   0.000000   0.000007   0.000045   0.130698
    17  C   -0.000917   0.000014   0.000000  -0.000088   0.000673   0.222524
    18  C    0.001215  -0.000066   0.000000   0.000010  -0.000901  -0.001033
    19  C    0.000003   0.000006   0.000000   0.000000   0.000012  -0.001014
    20  H   -0.000001   0.000000   0.000000   0.000000   0.000000   0.000001
    21  H    0.000054   0.000001   0.000000   0.000000   0.000000   0.000012
    22  H    0.003748  -0.000633   0.000122  -0.000087  -0.001892  -0.000143
    23  H    0.457290  -0.072928   0.014992  -0.002503   0.017030  -0.000351
    24  H   -0.067662   0.449107  -0.072659   0.014423  -0.001611   0.000011
    25  H    0.015353  -0.071884   0.452772  -0.071715   0.015620   0.000001
    26  H   -0.001693   0.014500  -0.073843   0.450057  -0.067292  -0.000038
    27  H    0.015304  -0.002429   0.014728  -0.065429   0.453196   0.006203
    28  H   -0.001012   0.000054   0.000147  -0.001091   0.001434  -0.066004
    29  H    0.000001   0.000000   0.000000   0.000003   0.000052   0.016026
    30  H    0.000000   0.000000   0.000000   0.000000   0.000000  -0.001685
    31  H    0.000000   0.000000   0.000000   0.000000  -0.000002   0.016638
    32  H    0.000000   0.000000   0.000000   0.000001   0.000078  -0.067737
    33  H    0.000000   0.000000   0.000000   0.000000  -0.000007   0.007165
    34  H   -0.000002   0.000000   0.000000   0.000000   0.000000  -0.000035
    35  Ag  -0.005754   0.000575  -0.001219   0.002379  -0.003553  -0.010071
              13         14         15         16         17         18
     1  C    0.000000   0.000000   0.000000  -0.000006   0.000001   0.097629
     2  C    0.000011   0.000000   0.000000   0.000007   0.000032  -0.156763
     3  C   -0.000890   0.000012   0.000001  -0.000090   0.000821   0.058404
     4  C    0.005572  -0.000313   0.000124  -0.000568  -0.000551   0.254337
     5  N   -0.080855   0.011324  -0.000728   0.011587  -0.099214  -0.082222
     6  C   -0.000894  -0.000933   0.000150  -0.000409   0.006448   0.005524
     7  C    0.001254  -0.000062  -0.000001   0.000011  -0.000917   0.001215
     8  C   -0.000001   0.000006   0.000000   0.000000   0.000014  -0.000066
     9  C    0.000020  -0.000004   0.000000   0.000000   0.000000   0.000000
    10  C   -0.001487   0.000068  -0.000006   0.000007  -0.000088   0.000010
    11  C   -0.006437  -0.001229   0.000001   0.000045   0.000673  -0.000901
    12  C    0.261829   0.137611  -0.177611   0.130698   0.222524  -0.001033
    13  C    5.186705   0.245344   0.095725  -0.153663   0.056427   0.001199
    14  C    0.245344   5.112570   0.245834   0.115219  -0.165582   0.000003
    15  C    0.095725   0.245834   5.146114   0.255604   0.098721   0.000026
    16  C   -0.153663   0.115219   0.255604   5.077712   0.246513  -0.001534
    17  C    0.056427  -0.165582   0.098721   0.246513   5.274711  -0.006065
    18  C    0.001199   0.000003   0.000026  -0.001534  -0.006065   5.195642
    19  C   -0.000067   0.000005  -0.000004   0.000064  -0.001208   0.243844
    20  H    0.000000   0.000000   0.000000   0.000000   0.000000   0.015388
    21  H    0.000000   0.000000   0.000000   0.000000  -0.000002  -0.001688
    22  H    0.000001   0.000000   0.000000   0.000001   0.000080   0.015336
    23  H    0.000003   0.000001   0.000000   0.000000  -0.000010  -0.000977
    24  H   -0.000002   0.000000   0.000000   0.000000   0.000000   0.000001
    25  H   -0.000001   0.000000   0.000000   0.000000   0.000000   0.000000
    26  H    0.000053   0.000000   0.000000   0.000000   0.000000   0.000000
    27  H    0.003651  -0.000644   0.000110  -0.000086  -0.001934  -0.000002
    28  H    0.458071  -0.073521   0.015059  -0.002547   0.017273   0.000000
    29  H   -0.067573   0.449144  -0.072643   0.014420  -0.001613  -0.000002
    30  H    0.015391  -0.072125   0.453170  -0.071978   0.015798  -0.000001
    31  H   -0.001657   0.014442  -0.073452   0.449728  -0.067178   0.000052
    32  H    0.014748  -0.002256   0.014402  -0.062727   0.449654   0.003719
    33  H   -0.000955   0.000049   0.000150  -0.001067   0.001284   0.457659
    34  H    0.000001   0.000000   0.000000   0.000003   0.000051  -0.067709
    35  Ag  -0.006857   0.000806  -0.001700   0.002749  -0.005500  -0.006378
              19         20         21         22         23         24
     1  C    0.245173   0.452950  -0.073749   0.014682   0.000147   0.000000
     2  C    0.116354  -0.071834   0.449952  -0.065937  -0.001061   0.000003
     3  C   -0.164982   0.015647  -0.067288   0.453843   0.001415   0.000052
     4  C    0.138467  -0.001662   0.016646  -0.067516   0.007112  -0.000035
     5  N    0.011466   0.000011  -0.000165  -0.015370  -0.015994  -0.000168
     6  C   -0.000328   0.000001  -0.000037   0.005927  -0.065910   0.016008
     7  C    0.000003  -0.000001   0.000054   0.003748   0.457290  -0.067662
     8  C    0.000006   0.000000   0.000001  -0.000633  -0.072928   0.449107
     9  C    0.000000   0.000000   0.000000   0.000122   0.014992  -0.072659
    10  C    0.000000   0.000000   0.000000  -0.000087  -0.002503   0.014423
    11  C    0.000012   0.000000   0.000000  -0.001892   0.017030  -0.001611
    12  C   -0.001014   0.000001   0.000012  -0.000143  -0.000351   0.000011
    13  C   -0.000067   0.000000   0.000000   0.000001   0.000003  -0.000002
    14  C    0.000005   0.000000   0.000000   0.000000   0.000001   0.000000
    15  C   -0.000004   0.000000   0.000000   0.000000   0.000000   0.000000
    16  C    0.000064   0.000000   0.000000   0.000001   0.000000   0.000000
    17  C   -0.001208   0.000000  -0.000002   0.000080  -0.000010   0.000000
    18  C    0.243844   0.015388  -0.001688   0.015336  -0.000977   0.000001
    19  C    5.112159  -0.071946   0.014494  -0.002400   0.000052   0.000000
    20  H   -0.071946   0.673427  -0.012261  -0.000239   0.000001   0.000000
    21  H    0.014494  -0.012261   0.670533  -0.013451  -0.000008   0.000000
    22  H   -0.002400  -0.000239  -0.013451   0.629830  -0.001146   0.000024
    23  H    0.000052   0.000001  -0.000008  -0.001146   0.651430  -0.012483
    24  H    0.000000   0.000000   0.000000   0.000024  -0.012483   0.672234
    25  H    0.000000   0.000000   0.000000   0.000000  -0.000245  -0.012308
    26  H    0.000000   0.000000   0.000000  -0.000010   0.000025  -0.000315
    27  H    0.000000   0.000000   0.000000   0.000001  -0.000162   0.000027
    28  H    0.000001   0.000000   0.000000   0.000002   0.000007  -0.000005
    29  H    0.000000   0.000000   0.000000   0.000000   0.000000   0.000000
    30  H    0.000000   0.000000   0.000000   0.000000   0.000000   0.000000
    31  H    0.000000   0.000000   0.000000   0.000000   0.000000   0.000000
    32  H   -0.000594  -0.000001  -0.000010   0.000027   0.000002   0.000000
    33  H   -0.073070  -0.000245   0.000025  -0.000166   0.000008   0.000000
    34  H    0.449157  -0.012298  -0.000314   0.000027  -0.000006   0.000000
    35  Ag   0.000634   0.000071   0.000999   0.003064   0.000241  -0.000069
              25         26         27         28         29         30
     1  C    0.000000   0.000000   0.000000   0.000000   0.000000   0.000000
     2  C    0.000000   0.000000   0.000000   0.000000   0.000000   0.000000
     3  C    0.000000  -0.000002   0.000059  -0.000006   0.000000   0.000000
     4  C    0.000001   0.000012  -0.000097  -0.000355   0.000011   0.000001
     5  N    0.000011  -0.000164  -0.015734  -0.016026  -0.000168   0.000011
     6  C   -0.001640   0.016655  -0.068582   0.007043  -0.000035   0.000001
     7  C    0.015353  -0.001693   0.015304  -0.001012   0.000001   0.000000
     8  C   -0.071884   0.014500  -0.002429   0.000054   0.000000   0.000000
     9  C    0.452772  -0.073843   0.014728   0.000147   0.000000   0.000000
    10  C   -0.071715   0.450057  -0.065429  -0.001091   0.000003   0.000000
    11  C    0.015620  -0.067292   0.453196   0.001434   0.000052   0.000000
    12  C    0.000001  -0.000038   0.006203  -0.066004   0.016026  -0.001685
    13  C   -0.000001   0.000053   0.003651   0.458071  -0.067573   0.015391
    14  C    0.000000   0.000000  -0.000644  -0.073521   0.449144  -0.072125
    15  C    0.000000   0.000000   0.000110   0.015059  -0.072643   0.453170
    16  C    0.000000   0.000000  -0.000086  -0.002547   0.014420  -0.071978
    17  C    0.000000   0.000000  -0.001934   0.017273  -0.001613   0.015798
    18  C    0.000000   0.000000  -0.000002   0.000000  -0.000002  -0.000001
    19  C    0.000000   0.000000   0.000000   0.000001   0.000000   0.000000
    20  H    0.000000   0.000000   0.000000   0.000000   0.000000   0.000000
    21  H    0.000000   0.000000   0.000000   0.000000   0.000000   0.000000
    22  H    0.000000  -0.000010   0.000001   0.000002   0.000000   0.000000
    23  H   -0.000245   0.000025  -0.000162   0.000007   0.000000   0.000000
    24  H   -0.012308  -0.000315   0.000027  -0.000005   0.000000   0.000000
    25  H    0.673574  -0.012260  -0.000238   0.000001   0.000000   0.000000
    26  H   -0.012260   0.671025  -0.013644  -0.000007   0.000000   0.000000
    27  H   -0.000238  -0.013644   0.631312  -0.001210   0.000027  -0.000001
    28  H    0.000001  -0.000007  -0.001210   0.650751  -0.012452  -0.000243
    29  H    0.000000   0.000000   0.000027  -0.012452   0.671602  -0.012282
    30  H    0.000000   0.000000  -0.000001  -0.000243  -0.012282   0.673138
    31  H    0.000000   0.000000  -0.000011   0.000024  -0.000313  -0.012244
    32  H    0.000000   0.000000   0.000037  -0.000161   0.000028  -0.000242
    33  H    0.000000   0.000000   0.000002   0.000008  -0.000005   0.000001
    34  H    0.000000   0.000000   0.000000   0.000000   0.000000   0.000000
    35  Ag   0.000041   0.001013   0.004524   0.000300  -0.000082   0.000108
              31         32         33         34         35
     1  C    0.000000   0.000095   0.015026  -0.072648  -0.001208
     2  C    0.000000  -0.000082  -0.002525   0.014423   0.002236
     3  C    0.000000  -0.001916   0.017045  -0.001617  -0.001376
     4  C   -0.000037   0.006078  -0.066066   0.016022  -0.009940
     5  N   -0.000165  -0.014735  -0.016068  -0.000168   0.006363
     6  C    0.000012  -0.000076  -0.000352   0.000012  -0.008753
     7  C    0.000000   0.000000   0.000000  -0.000002  -0.005754
     8  C    0.000000   0.000000   0.000000   0.000000   0.000575
     9  C    0.000000   0.000000   0.000000   0.000000  -0.001219
    10  C    0.000000   0.000001   0.000000   0.000000   0.002379
    11  C   -0.000002   0.000078  -0.000007   0.000000  -0.003553
    12  C    0.016638  -0.067737   0.007165  -0.000035  -0.010071
    13  C   -0.001657   0.014748  -0.000955   0.000001  -0.006857
    14  C    0.014442  -0.002256   0.000049   0.000000   0.000806
    15  C   -0.073452   0.014402   0.000150   0.000000  -0.001700
    16  C    0.449728  -0.062727  -0.001067   0.000003   0.002749
    17  C   -0.067178   0.449654   0.001284   0.000051  -0.005500
    18  C    0.000052   0.003719   0.457659  -0.067709  -0.006378
    19  C    0.000000  -0.000594  -0.073070   0.449157   0.000634
    20  H    0.000000  -0.000001  -0.000245  -0.012298   0.000071
    21  H    0.000000  -0.000010   0.000025  -0.000314   0.000999
    22  H    0.000000   0.000027  -0.000166   0.000027   0.003064
    23  H    0.000000   0.000002   0.000008  -0.000006   0.000241
    24  H    0.000000   0.000000   0.000000   0.000000  -0.000069
    25  H    0.000000   0.000000   0.000000   0.000000   0.000041
    26  H    0.000000   0.000000   0.000000   0.000000   0.001013
    27  H   -0.000011   0.000037   0.000002   0.000000   0.004524
    28  H    0.000024  -0.000161   0.000008   0.000000   0.000300
    29  H   -0.000313   0.000028  -0.000005   0.000000  -0.000082
    30  H   -0.012244  -0.000242   0.000001   0.000000   0.000108
    31  H    0.669638  -0.013683  -0.000008   0.000000   0.001434
    32  H   -0.013683   0.625865  -0.001214   0.000030   0.003962
    33  H   -0.000008  -0.001214   0.651392  -0.012474   0.000380
    34  H    0.000000   0.000030  -0.012474   0.672124  -0.000079
    35  Ag   0.001434   0.003962   0.000380  -0.000079  19.086732
          Atomic-Atomic Spin Densities.
               1          2          3          4          5          6
     1  C   -0.004648  -0.003275   0.000876  -0.000389  -0.000020   0.000011
     2  C   -0.003275   0.020794  -0.001207   0.001030   0.000039  -0.000074
     3  C    0.000876  -0.001207  -0.000241   0.001325  -0.000321   0.000682
     4  C   -0.000389   0.001030   0.001325   0.014174  -0.000148   0.001134
     5  N   -0.000020   0.000039  -0.000321  -0.000148  -0.000974  -0.000018
     6  C    0.000011  -0.000074   0.000682   0.001134  -0.000018   0.012401
     7  C    0.000019  -0.000153   0.000636  -0.000028  -0.000506   0.001385
     8  C    0.000000   0.000011  -0.000068  -0.000016   0.000028  -0.000376
     9  C    0.000000   0.000000   0.000006   0.000004  -0.000021  -0.000491
    10  C    0.000000   0.000000  -0.000003  -0.000005   0.000041   0.001146
    11  C    0.000000  -0.000001   0.000038   0.000173  -0.000410   0.000685
    12  C    0.000002  -0.000004   0.000134   0.001213  -0.000114   0.001081
    13  C    0.000000  -0.000001   0.000010   0.000231  -0.000576  -0.000114
    14  C    0.000000   0.000000   0.000000  -0.000011   0.000031  -0.000012
    15  C    0.000000   0.000000   0.000000   0.000016  -0.000025   0.000003
    16  C    0.000000   0.000000   0.000000  -0.000115   0.000058  -0.000004
    17  C    0.000009  -0.000005   0.000053   0.001282  -0.000497   0.000211
    18  C    0.000647  -0.000431   0.000684   0.002060  -0.000472   0.000162
    19  C    0.000412  -0.000479  -0.000221  -0.000527   0.000024  -0.000009
    20  H   -0.000124   0.000051  -0.000005   0.000005   0.000000   0.000000
    21  H   -0.000120   0.000390  -0.000213  -0.000007   0.000001  -0.000001
    22  H    0.000045  -0.000195   0.001914   0.000395  -0.000031   0.000008
    23  H   -0.000025   0.000123  -0.000136   0.000217   0.000106   0.000072
    24  H    0.000000   0.000000   0.000000   0.000000   0.000000  -0.000015
    25  H    0.000000   0.000000   0.000000   0.000000   0.000000   0.000009
    26  H    0.000000   0.000000   0.000000   0.000000   0.000001   0.000001
    27  H    0.000000   0.000000   0.000003   0.000025  -0.000021   0.000253
    28  H    0.000000   0.000000  -0.000001  -0.000018   0.000109   0.000235
    29  H    0.000000   0.000000   0.000000   0.000000   0.000000   0.000000
    30  H    0.000000   0.000000   0.000000   0.000000   0.000000   0.000000
    31  H    0.000000   0.000000   0.000000  -0.000002   0.000001   0.000000
    32  H    0.000008  -0.000001   0.000026   0.000146  -0.000037   0.000039
    33  H   -0.000057   0.000043  -0.000006   0.000004   0.000109  -0.000014
    34  H   -0.000044  -0.000008  -0.000006  -0.000015   0.000000   0.000000
    35  Ag  -0.000845  -0.000256  -0.012407  -0.016179   0.002979  -0.012366
               7          8          9         10         11         12
     1  C    0.000019   0.000000   0.000000   0.000000   0.000000   0.000002
     2  C   -0.000153   0.000011   0.000000   0.000000  -0.000001  -0.000004
     3  C    0.000636  -0.000068   0.000006  -0.000003   0.000038   0.000134
     4  C   -0.000028  -0.000016   0.000004  -0.000005   0.000173   0.001213
     5  N   -0.000506   0.000028  -0.000021   0.000041  -0.000410  -0.000114
     6  C    0.001385  -0.000376  -0.000491   0.001146   0.000685   0.001081
     7  C   -0.001157  -0.002868   0.000726  -0.000508   0.000749   0.000207
     8  C   -0.002868   0.015830   0.000221  -0.000379  -0.000189  -0.000010
     9  C    0.000726   0.000221  -0.003934  -0.003040   0.000857   0.000014
    10  C   -0.000508  -0.000379  -0.003040   0.018527  -0.001326  -0.000091
    11  C    0.000749  -0.000189   0.000857  -0.001326   0.001908   0.000988
    12  C    0.000207  -0.000010   0.000014  -0.000091   0.000988   0.018945
    13  C    0.000079   0.000002   0.000019  -0.000146   0.000850   0.001805
    14  C   -0.000002   0.000000  -0.000001   0.000012  -0.000099  -0.000617
    15  C    0.000000   0.000000   0.000000   0.000000   0.000009  -0.000734
    16  C   -0.000001   0.000000   0.000000   0.000000  -0.000006   0.001786
    17  C    0.000019   0.000000   0.000000  -0.000002   0.000085   0.001088
    18  C    0.000060  -0.000002   0.000000  -0.000001   0.000012  -0.000256
    19  C    0.000003   0.000000   0.000000   0.000000   0.000000  -0.000009
    20  H    0.000000   0.000000   0.000000   0.000000   0.000000   0.000000
    21  H   -0.000002   0.000000   0.000000   0.000000   0.000000   0.000000
    22  H    0.000279  -0.000022   0.000007  -0.000003   0.000010   0.000034
    23  H   -0.000904   0.000104  -0.000058   0.000042  -0.000017  -0.000016
    24  H   -0.000024   0.000246  -0.000036  -0.000008  -0.000005   0.000000
    25  H   -0.000015  -0.000028  -0.000159   0.000072  -0.000008   0.000000
    26  H   -0.000016   0.000007  -0.000162   0.000389  -0.000250  -0.000002
    27  H    0.000000  -0.000007   0.000033  -0.000129   0.001897  -0.000001
    28  H   -0.000052  -0.000010  -0.000023   0.000110  -0.000181   0.000086
    29  H    0.000000   0.000000   0.000000   0.000000   0.000000  -0.000021
    30  H    0.000000   0.000000   0.000000   0.000000   0.000000   0.000012
    31  H    0.000000   0.000000   0.000000   0.000000   0.000000   0.000005
    32  H    0.000003   0.000000   0.000000   0.000000   0.000007   0.000309
    33  H   -0.000015   0.000000   0.000000   0.000000  -0.000002   0.000330
    34  H    0.000000   0.000000   0.000000   0.000000   0.000000   0.000000
    35  Ag  -0.003700   0.000892  -0.000798  -0.000075  -0.013086  -0.016044
              13         14         15         16         17         18
     1  C    0.000000   0.000000   0.000000   0.000000   0.000009   0.000647
     2  C   -0.000001   0.000000   0.000000   0.000000  -0.000005  -0.000431
     3  C    0.000010   0.000000   0.000000   0.000000   0.000053   0.000684
     4  C    0.000231  -0.000011   0.000016  -0.000115   0.001282   0.002060
     5  N   -0.000576   0.000031  -0.000025   0.000058  -0.000497  -0.000472
     6  C   -0.000114  -0.000012   0.000003  -0.000004   0.000211   0.000162
     7  C    0.000079  -0.000002   0.000000  -0.000001   0.000019   0.000060
     8  C    0.000002   0.000000   0.000000   0.000000   0.000000  -0.000002
     9  C    0.000019  -0.000001   0.000000   0.000000   0.000000   0.000000
    10  C   -0.000146   0.000012   0.000000   0.000000  -0.000002  -0.000001
    11  C    0.000850  -0.000099   0.000009  -0.000006   0.000085   0.000012
    12  C    0.001805  -0.000617  -0.000734   0.001786   0.001088  -0.000256
    13  C   -0.003742  -0.003726   0.000988  -0.000764   0.001362   0.000075
    14  C   -0.003726   0.023256   0.000261  -0.000572  -0.000363   0.000004
    15  C    0.000988   0.000261  -0.006695  -0.004073   0.001407   0.000022
    16  C   -0.000764  -0.000572  -0.004073   0.027141  -0.002342  -0.000181
    17  C    0.001362  -0.000363   0.001407  -0.002342   0.003607   0.001004
    18  C    0.000075   0.000004   0.000022  -0.000181   0.001004  -0.001702
    19  C   -0.000002   0.000000  -0.000001   0.000012  -0.000106  -0.003082
    20  H    0.000000   0.000000   0.000000   0.000000   0.000000  -0.000008
    21  H    0.000000   0.000000   0.000000   0.000000   0.000000  -0.000013
    22  H    0.000003   0.000000   0.000000   0.000000   0.000008   0.000011
    23  H   -0.000015   0.000000   0.000000   0.000000  -0.000004  -0.000042
    24  H    0.000000   0.000000   0.000000   0.000000   0.000000   0.000000
    25  H    0.000000   0.000000   0.000000   0.000000   0.000000   0.000000
    26  H   -0.000003   0.000000   0.000000   0.000000   0.000000   0.000000
    27  H    0.000237  -0.000014   0.000006  -0.000001   0.000018   0.000002
    28  H   -0.000882   0.000093  -0.000060   0.000049  -0.000037  -0.000013
    29  H   -0.000045   0.000368  -0.000053  -0.000011  -0.000006   0.000000
    30  H   -0.000015  -0.000046  -0.000208   0.000080  -0.000011   0.000000
    31  H   -0.000023   0.000008  -0.000210   0.000548  -0.000363  -0.000004
    32  H    0.000050  -0.000019   0.000084  -0.000397   0.003492   0.000368
    33  H   -0.000061  -0.000014  -0.000029   0.000149  -0.000254  -0.000898
    34  H    0.000000   0.000000   0.000000   0.000000   0.000000  -0.000031
    35  Ag  -0.004673   0.001299  -0.001206   0.000090  -0.021500  -0.004107
              19         20         21         22         23         24
     1  C    0.000412  -0.000124  -0.000120   0.000045  -0.000025   0.000000
     2  C   -0.000479   0.000051   0.000390  -0.000195   0.000123   0.000000
     3  C   -0.000221  -0.000005  -0.000213   0.001914  -0.000136   0.000000
     4  C   -0.000527   0.000005  -0.000007   0.000395   0.000217   0.000000
     5  N    0.000024   0.000000   0.000001  -0.000031   0.000106   0.000000
     6  C   -0.000009   0.000000  -0.000001   0.000008   0.000072  -0.000015
     7  C    0.000003   0.000000  -0.000002   0.000279  -0.000904  -0.000024
     8  C    0.000000   0.000000   0.000000  -0.000022   0.000104   0.000246
     9  C    0.000000   0.000000   0.000000   0.000007  -0.000058  -0.000036
    10  C    0.000000   0.000000   0.000000  -0.000003   0.000042  -0.000008
    11  C    0.000000   0.000000   0.000000   0.000010  -0.000017  -0.000005
    12  C   -0.000009   0.000000   0.000000   0.000034  -0.000016   0.000000
    13  C   -0.000002   0.000000   0.000000   0.000003  -0.000015   0.000000
    14  C    0.000000   0.000000   0.000000   0.000000   0.000000   0.000000
    15  C   -0.000001   0.000000   0.000000   0.000000   0.000000   0.000000
    16  C    0.000012   0.000000   0.000000   0.000000   0.000000   0.000000
    17  C   -0.000106   0.000000   0.000000   0.000008  -0.000004   0.000000
    18  C   -0.003082  -0.000008  -0.000013   0.000011  -0.000042   0.000000
    19  C    0.017353  -0.000040   0.000003  -0.000010  -0.000013   0.000000
    20  H   -0.000040   0.000385   0.000015   0.000000   0.000000   0.000000
    21  H    0.000003   0.000015  -0.000859  -0.000007   0.000002   0.000000
    22  H   -0.000010   0.000000  -0.000007  -0.000067  -0.000056   0.000000
    23  H   -0.000013   0.000000   0.000002  -0.000056   0.000636   0.000000
    24  H    0.000000   0.000000   0.000000   0.000000   0.000000  -0.000827
    25  H    0.000000   0.000000   0.000000   0.000000   0.000002   0.000006
    26  H    0.000000   0.000000   0.000000   0.000000   0.000000   0.000000
    27  H    0.000000   0.000000   0.000000   0.000004  -0.000001   0.000000
    28  H    0.000000   0.000000   0.000000   0.000000   0.000012   0.000000
    29  H    0.000000   0.000000   0.000000   0.000000   0.000000   0.000000
    30  H    0.000000   0.000000   0.000000   0.000000   0.000000   0.000000
    31  H    0.000000   0.000000   0.000000   0.000000   0.000000   0.000000
    32  H   -0.000043   0.000000   0.000000   0.000007  -0.000001   0.000000
    33  H    0.000092   0.000002   0.000000  -0.000002   0.000013   0.000000
    34  H    0.000278   0.000007   0.000000   0.000000   0.000000   0.000000
    35  Ag   0.001113   0.000040   0.000152  -0.002998   0.000527  -0.000005
              25         26         27         28         29         30
     1  C    0.000000   0.000000   0.000000   0.000000   0.000000   0.000000
     2  C    0.000000   0.000000   0.000000   0.000000   0.000000   0.000000
     3  C    0.000000   0.000000   0.000003  -0.000001   0.000000   0.000000
     4  C    0.000000   0.000000   0.000025  -0.000018   0.000000   0.000000
     5  N    0.000000   0.000001  -0.000021   0.000109   0.000000   0.000000
     6  C    0.000009   0.000001   0.000253   0.000235   0.000000   0.000000
     7  C   -0.000015  -0.000016   0.000000  -0.000052   0.000000   0.000000
     8  C   -0.000028   0.000007  -0.000007  -0.000010   0.000000   0.000000
     9  C   -0.000159  -0.000162   0.000033  -0.000023   0.000000   0.000000
    10  C    0.000072   0.000389  -0.000129   0.000110   0.000000   0.000000
    11  C   -0.000008  -0.000250   0.001897  -0.000181   0.000000   0.000000
    12  C    0.000000  -0.000002  -0.000001   0.000086  -0.000021   0.000012
    13  C    0.000000  -0.000003   0.000237  -0.000882  -0.000045  -0.000015
    14  C    0.000000   0.000000  -0.000014   0.000093   0.000368  -0.000046
    15  C    0.000000   0.000000   0.000006  -0.000060  -0.000053  -0.000208
    16  C    0.000000   0.000000  -0.000001   0.000049  -0.000011   0.000080
    17  C    0.000000   0.000000   0.000018  -0.000037  -0.000006  -0.000011
    18  C    0.000000   0.000000   0.000002  -0.000013   0.000000   0.000000
    19  C    0.000000   0.000000   0.000000   0.000000   0.000000   0.000000
    20  H    0.000000   0.000000   0.000000   0.000000   0.000000   0.000000
    21  H    0.000000   0.000000   0.000000   0.000000   0.000000   0.000000
    22  H    0.000000   0.000000   0.000004   0.000000   0.000000   0.000000
    23  H    0.000002   0.000000  -0.000001   0.000012   0.000000   0.000000
    24  H    0.000006   0.000000   0.000000   0.000000   0.000000   0.000000
    25  H    0.000384   0.000018   0.000000   0.000000   0.000000   0.000000
    26  H    0.000018  -0.000710  -0.000011   0.000002   0.000000   0.000000
    27  H    0.000000  -0.000011  -0.000384  -0.000047   0.000000   0.000000
    28  H    0.000000   0.000002  -0.000047   0.000723   0.000002   0.000002
    29  H    0.000000   0.000000   0.000000   0.000002  -0.001219   0.000008
    30  H    0.000000   0.000000   0.000000   0.000002   0.000008   0.000575
    31  H    0.000000   0.000000   0.000000   0.000001   0.000000   0.000025
    32  H    0.000000   0.000000   0.000005  -0.000003   0.000000   0.000000
    33  H    0.000000   0.000000   0.000000   0.000012   0.000000   0.000000
    34  H    0.000000   0.000000   0.000000   0.000000   0.000000   0.000000
    35  Ag   0.000038   0.000191  -0.002454   0.000543  -0.000008   0.000057
              31         32         33         34         35
     1  C    0.000000   0.000008  -0.000057  -0.000044  -0.000845
     2  C    0.000000  -0.000001   0.000043  -0.000008  -0.000256
     3  C    0.000000   0.000026  -0.000006  -0.000006  -0.012407
     4  C   -0.000002   0.000146   0.000004  -0.000015  -0.016179
     5  N    0.000001  -0.000037   0.000109   0.000000   0.002979
     6  C    0.000000   0.000039  -0.000014   0.000000  -0.012366
     7  C    0.000000   0.000003  -0.000015   0.000000  -0.003700
     8  C    0.000000   0.000000   0.000000   0.000000   0.000892
     9  C    0.000000   0.000000   0.000000   0.000000  -0.000798
    10  C    0.000000   0.000000   0.000000   0.000000  -0.000075
    11  C    0.000000   0.000007  -0.000002   0.000000  -0.013086
    12  C    0.000005   0.000309   0.000330   0.000000  -0.016044
    13  C   -0.000023   0.000050  -0.000061   0.000000  -0.004673
    14  C    0.000008  -0.000019  -0.000014   0.000000   0.001299
    15  C   -0.000210   0.000084  -0.000029   0.000000  -0.001206
    16  C    0.000548  -0.000397   0.000149   0.000000   0.000090
    17  C   -0.000363   0.003492  -0.000254   0.000000  -0.021500
    18  C   -0.000004   0.000368  -0.000898  -0.000031  -0.004107
    19  C    0.000000  -0.000043   0.000092   0.000278   0.001113
    20  H    0.000000   0.000000   0.000002   0.000007   0.000040
    21  H    0.000000   0.000000   0.000000   0.000000   0.000152
    22  H    0.000000   0.000007  -0.000002   0.000000  -0.002998
    23  H    0.000000  -0.000001   0.000013   0.000000   0.000527
    24  H    0.000000   0.000000   0.000000   0.000000  -0.000005
    25  H    0.000000   0.000000   0.000000   0.000000   0.000038
    26  H    0.000000   0.000000   0.000000   0.000000   0.000191
    27  H    0.000000   0.000005   0.000000   0.000000  -0.002454
    28  H    0.000001  -0.000003   0.000012   0.000000   0.000543
    29  H    0.000000   0.000000   0.000000   0.000000  -0.000008
    30  H    0.000025   0.000000   0.000000   0.000000   0.000057
    31  H   -0.001071  -0.000031   0.000003   0.000000   0.000300
    32  H   -0.000031   0.000137  -0.000078   0.000001  -0.005162
    33  H    0.000003  -0.000078   0.000657  -0.000001   0.000620
    34  H    0.000000   0.000001  -0.000001  -0.000909  -0.000007
    35  Ag   0.000300  -0.005162   0.000620  -0.000007   1.064428
 Mulliken charges and spin densities:
               1          2
     1  C    0.000918  -0.007518
     2  C   -0.011778   0.016390
     3  C   -0.033196  -0.008449
     4  C    0.082763   0.005976
     5  N   -0.274940  -0.000664
     6  C    0.092257   0.006022
     7  C   -0.027050  -0.005785
     8  C   -0.015711   0.013367
     9  C    0.000345  -0.006836
    10  C   -0.012499   0.014623
    11  C   -0.035459  -0.007312
    12  C    0.084325   0.010122
    13  C   -0.024666  -0.009079
    14  C   -0.015769   0.019834
    15  C    0.000953  -0.010498
    16  C   -0.009693   0.021446
    17  C   -0.041163  -0.011846
    18  C   -0.024647  -0.006131
    19  C   -0.016279   0.014750
    20  H    0.012989   0.000328
    21  H    0.016260  -0.000660
    22  H    0.042273  -0.000668
    23  H    0.024027   0.000570
    24  H    0.015427  -0.000667
    25  H    0.012917   0.000319
    26  H    0.015928  -0.000543
    27  H    0.041022  -0.000589
    28  H    0.024465   0.000651
    29  H    0.015855  -0.000985
    30  H    0.013182   0.000479
    31  H    0.016783  -0.000813
    32  H    0.046707  -0.001091
    33  H    0.024027   0.000601
    34  H    0.015501  -0.000735
    35  Ag  -0.056073   0.955393
 Sum of Mulliken charges =   0.00000   1.00000
 Mulliken charges and spin densities with hydrogens summed into heavy atoms:
               1          2
     1  C    0.013908  -0.007189
     2  C    0.004482   0.015729
     3  C    0.009077  -0.009116
     4  C    0.082763   0.005976
     5  N   -0.274940  -0.000664
     6  C    0.092257   0.006022
     7  C   -0.003023  -0.005215
     8  C   -0.000284   0.012699
     9  C    0.013261  -0.006517
    10  C    0.003430   0.014079
    11  C    0.005563  -0.007901
    12  C    0.084325   0.010122
    13  C   -0.000202  -0.008428
    14  C    0.000086   0.018848
    15  C    0.014134  -0.010019
    16  C    0.007089   0.020632
    17  C    0.005544  -0.012937
    18  C   -0.000619  -0.005530
    19  C   -0.000779   0.014015
    35  Ag  -0.056073   0.955393
 Electronic spatial extent (au):  <R**2>=           5501.9438
 Charge=              0.0000 electrons
 Dipole moment (field-independent basis, Debye):
    X=             -0.6585    Y=              1.0324    Z=              1.2355  Tot=              1.7395
 Quadrupole moment (field-independent basis, Debye-Ang):
   XX=           -123.0903   YY=           -126.7757   ZZ=           -130.6047
   XY=              3.9259   XZ=              5.0221   YZ=             -8.0615
 Traceless Quadrupole moment (field-independent basis, Debye-Ang):
   XX=              3.7333   YY=              0.0479   ZZ=             -3.7812
   XY=              3.9259   XZ=              5.0221   YZ=             -8.0615
 Octapole moment (field-independent basis, Debye-Ang**2):
  XXX=            -54.3296  YYY=            107.9647  ZZZ=            145.9146  XYY=            -32.1635
  XXY=             30.1661  XXZ=             56.8244  XZZ=            -25.2286  YZZ=             49.7316
  YYZ=             48.7865  XYZ=             -0.9192
 Hexadecapole moment (field-independent basis, Debye-Ang**3):
 XXXX=          -2723.2626 YYYY=          -2438.6994 ZZZZ=          -2316.3914 XXXY=           -133.9789
 XXXZ=           -224.8277 YYYX=           -143.0286 YYYZ=            264.4337 ZZZX=           -125.8679
 ZZZY=            296.7706 XXYY=           -946.4127 XXZZ=           -866.9643 YYZZ=           -834.6556
 XXYZ=             94.3977 YYXZ=            -89.5176 ZZXY=            -96.3461
 N-N= 1.635872886395D+03 E-N=-5.321661582187D+03  KE= 7.972697386553D+02
                          Isotropic Fermi Contact Couplings
        Atom                 a.u.       MegaHertz       Gauss      10(-4) cm-1
     1  C(13)             -0.00135      -1.51469      -0.54048      -0.50525
     2  C(13)              0.00259       2.91542       1.04029       0.97248
     3  C(13)              0.00908      10.20929       3.64293       3.40545
     4  C(13)              0.00426       4.79284       1.71020       1.59872
     5  N(14)              0.00084       0.27185       0.09700       0.09068
     6  C(13)              0.00334       3.75155       1.33865       1.25138
     7  C(13)             -0.00090      -1.00945      -0.36020      -0.33672
     8  C(13)              0.00209       2.34642       0.83726       0.78268
     9  C(13)             -0.00117      -1.31194      -0.46813      -0.43762
    10  C(13)              0.00227       2.54785       0.90913       0.84987
    11  C(13)              0.00945      10.62158       3.79004       3.54298
    12  C(13)              0.00481       5.40904       1.93008       1.80426
    13  C(13)             -0.00154      -1.73399      -0.61873      -0.57840
    14  C(13)              0.00314       3.53075       1.25986       1.17773
    15  C(13)             -0.00184      -2.07307      -0.73972      -0.69150
    16  C(13)              0.00341       3.83459       1.36828       1.27908
    17  C(13)              0.01360      15.28760       5.45500       5.09939
    18  C(13)             -0.00100      -1.12566      -0.40166      -0.37548
    19  C(13)              0.00229       2.57325       0.91820       0.85834
    20  H(1)               0.00009       0.40618       0.14494       0.13549
    21  H(1)              -0.00022      -0.98008      -0.34972      -0.32692
    22  H(1)               0.00050       2.25281       0.80386       0.75146
    23  H(1)               0.00004       0.18254       0.06514       0.06089
    24  H(1)              -0.00019      -0.84570      -0.30177      -0.28210
    25  H(1)               0.00009       0.39756       0.14186       0.13261
    26  H(1)              -0.00019      -0.84550      -0.30170      -0.28203
    27  H(1)               0.00042       1.87120       0.66769       0.62417
    28  H(1)               0.00007       0.33037       0.11788       0.11020
    29  H(1)              -0.00028      -1.24832      -0.44543      -0.41640
    30  H(1)               0.00013       0.59362       0.21182       0.19801
    31  H(1)              -0.00028      -1.25858      -0.44909      -0.41982
    32  H(1)               0.00064       2.88196       1.02836       0.96132
    33  H(1)               0.00004       0.17914       0.06392       0.05975
    34  H(1)              -0.00021      -0.93108      -0.33223      -0.31058
    35  Ag(107             0.00033      -0.06045      -0.02157      -0.02016
 --------------------------------------------------------
       Center         ----  Spin Dipole Couplings  ----
                      3XX-RR        3YY-RR        3ZZ-RR
 --------------------------------------------------------
     1   Atom        0.003455      0.001360     -0.004814
     2   Atom       -0.007589     -0.007090      0.014678
     3   Atom        0.006460     -0.001713     -0.004747
     4   Atom       -0.005243     -0.007155      0.012398
     5   Atom       -0.002707      0.000087      0.002620
     6   Atom       -0.007376      0.007181      0.000195
     7   Atom        0.000276     -0.004252      0.003976
     8   Atom       -0.006852      0.010088     -0.003237
     9   Atom        0.001756     -0.004601      0.002844
    10   Atom       -0.005880      0.011739     -0.005858
    11   Atom       -0.001151     -0.008986      0.010136
    12   Atom        0.006877     -0.002405     -0.004472
    13   Atom       -0.004712      0.005302     -0.000589
    14   Atom        0.009968     -0.005723     -0.004245
    15   Atom       -0.004637      0.004669     -0.000032
    16   Atom        0.010418     -0.008581     -0.001837
    17   Atom       -0.010265      0.015145     -0.004880
    18   Atom        0.002860      0.000079     -0.002939
    19   Atom       -0.005481     -0.007179      0.012660
    20   Atom        0.000505     -0.000301     -0.000204
    21   Atom       -0.001241      0.000686      0.000555
    22   Atom       -0.001542     -0.004234      0.005776
    23   Atom       -0.000904     -0.001084      0.001987
    24   Atom       -0.001274     -0.000401      0.001676
    25   Atom        0.000005     -0.000564      0.000559
    26   Atom        0.001079     -0.000398     -0.000681
    27   Atom       -0.003106      0.002205      0.000901
    28   Atom       -0.001305      0.001654     -0.000349
    29   Atom       -0.000526      0.001935     -0.001409
    30   Atom       -0.000427      0.000965     -0.000538
    31   Atom        0.000494     -0.000522      0.000029
    32   Atom        0.003018      0.002933     -0.005951
    33   Atom        0.000970     -0.000487     -0.000483
    34   Atom        0.001467     -0.001293     -0.000175
    35   Atom        0.003298     -0.001495     -0.001803
 --------------------------------------------------------
                        XY            XZ            YZ
 --------------------------------------------------------
     1   Atom        0.000048     -0.001488     -0.001800
     2   Atom        0.001884      0.001644      0.005160
     3   Atom       -0.000935     -0.008414     -0.002216
     4   Atom       -0.001177     -0.004554      0.003885
     5   Atom       -0.002265     -0.002948      0.005163
     6   Atom       -0.000267      0.000190      0.008306
     7   Atom        0.001193      0.000833      0.000231
     8   Atom       -0.001445      0.000184      0.005251
     9   Atom        0.001070      0.001096     -0.001601
    10   Atom       -0.003470      0.000579      0.005542
    11   Atom        0.002967      0.003655      0.001847
    12   Atom       -0.008925     -0.009598      0.006008
    13   Atom        0.000046      0.003418      0.000501
    14   Atom       -0.005712     -0.010981      0.003427
    15   Atom        0.001873      0.004564     -0.001246
    16   Atom       -0.005842     -0.014031      0.001926
    17   Atom       -0.001713      0.005611      0.001745
    18   Atom       -0.000791     -0.003072     -0.000966
    19   Atom        0.000065      0.000347      0.003627
    20   Atom        0.000211     -0.000727     -0.000382
    21   Atom        0.000440     -0.001061     -0.001412
    22   Atom        0.000184     -0.003342     -0.002584
    23   Atom       -0.000137     -0.000192      0.000584
    24   Atom       -0.000029      0.000357      0.000023
    25   Atom        0.000345      0.000593      0.000219
    26   Atom        0.001398      0.000511      0.000894
    27   Atom        0.003997      0.002906      0.004413
    28   Atom       -0.000109     -0.000073      0.001197
    29   Atom        0.000367     -0.000398      0.000780
    30   Atom       -0.000362      0.000368     -0.000121
    31   Atom       -0.001704      0.001417     -0.000340
    32   Atom       -0.005682     -0.000557      0.001224
    33   Atom       -0.000899     -0.001323      0.000703
    34   Atom       -0.000610     -0.000669      0.000249
    35   Atom        0.005301      0.004221     -0.005359
 --------------------------------------------------------


 ---------------------------------------------------------------------------------
              Anisotropic Spin Dipole Couplings in Principal Axis System
 ---------------------------------------------------------------------------------

       Atom             a.u.   MegaHertz   Gauss  10(-4) cm-1        Axes

              Baa    -0.0055    -0.742    -0.265    -0.247  0.1570  0.2488  0.9558
     1 C(13)  Bbb     0.0018     0.235     0.084     0.078 -0.2131  0.9535 -0.2132
              Bcc     0.0038     0.507     0.181     0.169  0.9643  0.1702 -0.2027
 
              Baa    -0.0095    -1.275    -0.455    -0.425 -0.6444  0.7556 -0.1174
     2 C(13)  Bbb    -0.0065    -0.874    -0.312    -0.292  0.7599  0.6156 -0.2088
              Bcc     0.0160     2.149     0.767     0.717  0.0855  0.2238  0.9709
 
              Baa    -0.0099    -1.335    -0.476    -0.445  0.4507  0.2793  0.8479
     3 C(13)  Bbb    -0.0010    -0.137    -0.049    -0.046 -0.1475  0.9600 -0.2378
              Bcc     0.0110     1.472     0.525     0.491  0.8804  0.0179 -0.4739
 
              Baa    -0.0080    -1.067    -0.381    -0.356  0.1772  0.9733 -0.1462
     4 C(13)  Bbb    -0.0063    -0.848    -0.303    -0.283  0.9560 -0.1349  0.2606
              Bcc     0.0143     1.915     0.683     0.639 -0.2339  0.1859  0.9543
 
              Baa    -0.0040    -0.155    -0.055    -0.052  0.8149 -0.2229  0.5349
     5 N(14)  Bbb    -0.0039    -0.152    -0.054    -0.051  0.4771  0.7821 -0.4009
              Bcc     0.0080     0.307     0.110     0.102 -0.3290  0.5820  0.7437
 
              Baa    -0.0074    -0.996    -0.355    -0.332  0.9895  0.0847 -0.1171
     6 C(13)  Bbb    -0.0053    -0.708    -0.253    -0.236  0.1444 -0.5467  0.8248
              Bcc     0.0127     1.704     0.608     0.568 -0.0059  0.8330  0.5532
 
              Baa    -0.0045    -0.610    -0.218    -0.204 -0.2396  0.9709 -0.0029
     7 C(13)  Bbb     0.0004     0.049     0.017     0.016  0.9444  0.2324 -0.2327
              Bcc     0.0042     0.561     0.200     0.187  0.2252  0.0585  0.9726
 
              Baa    -0.0071    -0.958    -0.342    -0.320  0.9530  0.1586 -0.2580
     8 C(13)  Bbb    -0.0049    -0.652    -0.233    -0.217  0.2948 -0.2912  0.9101
              Bcc     0.0120     1.610     0.575     0.537 -0.0692  0.9434  0.3243
 
              Baa    -0.0052    -0.693    -0.247    -0.231 -0.1826  0.9590  0.2166
     9 C(13)  Bbb     0.0016     0.208     0.074     0.069  0.8711  0.2600 -0.4167
              Bcc     0.0036     0.485     0.173     0.162  0.4560 -0.1126  0.8828
 
              Baa    -0.0085    -1.143    -0.408    -0.381 -0.5702 -0.3062  0.7623
    10 C(13)  Bbb    -0.0053    -0.716    -0.255    -0.239  0.8058 -0.0282  0.5915
              Bcc     0.0139     1.859     0.663     0.620 -0.1596  0.9515  0.2629
 
              Baa    -0.0100    -1.342    -0.479    -0.448 -0.3058  0.9516 -0.0318
    11 C(13)  Bbb    -0.0016    -0.209    -0.074    -0.070  0.9030  0.2793 -0.3264
              Bcc     0.0116     1.551     0.553     0.517  0.3017  0.1285  0.9447
 
              Baa    -0.0102    -1.367    -0.488    -0.456  0.3535 -0.2830  0.8916
    12 C(13)  Bbb    -0.0078    -1.049    -0.374    -0.350  0.5426  0.8384  0.0510
              Bcc     0.0180     2.415     0.862     0.806  0.7620 -0.4658 -0.4500
 
              Baa    -0.0066    -0.892    -0.318    -0.297  0.8701  0.0173 -0.4925
    13 C(13)  Bbb     0.0013     0.173     0.062     0.058  0.4911 -0.1134  0.8637
              Bcc     0.0054     0.719     0.257     0.240  0.0409  0.9934  0.1071
 
              Baa    -0.0102    -1.375    -0.491    -0.459  0.4534 -0.0986  0.8859
    14 C(13)  Bbb    -0.0076    -1.017    -0.363    -0.339  0.2865  0.9572 -0.0401
              Bcc     0.0178     2.392     0.853     0.798  0.8440 -0.2720 -0.4622
 
              Baa    -0.0079    -1.053    -0.376    -0.351  0.8375 -0.1768 -0.5171
    15 C(13)  Bbb     0.0028     0.372     0.133     0.124  0.5301  0.0331  0.8473
              Bcc     0.0051     0.681     0.243     0.227  0.1326  0.9837 -0.1215
 
              Baa    -0.0121    -1.621    -0.578    -0.541  0.5398  0.5516  0.6359
    16 C(13)  Bbb    -0.0087    -1.171    -0.418    -0.391 -0.1651  0.8101 -0.5626
              Bcc     0.0208     2.792     0.996     0.931  0.8254 -0.1987 -0.5284
 
              Baa    -0.0140    -1.877    -0.670    -0.626  0.8416  0.0815 -0.5339
    17 C(13)  Bbb    -0.0014    -0.184    -0.065    -0.061  0.5377 -0.0332  0.8425
              Bcc     0.0154     2.061     0.735     0.687 -0.0509  0.9961  0.0718
 
              Baa    -0.0046    -0.614    -0.219    -0.205  0.3923  0.2504  0.8851
    18 C(13)  Bbb     0.0004     0.048     0.017     0.016 -0.0196  0.9643 -0.2642
              Bcc     0.0042     0.566     0.202     0.189  0.9196 -0.0863 -0.3832
 
              Baa    -0.0078    -1.050    -0.374    -0.350 -0.0015  0.9847 -0.1744
    19 C(13)  Bbb    -0.0055    -0.736    -0.263    -0.246  0.9998 -0.0018 -0.0187
              Bcc     0.0133     1.786     0.637     0.596  0.0188  0.1744  0.9845
 
              Baa    -0.0008    -0.413    -0.147    -0.138  0.3737  0.4760  0.7961
    20 H(1)   Bbb    -0.0003    -0.157    -0.056    -0.052 -0.4738  0.8358 -0.2773
              Bcc     0.0011     0.570     0.203     0.190  0.7974  0.2735 -0.5379
 
              Baa    -0.0018    -0.936    -0.334    -0.312  0.8742  0.1152  0.4717
    21 H(1)   Bbb    -0.0006    -0.316    -0.113    -0.105 -0.3926  0.7394  0.5469
              Bcc     0.0023     1.252     0.447     0.418 -0.2858 -0.6633  0.6916
 
              Baa    -0.0050    -2.673    -0.954    -0.892  0.2349  0.9263  0.2947
    22 H(1)   Bbb    -0.0026    -1.378    -0.492    -0.460  0.9107 -0.3158  0.2664
              Bcc     0.0076     4.051     1.445     1.351 -0.3399 -0.2058  0.9177
 
              Baa    -0.0012    -0.653    -0.233    -0.218  0.3104  0.9383 -0.1522
    23 H(1)   Bbb    -0.0009    -0.473    -0.169    -0.158  0.9480 -0.2937  0.1231
              Bcc     0.0021     1.126     0.402     0.376 -0.0708  0.1825  0.9807
 
              Baa    -0.0013    -0.703    -0.251    -0.235  0.9923  0.0349 -0.1186
    24 H(1)   Bbb    -0.0004    -0.214    -0.076    -0.071 -0.0357  0.9994 -0.0049
              Bcc     0.0017     0.917     0.327     0.306  0.1183  0.0091  0.9929
 
              Baa    -0.0007    -0.390    -0.139    -0.130 -0.4662  0.8823  0.0646
    25 H(1)   Bbb    -0.0003    -0.156    -0.056    -0.052  0.6958  0.4108 -0.5892
              Bcc     0.0010     0.546     0.195     0.182  0.5464  0.2297  0.8054
 
              Baa    -0.0016    -0.856    -0.305    -0.285 -0.2873  0.7627 -0.5794
    26 H(1)   Bbb    -0.0006    -0.323    -0.115    -0.108 -0.5383  0.3718  0.7563
              Bcc     0.0022     1.178     0.421     0.393  0.7923  0.5292  0.3037
 
              Baa    -0.0053    -2.837    -1.012    -0.946  0.9061 -0.3993 -0.1400
    27 H(1)   Bbb    -0.0029    -1.521    -0.543    -0.507 -0.1360 -0.5882  0.7972
              Bcc     0.0082     4.358     1.555     1.454  0.4007  0.7032  0.5873
 
              Baa    -0.0013    -0.699    -0.250    -0.233  0.9981  0.0126  0.0601
    28 H(1)   Bbb    -0.0009    -0.484    -0.173    -0.161 -0.0490 -0.4246  0.9041
              Bcc     0.0022     1.183     0.422     0.395 -0.0369  0.9053  0.4232
 
              Baa    -0.0018    -0.940    -0.335    -0.314  0.3588 -0.2265  0.9055
    29 H(1)   Bbb    -0.0004    -0.200    -0.071    -0.067  0.9276 -0.0215 -0.3729
              Bcc     0.0021     1.140     0.407     0.380  0.1039  0.9738  0.2024
 
              Baa    -0.0009    -0.463    -0.165    -0.154 -0.6801 -0.0863  0.7280
    30 H(1)   Bbb    -0.0002    -0.114    -0.041    -0.038  0.6847  0.2800  0.6729
              Bcc     0.0011     0.577     0.206     0.192 -0.2619  0.9561 -0.1313
 
              Baa    -0.0020    -1.069    -0.381    -0.357  0.6544  0.6736 -0.3435
    31 H(1)   Bbb    -0.0005    -0.270    -0.096    -0.090 -0.1660  0.5712  0.8039
              Bcc     0.0025     1.339     0.478     0.447  0.7377 -0.4691  0.4856
 
              Baa    -0.0061    -3.268    -1.166    -1.090 -0.0373 -0.1567  0.9869
    32 H(1)   Bbb    -0.0026    -1.409    -0.503    -0.470  0.7086  0.6923  0.1367
              Bcc     0.0088     4.677     1.669     1.560  0.7047 -0.7044 -0.0852
 
              Baa    -0.0013    -0.703    -0.251    -0.235  0.3712 -0.3320  0.8672
    33 H(1)   Bbb    -0.0009    -0.484    -0.173    -0.162  0.4950  0.8609  0.1177
              Bcc     0.0022     1.188     0.424     0.396  0.7856 -0.3856 -0.4839
 
              Baa    -0.0014    -0.764    -0.273    -0.255  0.1836  0.9783 -0.0962
    34 H(1)   Bbb    -0.0004    -0.220    -0.078    -0.073  0.3431  0.0279  0.9389
              Bcc     0.0018     0.984     0.351     0.328  0.9212 -0.2054 -0.3306
 
              Baa    -0.0103     0.224     0.080     0.075 -0.4434  0.6438  0.6236
    35 Ag(107 Bbb     0.0035    -0.077    -0.027    -0.026  0.2057 -0.6041  0.7699
              Bcc     0.0068    -0.148    -0.053    -0.049  0.8724  0.4697  0.1354
 

 ---------------------------------------------------------------------------------

 No NMR shielding tensors so no spin-rotation constants.
 Leave Link  601 at Sat Sep 12 02:26:28 2026, MaxMem=  6442450944 cpu:               2.0 elap:               1.7
 (Enter C:\G16W\l9999.exe)
 Unable to Open any file for archive entry.
 1|1|UNPC-DESKTOP-2JKEGCA|SP|UPBE1PBE|def2SVP|C18H15Ag1N1(2)|JHKIM|12-S
 ep-2026|0||#P PBE1PBE/Def2SVP EmpiricalDispersion=GD3BJ SP SCF=(XQC,Ma
 xCycle=128) NoSymm Guess=Read||TPA t=1.000 dz=+0.40 class=toface||0,2|
 C,0,-2.892235,-2.902243,0.856125|C,0,-1.550328,-3.244136,0.818755|C,0,
 -0.592488,-2.291023,0.532809|C,0,-0.966825,-0.970209,0.286154|N,0,0.00
 0025,-0.000036,-0.000047|C,0,1.237148,-0.031197,0.653023|C,0,1.319853,
 -0.403699,1.994633|C,0,2.543855,-0.43667,2.633678|C,0,3.700795,-0.0932
 31,1.953573|C,0,3.623838,0.281274,0.622097|C,0,2.405612,0.309797,-0.02
 8101|C,0,-0.270279,1.001344,-0.939259|C,0,0.196201,2.300966,-0.742039|
 C,0,-0.069933,3.284954,-1.674018|C,0,-0.808596,2.995527,-2.809628|C,0,
 -1.277645,1.707329,-3.008482|C,0,-1.010141,0.714471,-2.086353|C,0,-2.3
 18985,-0.630584,0.328955|C,0,-3.269818,-1.592708,0.608027|H,0,-3.63809
 9,-3.650671,1.076924|H,0,-1.24671,-4.263922,1.005046|H,0,0.45246,-2.56
 2347,0.494733|H,0,0.41802,-0.662633,2.530014|H,0,2.593126,-0.724322,3.
 673717|H,0,4.655158,-0.117258,2.457379|H,0,4.521246,0.545089,0.081807|
 H,0,2.349602,0.59285,-1.069124|H,0,0.76419,2.531619,0.147439|H,0,0.295
 028,4.28789,-1.507357|H,0,-1.017132,3.768032,-3.534168|H,0,-1.84946,1.
 470676,-3.893849|H,0,-1.368838,-0.291501,-2.248647|H,0,-2.615351,0.391
 898,0.145433|H,0,-4.313292,-1.315323,0.640753|Ag,0,0.95959394,-1.62549
 327,-2.20158848||Version=EM64W-G16RevC.01|HF=-895.2617203|S2=0.75189|S
 2-1=0.|S2A=0.750003|RMSD=4.267e-009|Dipole=-0.2590893,0.4061702,0.4860
 857|Quadrupole=2.7755922,0.0356105,-2.8112027,2.9188279,3.7337752,-5.9
 935563|PG=C01 [X(C18H15Ag1N1)]||@
 The archive entry for this job was punched.


 The cat could very well be man's best friend
 but would never stoop to admitting it.
                               -- Doug Larson
 Job cpu time:       0 days  0 hours  5 minutes 42.0 seconds.
 Elapsed time:       0 days  0 hours  5 minutes 41.4 seconds.
 File lengths (MBytes):  RWF=    133 Int=      0 D2E=      0 Chk=     11 Scr=      1
 Normal termination of Gaussian 16 at Sat Sep 12 02:26:28 2026.
