 Entering Gaussian System, Link 0=C:\G16W\g16.exe
 Input=TPA_t3_z1.gjf
 Output=TPA_t3_z1.out
 Initial command:
 C:\G16W\l1.exe ".\Gau-19588.inp" "TPA_t3_z1.out" /scrdir=".\"
 Entering Link 1 = C:\G16W\l1.exe PID=    116536.
  
 Copyright (c) 1988-2019, Gaussian, Inc.  All Rights Reserved.
  
 This is part of the Gaussian(R) 16 program.  It is based on
 the Gaussian(R) 09 system (copyright 2009, Gaussian, Inc.),
 the Gaussian(R) 03 system (copyright 2003, Gaussian, Inc.),
 the Gaussian(R) 98 system (copyright 1998, Gaussian, Inc.),
 the Gaussian(R) 94 system (copyright 1995, Gaussian, Inc.),
 the Gaussian 92(TM) system (copyright 1992, Gaussian, Inc.),
 the Gaussian 90(TM) system (copyright 1990, Gaussian, Inc.),
 the Gaussian 88(TM) system (copyright 1988, Gaussian, Inc.),
 the Gaussian 86(TM) system (copyright 1986, Carnegie Mellon
 University), and the Gaussian 82(TM) system (copyright 1983,
 Carnegie Mellon University). Gaussian is a federally registered
 trademark of Gaussian, Inc.
  
 This software contains proprietary and confidential information,
 including trade secrets, belonging to Gaussian, Inc.
  
 This software is provided under written license and may be
 used, copied, transmitted, or stored only in accord with that
 written license.
  
 The following legend is applicable only to US Government
 contracts under FAR:
  
                    RESTRICTED RIGHTS LEGEND
  
 Use, reproduction and disclosure by the US Government is
 subject to restrictions as set forth in subparagraphs (a)
 and (c) of the Commercial Computer Software - Restricted
 Rights clause in FAR 52.227-19.
  
 Gaussian, Inc.
 340 Quinnipiac St., Bldg. 40, Wallingford CT 06492
  
  
 ---------------------------------------------------------------
 Warning -- This program may not be used in any manner that
 competes with the business of Gaussian, Inc. or will provide
 assistance to any competitor of Gaussian, Inc.  The licensee
 of this program is prohibited from giving any competitor of
 Gaussian, Inc. access to this program.  By using this program,
 the user acknowledges that Gaussian, Inc. is engaged in the
 business of creating and licensing software in the field of
 computational chemistry and represents and warrants to the
 licensee that it is not a competitor of Gaussian, Inc. and that
 it will not use this program in any manner prohibited above.
 ---------------------------------------------------------------
  

 Cite this work as:
 Gaussian 16, Revision C.01,
 M. J. Frisch, G. W. Trucks, H. B. Schlegel, G. E. Scuseria, 
 M. A. Robb, J. R. Cheeseman, G. Scalmani, V. Barone, 
 G. A. Petersson, H. Nakatsuji, X. Li, M. Caricato, A. V. Marenich, 
 J. Bloino, B. G. Janesko, R. Gomperts, B. Mennucci, H. P. Hratchian, 
 J. V. Ortiz, A. F. Izmaylov, J. L. Sonnenberg, D. Williams-Young, 
 F. Ding, F. Lipparini, F. Egidi, J. Goings, B. Peng, A. Petrone, 
 T. Henderson, D. Ranasinghe, V. G. Zakrzewski, J. Gao, N. Rega, 
 G. Zheng, W. Liang, M. Hada, M. Ehara, K. Toyota, R. Fukuda, 
 J. Hasegawa, M. Ishida, T. Nakajima, Y. Honda, O. Kitao, H. Nakai, 
 T. Vreven, K. Throssell, J. A. Montgomery, Jr., J. E. Peralta, 
 F. Ogliaro, M. J. Bearpark, J. J. Heyd, E. N. Brothers, K. N. Kudin, 
 V. N. Staroverov, T. A. Keith, R. Kobayashi, J. Normand, 
 K. Raghavachari, A. P. Rendell, J. C. Burant, S. S. Iyengar, 
 J. Tomasi, M. Cossi, J. M. Millam, M. Klene, C. Adamo, R. Cammi, 
 J. W. Ochterski, R. L. Martin, K. Morokuma, O. Farkas, 
 J. B. Foresman, and D. J. Fox, Gaussian, Inc., Wallingford CT, 2019.
 
 ******************************************
 Gaussian 16:  EM64W-G16RevC.01 30-May-2019
                12-Sep-2026 
 ******************************************
 %Chk=TPA.chk
 %NProcShared=8
 Will use up to    8 processors via shared memory.
 %Mem=48GB
 ----------------------------------------------------------------------
 #P PBE1PBE/Def2SVP EmpiricalDispersion=GD3BJ SP SCF=(XQC,MaxCycle=128)
  NoSymm Guess=Read
 ----------------------------------------------------------------------
 1/38=1,172=1/1;
 2/12=2,15=1,17=6,18=5,40=1/2;
 3/5=43,7=101,11=2,25=1,30=1,74=-13,116=-2,124=41/1,2,3;
 4/5=1/1;
 5/5=2,7=128,8=3,13=1,38=6/2,8;
 6/7=2,8=2,9=2,10=2,28=1/1;
 99/5=1,9=1/99;
 Leave Link    1 at Sat Sep 12 02:08:48 2026, MaxMem=  6442450944 cpu:               1.0 elap:               0.4
 (Enter C:\G16W\l101.exe)
 ---------------------------------
 TPA t=0.750 dz=+0.40 class=toface
 ---------------------------------
 Symbolic Z-matrix:
 Charge =  0 Multiplicity = 2
 C                    -2.89224  -2.90224   0.85613 
 C                    -1.55033  -3.24414   0.81876 
 C                    -0.59249  -2.29102   0.53281 
 C                    -0.96683  -0.97021   0.28615 
 N                     0.00003  -0.00004  -0.00005 
 C                     1.23715  -0.0312    0.65302 
 C                     1.31985  -0.4037    1.99463 
 C                     2.54386  -0.43667   2.63368 
 C                     3.7008   -0.09323   1.95357 
 C                     3.62384   0.28127   0.6221 
 C                     2.40561   0.3098   -0.0281 
 C                    -0.27028   1.00134  -0.93926 
 C                     0.1962    2.30097  -0.74204 
 C                    -0.06993   3.28495  -1.67402 
 C                    -0.8086    2.99553  -2.80963 
 C                    -1.27765   1.70733  -3.00848 
 C                    -1.01014   0.71447  -2.08635 
 C                    -2.31899  -0.63058   0.32896 
 C                    -3.26982  -1.59271   0.60803 
 H                    -3.6381   -3.65067   1.07692 
 H                    -1.24671  -4.26392   1.00505 
 H                     0.45246  -2.56235   0.49473 
 H                     0.41802  -0.66263   2.53001 
 H                     2.59313  -0.72432   3.67372 
 H                     4.65516  -0.11726   2.45738 
 H                     4.52125   0.54509   0.08181 
 H                     2.3496    0.59285  -1.06912 
 H                     0.76419   2.53162   0.14744 
 H                     0.29503   4.28789  -1.50736 
 H                    -1.01713   3.76803  -3.53417 
 H                    -1.84946   1.47068  -3.89385 
 H                    -1.36884  -0.2915   -2.24865 
 H                    -2.61535   0.3919    0.14543 
 H                    -4.31329  -1.31532   0.64075 
 Ag                    0.98706  -1.64093  -2.17789 
 
 ITRead=  0  0  0  0  0  0  0  0  0  0  0  0  0  0  0  0  0  0  0  0
 ITRead=  0  0  0  0  0  0  0  0  0  0  0  0  0  0  0
 MicOpt= -1 -1 -1 -1 -1 -1 -1 -1 -1 -1 -1 -1 -1 -1 -1 -1 -1 -1 -1 -1
 MicOpt= -1 -1 -1 -1 -1 -1 -1 -1 -1 -1 -1 -1 -1 -1 -1
 NAtoms=     35 NQM=       35 NQMF=       0 NMMI=      0 NMMIF=      0
                NMic=       0 NMicF=      0.
                    Isotopes and Nuclear Properties:
 (Nuclear quadrupole moments (NQMom) in fm**2, nuclear magnetic moments (NMagM)
  in nuclear magnetons)

  Atom         1           2           3           4           5           6           7           8           9          10
 IAtWgt=          12          12          12          12          14          12          12          12          12          12
 AtmWgt=  12.0000000  12.0000000  12.0000000  12.0000000  14.0030740  12.0000000  12.0000000  12.0000000  12.0000000  12.0000000
 NucSpn=           0           0           0           0           2           0           0           0           0           0
 AtZEff=   0.0000000   0.0000000   0.0000000   0.0000000   0.0000000   0.0000000   0.0000000   0.0000000   0.0000000   0.0000000
 NQMom=    0.0000000   0.0000000   0.0000000   0.0000000   2.0440000   0.0000000   0.0000000   0.0000000   0.0000000   0.0000000
 NMagM=    0.0000000   0.0000000   0.0000000   0.0000000   0.4037610   0.0000000   0.0000000   0.0000000   0.0000000   0.0000000
 AtZNuc=   6.0000000   6.0000000   6.0000000   6.0000000   7.0000000   6.0000000   6.0000000   6.0000000   6.0000000   6.0000000

  Atom        11          12          13          14          15          16          17          18          19          20
 IAtWgt=          12          12          12          12          12          12          12          12          12           1
 AtmWgt=  12.0000000  12.0000000  12.0000000  12.0000000  12.0000000  12.0000000  12.0000000  12.0000000  12.0000000   1.0078250
 NucSpn=           0           0           0           0           0           0           0           0           0           1
 AtZEff=   0.0000000   0.0000000   0.0000000   0.0000000   0.0000000   0.0000000   0.0000000   0.0000000   0.0000000   0.0000000
 NQMom=    0.0000000   0.0000000   0.0000000   0.0000000   0.0000000   0.0000000   0.0000000   0.0000000   0.0000000   0.0000000
 NMagM=    0.0000000   0.0000000   0.0000000   0.0000000   0.0000000   0.0000000   0.0000000   0.0000000   0.0000000   2.7928460
 AtZNuc=   6.0000000   6.0000000   6.0000000   6.0000000   6.0000000   6.0000000   6.0000000   6.0000000   6.0000000   1.0000000

  Atom        21          22          23          24          25          26          27          28          29          30
 IAtWgt=           1           1           1           1           1           1           1           1           1           1
 AtmWgt=   1.0078250   1.0078250   1.0078250   1.0078250   1.0078250   1.0078250   1.0078250   1.0078250   1.0078250   1.0078250
 NucSpn=           1           1           1           1           1           1           1           1           1           1
 AtZEff=   0.0000000   0.0000000   0.0000000   0.0000000   0.0000000   0.0000000   0.0000000   0.0000000   0.0000000   0.0000000
 NQMom=    0.0000000   0.0000000   0.0000000   0.0000000   0.0000000   0.0000000   0.0000000   0.0000000   0.0000000   0.0000000
 NMagM=    2.7928460   2.7928460   2.7928460   2.7928460   2.7928460   2.7928460   2.7928460   2.7928460   2.7928460   2.7928460
 AtZNuc=   1.0000000   1.0000000   1.0000000   1.0000000   1.0000000   1.0000000   1.0000000   1.0000000   1.0000000   1.0000000

  Atom        31          32          33          34          35
 IAtWgt=           1           1           1           1         107
 AtmWgt=   1.0078250   1.0078250   1.0078250   1.0078250 106.9050900
 NucSpn=           1           1           1           1           1
 AtZEff=   0.0000000   0.0000000   0.0000000   0.0000000   0.0000000
 NQMom=    0.0000000   0.0000000   0.0000000   0.0000000   0.0000000
 NMagM=    2.7928460   2.7928460   2.7928460   2.7928460  -0.1135700
 AtZNuc=   1.0000000   1.0000000   1.0000000   1.0000000  47.0000000
 Leave Link  101 at Sat Sep 12 02:08:48 2026, MaxMem=  6442450944 cpu:               0.0 elap:               0.2
 (Enter C:\G16W\l202.exe)
                          Input orientation:                          
 ---------------------------------------------------------------------
 Center     Atomic      Atomic             Coordinates (Angstroms)
 Number     Number       Type             X           Y           Z
 ---------------------------------------------------------------------
      1          6           0       -2.892235   -2.902243    0.856125
      2          6           0       -1.550328   -3.244136    0.818755
      3          6           0       -0.592488   -2.291023    0.532809
      4          6           0       -0.966825   -0.970209    0.286154
      5          7           0        0.000025   -0.000036   -0.000047
      6          6           0        1.237148   -0.031197    0.653023
      7          6           0        1.319853   -0.403699    1.994633
      8          6           0        2.543855   -0.436670    2.633678
      9          6           0        3.700795   -0.093231    1.953573
     10          6           0        3.623838    0.281274    0.622097
     11          6           0        2.405612    0.309797   -0.028101
     12          6           0       -0.270279    1.001344   -0.939259
     13          6           0        0.196201    2.300966   -0.742039
     14          6           0       -0.069933    3.284954   -1.674018
     15          6           0       -0.808596    2.995527   -2.809628
     16          6           0       -1.277645    1.707329   -3.008482
     17          6           0       -1.010141    0.714471   -2.086353
     18          6           0       -2.318985   -0.630584    0.328955
     19          6           0       -3.269818   -1.592708    0.608027
     20          1           0       -3.638099   -3.650671    1.076924
     21          1           0       -1.246710   -4.263922    1.005046
     22          1           0        0.452460   -2.562347    0.494733
     23          1           0        0.418020   -0.662633    2.530014
     24          1           0        2.593126   -0.724322    3.673717
     25          1           0        4.655158   -0.117258    2.457379
     26          1           0        4.521246    0.545089    0.081807
     27          1           0        2.349602    0.592850   -1.069124
     28          1           0        0.764190    2.531619    0.147439
     29          1           0        0.295028    4.287890   -1.507357
     30          1           0       -1.017132    3.768032   -3.534168
     31          1           0       -1.849460    1.470676   -3.893849
     32          1           0       -1.368838   -0.291501   -2.248647
     33          1           0       -2.615351    0.391898    0.145433
     34          1           0       -4.313292   -1.315323    0.640753
     35         47           0        0.987061   -1.640928   -2.177887
 ---------------------------------------------------------------------
                    Distance matrix (angstroms):
                    1          2          3          4          5
     1  C    0.000000
     2  C    1.385280   0.000000
     3  C    2.401449   1.381176   0.000000
     4  C    2.786544   2.407256   1.394818   0.000000
     5  N    4.185810   3.687576   2.425619   1.399266   0.000000
     6  C    5.033484   4.256814   2.910126   2.423599   1.399266
     7  C    5.027982   4.205795   3.058753   2.910108   2.425621
     8  C    6.228147   5.285655   4.205820   4.256807   3.687577
     9  C    7.250033   6.228186   5.028035   5.033493   4.185811
    10  C    7.255946   6.264119   4.939847   4.770037   3.687576
    11  C    6.258294   5.384892   4.008427   3.620843   2.425620
    12  C    5.033493   4.770036   3.620840   2.423600   1.399266
    13  C    6.258270   6.019518   4.830490   3.620828   2.425623
    14  C    7.255923   7.143844   6.019524   4.770021   3.687578
    15  C    7.250034   7.255944   6.258290   5.033484   4.185811
    16  C    6.228181   6.264112   5.384886   4.256812   3.687576
    17  C    5.028029   4.939840   4.008421   2.910122   2.425619
    18  C    2.401449   2.767922   2.404040   1.394817   2.425622
    19  C    1.385281   2.393380   2.767923   2.407257   3.687578
    20  H    1.079449   2.142594   3.379416   3.865993   5.265259
    21  H    2.141051   1.080209   2.131512   3.382852   4.554699
    22  H    3.381289   2.140324   1.080270   2.143077   2.648574
    23  H    4.333076   3.669736   2.767961   2.654676   2.648578
    24  H    6.539981   5.627476   4.740041   4.920294   4.554701
    25  H    8.202640   7.139363   5.997250   6.086743   5.265258
    26  H    8.212391   7.194813   5.864913   5.697088   4.554701
    27  H    6.587800   5.787573   4.420272   3.908788   2.648575
    28  H    6.587757   6.258355   5.024635   3.908766   2.648580
    29  H    8.212351   8.096144   6.944930   5.697066   4.554703
    30  H    8.202637   8.270595   7.309772   6.086733   5.265259
    31  H    6.540035   6.672898   5.943539   4.920304   4.554699
    32  H    4.333165   4.261449   3.512450   2.654708   2.648573
    33  H    3.381289   3.848166   3.382322   2.143076   2.648579
    34  H    2.141052   3.374311   3.848120   3.382852   4.554702
    35  Ag   5.083806   4.241283   3.203977   3.215436   2.899957
                    6          7          8          9         10
     6  C    0.000000
     7  C    1.394817   0.000000
     8  C    2.407257   1.381176   0.000000
     9  C    2.786545   2.401450   1.385281   0.000000
    10  C    2.407256   2.767922   2.393379   1.385281   0.000000
    11  C    1.394817   2.404039   2.767922   2.401450   1.381175
    12  C    2.423600   3.620827   4.770022   5.033488   4.256816
    13  C    2.910112   4.008389   4.939797   5.027990   4.205796
    14  C    4.256811   5.384855   6.264074   6.228157   5.285658
    15  C    5.033496   6.258271   7.255928   7.250043   6.228192
    16  C    4.770039   6.019518   7.143848   7.255954   6.264126
    17  C    3.620844   4.830489   6.019527   6.258299   5.384898
    18  C    3.620824   4.008379   5.384846   6.258265   6.019515
    19  C    4.770019   4.939787   6.264063   7.255920   7.143843
    20  H    6.086733   5.997191   7.139317   8.202637   8.270598
    21  H    4.920308   4.740026   5.627493   6.540044   6.672907
    22  H    2.654715   2.768001   3.669812   4.333178   4.261460
    23  H    2.143077   1.080270   2.140322   3.381289   3.848165
    24  H    3.382852   2.131513   1.080209   2.141052   3.374311
    25  H    3.865993   3.379414   2.142593   1.079447   2.142594
    26  H    3.382853   3.848119   3.374311   2.141051   1.080210
    27  H    2.143077   3.382322   3.848167   3.381291   2.140324
    28  H    2.654681   3.512404   4.261377   4.333083   3.669733
    29  H    4.920299   5.943501   6.672845   6.539993   5.627479
    30  H    6.086747   7.309752   8.270579   8.202651   7.139371
    31  H    5.697088   6.944930   8.096159   8.212398   7.194820
    32  H    3.908786   5.024647   6.258381   6.587803   5.787578
    33  H    3.908760   4.420220   5.787512   6.587748   6.258348
    34  H    5.697062   5.864842   7.194737   8.212344   8.096141
    35  Ag   3.266164   4.364791   5.198557   5.179640   4.299693
                   11         12         13         14         15
    11  C    0.000000
    12  C    2.910127   0.000000
    13  C    3.058751   1.394818   0.000000
    14  C    4.205820   2.407257   1.381175   0.000000
    15  C    5.028038   2.786545   2.401449   1.385280   0.000000
    16  C    4.939853   2.407257   2.767922   2.393379   1.385281
    17  C    4.008432   1.394818   2.404040   2.767922   2.401450
    18  C    4.830489   2.910112   4.008388   4.939795   5.027988
    19  C    6.019526   4.256810   5.384855   6.264071   6.228152
    20  H    7.309776   6.086744   7.309751   8.270573   8.202641
    21  H    5.943547   5.697084   6.944930   8.096154   8.212386
    22  H    3.512459   3.908782   5.024648   6.258379   6.587794
    23  H    3.382321   3.908763   4.420232   5.787523   6.587754
    24  H    3.848119   5.697066   5.864854   7.194751   8.212354
    25  H    3.379415   6.086736   5.997198   7.139326   8.202646
    26  H    2.131513   4.920311   4.740025   5.627496   6.540050
    27  H    1.080271   2.654714   2.767992   3.669805   4.333177
    28  H    2.767955   2.143077   1.080270   2.140323   3.381288
    29  H    4.740041   3.382853   2.131512   1.080210   2.141051
    30  H    5.997255   3.865993   3.379415   2.142594   1.079449
    31  H    5.864920   3.382852   3.848119   3.374310   2.141052
    32  H    4.420278   2.143077   3.382322   3.848166   3.381290
    33  H    5.024632   2.654683   3.512403   4.261376   4.333086
    34  H    6.944930   4.920299   5.943500   6.672841   6.539989
    35  Ag   3.230974   3.177531   4.269150   5.063145   5.012005
                   16         17         18         19         20
    16  C    0.000000
    17  C    1.381176   0.000000
    18  C    4.205795   3.058751   0.000000
    19  C    5.285654   4.205817   1.381176   0.000000
    20  H    7.139359   5.997245   3.379415   2.142594   0.000000
    21  H    7.194804   5.864905   3.848119   3.374311   2.469815
    22  H    5.787565   4.420265   3.382321   3.848167   4.272712
    23  H    6.258349   5.024630   3.512390   4.261364   5.243276
    24  H    8.096146   6.944931   5.943488   6.672830   7.357650
    25  H    8.270605   7.309780   7.309744   8.270568   9.119692
    26  H    6.672917   5.943555   6.944930   8.096157   9.228736
    27  H    4.261466   3.512466   5.024651   6.258385   7.646277
    28  H    3.848166   3.382322   4.420231   5.787524   7.646228
    29  H    3.374311   3.848120   5.864852   7.194749   9.228692
    30  H    2.142594   3.379416   5.997196   7.139321   9.119693
    31  H    1.080209   2.131512   4.740023   5.627488   7.357718
    32  H    2.140324   1.080270   2.767994   3.669803   5.243376
    33  H    3.669741   2.767963   1.080270   2.140323   4.272710
    34  H    5.627477   4.740040   2.131513   1.080209   2.469814
    35  Ag   4.126694   3.089514   4.270245   5.087697   6.002080
                   21         22         23         24         25
    21  H    0.000000
    22  H    2.458242   0.000000
    23  H    4.250428   2.784325   0.000000
    24  H    5.864718   4.250497   2.458241   0.000000
    25  H    7.357727   5.243387   4.272710   2.469814   0.000000
    26  H    7.566259   5.136311   4.928364   4.269762   2.469813
    27  H    6.389356   4.000008   4.273294   4.928366   4.272712
    28  H    7.138528   5.115298   3.999968   5.136224   5.243282
    29  H    9.045585   7.138550   6.389301   7.566178   7.357662
    30  H    9.228730   7.646270   7.646225   9.228695   9.119703
    31  H    7.566247   6.389348   7.138521   9.045587   9.228742
    32  H    5.136298   4.000000   5.115291   7.138549   7.646278
    33  H    4.928364   4.273294   3.999950   6.389285   7.646217
    34  H    4.269762   4.928365   5.136207   7.566159   9.228683
    35  Ag   4.690511   2.877100   4.842024   6.136846   6.104276
                   26         27         28         29         30
    26  H    0.000000
    27  H    2.458243   0.000000
    28  H    4.250421   2.784310   0.000000
    29  H    5.864718   4.250487   2.458241   0.000000
    30  H    7.357735   5.243388   4.272711   2.469814   0.000000
    31  H    7.566270   5.136319   4.928364   4.269762   2.469815
    32  H    6.389365   4.000018   4.273294   4.928365   4.272712
    33  H    7.138525   5.115299   3.999963   5.136222   5.243286
    34  H    9.045585   7.138554   6.389299   7.566174   7.357658
    35  Ag   4.730259   2.841766   4.781941   6.006613   5.925634
                   31         32         33         34         35
    31  H    0.000000
    32  H    2.458242   0.000000
    33  H    4.250429   2.784322   0.000000
    34  H    5.864714   4.250489   2.458241   0.000000
    35  Ag   4.546697   2.715920   4.744214   6.012029   0.000000
 Symmetry turned off by external request.
 Stoichiometry    C18H15AgN(2)
 Framework group  C1[X(C18H15AgN)]
 Deg. of freedom    99
 Full point group                 C1      NOp   1
 Rotational constants (GHZ):           0.2733232           0.2729361           0.2233549
 Leave Link  202 at Sat Sep 12 02:08:48 2026, MaxMem=  6442450944 cpu:               0.0 elap:               0.1
 (Enter C:\G16W\l301.exe)
 Standard basis: def2SVP (5D, 7F)
 Ernie: Thresh=  0.10000D-02 Tol=  0.10000D-05 Strict=F.
   372 basis functions,   645 primitive gaussians,   396 cartesian basis functions
    75 alpha electrons       74 beta electrons
       nuclear repulsion energy      1635.8546559332 Hartrees.
 IExCor= 1009 DFT=T Ex+Corr=PBE1PBE ExCW=0 ScaHFX=  0.250000
 ScaDFX=  0.750000  0.750000  1.000000  1.000000 ScalE2=  1.000000  1.000000
 IRadAn=      5 IRanWt=     -1 IRanGd=            0 ICorTp=0 IEmpDi=141
 NAtoms=   35 NActive=   35 NUniq=   35 SFac= 1.00D+00 NAtFMM=   60 NAOKFM=F Big=F
 Integral buffers will be    131072 words long.
 Raffenetti 2 integral format.
 Two-electron integral symmetry is turned off.
 R6Disp:  Grimme-D3(BJ) Dispersion energy=       -0.0520891694 Hartrees.
 Nuclear repulsion after empirical dispersion term =     1635.8025667638 Hartrees.
 Leave Link  301 at Sat Sep 12 02:08:49 2026, MaxMem=  6442450944 cpu:               1.0 elap:               0.3
 (Enter C:\G16W\l302.exe)
 NPDir=0 NMtPBC=     1 NCelOv=     1 NCel=       1 NClECP=     1 NCelD=      1
         NCelK=      1 NCelE2=     1 NClLst=     1 CellRange=     0.0.
 One-electron integrals computed using PRISM.
   1 Symmetry operations used in ECPInt.
 ECPInt:  NShTT=   14535 NPrTT=   52310 LenC2=   13675 LenP2D=   35456.
 LDataN:  DoStor=T MaxTD1= 7 Len=  274
 NBasis=   372 RedAO= T EigKep=  2.37D-04  NBF=   372
 NBsUse=   372 1.00D-06 EigRej= -1.00D+00 NBFU=   372
 Precomputing XC quadrature grid using
 IXCGrd= 4 IRadAn=           5 IRanWt=          -1 IRanGd=           0 AccXCQ= 0.00D+00.
 Defaulting to unpruned grid for atomic number  47.
 Generated NRdTot=       0 NPtTot=           0 NUsed=           0 NTot=          32
 NSgBfM=   395   395   395   395   395 MxSgAt=    35 MxSgA2=    35.
 Leave Link  302 at Sat Sep 12 02:08:55 2026, MaxMem=  6442450944 cpu:               6.0 elap:               6.1
 (Enter C:\G16W\l303.exe)
 DipDrv:  MaxL=1.
 Leave Link  303 at Sat Sep 12 02:08:56 2026, MaxMem=  6442450944 cpu:               1.0 elap:               0.7
 (Enter C:\G16W\l401.exe)
 Initial guess from the checkpoint file:  "TPA.chk"
 B after Tr=     0.068317   -0.113572   -0.150736
         Rot=    1.000000    0.000000    0.000000    0.000000 Ang=   0.00 deg.
 Guess basis will be translated and rotated to current coordinates.
 JPrj=2 DoOrth=T DoCkMO=T.
 Initial guess <Sx>= 0.0000 <Sy>= 0.0000 <Sz>= 0.5000 <S**2>= 0.7527 S= 0.5014
 Leave Link  401 at Sat Sep 12 02:09:09 2026, MaxMem=  6442450944 cpu:              13.0 elap:              13.2
 (Enter C:\G16W\l502.exe)
 Two-electron integral symmetry not used.
 UHF open shell SCF:
 Using DIIS extrapolation, IDIIS=  1040.
 NGot=  6442450944 LenX=  6442130178 LenY=  6441972921
 Requested convergence on RMS density matrix=1.00D-08 within 128 cycles.
 Requested convergence on MAX density matrix=1.00D-06.
 Requested convergence on             energy=1.00D-06.
 No special actions if energy rises.
 Fock matrices will be formed incrementally for  20 cycles.

 Cycle   1  Pass 1  IDiag  1:
 FoFJK:  IHMeth= 1 ICntrl=       0 DoSepK=F KAlg= 0 I1Cent=           0 FoldK=F
 IRaf= 890000000 NMat=       1 IRICut=       1 DoRegI=T DoRafI=F ISym2E= 0 IDoP0=0 IntGTp=1.
 FoFCou: FMM=F IPFlag=           0 FMFlag=      100000 FMFlg1=           0
         NFxFlg=           0 DoJE=F BraDBF=F KetDBF=F FulRan=T
         wScrn=  0.000000 ICntrl=         0 IOpCl=  1 I1Cent=           0 NGrid=           0
         NMat0=    1 NMatS0=      1 NMatT0=    0 NMatD0=    1 NMtDS0=    0 NMtDT0=    0
 Symmetry not used in FoFCou.
 Defaulting to unpruned grid for atomic number  47.
 Defaulting to unpruned grid for atomic number  47.
 Defaulting to unpruned grid for atomic number  47.
 Defaulting to unpruned grid for atomic number  47.
 Defaulting to unpruned grid for atomic number  47.
 Defaulting to unpruned grid for atomic number  47.
 Defaulting to unpruned grid for atomic number  47.
 Defaulting to unpruned grid for atomic number  47.
 E= -895.256532971421    
 DIIS: error= 9.52D-03 at cycle   1 NSaved=   1.
 NSaved= 1 IEnMin= 1 EnMin= -895.256532971421     IErMin= 1 ErrMin= 9.52D-03
 ErrMax= 9.52D-03  0.00D+00 EMaxC= 1.00D-01 BMatC= 5.31D-02 BMatP= 5.31D-02
 IDIUse=3 WtCom= 9.05D-01 WtEn= 9.52D-02
 Coeff-Com:  0.100D+01
 Coeff-En:   0.100D+01
 Coeff:      0.100D+01
 Gap=     0.145 Goal=   None    Shift=    0.000
 Gap=     0.162 Goal=   None    Shift=    0.000
 GapD=    0.145 DampG=1.000 DampE=1.000 DampFc=1.0000 IDamp=-1.
 RMSDP=7.49D-04 MaxDP=3.76D-02              OVMax= 5.59D-02

 Cycle   2  Pass 1  IDiag  1:
 RMSU=  7.49D-04    CP:  9.99D-01
 E= -895.260733765589     Delta-E=       -0.004200794168 Rises=F Damp=F
 DIIS: error= 2.09D-03 at cycle   2 NSaved=   2.
 NSaved= 2 IEnMin= 2 EnMin= -895.260733765589     IErMin= 2 ErrMin= 2.09D-03
 ErrMax= 2.09D-03  0.00D+00 EMaxC= 1.00D-01 BMatC= 3.94D-03 BMatP= 5.31D-02
 IDIUse=3 WtCom= 9.79D-01 WtEn= 2.09D-02
 Coeff-Com:  0.945D-01 0.906D+00
 Coeff-En:   0.000D+00 0.100D+01
 Coeff:      0.925D-01 0.907D+00
 Gap=     0.137 Goal=   None    Shift=    0.000
 Gap=     0.131 Goal=   None    Shift=    0.000
 RMSDP=2.99D-04 MaxDP=9.99D-03 DE=-4.20D-03 OVMax= 2.64D-02

 Cycle   3  Pass 1  IDiag  1:
 RMSU=  2.84D-04    CP:  9.99D-01  8.75D-01
 E= -895.258795344967     Delta-E=        0.001938420623 Rises=F Damp=F
 DIIS: error= 4.19D-03 at cycle   3 NSaved=   3.
 NSaved= 3 IEnMin= 2 EnMin= -895.260733765589     IErMin= 2 ErrMin= 2.09D-03
 ErrMax= 4.19D-03  0.00D+00 EMaxC= 1.00D-01 BMatC= 1.15D-02 BMatP= 3.94D-03
 IDIUse=3 WtCom= 1.34D-01 WtEn= 8.66D-01
 Coeff-Com:  0.195D-02 0.634D+00 0.364D+00
 Coeff-En:   0.000D+00 0.701D+00 0.299D+00
 Coeff:      0.261D-03 0.692D+00 0.308D+00
 Gap=     0.137 Goal=   None    Shift=    0.000
 Gap=     0.127 Goal=   None    Shift=    0.000
 RMSDP=1.66D-04 MaxDP=4.89D-03 DE= 1.94D-03 OVMax= 1.62D-02

 Cycle   4  Pass 1  IDiag  1:
 RMSU=  5.20D-05    CP:  9.99D-01  9.67D-01  5.02D-01
 E= -895.261712257448     Delta-E=       -0.002916912482 Rises=F Damp=F
 DIIS: error= 4.88D-04 at cycle   4 NSaved=   4.
 NSaved= 4 IEnMin= 4 EnMin= -895.261712257448     IErMin= 4 ErrMin= 4.88D-04
 ErrMax= 4.88D-04  0.00D+00 EMaxC= 1.00D-01 BMatC= 3.53D-04 BMatP= 3.94D-03
 IDIUse=3 WtCom= 9.95D-01 WtEn= 4.88D-03
 Coeff-Com: -0.315D-02 0.337D+00 0.118D+00 0.548D+00
 Coeff-En:   0.000D+00 0.000D+00 0.000D+00 0.100D+01
 Coeff:     -0.313D-02 0.335D+00 0.118D+00 0.550D+00
 Gap=     0.138 Goal=   None    Shift=    0.000
 Gap=     0.126 Goal=   None    Shift=    0.000
 RMSDP=3.52D-05 MaxDP=4.44D-03 DE=-2.92D-03 OVMax= 2.37D-03

 Cycle   5  Pass 1  IDiag  1:
 RMSU=  2.18D-05    CP:  9.99D-01  9.94D-01  4.43D-01  8.37D-01
 E= -895.261789749264     Delta-E=       -0.000077491815 Rises=F Damp=F
 DIIS: error= 9.40D-05 at cycle   5 NSaved=   5.
 NSaved= 5 IEnMin= 5 EnMin= -895.261789749264     IErMin= 5 ErrMin= 9.40D-05
 ErrMax= 9.40D-05  0.00D+00 EMaxC= 1.00D-01 BMatC= 7.19D-06 BMatP= 3.53D-04
 IDIUse=1 WtCom= 1.00D+00 WtEn= 0.00D+00
 Coeff-Com: -0.130D-02 0.533D-01 0.331D-02 0.171D+00 0.774D+00
 Coeff:     -0.130D-02 0.533D-01 0.331D-02 0.171D+00 0.774D+00
 Gap=     0.138 Goal=   None    Shift=    0.000
 Gap=     0.126 Goal=   None    Shift=    0.000
 RMSDP=1.02D-05 MaxDP=9.67D-04 DE=-7.75D-05 OVMax= 1.29D-03

 Cycle   6  Pass 1  IDiag  1:
 RMSU=  7.14D-06    CP:  9.99D-01  1.00D+00  4.44D-01  9.33D-01  1.10D+00
 E= -895.261793297335     Delta-E=       -0.000003548072 Rises=F Damp=F
 DIIS: error= 4.73D-05 at cycle   6 NSaved=   6.
 NSaved= 6 IEnMin= 6 EnMin= -895.261793297335     IErMin= 6 ErrMin= 4.73D-05
 ErrMax= 4.73D-05  0.00D+00 EMaxC= 1.00D-01 BMatC= 1.99D-06 BMatP= 7.19D-06
 IDIUse=1 WtCom= 1.00D+00 WtEn= 0.00D+00
 Coeff-Com:  0.167D-03-0.519D-01-0.264D-01-0.484D-01 0.356D+00 0.770D+00
 Coeff:      0.167D-03-0.519D-01-0.264D-01-0.484D-01 0.356D+00 0.770D+00
 Gap=     0.138 Goal=   None    Shift=    0.000
 Gap=     0.126 Goal=   None    Shift=    0.000
 RMSDP=5.94D-06 MaxDP=6.76D-04 DE=-3.55D-06 OVMax= 8.92D-04

 Cycle   7  Pass 1  IDiag  1:
 RMSU=  3.39D-06    CP:  9.99D-01  1.00D+00  4.49D-01  9.87D-01  1.26D+00
                    CP:  1.08D+00
 E= -895.261794510469     Delta-E=       -0.000001213134 Rises=F Damp=F
 DIIS: error= 2.29D-05 at cycle   7 NSaved=   7.
 NSaved= 7 IEnMin= 7 EnMin= -895.261794510469     IErMin= 7 ErrMin= 2.29D-05
 ErrMax= 2.29D-05  0.00D+00 EMaxC= 1.00D-01 BMatC= 4.45D-07 BMatP= 1.99D-06
 IDIUse=1 WtCom= 1.00D+00 WtEn= 0.00D+00
 Coeff-Com:  0.241D-03-0.275D-01-0.112D-01-0.410D-01 0.713D-01 0.369D+00
 Coeff-Com:  0.639D+00
 Coeff:      0.241D-03-0.275D-01-0.112D-01-0.410D-01 0.713D-01 0.369D+00
 Coeff:      0.639D+00
 Gap=     0.138 Goal=   None    Shift=    0.000
 Gap=     0.126 Goal=   None    Shift=    0.000
 RMSDP=2.07D-06 MaxDP=1.98D-04 DE=-1.21D-06 OVMax= 2.62D-04

 Cycle   8  Pass 1  IDiag  1:
 RMSU=  1.55D-06    CP:  9.99D-01  1.00D+00  4.50D-01  1.00D+00  1.30D+00
                    CP:  1.17D+00  1.05D+00
 E= -895.261794778905     Delta-E=       -0.000000268436 Rises=F Damp=F
 DIIS: error= 1.34D-05 at cycle   8 NSaved=   8.
 NSaved= 8 IEnMin= 8 EnMin= -895.261794778905     IErMin= 8 ErrMin= 1.34D-05
 ErrMax= 1.34D-05  0.00D+00 EMaxC= 1.00D-01 BMatC= 1.14D-07 BMatP= 4.45D-07
 IDIUse=1 WtCom= 1.00D+00 WtEn= 0.00D+00
 Coeff-Com:  0.223D-04 0.676D-02 0.522D-02-0.264D-02-0.105D+00-0.131D+00
 Coeff-Com:  0.224D+00 0.100D+01
 Coeff:      0.223D-04 0.676D-02 0.522D-02-0.264D-02-0.105D+00-0.131D+00
 Coeff:      0.224D+00 0.100D+01
 Gap=     0.138 Goal=   None    Shift=    0.000
 Gap=     0.126 Goal=   None    Shift=    0.000
 RMSDP=1.93D-06 MaxDP=1.72D-04 DE=-2.68D-07 OVMax= 2.33D-04

 Cycle   9  Pass 1  IDiag  1:
 RMSU=  1.10D-06    CP:  9.99D-01  1.00D+00  4.51D-01  1.01D+00  1.32D+00
                    CP:  1.29D+00  1.37D+00  1.27D+00
 E= -895.261794942363     Delta-E=       -0.000000163458 Rises=F Damp=F
 DIIS: error= 7.20D-06 at cycle   9 NSaved=   9.
 NSaved= 9 IEnMin= 9 EnMin= -895.261794942363     IErMin= 9 ErrMin= 7.20D-06
 ErrMax= 7.20D-06  0.00D+00 EMaxC= 1.00D-01 BMatC= 4.17D-08 BMatP= 1.14D-07
 IDIUse=1 WtCom= 1.00D+00 WtEn= 0.00D+00
 Coeff-Com: -0.611D-04 0.112D-01 0.537D-02 0.124D-01-0.600D-01-0.162D+00
 Coeff-Com: -0.926D-01 0.445D+00 0.841D+00
 Coeff:     -0.611D-04 0.112D-01 0.537D-02 0.124D-01-0.600D-01-0.162D+00
 Coeff:     -0.926D-01 0.445D+00 0.841D+00
 Gap=     0.138 Goal=   None    Shift=    0.000
 Gap=     0.126 Goal=   None    Shift=    0.000
 RMSDP=1.07D-06 MaxDP=4.85D-05 DE=-1.63D-07 OVMax= 1.34D-04

 Cycle  10  Pass 1  IDiag  1:
 RMSU=  6.01D-07    CP:  9.99D-01  1.00D+00  4.51D-01  1.01D+00  1.32D+00
                    CP:  1.33D+00  1.50D+00  1.67D+00  1.29D+00
 E= -895.261794997475     Delta-E=       -0.000000055112 Rises=F Damp=F
 DIIS: error= 4.97D-06 at cycle  10 NSaved=  10.
 NSaved=10 IEnMin=10 EnMin= -895.261794997475     IErMin=10 ErrMin= 4.97D-06
 ErrMax= 4.97D-06  0.00D+00 EMaxC= 1.00D-01 BMatC= 1.93D-08 BMatP= 4.17D-08
 IDIUse=1 WtCom= 1.00D+00 WtEn= 0.00D+00
 Coeff-Com: -0.499D-04 0.491D-02 0.141D-02 0.103D-01 0.413D-02-0.570D-01
 Coeff-Com: -0.149D+00-0.104D+00 0.504D+00 0.785D+00
 Coeff:     -0.499D-04 0.491D-02 0.141D-02 0.103D-01 0.413D-02-0.570D-01
 Coeff:     -0.149D+00-0.104D+00 0.504D+00 0.785D+00
 Gap=     0.138 Goal=   None    Shift=    0.000
 Gap=     0.126 Goal=   None    Shift=    0.000
 RMSDP=7.33D-07 MaxDP=3.44D-05 DE=-5.51D-08 OVMax= 9.14D-05

 Cycle  11  Pass 1  IDiag  1:
 RMSU=  3.14D-07    CP:  9.99D-01  1.00D+00  4.51D-01  1.01D+00  1.33D+00
                    CP:  1.34D+00  1.57D+00  1.87D+00  1.74D+00  1.25D+00
 E= -895.261795021044     Delta-E=       -0.000000023569 Rises=F Damp=F
 DIIS: error= 2.18D-06 at cycle  11 NSaved=  11.
 NSaved=11 IEnMin=11 EnMin= -895.261795021044     IErMin=11 ErrMin= 2.18D-06
 ErrMax= 2.18D-06  0.00D+00 EMaxC= 1.00D-01 BMatC= 4.30D-09 BMatP= 1.93D-08
 IDIUse=1 WtCom= 1.00D+00 WtEn= 0.00D+00
 Coeff-Com:  0.909D-05-0.357D-02-0.206D-02-0.155D-02 0.309D-01 0.483D-01
 Coeff-Com: -0.216D-01-0.252D+00-0.190D+00 0.343D+00 0.105D+01
 Coeff:      0.909D-05-0.357D-02-0.206D-02-0.155D-02 0.309D-01 0.483D-01
 Coeff:     -0.216D-01-0.252D+00-0.190D+00 0.343D+00 0.105D+01
 Gap=     0.138 Goal=   None    Shift=    0.000
 Gap=     0.126 Goal=   None    Shift=    0.000
 RMSDP=5.79D-07 MaxDP=2.54D-05 DE=-2.36D-08 OVMax= 6.49D-05

 Cycle  12  Pass 1  IDiag  1:
 RMSU=  1.62D-07    CP:  9.99D-01  1.00D+00  4.51D-01  1.01D+00  1.33D+00
                    CP:  1.35D+00  1.61D+00  2.03D+00  2.07D+00  1.74D+00
                    CP:  1.26D+00
 E= -895.261795028067     Delta-E=       -0.000000007023 Rises=F Damp=F
 DIIS: error= 4.63D-07 at cycle  12 NSaved=  12.
 NSaved=12 IEnMin=12 EnMin= -895.261795028067     IErMin=12 ErrMin= 4.63D-07
 ErrMax= 4.63D-07  0.00D+00 EMaxC= 1.00D-01 BMatC= 5.60D-10 BMatP= 4.30D-09
 IDIUse=1 WtCom= 1.00D+00 WtEn= 0.00D+00
 Coeff-Com:  0.828D-05-0.203D-02-0.102D-02-0.163D-02 0.136D-01 0.262D-01
 Coeff-Com:  0.114D-02-0.104D+00-0.122D+00 0.845D-01 0.470D+00 0.635D+00
 Coeff:      0.828D-05-0.203D-02-0.102D-02-0.163D-02 0.136D-01 0.262D-01
 Coeff:      0.114D-02-0.104D+00-0.122D+00 0.845D-01 0.470D+00 0.635D+00
 Gap=     0.138 Goal=   None    Shift=    0.000
 Gap=     0.126 Goal=   None    Shift=    0.000
 RMSDP=9.40D-08 MaxDP=6.53D-06 DE=-7.02D-09 OVMax= 8.97D-06

 Cycle  13  Pass 1  IDiag  1:
 RMSU=  5.53D-08    CP:  9.99D-01  1.00D+00  4.51D-01  1.01D+00  1.33D+00
                    CP:  1.35D+00  1.61D+00  2.05D+00  2.11D+00  1.80D+00
                    CP:  1.41D+00  9.78D-01
 E= -895.261795028377     Delta-E=       -0.000000000309 Rises=F Damp=F
 DIIS: error= 2.72D-07 at cycle  13 NSaved=  13.
 NSaved=13 IEnMin=13 EnMin= -895.261795028377     IErMin=13 ErrMin= 2.72D-07
 ErrMax= 2.72D-07  0.00D+00 EMaxC= 1.00D-01 BMatC= 1.70D-10 BMatP= 5.60D-10
 IDIUse=1 WtCom= 1.00D+00 WtEn= 0.00D+00
 Coeff-Com:  0.245D-05-0.221D-03-0.357D-04-0.573D-03-0.279D-03 0.277D-02
 Coeff-Com:  0.593D-02 0.556D-02-0.196D-01-0.438D-01-0.929D-04 0.372D+00
 Coeff-Com:  0.678D+00
 Coeff:      0.245D-05-0.221D-03-0.357D-04-0.573D-03-0.279D-03 0.277D-02
 Coeff:      0.593D-02 0.556D-02-0.196D-01-0.438D-01-0.929D-04 0.372D+00
 Coeff:      0.678D+00
 Gap=     0.138 Goal=   None    Shift=    0.000
 Gap=     0.126 Goal=   None    Shift=    0.000
 RMSDP=4.43D-08 MaxDP=4.20D-06 DE=-3.09D-10 OVMax= 5.25D-06

 Cycle  14  Pass 1  IDiag  1:
 RMSU=  2.46D-08    CP:  9.99D-01  1.00D+00  4.51D-01  1.01D+00  1.33D+00
                    CP:  1.35D+00  1.61D+00  2.05D+00  2.12D+00  1.83D+00
                    CP:  1.45D+00  1.12D+00  8.34D-01
 E= -895.261795028479     Delta-E=       -0.000000000103 Rises=F Damp=F
 DIIS: error= 7.49D-08 at cycle  14 NSaved=  14.
 NSaved=14 IEnMin=14 EnMin= -895.261795028479     IErMin=14 ErrMin= 7.49D-08
 ErrMax= 7.49D-08  0.00D+00 EMaxC= 1.00D-01 BMatC= 1.69D-11 BMatP= 1.70D-10
 IDIUse=1 WtCom= 1.00D+00 WtEn= 0.00D+00
 Coeff-Com: -0.979D-07 0.201D-03 0.130D-03-0.865D-05-0.198D-02-0.241D-02
 Coeff-Com:  0.219D-02 0.170D-01 0.101D-01-0.308D-01-0.715D-01 0.607D-01
 Coeff-Com:  0.299D+00 0.717D+00
 Coeff:     -0.979D-07 0.201D-03 0.130D-03-0.865D-05-0.198D-02-0.241D-02
 Coeff:      0.219D-02 0.170D-01 0.101D-01-0.308D-01-0.715D-01 0.607D-01
 Coeff:      0.299D+00 0.717D+00
 Gap=     0.138 Goal=   None    Shift=    0.000
 Gap=     0.126 Goal=   None    Shift=    0.000
 RMSDP=1.39D-08 MaxDP=1.63D-06 DE=-1.03D-10 OVMax= 2.09D-06

 Cycle  15  Pass 1  IDiag  1:
 RMSU=  6.81D-09    CP:  9.99D-01  1.00D+00  4.51D-01  1.01D+00  1.33D+00
                    CP:  1.35D+00  1.61D+00  2.05D+00  2.13D+00  1.83D+00
                    CP:  1.47D+00  1.16D+00  9.46D-01  9.10D-01
 E= -895.261795028490     Delta-E=       -0.000000000011 Rises=F Damp=F
 DIIS: error= 3.86D-08 at cycle  15 NSaved=  15.
 NSaved=15 IEnMin=15 EnMin= -895.261795028490     IErMin=15 ErrMin= 3.86D-08
 ErrMax= 3.86D-08  0.00D+00 EMaxC= 1.00D-01 BMatC= 2.64D-12 BMatP= 1.69D-11
 IDIUse=1 WtCom= 1.00D+00 WtEn= 0.00D+00
 Coeff-Com: -0.399D-06 0.125D-03 0.677D-04 0.613D-04-0.965D-03-0.157D-02
 Coeff-Com:  0.316D-03 0.749D-02 0.759D-02-0.865D-02-0.349D-01-0.194D-01
 Coeff-Com:  0.563D-01 0.332D+00 0.662D+00
 Coeff:     -0.399D-06 0.125D-03 0.677D-04 0.613D-04-0.965D-03-0.157D-02
 Coeff:      0.316D-03 0.749D-02 0.759D-02-0.865D-02-0.349D-01-0.194D-01
 Coeff:      0.563D-01 0.332D+00 0.662D+00
 Gap=     0.138 Goal=   None    Shift=    0.000
 Gap=     0.126 Goal=   None    Shift=    0.000
 RMSDP=4.19D-09 MaxDP=2.64D-07 DE=-1.09D-11 OVMax= 3.33D-07

 SCF Done:  E(UPBE1PBE) =  -895.261795028     A.U. after   15 cycles
            NFock= 15  Conv=0.42D-08     -V/T= 2.1229
 <Sx>= 0.0000 <Sy>= 0.0000 <Sz>= 0.5000 <S**2>= 0.7519 S= 0.5009
 <L.S>= 0.000000000000E+00
 KE= 7.972696085643D+02 PE=-5.321524244372D+03 EE= 1.993190274015D+03
 Annihilation of the first spin contaminant:
 S**2 before annihilation     0.7519,   after     0.7500
 Leave Link  502 at Sat Sep 12 02:14:41 2026, MaxMem=  6442450944 cpu:             332.0 elap:             331.6
 (Enter C:\G16W\l508.exe)
 QCSCF skips out because SCF is already converged.
 Leave Link  508 at Sat Sep 12 02:14:41 2026, MaxMem=  6442450944 cpu:               0.0 elap:               0.1
 (Enter C:\G16W\l601.exe)
 Copying SCF densities to generalized density rwf, IOpCl= 1 IROHF=0.

 **********************************************************************

            Population analysis using the SCF Density.

 **********************************************************************

 Alpha  occ. eigenvalues --  -14.43798 -10.28512 -10.28451 -10.28407 -10.24171
 Alpha  occ. eigenvalues --  -10.24138 -10.24121 -10.24099 -10.24097 -10.24073
 Alpha  occ. eigenvalues --  -10.24071 -10.24032 -10.23997 -10.23889 -10.23862
 Alpha  occ. eigenvalues --  -10.23836 -10.23580 -10.23543 -10.23518  -3.74435
 Alpha  occ. eigenvalues --   -2.32419  -2.32404  -2.32369  -1.01247  -0.88916
 Alpha  occ. eigenvalues --   -0.88864  -0.86768  -0.78917  -0.78901  -0.77030
 Alpha  occ. eigenvalues --   -0.76912  -0.76893  -0.73220  -0.65737  -0.65731
 Alpha  occ. eigenvalues --   -0.62861  -0.62359  -0.62339  -0.59390  -0.56364
 Alpha  occ. eigenvalues --   -0.56323  -0.52767  -0.50368  -0.50332  -0.49663
 Alpha  occ. eigenvalues --   -0.47402  -0.47392  -0.46019  -0.45340  -0.45312
 Alpha  occ. eigenvalues --   -0.44667  -0.44355  -0.44302  -0.40882  -0.39779
 Alpha  occ. eigenvalues --   -0.39702  -0.38870  -0.37751  -0.37714  -0.37243
 Alpha  occ. eigenvalues --   -0.36111  -0.36064  -0.34163  -0.32115  -0.32077
 Alpha  occ. eigenvalues --   -0.31887  -0.31854  -0.31484  -0.28520  -0.28120
 Alpha  occ. eigenvalues --   -0.28091  -0.27018  -0.26985  -0.20491  -0.16268
 Alpha virt. eigenvalues --   -0.02442  -0.02230  -0.02141  -0.00597  -0.00542
 Alpha virt. eigenvalues --    0.01716   0.01956   0.03049   0.04498   0.07128
 Alpha virt. eigenvalues --    0.07950   0.07977   0.11011   0.11748   0.11792
 Alpha virt. eigenvalues --    0.11983   0.13576   0.13669   0.14559   0.14626
 Alpha virt. eigenvalues --    0.15771   0.16054   0.16566   0.16610   0.17530
 Alpha virt. eigenvalues --    0.17668   0.18827   0.19244   0.23453   0.25160
 Alpha virt. eigenvalues --    0.25234   0.27267   0.27421   0.27579   0.28857
 Alpha virt. eigenvalues --    0.29022   0.29331   0.30563   0.30641   0.31060
 Alpha virt. eigenvalues --    0.32741   0.32806   0.35508   0.35663   0.36538
 Alpha virt. eigenvalues --    0.36594   0.38353   0.38418   0.40610   0.40733
 Alpha virt. eigenvalues --    0.40874   0.42080   0.42188   0.44087   0.45156
 Alpha virt. eigenvalues --    0.45327   0.45492   0.45939   0.46610   0.46863
 Alpha virt. eigenvalues --    0.47349   0.49028   0.49450   0.49546   0.50799
 Alpha virt. eigenvalues --    0.50885   0.50919   0.51474   0.51563   0.51618
 Alpha virt. eigenvalues --    0.54021   0.54396   0.55046   0.55434   0.56848
 Alpha virt. eigenvalues --    0.58701   0.58974   0.59087   0.59324   0.59439
 Alpha virt. eigenvalues --    0.59717   0.61725   0.61944   0.62266   0.63889
 Alpha virt. eigenvalues --    0.65256   0.65334   0.66499   0.66562   0.66954
 Alpha virt. eigenvalues --    0.68622   0.68680   0.69542   0.70397   0.70483
 Alpha virt. eigenvalues --    0.70601   0.71813   0.71939   0.71968   0.73924
 Alpha virt. eigenvalues --    0.74121   0.74204   0.75541   0.76256   0.76361
 Alpha virt. eigenvalues --    0.76472   0.77956   0.78045   0.79210   0.79836
 Alpha virt. eigenvalues --    0.79859   0.81478   0.81777   0.82178   0.83941
 Alpha virt. eigenvalues --    0.84133   0.84946   0.85761   0.87596   0.88043
 Alpha virt. eigenvalues --    0.89951   0.91187   0.91919   0.93651   0.95465
 Alpha virt. eigenvalues --    0.95640   0.96139   0.96193   0.96769   1.02774
 Alpha virt. eigenvalues --    1.08934   1.09062   1.11972   1.12068   1.12550
 Alpha virt. eigenvalues --    1.18316   1.18588   1.21557   1.21674   1.22177
 Alpha virt. eigenvalues --    1.22293   1.24969   1.25146   1.25660   1.27082
 Alpha virt. eigenvalues --    1.28601   1.28625   1.29134   1.29152   1.30334
 Alpha virt. eigenvalues --    1.30740   1.31016   1.31541   1.32395   1.32971
 Alpha virt. eigenvalues --    1.33385   1.36752   1.36827   1.42833   1.44424
 Alpha virt. eigenvalues --    1.53014   1.53057   1.54600   1.63404   1.63428
 Alpha virt. eigenvalues --    1.64367   1.68358   1.69949   1.69984   1.70005
 Alpha virt. eigenvalues --    1.70044   1.70121   1.72625   1.72653   1.74511
 Alpha virt. eigenvalues --    1.74536   1.76812   1.76858   1.77230   1.77662
 Alpha virt. eigenvalues --    1.77706   1.78746   1.78842   1.79081   1.79170
 Alpha virt. eigenvalues --    1.79185   1.80669   1.82726   1.82766   1.83493
 Alpha virt. eigenvalues --    1.84883   1.85022   1.86703   1.86742   1.86794
 Alpha virt. eigenvalues --    1.87722   1.87799   1.88486   1.92106   1.96255
 Alpha virt. eigenvalues --    1.96267   1.96781   1.99703   1.99739   2.00165
 Alpha virt. eigenvalues --    2.01557   2.02726   2.02768   2.02861   2.05658
 Alpha virt. eigenvalues --    2.05753   2.05849   2.08394   2.08515   2.11735
 Alpha virt. eigenvalues --    2.11768   2.13361   2.15779   2.15937   2.16302
 Alpha virt. eigenvalues --    2.17903   2.19514   2.19544   2.20127   2.21027
 Alpha virt. eigenvalues --    2.21854   2.21963   2.22615   2.22730   2.29628
 Alpha virt. eigenvalues --    2.31087   2.31103   2.31174   2.32773   2.32824
 Alpha virt. eigenvalues --    2.33324   2.34307   2.35539   2.35602   2.37439
 Alpha virt. eigenvalues --    2.37521   2.37792   2.39865   2.44694   2.44821
 Alpha virt. eigenvalues --    2.48769   2.48784   2.56433   2.60282   2.60323
 Alpha virt. eigenvalues --    2.62193   2.62281   2.62701   2.63011   2.63705
 Alpha virt. eigenvalues --    2.63931   2.64045   2.64350   2.64446   2.64835
 Alpha virt. eigenvalues --    2.66081   2.66652   2.67286   2.67332   2.69711
 Alpha virt. eigenvalues --    2.69770   2.77061   2.77294   2.77312   2.77931
 Alpha virt. eigenvalues --    2.77975   2.78402   2.82048   2.86607   2.86775
 Alpha virt. eigenvalues --    2.86823   2.91212   2.91287   2.92297   2.93360
 Alpha virt. eigenvalues --    2.93397   2.99194   3.05102   3.05124   3.13223
 Alpha virt. eigenvalues --    3.16725   3.16744   3.17265   3.21425   3.21463
 Alpha virt. eigenvalues --    3.26397   3.42142   3.42188   3.68871   3.72629
 Alpha virt. eigenvalues --    3.72666  53.86548
  Beta  occ. eigenvalues --  -14.43798 -10.28489 -10.28433 -10.28391 -10.24155
  Beta  occ. eigenvalues --  -10.24114 -10.24100 -10.24079 -10.24078 -10.24054
  Beta  occ. eigenvalues --  -10.24052 -10.24023 -10.23988 -10.23897 -10.23869
  Beta  occ. eigenvalues --  -10.23842 -10.23591 -10.23552 -10.23526  -3.74315
  Beta  occ. eigenvalues --   -2.32380  -2.32369  -2.32348  -1.01219  -0.88886
  Beta  occ. eigenvalues --   -0.88839  -0.86744  -0.78887  -0.78872  -0.76993
  Beta  occ. eigenvalues --   -0.76880  -0.76862  -0.73212  -0.65719  -0.65712
  Beta  occ. eigenvalues --   -0.62807  -0.62326  -0.62309  -0.59362  -0.56335
  Beta  occ. eigenvalues --   -0.56298  -0.52741  -0.50346  -0.50312  -0.49606
  Beta  occ. eigenvalues --   -0.47378  -0.47369  -0.45983  -0.45312  -0.45286
  Beta  occ. eigenvalues --   -0.44619  -0.44328  -0.44279  -0.40807  -0.39705
  Beta  occ. eigenvalues --   -0.39639  -0.38855  -0.37729  -0.37693  -0.37193
  Beta  occ. eigenvalues --   -0.36081  -0.36038  -0.34023  -0.31514  -0.31470
  Beta  occ. eigenvalues --   -0.31273  -0.31242  -0.30901  -0.28357  -0.28034
  Beta  occ. eigenvalues --   -0.28002  -0.26907  -0.26887  -0.20462
  Beta virt. eigenvalues --   -0.07894  -0.02121  -0.02057  -0.01786  -0.00133
  Beta virt. eigenvalues --   -0.00075   0.03130   0.03509   0.03749   0.06641
  Beta virt. eigenvalues --    0.07830   0.08037   0.08065   0.11393   0.11858
  Beta virt. eigenvalues --    0.11909   0.12113   0.13653   0.13754   0.14646
  Beta virt. eigenvalues --    0.14700   0.15974   0.16469   0.16658   0.16688
  Beta virt. eigenvalues --    0.17821   0.18034   0.18982   0.19400   0.23744
  Beta virt. eigenvalues --    0.25384   0.25441   0.27637   0.27752   0.28155
  Beta virt. eigenvalues --    0.29206   0.29284   0.29694   0.30826   0.30892
  Beta virt. eigenvalues --    0.32302   0.33688   0.33824   0.35612   0.35737
  Beta virt. eigenvalues --    0.36717   0.36763   0.38662   0.38698   0.40933
  Beta virt. eigenvalues --    0.41064   0.41193   0.42274   0.42419   0.44148
  Beta virt. eigenvalues --    0.45497   0.45530   0.45671   0.46008   0.46954
  Beta virt. eigenvalues --    0.47212   0.47709   0.49084   0.49793   0.49882
  Beta virt. eigenvalues --    0.50931   0.51023   0.51031   0.51745   0.51864
  Beta virt. eigenvalues --    0.51892   0.54523   0.54876   0.56036   0.56491
  Beta virt. eigenvalues --    0.57162   0.58804   0.59135   0.59181   0.59553
  Beta virt. eigenvalues --    0.59749   0.59798   0.61918   0.62202   0.63073
  Beta virt. eigenvalues --    0.63971   0.65343   0.65441   0.66571   0.66637
  Beta virt. eigenvalues --    0.66986   0.68671   0.68736   0.69581   0.70451
  Beta virt. eigenvalues --    0.70541   0.70639   0.71955   0.72020   0.72079
  Beta virt. eigenvalues --    0.74045   0.74182   0.74309   0.75606   0.76357
  Beta virt. eigenvalues --    0.76470   0.76522   0.78064   0.78194   0.79396
  Beta virt. eigenvalues --    0.79866   0.79894   0.81549   0.81974   0.82332
  Beta virt. eigenvalues --    0.84037   0.84242   0.85035   0.85895   0.87814
  Beta virt. eigenvalues --    0.88227   0.90028   0.91381   0.92181   0.93688
  Beta virt. eigenvalues --    0.95526   0.95716   0.96162   0.96218   0.96849
  Beta virt. eigenvalues --    1.02994   1.08972   1.09103   1.12022   1.12120
  Beta virt. eigenvalues --    1.12643   1.18391   1.18670   1.21590   1.21713
  Beta virt. eigenvalues --    1.22276   1.22325   1.25014   1.25197   1.25698
  Beta virt. eigenvalues --    1.27129   1.28639   1.28659   1.29166   1.29182
  Beta virt. eigenvalues --    1.30373   1.30772   1.31092   1.31612   1.32445
  Beta virt. eigenvalues --    1.33011   1.33454   1.36791   1.36869   1.42906
  Beta virt. eigenvalues --    1.44452   1.53041   1.53086   1.54635   1.63424
  Beta virt. eigenvalues --    1.63447   1.64404   1.68375   1.69968   1.70001
  Beta virt. eigenvalues --    1.70030   1.70063   1.70143   1.72641   1.72668
  Beta virt. eigenvalues --    1.74538   1.74565   1.76839   1.76886   1.77250
  Beta virt. eigenvalues --    1.77686   1.77734   1.78777   1.78874   1.79120
  Beta virt. eigenvalues --    1.79186   1.79199   1.80698   1.82746   1.82784
  Beta virt. eigenvalues --    1.83507   1.84905   1.85043   1.86743   1.86772
  Beta virt. eigenvalues --    1.86832   1.87772   1.87858   1.88564   1.92138
  Beta virt. eigenvalues --    1.96277   1.96286   1.96803   1.99735   1.99781
  Beta virt. eigenvalues --    2.00337   2.01584   2.02746   2.02789   2.02895
  Beta virt. eigenvalues --    2.05678   2.05779   2.05870   2.08409   2.08531
  Beta virt. eigenvalues --    2.11772   2.11799   2.13530   2.15808   2.15967
  Beta virt. eigenvalues --    2.16360   2.18185   2.19543   2.19565   2.20210
  Beta virt. eigenvalues --    2.21372   2.21866   2.22083   2.22641   2.22755
  Beta virt. eigenvalues --    2.29654   2.31121   2.31132   2.31203   2.32813
  Beta virt. eigenvalues --    2.32859   2.33354   2.34343   2.35560   2.35624
  Beta virt. eigenvalues --    2.37472   2.37558   2.37831   2.39900   2.44716
  Beta virt. eigenvalues --    2.44844   2.48796   2.48810   2.56466   2.60313
  Beta virt. eigenvalues --    2.60354   2.62223   2.62310   2.62726   2.63038
  Beta virt. eigenvalues --    2.63730   2.63965   2.64079   2.64382   2.64481
  Beta virt. eigenvalues --    2.64868   2.66114   2.66680   2.67323   2.67363
  Beta virt. eigenvalues --    2.69740   2.69796   2.77066   2.77299   2.77316
  Beta virt. eigenvalues --    2.77948   2.77993   2.78421   2.82064   2.86627
  Beta virt. eigenvalues --    2.86796   2.86844   2.91234   2.91311   2.92323
  Beta virt. eigenvalues --    2.93380   2.93416   2.99217   3.05114   3.05136
  Beta virt. eigenvalues --    3.13236   3.16740   3.16758   3.17283   3.21440
  Beta virt. eigenvalues --    3.21476   3.26409   3.42156   3.42200   3.68886
  Beta virt. eigenvalues --    3.72645   3.72680  53.86708
          Condensed to atoms (all electrons):
               1          2          3          4          5          6
     1  C    5.149809   0.251046   0.099977  -0.179244  -0.000771   0.000128
     2  C    0.251046   5.087689   0.244641   0.133892   0.011770  -0.000647
     3  C    0.099977   0.244641   5.254402   0.225486  -0.097654  -0.000712
     4  C   -0.179244   0.133892   0.225486   5.278103   0.268685  -0.055530
     5  N   -0.000771   0.011770  -0.097654   0.268685   7.024906   0.269672
     6  C    0.000128  -0.000647  -0.000712  -0.055530   0.269672   5.268127
     7  C    0.000024  -0.001542  -0.006484  -0.000918  -0.081621   0.256190
     8  C   -0.000004   0.000066  -0.001233  -0.000985   0.011385   0.137534
     9  C    0.000000  -0.000006  -0.000001   0.000158  -0.000756  -0.178743
    10  C    0.000000   0.000008   0.000033  -0.000427   0.011577   0.133290
    11  C    0.000000  -0.000081   0.000760   0.006400  -0.096402   0.227004
    12  C    0.000158  -0.000421   0.006540  -0.057032   0.270984  -0.056971
    13  C    0.000000   0.000011  -0.000894   0.005571  -0.081040  -0.000908
    14  C    0.000000   0.000000   0.000012  -0.000315   0.011342  -0.000944
    15  C    0.000000   0.000000   0.000001   0.000125  -0.000735   0.000151
    16  C   -0.000006   0.000007  -0.000088  -0.000590   0.011603  -0.000412
    17  C    0.000001   0.000033   0.000802  -0.000559  -0.098836   0.006452
    18  C    0.097429  -0.156481   0.058317   0.255026  -0.082050   0.005536
    19  C    0.245335   0.116184  -0.164989   0.138329   0.011447  -0.000327
    20  H    0.452950  -0.071834   0.015655  -0.001662   0.000011   0.000001
    21  H   -0.073739   0.449945  -0.067282   0.016648  -0.000165  -0.000037
    22  H    0.014668  -0.065659   0.453545  -0.067674  -0.015350   0.005963
    23  H    0.000147  -0.001064   0.001406   0.007113  -0.016005  -0.065928
    24  H    0.000000   0.000003   0.000052  -0.000035  -0.000168   0.016010
    25  H    0.000000   0.000000   0.000000   0.000001   0.000011  -0.001644
    26  H    0.000000   0.000000  -0.000002   0.000012  -0.000164   0.016655
    27  H    0.000000   0.000000   0.000062  -0.000099  -0.015628  -0.068491
    28  H    0.000000   0.000000  -0.000007  -0.000354  -0.016029   0.007060
    29  H    0.000000   0.000000   0.000000   0.000011  -0.000168  -0.000035
    30  H    0.000000   0.000000   0.000000   0.000001   0.000011   0.000001
    31  H    0.000000   0.000000   0.000000  -0.000037  -0.000165   0.000012
    32  H    0.000099  -0.000084  -0.001916   0.006081  -0.014890  -0.000083
    33  H    0.015026  -0.002525   0.017062  -0.066046  -0.016060  -0.000352
    34  H   -0.072648   0.014423  -0.001616   0.016020  -0.000168   0.000012
    35  Ag  -0.001253   0.002311  -0.001854  -0.009827   0.006412  -0.008932
               7          8          9         10         11         12
     1  C    0.000024  -0.000004   0.000000   0.000000   0.000000   0.000158
     2  C   -0.001542   0.000066  -0.000006   0.000008  -0.000081  -0.000421
     3  C   -0.006484  -0.001233  -0.000001   0.000033   0.000760   0.006540
     4  C   -0.000918  -0.000985   0.000158  -0.000427   0.006400  -0.057032
     5  N   -0.081621   0.011385  -0.000756   0.011577  -0.096402   0.270984
     6  C    0.256190   0.137534  -0.178743   0.133290   0.227004  -0.056971
     7  C    5.193779   0.245241   0.096929  -0.156075   0.058523   0.005586
     8  C    0.245241   5.110472   0.246449   0.115412  -0.164535  -0.000324
     9  C    0.096929   0.246449   5.149030   0.252094   0.099218   0.000133
    10  C   -0.156075   0.115412   0.252094   5.083966   0.248387  -0.000702
    11  C    0.058523  -0.164535   0.099218   0.248387   5.251801  -0.000497
    12  C    0.005586  -0.000324   0.000133  -0.000702  -0.000497   5.274915
    13  C    0.001246   0.000000   0.000021  -0.001495  -0.006425   0.260557
    14  C   -0.000063   0.000006  -0.000004   0.000067  -0.001229   0.137701
    15  C    0.000000   0.000000   0.000000  -0.000006   0.000001  -0.177926
    16  C    0.000011   0.000000   0.000000   0.000007   0.000042   0.131322
    17  C   -0.000914   0.000013   0.000000  -0.000088   0.000696   0.223190
    18  C    0.001217  -0.000066   0.000000   0.000011  -0.000902  -0.001005
    19  C    0.000003   0.000006   0.000000   0.000000   0.000012  -0.001004
    20  H   -0.000001   0.000000   0.000000   0.000000   0.000000   0.000001
    21  H    0.000054   0.000001   0.000000   0.000000   0.000000   0.000012
    22  H    0.003742  -0.000630   0.000119  -0.000087  -0.001899  -0.000133
    23  H    0.457381  -0.072987   0.014999  -0.002508   0.017049  -0.000351
    24  H   -0.067658   0.449112  -0.072658   0.014423  -0.001611   0.000011
    25  H    0.015357  -0.071902   0.452810  -0.071740   0.015633   0.000001
    26  H   -0.001690   0.014495  -0.073810   0.450022  -0.067282  -0.000038
    27  H    0.015268  -0.002415   0.014703  -0.065276   0.453051   0.006171
    28  H   -0.001005   0.000054   0.000147  -0.001088   0.001422  -0.066003
    29  H    0.000001   0.000000   0.000000   0.000003   0.000052   0.016024
    30  H    0.000000   0.000000   0.000000   0.000000   0.000000  -0.001678
    31  H    0.000000   0.000000   0.000000   0.000000  -0.000002   0.016646
    32  H    0.000000   0.000000   0.000000   0.000001   0.000077  -0.067897
    33  H    0.000000   0.000001   0.000000   0.000000  -0.000007   0.007152
    34  H   -0.000002   0.000000   0.000000   0.000000   0.000000  -0.000035
    35  Ag  -0.005905   0.000600  -0.001259   0.002424  -0.003540  -0.009907
              13         14         15         16         17         18
     1  C    0.000000   0.000000   0.000000  -0.000006   0.000001   0.097429
     2  C    0.000011   0.000000   0.000000   0.000007   0.000033  -0.156481
     3  C   -0.000894   0.000012   0.000001  -0.000088   0.000802   0.058317
     4  C    0.005571  -0.000315   0.000125  -0.000590  -0.000559   0.255026
     5  N   -0.081040   0.011342  -0.000735   0.011603  -0.098836  -0.082050
     6  C   -0.000908  -0.000944   0.000151  -0.000412   0.006452   0.005536
     7  C    0.001246  -0.000063   0.000000   0.000011  -0.000914   0.001217
     8  C    0.000000   0.000006   0.000000   0.000000   0.000013  -0.000066
     9  C    0.000021  -0.000004   0.000000   0.000000   0.000000   0.000000
    10  C   -0.001495   0.000067  -0.000006   0.000007  -0.000088   0.000011
    11  C   -0.006425  -0.001229   0.000001   0.000042   0.000696  -0.000902
    12  C    0.260557   0.137701  -0.177926   0.131322   0.223190  -0.001005
    13  C    5.188163   0.245204   0.096028  -0.154185   0.056878   0.001203
    14  C    0.245204   5.112308   0.245831   0.115332  -0.165418   0.000003
    15  C    0.096028   0.245831   5.146850   0.254757   0.098922   0.000025
    16  C   -0.154185   0.115332   0.254757   5.079282   0.246538  -0.001530
    17  C    0.056878  -0.165418   0.098922   0.246538   5.270333  -0.006157
    18  C    0.001203   0.000003   0.000025  -0.001530  -0.006157   5.194809
    19  C   -0.000066   0.000006  -0.000004   0.000065  -0.001213   0.244093
    20  H    0.000000   0.000000   0.000000   0.000000   0.000000   0.015384
    21  H    0.000000   0.000000   0.000000   0.000000  -0.000002  -0.001686
    22  H    0.000000   0.000000   0.000000   0.000001   0.000079   0.015291
    23  H    0.000003   0.000001   0.000000   0.000000  -0.000009  -0.000979
    24  H   -0.000002   0.000000   0.000000   0.000000   0.000000   0.000001
    25  H   -0.000001   0.000000   0.000000   0.000000   0.000000   0.000000
    26  H    0.000053   0.000000   0.000000   0.000000   0.000000   0.000000
    27  H    0.003665  -0.000639   0.000110  -0.000086  -0.001929  -0.000001
    28  H    0.457976  -0.073433   0.015051  -0.002541   0.017230   0.000000
    29  H   -0.067593   0.449140  -0.072646   0.014420  -0.001613  -0.000002
    30  H    0.015386  -0.072081   0.453108  -0.071937   0.015765  -0.000001
    31  H   -0.001664   0.014453  -0.073528   0.449783  -0.067197   0.000052
    32  H    0.014859  -0.002288   0.014465  -0.063293   0.450510   0.003713
    33  H   -0.000962   0.000050   0.000150  -0.001069   0.001309   0.457667
    34  H    0.000001   0.000000   0.000000   0.000003   0.000051  -0.067691
    35  Ag  -0.006736   0.000776  -0.001618   0.002713  -0.004995  -0.006377
              19         20         21         22         23         24
     1  C    0.245335   0.452950  -0.073739   0.014668   0.000147   0.000000
     2  C    0.116184  -0.071834   0.449945  -0.065659  -0.001064   0.000003
     3  C   -0.164989   0.015655  -0.067282   0.453545   0.001406   0.000052
     4  C    0.138329  -0.001662   0.016648  -0.067674   0.007113  -0.000035
     5  N    0.011447   0.000011  -0.000165  -0.015350  -0.016005  -0.000168
     6  C   -0.000327   0.000001  -0.000037   0.005963  -0.065928   0.016010
     7  C    0.000003  -0.000001   0.000054   0.003742   0.457381  -0.067658
     8  C    0.000006   0.000000   0.000001  -0.000630  -0.072987   0.449112
     9  C    0.000000   0.000000   0.000000   0.000119   0.014999  -0.072658
    10  C    0.000000   0.000000   0.000000  -0.000087  -0.002508   0.014423
    11  C    0.000012   0.000000   0.000000  -0.001899   0.017049  -0.001611
    12  C   -0.001004   0.000001   0.000012  -0.000133  -0.000351   0.000011
    13  C   -0.000066   0.000000   0.000000   0.000000   0.000003  -0.000002
    14  C    0.000006   0.000000   0.000000   0.000000   0.000001   0.000000
    15  C   -0.000004   0.000000   0.000000   0.000000   0.000000   0.000000
    16  C    0.000065   0.000000   0.000000   0.000001   0.000000   0.000000
    17  C   -0.001213   0.000000  -0.000002   0.000079  -0.000009   0.000000
    18  C    0.244093   0.015384  -0.001686   0.015291  -0.000979   0.000001
    19  C    5.112023  -0.071951   0.014491  -0.002393   0.000052   0.000000
    20  H   -0.071951   0.673423  -0.012260  -0.000239   0.000001   0.000000
    21  H    0.014491  -0.012260   0.670525  -0.013488  -0.000008   0.000000
    22  H   -0.002393  -0.000239  -0.013488   0.629661  -0.001155   0.000025
    23  H    0.000052   0.000001  -0.000008  -0.001155   0.651380  -0.012480
    24  H    0.000000   0.000000   0.000000   0.000025  -0.012480   0.672184
    25  H    0.000000   0.000000   0.000000  -0.000001  -0.000245  -0.012305
    26  H    0.000000   0.000000   0.000000  -0.000010   0.000025  -0.000315
    27  H    0.000000   0.000000   0.000000   0.000006  -0.000162   0.000027
    28  H    0.000001   0.000000   0.000000   0.000002   0.000007  -0.000005
    29  H    0.000000   0.000000   0.000000   0.000000   0.000000   0.000000
    30  H    0.000000   0.000000   0.000000   0.000000   0.000000   0.000000
    31  H    0.000000   0.000000   0.000000   0.000000   0.000000   0.000000
    32  H   -0.000601  -0.000001  -0.000010   0.000026   0.000002   0.000000
    33  H   -0.073098  -0.000245   0.000025  -0.000165   0.000008   0.000000
    34  H    0.449149  -0.012297  -0.000314   0.000027  -0.000005   0.000000
    35  Ag   0.000645   0.000071   0.001032   0.003244   0.000256  -0.000071
              25         26         27         28         29         30
     1  C    0.000000   0.000000   0.000000   0.000000   0.000000   0.000000
     2  C    0.000000   0.000000   0.000000   0.000000   0.000000   0.000000
     3  C    0.000000  -0.000002   0.000062  -0.000007   0.000000   0.000000
     4  C    0.000001   0.000012  -0.000099  -0.000354   0.000011   0.000001
     5  N    0.000011  -0.000164  -0.015628  -0.016029  -0.000168   0.000011
     6  C   -0.001644   0.016655  -0.068491   0.007060  -0.000035   0.000001
     7  C    0.015357  -0.001690   0.015268  -0.001005   0.000001   0.000000
     8  C   -0.071902   0.014495  -0.002415   0.000054   0.000000   0.000000
     9  C    0.452810  -0.073810   0.014703   0.000147   0.000000   0.000000
    10  C   -0.071740   0.450022  -0.065276  -0.001088   0.000003   0.000000
    11  C    0.015633  -0.067282   0.453051   0.001422   0.000052   0.000000
    12  C    0.000001  -0.000038   0.006171  -0.066003   0.016024  -0.001678
    13  C   -0.000001   0.000053   0.003665   0.457976  -0.067593   0.015386
    14  C    0.000000   0.000000  -0.000639  -0.073433   0.449140  -0.072081
    15  C    0.000000   0.000000   0.000110   0.015051  -0.072646   0.453108
    16  C    0.000000   0.000000  -0.000086  -0.002541   0.014420  -0.071937
    17  C    0.000000   0.000000  -0.001929   0.017230  -0.001613   0.015765
    18  C    0.000000   0.000000  -0.000001   0.000000  -0.000002  -0.000001
    19  C    0.000000   0.000000   0.000000   0.000001   0.000000   0.000000
    20  H    0.000000   0.000000   0.000000   0.000000   0.000000   0.000000
    21  H    0.000000   0.000000   0.000000   0.000000   0.000000   0.000000
    22  H   -0.000001  -0.000010   0.000006   0.000002   0.000000   0.000000
    23  H   -0.000245   0.000025  -0.000162   0.000007   0.000000   0.000000
    24  H   -0.012305  -0.000315   0.000027  -0.000005   0.000000   0.000000
    25  H    0.673535  -0.012259  -0.000239   0.000001   0.000000   0.000000
    26  H   -0.012259   0.670902  -0.013636  -0.000007   0.000000   0.000000
    27  H   -0.000239  -0.013636   0.630793  -0.001205   0.000027  -0.000001
    28  H    0.000001  -0.000007  -0.001205   0.650871  -0.012457  -0.000244
    29  H    0.000000   0.000000   0.000027  -0.012457   0.671716  -0.012286
    30  H    0.000000   0.000000  -0.000001  -0.000244  -0.012286   0.673212
    31  H    0.000000   0.000000  -0.000011   0.000024  -0.000313  -0.012246
    32  H    0.000000   0.000000   0.000033  -0.000161   0.000027  -0.000241
    33  H    0.000000   0.000000   0.000002   0.000008  -0.000005   0.000001
    34  H    0.000000   0.000000   0.000000   0.000000   0.000000   0.000000
    35  Ag   0.000048   0.001044   0.004370   0.000300  -0.000081   0.000097
              31         32         33         34         35
     1  C    0.000000   0.000099   0.015026  -0.072648  -0.001253
     2  C    0.000000  -0.000084  -0.002525   0.014423   0.002311
     3  C    0.000000  -0.001916   0.017062  -0.001616  -0.001854
     4  C   -0.000037   0.006081  -0.066046   0.016020  -0.009827
     5  N   -0.000165  -0.014890  -0.016060  -0.000168   0.006412
     6  C    0.000012  -0.000083  -0.000352   0.000012  -0.008932
     7  C    0.000000   0.000000   0.000000  -0.000002  -0.005905
     8  C    0.000000   0.000000   0.000001   0.000000   0.000600
     9  C    0.000000   0.000000   0.000000   0.000000  -0.001259
    10  C    0.000000   0.000001   0.000000   0.000000   0.002424
    11  C   -0.000002   0.000077  -0.000007   0.000000  -0.003540
    12  C    0.016646  -0.067897   0.007152  -0.000035  -0.009907
    13  C   -0.001664   0.014859  -0.000962   0.000001  -0.006736
    14  C    0.014453  -0.002288   0.000050   0.000000   0.000776
    15  C   -0.073528   0.014465   0.000150   0.000000  -0.001618
    16  C    0.449783  -0.063293  -0.001069   0.000003   0.002713
    17  C   -0.067197   0.450510   0.001309   0.000051  -0.004995
    18  C    0.000052   0.003713   0.457667  -0.067691  -0.006377
    19  C    0.000000  -0.000601  -0.073098   0.449149   0.000645
    20  H    0.000000  -0.000001  -0.000245  -0.012297   0.000071
    21  H    0.000000  -0.000010   0.000025  -0.000314   0.001032
    22  H    0.000000   0.000026  -0.000165   0.000027   0.003244
    23  H    0.000000   0.000002   0.000008  -0.000005   0.000256
    24  H    0.000000   0.000000   0.000000   0.000000  -0.000071
    25  H    0.000000   0.000000   0.000000   0.000000   0.000048
    26  H    0.000000   0.000000   0.000000   0.000000   0.001044
    27  H   -0.000011   0.000033   0.000002   0.000000   0.004370
    28  H    0.000024  -0.000161   0.000008   0.000000   0.000300
    29  H   -0.000313   0.000027  -0.000005   0.000000  -0.000081
    30  H   -0.012246  -0.000241   0.000001   0.000000   0.000097
    31  H    0.669880  -0.013665  -0.000008   0.000000   0.001353
    32  H   -0.013665   0.626772  -0.001206   0.000030   0.003930
    33  H   -0.000008  -0.001206   0.651340  -0.012473   0.000360
    34  H    0.000000   0.000030  -0.012473   0.672096  -0.000079
    35  Ag   0.001353   0.003930   0.000360  -0.000079  19.086146
          Atomic-Atomic Spin Densities.
               1          2          3          4          5          6
     1  C   -0.004749  -0.003323   0.000917  -0.000424  -0.000020   0.000012
     2  C   -0.003323   0.021097  -0.001309   0.001095   0.000040  -0.000079
     3  C    0.000917  -0.001309   0.000161   0.001264  -0.000338   0.000746
     4  C   -0.000424   0.001095   0.001264   0.014387  -0.000120   0.001137
     5  N   -0.000020   0.000040  -0.000338  -0.000120  -0.000951  -0.000027
     6  C    0.000012  -0.000079   0.000746   0.001137  -0.000027   0.013021
     7  C    0.000019  -0.000154   0.000683  -0.000055  -0.000509   0.001460
     8  C    0.000000   0.000011  -0.000073  -0.000015   0.000028  -0.000402
     9  C    0.000000   0.000000   0.000007   0.000003  -0.000021  -0.000505
    10  C    0.000000   0.000000  -0.000004  -0.000005   0.000042   0.001187
    11  C    0.000000  -0.000001   0.000043   0.000173  -0.000407   0.000759
    12  C    0.000002  -0.000004   0.000144   0.001193  -0.000090   0.001097
    13  C    0.000000  -0.000001   0.000011   0.000222  -0.000559  -0.000118
    14  C    0.000000   0.000000   0.000000  -0.000010   0.000030  -0.000012
    15  C    0.000000   0.000000   0.000000   0.000015  -0.000024   0.000003
    16  C    0.000000   0.000000   0.000000  -0.000109   0.000054  -0.000004
    17  C    0.000009  -0.000005   0.000056   0.001196  -0.000469   0.000202
    18  C    0.000685  -0.000467   0.000739   0.001981  -0.000482   0.000171
    19  C    0.000377  -0.000473  -0.000229  -0.000521   0.000024  -0.000009
    20  H   -0.000133   0.000055  -0.000005   0.000006   0.000000   0.000000
    21  H   -0.000130   0.000402  -0.000226  -0.000005   0.000001  -0.000001
    22  H    0.000047  -0.000203   0.002019   0.000375  -0.000029   0.000017
    23  H   -0.000025   0.000124  -0.000149   0.000228   0.000106   0.000069
    24  H    0.000000   0.000000   0.000000   0.000000   0.000000  -0.000016
    25  H    0.000000   0.000000   0.000000   0.000000   0.000000   0.000009
    26  H    0.000000   0.000000   0.000000   0.000000   0.000001   0.000001
    27  H    0.000000   0.000000   0.000003   0.000027  -0.000023   0.000266
    28  H    0.000000   0.000000  -0.000002  -0.000017   0.000109   0.000240
    29  H    0.000000   0.000000   0.000000   0.000000   0.000000   0.000000
    30  H    0.000000   0.000000   0.000000   0.000000   0.000000   0.000000
    31  H    0.000000   0.000000   0.000000  -0.000002   0.000001   0.000000
    32  H    0.000008  -0.000002   0.000024   0.000119  -0.000033   0.000037
    33  H   -0.000058   0.000044  -0.000010   0.000019   0.000108  -0.000015
    34  H   -0.000044  -0.000008  -0.000006  -0.000016   0.000000   0.000000
    35  Ag  -0.000871  -0.000208  -0.013102  -0.015823   0.002900  -0.012929
               7          8          9         10         11         12
     1  C    0.000019   0.000000   0.000000   0.000000   0.000000   0.000002
     2  C   -0.000154   0.000011   0.000000   0.000000  -0.000001  -0.000004
     3  C    0.000683  -0.000073   0.000007  -0.000004   0.000043   0.000144
     4  C   -0.000055  -0.000015   0.000003  -0.000005   0.000173   0.001193
     5  N   -0.000509   0.000028  -0.000021   0.000042  -0.000407  -0.000090
     6  C    0.001460  -0.000402  -0.000505   0.001187   0.000759   0.001097
     7  C   -0.001387  -0.002950   0.000747  -0.000527   0.000791   0.000205
     8  C   -0.002950   0.016503   0.000230  -0.000396  -0.000205  -0.000010
     9  C    0.000747   0.000230  -0.004183  -0.003145   0.000903   0.000014
    10  C   -0.000527  -0.000396  -0.003145   0.019343  -0.001400  -0.000091
    11  C    0.000791  -0.000205   0.000903  -0.001400   0.001846   0.000981
    12  C    0.000205  -0.000010   0.000014  -0.000091   0.000981   0.017875
    13  C    0.000078   0.000002   0.000019  -0.000149   0.000845   0.001787
    14  C   -0.000002   0.000000  -0.000001   0.000012  -0.000097  -0.000583
    15  C    0.000000   0.000000   0.000000   0.000000   0.000009  -0.000682
    16  C   -0.000001   0.000000   0.000000   0.000000  -0.000006   0.001658
    17  C    0.000018   0.000000   0.000000  -0.000002   0.000078   0.001071
    18  C    0.000064  -0.000002   0.000000  -0.000001   0.000013  -0.000225
    19  C    0.000003   0.000000   0.000000   0.000000   0.000000  -0.000009
    20  H    0.000000   0.000000   0.000000   0.000000   0.000000   0.000000
    21  H   -0.000003   0.000000   0.000000   0.000000   0.000000   0.000000
    22  H    0.000282  -0.000023   0.000007  -0.000003   0.000012   0.000034
    23  H   -0.000903   0.000103  -0.000058   0.000043  -0.000018  -0.000016
    24  H   -0.000026   0.000258  -0.000038  -0.000009  -0.000005   0.000000
    25  H   -0.000014  -0.000030  -0.000161   0.000071  -0.000008   0.000000
    26  H   -0.000017   0.000006  -0.000162   0.000402  -0.000255  -0.000002
    27  H    0.000004  -0.000008   0.000038  -0.000153   0.002010   0.000011
    28  H   -0.000052  -0.000010  -0.000024   0.000114  -0.000183   0.000080
    29  H    0.000000   0.000000   0.000000   0.000000   0.000000  -0.000020
    30  H    0.000000   0.000000   0.000000   0.000000   0.000000   0.000011
    31  H    0.000000   0.000000   0.000000   0.000000   0.000000   0.000004
    32  H    0.000003   0.000000   0.000000   0.000000   0.000006   0.000309
    33  H   -0.000015   0.000000   0.000000   0.000000  -0.000002   0.000312
    34  H    0.000000   0.000000   0.000000   0.000000   0.000000   0.000000
    35  Ag  -0.003810   0.000939  -0.000834  -0.000071  -0.013612  -0.015706
              13         14         15         16         17         18
     1  C    0.000000   0.000000   0.000000   0.000000   0.000009   0.000685
     2  C   -0.000001   0.000000   0.000000   0.000000  -0.000005  -0.000467
     3  C    0.000011   0.000000   0.000000   0.000000   0.000056   0.000739
     4  C    0.000222  -0.000010   0.000015  -0.000109   0.001196   0.001981
     5  N   -0.000559   0.000030  -0.000024   0.000054  -0.000469  -0.000482
     6  C   -0.000118  -0.000012   0.000003  -0.000004   0.000202   0.000171
     7  C    0.000078  -0.000002   0.000000  -0.000001   0.000018   0.000064
     8  C    0.000002   0.000000   0.000000   0.000000   0.000000  -0.000002
     9  C    0.000019  -0.000001   0.000000   0.000000   0.000000   0.000000
    10  C   -0.000149   0.000012   0.000000   0.000000  -0.000002  -0.000001
    11  C    0.000845  -0.000097   0.000009  -0.000006   0.000078   0.000013
    12  C    0.001787  -0.000583  -0.000682   0.001658   0.001071  -0.000225
    13  C   -0.003310  -0.003592   0.000939  -0.000715   0.001243   0.000075
    14  C   -0.003592   0.022018   0.000264  -0.000539  -0.000335   0.000003
    15  C    0.000939   0.000264  -0.006226  -0.003923   0.001312   0.000021
    16  C   -0.000715  -0.000539  -0.003923   0.025761  -0.002151  -0.000175
    17  C    0.001243  -0.000335   0.001312  -0.002151   0.003045   0.000959
    18  C    0.000075   0.000003   0.000021  -0.000175   0.000959  -0.001830
    19  C   -0.000002   0.000000  -0.000001   0.000012  -0.000103  -0.003113
    20  H    0.000000   0.000000   0.000000   0.000000   0.000000  -0.000009
    21  H    0.000000   0.000000   0.000000   0.000000   0.000000  -0.000014
    22  H    0.000003   0.000000   0.000000   0.000000   0.000007   0.000013
    23  H   -0.000015   0.000000   0.000000   0.000000  -0.000003  -0.000045
    24  H    0.000000   0.000000   0.000000   0.000000   0.000000   0.000000
    25  H    0.000000   0.000000   0.000000   0.000000   0.000000   0.000000
    26  H   -0.000003   0.000000   0.000000   0.000000   0.000000   0.000000
    27  H    0.000251  -0.000018   0.000006  -0.000002   0.000019   0.000002
    28  H   -0.000884   0.000095  -0.000060   0.000048  -0.000033  -0.000013
    29  H   -0.000041   0.000348  -0.000050  -0.000011  -0.000006   0.000000
    30  H   -0.000015  -0.000044  -0.000196   0.000077  -0.000010   0.000000
    31  H   -0.000022   0.000007  -0.000197   0.000519  -0.000338  -0.000004
    32  H    0.000041  -0.000017   0.000076  -0.000349   0.003173   0.000348
    33  H   -0.000059  -0.000014  -0.000028   0.000143  -0.000236  -0.000897
    34  H    0.000000   0.000000   0.000000   0.000000   0.000000  -0.000031
    35  Ag  -0.004537   0.001246  -0.001138   0.000049  -0.019808  -0.004119
              19         20         21         22         23         24
     1  C    0.000377  -0.000133  -0.000130   0.000047  -0.000025   0.000000
     2  C   -0.000473   0.000055   0.000402  -0.000203   0.000124   0.000000
     3  C   -0.000229  -0.000005  -0.000226   0.002019  -0.000149   0.000000
     4  C   -0.000521   0.000006  -0.000005   0.000375   0.000228   0.000000
     5  N    0.000024   0.000000   0.000001  -0.000029   0.000106   0.000000
     6  C   -0.000009   0.000000  -0.000001   0.000017   0.000069  -0.000016
     7  C    0.000003   0.000000  -0.000003   0.000282  -0.000903  -0.000026
     8  C    0.000000   0.000000   0.000000  -0.000023   0.000103   0.000258
     9  C    0.000000   0.000000   0.000000   0.000007  -0.000058  -0.000038
    10  C    0.000000   0.000000   0.000000  -0.000003   0.000043  -0.000009
    11  C    0.000000   0.000000   0.000000   0.000012  -0.000018  -0.000005
    12  C   -0.000009   0.000000   0.000000   0.000034  -0.000016   0.000000
    13  C   -0.000002   0.000000   0.000000   0.000003  -0.000015   0.000000
    14  C    0.000000   0.000000   0.000000   0.000000   0.000000   0.000000
    15  C   -0.000001   0.000000   0.000000   0.000000   0.000000   0.000000
    16  C    0.000012   0.000000   0.000000   0.000000   0.000000   0.000000
    17  C   -0.000103   0.000000   0.000000   0.000007  -0.000003   0.000000
    18  C   -0.003113  -0.000009  -0.000014   0.000013  -0.000045   0.000000
    19  C    0.017691  -0.000039   0.000004  -0.000011  -0.000012   0.000000
    20  H   -0.000039   0.000400   0.000016   0.000000   0.000000   0.000000
    21  H    0.000004   0.000016  -0.000864  -0.000009   0.000002   0.000000
    22  H   -0.000011   0.000000  -0.000009  -0.000079  -0.000057   0.000000
    23  H   -0.000012   0.000000   0.000002  -0.000057   0.000644   0.000000
    24  H    0.000000   0.000000   0.000000   0.000000   0.000000  -0.000862
    25  H    0.000000   0.000000   0.000000   0.000000   0.000002   0.000006
    26  H    0.000000   0.000000   0.000000   0.000000   0.000000   0.000000
    27  H    0.000000   0.000000   0.000000   0.000004  -0.000002   0.000000
    28  H    0.000000   0.000000   0.000000   0.000000   0.000012   0.000000
    29  H    0.000000   0.000000   0.000000   0.000000   0.000000   0.000000
    30  H    0.000000   0.000000   0.000000   0.000000   0.000000   0.000000
    31  H    0.000000   0.000000   0.000000   0.000000   0.000000   0.000000
    32  H   -0.000039   0.000000   0.000000   0.000006  -0.000001   0.000000
    33  H    0.000094   0.000002   0.000000  -0.000002   0.000013   0.000000
    34  H    0.000282   0.000007   0.000000   0.000000   0.000000   0.000000
    35  Ag   0.001109   0.000041   0.000165  -0.003093   0.000535  -0.000005
              25         26         27         28         29         30
     1  C    0.000000   0.000000   0.000000   0.000000   0.000000   0.000000
     2  C    0.000000   0.000000   0.000000   0.000000   0.000000   0.000000
     3  C    0.000000   0.000000   0.000003  -0.000002   0.000000   0.000000
     4  C    0.000000   0.000000   0.000027  -0.000017   0.000000   0.000000
     5  N    0.000000   0.000001  -0.000023   0.000109   0.000000   0.000000
     6  C    0.000009   0.000001   0.000266   0.000240   0.000000   0.000000
     7  C   -0.000014  -0.000017   0.000004  -0.000052   0.000000   0.000000
     8  C   -0.000030   0.000006  -0.000008  -0.000010   0.000000   0.000000
     9  C   -0.000161  -0.000162   0.000038  -0.000024   0.000000   0.000000
    10  C    0.000071   0.000402  -0.000153   0.000114   0.000000   0.000000
    11  C   -0.000008  -0.000255   0.002010  -0.000183   0.000000   0.000000
    12  C    0.000000  -0.000002   0.000011   0.000080  -0.000020   0.000011
    13  C    0.000000  -0.000003   0.000251  -0.000884  -0.000041  -0.000015
    14  C    0.000000   0.000000  -0.000018   0.000095   0.000348  -0.000044
    15  C    0.000000   0.000000   0.000006  -0.000060  -0.000050  -0.000196
    16  C    0.000000   0.000000  -0.000002   0.000048  -0.000011   0.000077
    17  C    0.000000   0.000000   0.000019  -0.000033  -0.000006  -0.000010
    18  C    0.000000   0.000000   0.000002  -0.000013   0.000000   0.000000
    19  C    0.000000   0.000000   0.000000   0.000000   0.000000   0.000000
    20  H    0.000000   0.000000   0.000000   0.000000   0.000000   0.000000
    21  H    0.000000   0.000000   0.000000   0.000000   0.000000   0.000000
    22  H    0.000000   0.000000   0.000004   0.000000   0.000000   0.000000
    23  H    0.000002   0.000000  -0.000002   0.000012   0.000000   0.000000
    24  H    0.000006   0.000000   0.000000   0.000000   0.000000   0.000000
    25  H    0.000399   0.000018   0.000000   0.000000   0.000000   0.000000
    26  H    0.000018  -0.000747  -0.000012   0.000002   0.000000   0.000000
    27  H    0.000000  -0.000012  -0.000326  -0.000050   0.000000   0.000000
    28  H    0.000000   0.000002  -0.000050   0.000706   0.000002   0.000002
    29  H    0.000000   0.000000   0.000000   0.000002  -0.001154   0.000008
    30  H    0.000000   0.000000   0.000000   0.000002   0.000008   0.000539
    31  H    0.000000   0.000000   0.000000   0.000001   0.000000   0.000023
    32  H    0.000000   0.000000   0.000005  -0.000003   0.000000   0.000000
    33  H    0.000000   0.000000   0.000000   0.000012   0.000000   0.000000
    34  H    0.000000   0.000000   0.000000   0.000000   0.000000   0.000000
    35  Ag   0.000039   0.000196  -0.002685   0.000546  -0.000008   0.000054
              31         32         33         34         35
     1  C    0.000000   0.000008  -0.000058  -0.000044  -0.000871
     2  C    0.000000  -0.000002   0.000044  -0.000008  -0.000208
     3  C    0.000000   0.000024  -0.000010  -0.000006  -0.013102
     4  C   -0.000002   0.000119   0.000019  -0.000016  -0.015823
     5  N    0.000001  -0.000033   0.000108   0.000000   0.002900
     6  C    0.000000   0.000037  -0.000015   0.000000  -0.012929
     7  C    0.000000   0.000003  -0.000015   0.000000  -0.003810
     8  C    0.000000   0.000000   0.000000   0.000000   0.000939
     9  C    0.000000   0.000000   0.000000   0.000000  -0.000834
    10  C    0.000000   0.000000   0.000000   0.000000  -0.000071
    11  C    0.000000   0.000006  -0.000002   0.000000  -0.013612
    12  C    0.000004   0.000309   0.000312   0.000000  -0.015706
    13  C   -0.000022   0.000041  -0.000059   0.000000  -0.004537
    14  C    0.000007  -0.000017  -0.000014   0.000000   0.001246
    15  C   -0.000197   0.000076  -0.000028   0.000000  -0.001138
    16  C    0.000519  -0.000349   0.000143   0.000000   0.000049
    17  C   -0.000338   0.003173  -0.000236   0.000000  -0.019808
    18  C   -0.000004   0.000348  -0.000897  -0.000031  -0.004119
    19  C    0.000000  -0.000039   0.000094   0.000282   0.001109
    20  H    0.000000   0.000000   0.000002   0.000007   0.000041
    21  H    0.000000   0.000000   0.000000   0.000000   0.000165
    22  H    0.000000   0.000006  -0.000002   0.000000  -0.003093
    23  H    0.000000  -0.000001   0.000013   0.000000   0.000535
    24  H    0.000000   0.000000   0.000000   0.000000  -0.000005
    25  H    0.000000   0.000000   0.000000   0.000000   0.000039
    26  H    0.000000   0.000000   0.000000   0.000000   0.000196
    27  H    0.000000   0.000005   0.000000   0.000000  -0.002685
    28  H    0.000001  -0.000003   0.000012   0.000000   0.000546
    29  H    0.000000   0.000000   0.000000   0.000000  -0.000008
    30  H    0.000023   0.000000   0.000000   0.000000   0.000054
    31  H   -0.001017  -0.000027   0.000003   0.000000   0.000274
    32  H   -0.000027   0.000062  -0.000073   0.000001  -0.004667
    33  H    0.000003  -0.000073   0.000659   0.000000   0.000603
    34  H    0.000000   0.000001   0.000000  -0.000926  -0.000007
    35  Ag   0.000274  -0.004667   0.000603  -0.000007   1.063937
 Mulliken charges and spin densities:
               1          2
     1  C    0.000868  -0.007702
     2  C   -0.011684   0.016633
     3  C   -0.034021  -0.008637
     4  C    0.083671   0.006320
     5  N   -0.274992  -0.000657
     6  C    0.090899   0.006319
     7  C   -0.026674  -0.006070
     8  C   -0.015766   0.013956
     9  C    0.000426  -0.007164
    10  C   -0.012233   0.015260
    11  C   -0.035716  -0.007730
    12  C    0.084818   0.009349
    13  C   -0.024855  -0.008507
    14  C   -0.015817   0.018759
    15  C    0.000887  -0.009880
    16  C   -0.010148   0.020339
    17  C   -0.039870  -0.011110
    18  C   -0.024849  -0.006355
    19  C   -0.016195   0.015035
    20  H    0.012994   0.000339
    21  H    0.016259  -0.000663
    22  H    0.042482  -0.000683
    23  H    0.024056   0.000579
    24  H    0.015461  -0.000696
    25  H    0.012938   0.000332
    26  H    0.016005  -0.000572
    27  H    0.041527  -0.000630
    28  H    0.024384   0.000637
    29  H    0.015778  -0.000932
    30  H    0.013135   0.000450
    31  H    0.016634  -0.000775
    32  H    0.045712  -0.000992
    33  H    0.024062   0.000602
    34  H    0.015520  -0.000749
    35  Ag  -0.055696   0.955597
 Sum of Mulliken charges =   0.00000   1.00000
 Mulliken charges and spin densities with hydrogens summed into heavy atoms:
               1          2
     1  C    0.013861  -0.007363
     2  C    0.004575   0.015970
     3  C    0.008461  -0.009320
     4  C    0.083671   0.006320
     5  N   -0.274992  -0.000657
     6  C    0.090899   0.006319
     7  C   -0.002618  -0.005492
     8  C   -0.000305   0.013259
     9  C    0.013364  -0.006832
    10  C    0.003772   0.014688
    11  C    0.005812  -0.008359
    12  C    0.084818   0.009349
    13  C   -0.000471  -0.007870
    14  C   -0.000040   0.017827
    15  C    0.014023  -0.009431
    16  C    0.006486   0.019564
    17  C    0.005842  -0.012103
    18  C   -0.000787  -0.005753
    19  C   -0.000675   0.014286
    35  Ag  -0.055696   0.955597
 Electronic spatial extent (au):  <R**2>=           5501.9394
 Charge=              0.0000 electrons
 Dipole moment (field-independent basis, Debye):
    X=             -0.6520    Y=              1.0222    Z=              1.2381  Tot=              1.7329
 Quadrupole moment (field-independent basis, Debye-Ang):
   XX=           -123.0897   YY=           -126.8024   ZZ=           -130.5652
   XY=              3.9514   XZ=              5.0230   YZ=             -8.0276
 Traceless Quadrupole moment (field-independent basis, Debye-Ang):
   XX=              3.7294   YY=              0.0167   ZZ=             -3.7461
   XY=              3.9514   XZ=              5.0230   YZ=             -8.0276
 Octapole moment (field-independent basis, Debye-Ang**2):
  XXX=            -55.9656  YYY=            108.8464  ZZZ=            144.2998  XYY=            -32.7802
  XXY=             30.5349  XXZ=             56.4275  XZZ=            -25.7177  YZZ=             49.8793
  YYZ=             48.3364  XYZ=             -0.9761
 Hexadecapole moment (field-independent basis, Debye-Ang**3):
 XXXX=          -2729.6043 YYYY=          -2445.3652 ZZZZ=          -2302.6067 XXXY=           -130.1011
 XXXZ=           -222.3950 YYYX=           -139.1034 YYYZ=            264.9082 ZZZX=           -123.7765
 ZZZY=            297.7915 XXYY=           -948.7209 XXZZ=           -866.0006 YYZZ=           -833.4921
 XXYZ=             94.3854 YYXZ=            -88.6345 ZZXY=            -95.0204
 N-N= 1.635802566764D+03 E-N=-5.321524245484D+03  KE= 7.972696085643D+02
                          Isotropic Fermi Contact Couplings
        Atom                 a.u.       MegaHertz       Gauss      10(-4) cm-1
     1  C(13)             -0.00137      -1.54346      -0.55074      -0.51484
     2  C(13)              0.00263       2.95440       1.05421       0.98548
     3  C(13)              0.00942      10.59255       3.77968       3.53329
     4  C(13)              0.00423       4.75791       1.69774       1.58707
     5  N(14)              0.00087       0.28182       0.10056       0.09401
     6  C(13)              0.00352       3.96105       1.41340       1.32126
     7  C(13)             -0.00096      -1.07385      -0.38317      -0.35820
     8  C(13)              0.00218       2.45207       0.87496       0.81792
     9  C(13)             -0.00123      -1.38356      -0.49369      -0.46151
    10  C(13)              0.00237       2.66858       0.95222       0.89014
    11  C(13)              0.00972      10.92765       3.89926       3.64507
    12  C(13)              0.00463       5.20449       1.85709       1.73603
    13  C(13)             -0.00143      -1.61069      -0.57473      -0.53727
    14  C(13)              0.00296       3.33071       1.18848       1.11101
    15  C(13)             -0.00173      -1.94982      -0.69574      -0.65039
    16  C(13)              0.00323       3.62734       1.29433       1.20995
    17  C(13)              0.01277      14.35663       5.12280       4.78886
    18  C(13)             -0.00104      -1.16686      -0.41636      -0.38922
    19  C(13)              0.00234       2.62983       0.93839       0.87722
    20  H(1)               0.00009       0.42035       0.14999       0.14021
    21  H(1)              -0.00022      -0.99053      -0.35345      -0.33040
    22  H(1)               0.00051       2.27697       0.81248       0.75952
    23  H(1)               0.00004       0.19409       0.06925       0.06474
    24  H(1)              -0.00020      -0.88216      -0.31478      -0.29426
    25  H(1)               0.00009       0.41328       0.14747       0.13786
    26  H(1)              -0.00020      -0.88589      -0.31611      -0.29550
    27  H(1)               0.00044       1.97903       0.70617       0.66013
    28  H(1)               0.00007       0.30315       0.10817       0.10112
    29  H(1)              -0.00026      -1.18118      -0.42147      -0.39400
    30  H(1)               0.00012       0.55793       0.19908       0.18610
    31  H(1)              -0.00027      -1.19395      -0.42603      -0.39826
    32  H(1)               0.00061       2.73252       0.97503       0.91147
    33  H(1)               0.00004       0.19263       0.06873       0.06425
    34  H(1)              -0.00021      -0.94880      -0.33856      -0.31649
    35  Ag(107             0.00033      -0.06050      -0.02159      -0.02018
 --------------------------------------------------------
       Center         ----  Spin Dipole Couplings  ----
                      3XX-RR        3YY-RR        3ZZ-RR
 --------------------------------------------------------
     1   Atom        0.003554      0.001413     -0.004967
     2   Atom       -0.007641     -0.007152      0.014792
     3   Atom        0.006897     -0.001774     -0.005123
     4   Atom       -0.005324     -0.007270      0.012594
     5   Atom       -0.002646      0.000079      0.002567
     6   Atom       -0.007632      0.007585      0.000048
     7   Atom        0.000342     -0.004418      0.004077
     8   Atom       -0.007130      0.010552     -0.003422
     9   Atom        0.001850     -0.004801      0.002952
    10   Atom       -0.006183      0.012313     -0.006130
    11   Atom       -0.001110     -0.009267      0.010378
    12   Atom        0.006396     -0.002049     -0.004347
    13   Atom       -0.004433      0.005092     -0.000659
    14   Atom        0.009410     -0.005332     -0.004078
    15   Atom       -0.004371      0.004442     -0.000071
    16   Atom        0.009901     -0.008080     -0.001821
    17   Atom       -0.009623      0.014342     -0.004718
    18   Atom        0.002977      0.000166     -0.003143
    19   Atom       -0.005589     -0.007295      0.012885
    20   Atom        0.000517     -0.000302     -0.000216
    21   Atom       -0.001232      0.000692      0.000539
    22   Atom       -0.001439     -0.004346      0.005786
    23   Atom       -0.000908     -0.001093      0.002001
    24   Atom       -0.001318     -0.000401      0.001718
    25   Atom        0.000000     -0.000571      0.000571
    26   Atom        0.001096     -0.000386     -0.000710
    27   Atom       -0.003200      0.002318      0.000882
    28   Atom       -0.001296      0.001648     -0.000351
    29   Atom       -0.000524      0.001885     -0.001361
    30   Atom       -0.000418      0.000947     -0.000529
    31   Atom        0.000481     -0.000483      0.000002
    32   Atom        0.003109      0.002699     -0.005808
    33   Atom        0.000987     -0.000488     -0.000499
    34   Atom        0.001486     -0.001305     -0.000181
    35   Atom        0.003201     -0.001100     -0.002101
 --------------------------------------------------------
                        XY            XZ            YZ
 --------------------------------------------------------
     1   Atom        0.000032     -0.001497     -0.001841
     2   Atom        0.001934      0.001734      0.005298
     3   Atom       -0.001032     -0.008535     -0.002220
     4   Atom       -0.001198     -0.004496      0.003970
     5   Atom       -0.002357     -0.003036      0.005178
     6   Atom       -0.000317      0.000134      0.008615
     7   Atom        0.001229      0.000834      0.000204
     8   Atom       -0.001527      0.000160      0.005463
     9   Atom        0.001116      0.001107     -0.001688
    10   Atom       -0.003610      0.000537      0.005802
    11   Atom        0.003039      0.003672      0.001884
    12   Atom       -0.008633     -0.009070      0.005777
    13   Atom       -0.000050      0.003192      0.000520
    14   Atom       -0.005459     -0.010376      0.003249
    15   Atom        0.001713      0.004285     -0.001195
    16   Atom       -0.005627     -0.013256      0.001789
    17   Atom       -0.001937      0.005291      0.001639
    18   Atom       -0.000804     -0.003103     -0.000991
    19   Atom        0.000062      0.000389      0.003707
    20   Atom        0.000203     -0.000723     -0.000379
    21   Atom        0.000449     -0.001075     -0.001407
    22   Atom        0.000175     -0.003540     -0.002565
    23   Atom       -0.000144     -0.000202      0.000598
    24   Atom       -0.000033      0.000356      0.000021
    25   Atom        0.000355      0.000591      0.000222
    26   Atom        0.001435      0.000482      0.000910
    27   Atom        0.003990      0.002867      0.004409
    28   Atom       -0.000127     -0.000078      0.001192
    29   Atom        0.000330     -0.000376      0.000744
    30   Atom       -0.000374      0.000357     -0.000137
    31   Atom       -0.001677      0.001378     -0.000360
    32   Atom       -0.005619     -0.000471      0.001094
    33   Atom       -0.000903     -0.001304      0.000693
    34   Atom       -0.000621     -0.000657      0.000254
    35   Atom        0.004738      0.004142     -0.005543
 --------------------------------------------------------


 ---------------------------------------------------------------------------------
              Anisotropic Spin Dipole Couplings in Principal Axis System
 ---------------------------------------------------------------------------------

       Atom             a.u.   MegaHertz   Gauss  10(-4) cm-1        Axes

              Baa    -0.0057    -0.763    -0.272    -0.254  0.1541  0.2474  0.9566
     1 C(13)  Bbb     0.0018     0.244     0.087     0.081 -0.2026  0.9555 -0.2145
              Bcc     0.0039     0.519     0.185     0.173  0.9671  0.1608 -0.1974
 
              Baa    -0.0096    -1.290    -0.460    -0.430 -0.6395  0.7594 -0.1194
     2 C(13)  Bbb    -0.0066    -0.883    -0.315    -0.295  0.7636  0.6096 -0.2130
              Bcc     0.0162     2.173     0.775     0.725  0.0890  0.2274  0.9697
 
              Baa    -0.0103    -1.376    -0.491    -0.459  0.4413  0.2771  0.8535
     3 C(13)  Bbb    -0.0011    -0.144    -0.051    -0.048 -0.1349  0.9608 -0.2421
              Bcc     0.0113     1.520     0.542     0.507  0.8871  0.0083 -0.4614
 
              Baa    -0.0081    -1.086    -0.388    -0.362  0.1819  0.9723 -0.1470
     4 C(13)  Bbb    -0.0064    -0.853    -0.304    -0.284  0.9564 -0.1402  0.2563
              Bcc     0.0144     1.939     0.692     0.647 -0.2286  0.1872  0.9553
 
              Baa    -0.0040    -0.156    -0.056    -0.052  0.8039 -0.2295  0.5487
     5 N(14)  Bbb    -0.0040    -0.154    -0.055    -0.051  0.4890  0.7803 -0.3900
              Bcc     0.0080     0.310     0.111     0.103 -0.3387  0.5818  0.7395
 
              Baa    -0.0077    -1.030    -0.367    -0.343  0.9907  0.0818 -0.1084
     6 C(13)  Bbb    -0.0055    -0.745    -0.266    -0.248  0.1355 -0.5412  0.8299
              Bcc     0.0132     1.774     0.633     0.592 -0.0092  0.8369  0.5472
 
              Baa    -0.0047    -0.633    -0.226    -0.211 -0.2361  0.9717 -0.0001
     7 C(13)  Bbb     0.0004     0.059     0.021     0.020  0.9458  0.2297 -0.2297
              Bcc     0.0043     0.574     0.205     0.192  0.2232  0.0544  0.9733
 
              Baa    -0.0074    -0.996    -0.356    -0.332  0.9542  0.1582 -0.2539
     8 C(13)  Bbb    -0.0051    -0.685    -0.245    -0.229  0.2907 -0.2898  0.9119
              Bcc     0.0125     1.682     0.600     0.561 -0.0707  0.9439  0.3225
 
              Baa    -0.0054    -0.724    -0.258    -0.242 -0.1810  0.9590  0.2180
     9 C(13)  Bbb     0.0017     0.223     0.079     0.074  0.8742  0.2584 -0.4110
              Bcc     0.0037     0.501     0.179     0.167  0.4505 -0.1162  0.8852
 
              Baa    -0.0089    -1.188    -0.424    -0.396 -0.5677 -0.3063  0.7642
    10 C(13)  Bbb    -0.0057    -0.761    -0.271    -0.254  0.8077 -0.0278  0.5889
              Bcc     0.0145     1.949     0.695     0.650 -0.1591  0.9515  0.2632
 
              Baa    -0.0103    -1.382    -0.493    -0.461 -0.3020  0.9527 -0.0332
    11 C(13)  Bbb    -0.0015    -0.201    -0.072    -0.067  0.9052  0.2756 -0.3236
              Bcc     0.0118     1.583     0.565     0.528  0.2992  0.1278  0.9456
 
              Baa    -0.0097    -1.305    -0.466    -0.435  0.3586 -0.2693  0.8938
    12 C(13)  Bbb    -0.0074    -0.998    -0.356    -0.333  0.5451  0.8377  0.0337
              Bcc     0.0172     2.303     0.822     0.768  0.7578 -0.4751 -0.4472
 
              Baa    -0.0063    -0.840    -0.300    -0.280  0.8675  0.0266 -0.4967
    13 C(13)  Bbb     0.0011     0.150     0.053     0.050  0.4965 -0.1065  0.8615
              Bcc     0.0051     0.690     0.246     0.230  0.0300  0.9940  0.1056
 
              Baa    -0.0097    -1.306    -0.466    -0.436  0.4546 -0.0904  0.8861
    14 C(13)  Bbb    -0.0071    -0.956    -0.341    -0.319  0.2854  0.9572 -0.0488
              Bcc     0.0169     2.262     0.807     0.755  0.8438 -0.2751 -0.4609
 
              Baa    -0.0074    -0.991    -0.353    -0.330  0.8370 -0.1737 -0.5189
    15 C(13)  Bbb     0.0026     0.344     0.123     0.115  0.5337  0.0503  0.8441
              Bcc     0.0048     0.646     0.231     0.216  0.1205  0.9835 -0.1348
 
              Baa    -0.0115    -1.544    -0.551    -0.515  0.5388  0.5534  0.6352
    16 C(13)  Bbb    -0.0082    -1.100    -0.392    -0.367 -0.1631  0.8082 -0.5658
              Bcc     0.0197     2.644     0.943     0.882  0.8265 -0.2012 -0.5257
 
              Baa    -0.0132    -1.776    -0.634    -0.592  0.8379  0.0909 -0.5382
    17 C(13)  Bbb    -0.0013    -0.181    -0.064    -0.060  0.5420 -0.0208  0.8402
              Bcc     0.0146     1.956     0.698     0.653 -0.0651  0.9956  0.0667
 
              Baa    -0.0047    -0.637    -0.227    -0.212  0.3832  0.2425  0.8912
    18 C(13)  Bbb     0.0004     0.059     0.021     0.020 -0.0102  0.9660 -0.2585
              Bcc     0.0043     0.578     0.206     0.193  0.9236 -0.0900 -0.3727
 
              Baa    -0.0080    -1.067    -0.381    -0.356  0.0032  0.9845 -0.1752
    19 C(13)  Bbb    -0.0056    -0.751    -0.268    -0.251  0.9998 -0.0068 -0.0197
              Bcc     0.0136     1.819     0.649     0.607  0.0206  0.1751  0.9843
 
              Baa    -0.0008    -0.415    -0.148    -0.138  0.3704  0.4766  0.7973
    20 H(1)   Bbb    -0.0003    -0.153    -0.055    -0.051 -0.4667  0.8376 -0.2839
              Bcc     0.0011     0.568     0.203     0.189  0.8031  0.2669 -0.5327
 
              Baa    -0.0018    -0.940    -0.335    -0.314  0.8714  0.1142  0.4771
    21 H(1)   Bbb    -0.0006    -0.313    -0.112    -0.104 -0.3956  0.7389  0.5455
              Bcc     0.0023     1.253     0.447     0.418 -0.2902 -0.6641  0.6890
 
              Baa    -0.0051    -2.732    -0.975    -0.911  0.2402  0.9247  0.2954
    22 H(1)   Bbb    -0.0026    -1.391    -0.496    -0.464  0.9029 -0.3246  0.2817
              Bcc     0.0077     4.123     1.471     1.375 -0.3563 -0.1991  0.9129
 
              Baa    -0.0012    -0.661    -0.236    -0.221  0.3133  0.9372 -0.1534
    23 H(1)   Bbb    -0.0009    -0.475    -0.170    -0.158  0.9468 -0.2957  0.1271
              Bcc     0.0021     1.136     0.405     0.379 -0.0738  0.1850  0.9800
 
              Baa    -0.0014    -0.726    -0.259    -0.242  0.9927  0.0366 -0.1149
    24 H(1)   Bbb    -0.0004    -0.213    -0.076    -0.071 -0.0372  0.9993 -0.0036
              Bcc     0.0018     0.939     0.335     0.313  0.1147  0.0079  0.9934
 
              Baa    -0.0007    -0.397    -0.142    -0.133 -0.4692  0.8809  0.0625
    25 H(1)   Bbb    -0.0003    -0.153    -0.055    -0.051  0.6968  0.4127 -0.5866
              Bcc     0.0010     0.551     0.197     0.184  0.5426  0.2317  0.8074
 
              Baa    -0.0016    -0.878    -0.313    -0.293 -0.2930  0.7563 -0.5850
    26 H(1)   Bbb    -0.0006    -0.318    -0.114    -0.106 -0.5350  0.3774  0.7559
              Bcc     0.0022     1.196     0.427     0.399  0.7924  0.5345  0.2941
 
              Baa    -0.0054    -2.861    -1.021    -0.954  0.9093 -0.3913 -0.1413
    27 H(1)   Bbb    -0.0028    -1.502    -0.536    -0.501 -0.1284 -0.5869  0.7994
              Bcc     0.0082     4.363     1.557     1.455  0.3957  0.7088  0.5839
 
              Baa    -0.0013    -0.695    -0.248    -0.232  0.9982  0.0200  0.0570
    28 H(1)   Bbb    -0.0009    -0.484    -0.173    -0.161 -0.0432 -0.4243  0.9045
              Bcc     0.0022     1.179     0.421     0.393 -0.0423  0.9053  0.4227
 
              Baa    -0.0017    -0.902    -0.322    -0.301  0.3555 -0.2217  0.9080
    29 H(1)   Bbb    -0.0004    -0.203    -0.072    -0.068  0.9299 -0.0146 -0.3676
              Bcc     0.0021     1.105     0.394     0.368  0.0947  0.9750  0.2010
 
              Baa    -0.0008    -0.452    -0.161    -0.151 -0.6812 -0.0867  0.7269
    30 H(1)   Bbb    -0.0002    -0.122    -0.043    -0.041  0.6795  0.2947  0.6719
              Bcc     0.0011     0.573     0.205     0.191 -0.2725  0.9516 -0.1419
 
              Baa    -0.0019    -1.038    -0.370    -0.346  0.6581  0.6709 -0.3418
    31 H(1)   Bbb    -0.0005    -0.279    -0.100    -0.093 -0.1595  0.5679  0.8075
              Bcc     0.0025     1.317     0.470     0.439  0.7359 -0.4769  0.4807
 
              Baa    -0.0060    -3.178    -1.134    -1.060 -0.0435 -0.1530  0.9873
    32 H(1)   Bbb    -0.0027    -1.416    -0.505    -0.472  0.6971  0.7032  0.1397
              Bcc     0.0086     4.594     1.639     1.532  0.7157 -0.6943 -0.0761
 
              Baa    -0.0013    -0.699    -0.249    -0.233  0.3612 -0.3369  0.8695
    33 H(1)   Bbb    -0.0009    -0.484    -0.173    -0.161  0.4964  0.8588  0.1265
              Bcc     0.0022     1.183     0.422     0.395  0.7894 -0.3859 -0.4775
 
              Baa    -0.0014    -0.773    -0.276    -0.258  0.1846  0.9777 -0.1001
    34 H(1)   Bbb    -0.0004    -0.217    -0.078    -0.073  0.3371  0.0327  0.9409
              Bcc     0.0019     0.990     0.353     0.330  0.9232 -0.2074 -0.3236
 
              Baa    -0.0101     0.219     0.078     0.073 -0.4260  0.6258  0.6533
    35 Ag(107 Bbb     0.0038    -0.082    -0.029    -0.027  0.2285 -0.6243  0.7470
              Bcc     0.0063    -0.137    -0.049    -0.046  0.8754  0.4675  0.1230
 

 ---------------------------------------------------------------------------------

 No NMR shielding tensors so no spin-rotation constants.
 Leave Link  601 at Sat Sep 12 02:14:43 2026, MaxMem=  6442450944 cpu:               2.0 elap:               2.1
 (Enter C:\G16W\l9999.exe)
 Unable to Open any file for archive entry.
 1|1|UNPC-DESKTOP-2JKEGCA|SP|UPBE1PBE|def2SVP|C18H15Ag1N1(2)|JHKIM|12-S
 ep-2026|0||#P PBE1PBE/Def2SVP EmpiricalDispersion=GD3BJ SP SCF=(XQC,Ma
 xCycle=128) NoSymm Guess=Read||TPA t=0.750 dz=+0.40 class=toface||0,2|
 C,0,-2.892235,-2.902243,0.856125|C,0,-1.550328,-3.244136,0.818755|C,0,
 -0.592488,-2.291023,0.532809|C,0,-0.966825,-0.970209,0.286154|N,0,0.00
 0025,-0.000036,-0.000047|C,0,1.237148,-0.031197,0.653023|C,0,1.319853,
 -0.403699,1.994633|C,0,2.543855,-0.43667,2.633678|C,0,3.700795,-0.0932
 31,1.953573|C,0,3.623838,0.281274,0.622097|C,0,2.405612,0.309797,-0.02
 8101|C,0,-0.270279,1.001344,-0.939259|C,0,0.196201,2.300966,-0.742039|
 C,0,-0.069933,3.284954,-1.674018|C,0,-0.808596,2.995527,-2.809628|C,0,
 -1.277645,1.707329,-3.008482|C,0,-1.010141,0.714471,-2.086353|C,0,-2.3
 18985,-0.630584,0.328955|C,0,-3.269818,-1.592708,0.608027|H,0,-3.63809
 9,-3.650671,1.076924|H,0,-1.24671,-4.263922,1.005046|H,0,0.45246,-2.56
 2347,0.494733|H,0,0.41802,-0.662633,2.530014|H,0,2.593126,-0.724322,3.
 673717|H,0,4.655158,-0.117258,2.457379|H,0,4.521246,0.545089,0.081807|
 H,0,2.349602,0.59285,-1.069124|H,0,0.76419,2.531619,0.147439|H,0,0.295
 028,4.28789,-1.507357|H,0,-1.017132,3.768032,-3.534168|H,0,-1.84946,1.
 470676,-3.893849|H,0,-1.368838,-0.291501,-2.248647|H,0,-2.615351,0.391
 898,0.145433|H,0,-4.313292,-1.315323,0.640753|Ag,0,0.98706108,-1.64092
 791,-2.1778865||Version=EM64W-G16RevC.01|HF=-895.261795|S2=0.751882|S2
 -1=0.|S2A=0.750003|RMSD=4.194e-009|Dipole=-0.2564971,0.4021839,0.48710
 33|Quadrupole=2.7727463,0.0123876,-2.7851339,2.9377695,3.7344504,-5.96
 8335|PG=C01 [X(C18H15Ag1N1)]||@
 The archive entry for this job was punched.


 A DANDELION FROM A LOVER MEANS MORE THAN AN ORCHID FROM A FRIEND.
 Job cpu time:       0 days  0 hours  5 minutes 57.0 seconds.
 Elapsed time:       0 days  0 hours  5 minutes 55.1 seconds.
 File lengths (MBytes):  RWF=    133 Int=      0 D2E=      0 Chk=     11 Scr=      1
 Normal termination of Gaussian 16 at Sat Sep 12 02:14:44 2026.
