 Entering Gaussian System, Link 0=C:\G16W\g16.exe
 Input=triazine_t0_z0.gjf
 Output=triazine_t0_z0.out
 Initial command:
 C:\G16W\l1.exe ".\Gau-83584.inp" "triazine_t0_z0.out" /scrdir=".\"
 Entering Link 1 = C:\G16W\l1.exe PID=     96492.
  
 Copyright (c) 1988-2019, Gaussian, Inc.  All Rights Reserved.
  
 This is part of the Gaussian(R) 16 program.  It is based on
 the Gaussian(R) 09 system (copyright 2009, Gaussian, Inc.),
 the Gaussian(R) 03 system (copyright 2003, Gaussian, Inc.),
 the Gaussian(R) 98 system (copyright 1998, Gaussian, Inc.),
 the Gaussian(R) 94 system (copyright 1995, Gaussian, Inc.),
 the Gaussian 92(TM) system (copyright 1992, Gaussian, Inc.),
 the Gaussian 90(TM) system (copyright 1990, Gaussian, Inc.),
 the Gaussian 88(TM) system (copyright 1988, Gaussian, Inc.),
 the Gaussian 86(TM) system (copyright 1986, Carnegie Mellon
 University), and the Gaussian 82(TM) system (copyright 1983,
 Carnegie Mellon University). Gaussian is a federally registered
 trademark of Gaussian, Inc.
  
 This software contains proprietary and confidential information,
 including trade secrets, belonging to Gaussian, Inc.
  
 This software is provided under written license and may be
 used, copied, transmitted, or stored only in accord with that
 written license.
  
 The following legend is applicable only to US Government
 contracts under FAR:
  
                    RESTRICTED RIGHTS LEGEND
  
 Use, reproduction and disclosure by the US Government is
 subject to restrictions as set forth in subparagraphs (a)
 and (c) of the Commercial Computer Software - Restricted
 Rights clause in FAR 52.227-19.
  
 Gaussian, Inc.
 340 Quinnipiac St., Bldg. 40, Wallingford CT 06492
  
  
 ---------------------------------------------------------------
 Warning -- This program may not be used in any manner that
 competes with the business of Gaussian, Inc. or will provide
 assistance to any competitor of Gaussian, Inc.  The licensee
 of this program is prohibited from giving any competitor of
 Gaussian, Inc. access to this program.  By using this program,
 the user acknowledges that Gaussian, Inc. is engaged in the
 business of creating and licensing software in the field of
 computational chemistry and represents and warrants to the
 licensee that it is not a competitor of Gaussian, Inc. and that
 it will not use this program in any manner prohibited above.
 ---------------------------------------------------------------
  

 Cite this work as:
 Gaussian 16, Revision C.01,
 M. J. Frisch, G. W. Trucks, H. B. Schlegel, G. E. Scuseria, 
 M. A. Robb, J. R. Cheeseman, G. Scalmani, V. Barone, 
 G. A. Petersson, H. Nakatsuji, X. Li, M. Caricato, A. V. Marenich, 
 J. Bloino, B. G. Janesko, R. Gomperts, B. Mennucci, H. P. Hratchian, 
 J. V. Ortiz, A. F. Izmaylov, J. L. Sonnenberg, D. Williams-Young, 
 F. Ding, F. Lipparini, F. Egidi, J. Goings, B. Peng, A. Petrone, 
 T. Henderson, D. Ranasinghe, V. G. Zakrzewski, J. Gao, N. Rega, 
 G. Zheng, W. Liang, M. Hada, M. Ehara, K. Toyota, R. Fukuda, 
 J. Hasegawa, M. Ishida, T. Nakajima, Y. Honda, O. Kitao, H. Nakai, 
 T. Vreven, K. Throssell, J. A. Montgomery, Jr., J. E. Peralta, 
 F. Ogliaro, M. J. Bearpark, J. J. Heyd, E. N. Brothers, K. N. Kudin, 
 V. N. Staroverov, T. A. Keith, R. Kobayashi, J. Normand, 
 K. Raghavachari, A. P. Rendell, J. C. Burant, S. S. Iyengar, 
 J. Tomasi, M. Cossi, J. M. Millam, M. Klene, C. Adamo, R. Cammi, 
 J. W. Ochterski, R. L. Martin, K. Morokuma, O. Farkas, 
 J. B. Foresman, and D. J. Fox, Gaussian, Inc., Wallingford CT, 2019.
 
 ******************************************
 Gaussian 16:  EM64W-G16RevC.01 30-May-2019
                12-Sep-2026 
 ******************************************
 %Chk=triazine.chk
 %NProcShared=8
 Will use up to    8 processors via shared memory.
 %Mem=48GB
 ----------------------------------------------------------------------
 #P PBE1PBE/Def2SVP EmpiricalDispersion=GD3BJ SP SCF=(XQC,MaxCycle=128,
 VShift=300) NoSymm
 ----------------------------------------------------------------------
 1/38=1,172=1/1;
 2/12=2,15=1,17=6,18=5,40=1/2;
 3/5=43,7=101,11=2,25=1,30=1,74=-13,124=41/1,2,3;
 4//1;
 5/5=2,7=128,8=3,10=300,13=1,38=5/2,8;
 6/7=2,8=2,9=2,10=2,28=1/1;
 99/5=1,9=1/99;
 Leave Link    1 at Sat Sep 12 02:18:35 2026, MaxMem=  6442450944 cpu:               0.0 elap:               0.2
 (Enter C:\G16W\l101.exe)
 -----------------------------------------
 triazine t=0.000 dz=+0.00 class=site2site
 -----------------------------------------
 Symbolic Z-matrix:
 Charge =  0 Multiplicity = 2
 C                     1.16373  -0.53933   0.33693 
 N                     0.08012  -1.38487   0.41799 
 C                    -1.09464  -0.72249   0.14066 
 N                    -1.2049    0.51756  -0.21774 
 C                    -0.06794   1.21988  -0.30915 
 N                     1.134     0.70726  -0.01448 
 H                     2.12252  -0.96013   0.62338 
 H                    -2.0085   -1.29517   0.26436 
 H                    -0.12478   2.25054  -0.61702 
 Ag                    0.33422  -3.5105   -0.52227 
 
 ITRead=  0  0  0  0  0  0  0  0  0  0
 MicOpt= -1 -1 -1 -1 -1 -1 -1 -1 -1 -1
 NAtoms=     10 NQM=       10 NQMF=       0 NMMI=      0 NMMIF=      0
                NMic=       0 NMicF=      0.
                    Isotopes and Nuclear Properties:
 (Nuclear quadrupole moments (NQMom) in fm**2, nuclear magnetic moments (NMagM)
  in nuclear magnetons)

  Atom         1           2           3           4           5           6           7           8           9          10
 IAtWgt=          12          14          12          14          12          14           1           1           1         107
 AtmWgt=  12.0000000  14.0030740  12.0000000  14.0030740  12.0000000  14.0030740   1.0078250   1.0078250   1.0078250 106.9050900
 NucSpn=           0           2           0           2           0           2           1           1           1           1
 AtZEff=   0.0000000   0.0000000   0.0000000   0.0000000   0.0000000   0.0000000   0.0000000   0.0000000   0.0000000   0.0000000
 NQMom=    0.0000000   2.0440000   0.0000000   2.0440000   0.0000000   2.0440000   0.0000000   0.0000000   0.0000000   0.0000000
 NMagM=    0.0000000   0.4037610   0.0000000   0.4037610   0.0000000   0.4037610   2.7928460   2.7928460   2.7928460  -0.1135700
 AtZNuc=   6.0000000   7.0000000   6.0000000   7.0000000   6.0000000   7.0000000   1.0000000   1.0000000   1.0000000  47.0000000
 Leave Link  101 at Sat Sep 12 02:18:36 2026, MaxMem=  6442450944 cpu:               1.0 elap:               0.4
 (Enter C:\G16W\l202.exe)
                          Input orientation:                          
 ---------------------------------------------------------------------
 Center     Atomic      Atomic             Coordinates (Angstroms)
 Number     Number       Type             X           Y           Z
 ---------------------------------------------------------------------
      1          6           0        1.163725   -0.539330    0.336926
      2          7           0        0.080119   -1.384869    0.417988
      3          6           0       -1.094636   -0.722492    0.140658
      4          7           0       -1.204901    0.517564   -0.217739
      5          6           0       -0.067942    1.219881   -0.309152
      6          7           0        1.133995    0.707257   -0.014477
      7          1           0        2.122520   -0.960126    0.623375
      8          1           0       -2.008502   -1.295170    0.264357
      9          1           0       -0.124779    2.250539   -0.617015
     10         47           0        0.334218   -3.510499   -0.522268
 ---------------------------------------------------------------------
                    Distance matrix (angstroms):
                    1          2          3          4          5
     1  C    0.000000
     2  N    1.376848   0.000000
     3  C    2.274261   1.376846   0.000000
     4  N    2.652370   2.382158   1.295510   0.000000
     5  C    2.242598   2.708390   2.242597   1.339508   0.000000
     6  N    1.295510   2.382157   2.652366   2.355363   1.339503
     7  H    1.085546   2.096185   3.261837   3.736679   3.228027
     8  H    3.261838   2.096184   1.085547   2.040636   3.228028
     9  H    3.217703   3.785420   3.217702   2.080694   1.077156
    10  Ag   3.202209   2.338151   3.202199   4.322837   4.752225
                    6          7          8          9         10
     6  N    0.000000
     7  H    2.040638   0.000000
     8  H    3.736676   4.160107   0.000000
     9  H    2.080693   4.110631   4.110630   0.000000
    10  Ag   4.322842   3.318874   3.318855   5.780070   0.000000
 Symmetry turned off by external request.
 Stoichiometry    C3H3AgN3(2)
 Framework group  C1[X(C3H3AgN3)]
 Deg. of freedom    24
 Full point group                 C1      NOp   1
 Rotational constants (GHZ):           5.5214956           0.7700824           0.7000377
 Leave Link  202 at Sat Sep 12 02:18:36 2026, MaxMem=  6442450944 cpu:               0.0 elap:               0.1
 (Enter C:\G16W\l301.exe)
 Standard basis: def2SVP (5D, 7F)
 Ernie: Thresh=  0.10000D-02 Tol=  0.10000D-05 Strict=F.
   130 basis functions,   236 primitive gaussians,   141 cartesian basis functions
    31 alpha electrons       30 beta electrons
       nuclear repulsion energy       332.4802599174 Hartrees.
 IExCor= 1009 DFT=T Ex+Corr=PBE1PBE ExCW=0 ScaHFX=  0.250000
 ScaDFX=  0.750000  0.750000  1.000000  1.000000 ScalE2=  1.000000  1.000000
 IRadAn=      5 IRanWt=     -1 IRanGd=            0 ICorTp=0 IEmpDi=141
 NAtoms=   10 NActive=   10 NUniq=   10 SFac= 1.00D+00 NAtFMM=   60 NAOKFM=F Big=F
 Integral buffers will be    131072 words long.
 Raffenetti 2 integral format.
 Two-electron integral symmetry is turned off.
 R6Disp:  Grimme-D3(BJ) Dispersion energy=       -0.0095384751 Hartrees.
 Nuclear repulsion after empirical dispersion term =      332.4707214424 Hartrees.
 Leave Link  301 at Sat Sep 12 02:18:36 2026, MaxMem=  6442450944 cpu:               0.0 elap:               0.2
 (Enter C:\G16W\l302.exe)
 NPDir=0 NMtPBC=     1 NCelOv=     1 NCel=       1 NClECP=     1 NCelD=      1
         NCelK=      1 NCelE2=     1 NClLst=     1 CellRange=     0.0.
 One-electron integrals computed using PRISM.
   1 Symmetry operations used in ECPInt.
 ECPInt:  NShTT=    1596 NPrTT=    5773 LenC2=    1583 LenP2D=    4764.
 LDataN:  DoStor=T MaxTD1= 7 Len=  274
 NBasis=   130 RedAO= T EigKep=  5.19D-03  NBF=   130
 NBsUse=   130 1.00D-06 EigRej= -1.00D+00 NBFU=   130
 Precomputing XC quadrature grid using
 IXCGrd= 4 IRadAn=           5 IRanWt=          -1 IRanGd=           0 AccXCQ= 0.00D+00.
 Defaulting to unpruned grid for atomic number  47.
 Generated NRdTot=       0 NPtTot=           0 NUsed=           0 NTot=          32
 NSgBfM=   141   141   141   141   141 MxSgAt=    10 MxSgA2=    10.
 Leave Link  302 at Sat Sep 12 02:18:39 2026, MaxMem=  6442450944 cpu:               3.0 elap:               3.1
 (Enter C:\G16W\l303.exe)
 DipDrv:  MaxL=1.
 Leave Link  303 at Sat Sep 12 02:18:40 2026, MaxMem=  6442450944 cpu:               0.0 elap:               0.2
 (Enter C:\G16W\l401.exe)
 ExpMin= 3.75D-02 ExpMax= 1.71D+03 ExpMxC= 2.58D+02 IAcc=3 IRadAn=         5 AccDes= 0.00D+00
 Harris functional with IExCor= 1009 and IRadAn=       5 diagonalized for initial guess.
 HarFok:  IExCor= 1009 AccDes= 0.00D+00 IRadAn=         5 IDoV= 1 UseB2=F ITyADJ=14
 ICtDFT=  3500011 ScaDFX=  1.000000  1.000000  1.000000  1.000000
 Defaulting to unpruned grid for atomic number  47.
 FoFCou: FMM=F IPFlag=           0 FMFlag=      100000 FMFlg1=           0
         NFxFlg=           0 DoJE=T BraDBF=F KetDBF=T FulRan=T
         wScrn=  0.000000 ICntrl=       500 IOpCl=  0 I1Cent=   200000004 NGrid=           0
         NMat0=    1 NMatS0=      1 NMatT0=    0 NMatD0=    1 NMtDS0=    0 NMtDT0=    0
 Symmetry not used in FoFCou.
 Harris En= -427.128826979816    
 JPrj=0 DoOrth=F DoCkMO=F.
 Initial guess <Sx>= 0.0000 <Sy>= 0.0000 <Sz>= 0.5000 <S**2>= 0.7500 S= 0.5000
 Leave Link  401 at Sat Sep 12 02:18:44 2026, MaxMem=  6442450944 cpu:               4.0 elap:               4.0
 (Enter C:\G16W\l502.exe)
 Keep R1 and R2 ints in memory in canonical form, NReq=80259957.
 FoFCou: FMM=F IPFlag=           0 FMFlag=           0 FMFlg1=           0
         NFxFlg=           0 DoJE=F BraDBF=F KetDBF=F FulRan=T
         wScrn=  0.000000 ICntrl=       600 IOpCl=  0 I1Cent=           0 NGrid=           0
         NMat0=    1 NMatS0=   8515 NMatT0=    0 NMatD0=    1 NMtDS0=    0 NMtDT0=    0
 Symmetry not used in FoFCou.
 Two-electron integral symmetry not used.
 UHF open shell SCF:
 Using DIIS extrapolation, IDIIS=  1040.
 NGot=  6442450944 LenX=  6369894923 LenY=  6369874601
 Requested convergence on RMS density matrix=1.00D-08 within 128 cycles.
 Requested convergence on MAX density matrix=1.00D-06.
 Requested convergence on             energy=1.00D-06.
 Virtual orbitals will be shifted by   0.300 hartree.
 No special actions if energy rises.

 Cycle   1  Pass 1  IDiag  1:
 Defaulting to unpruned grid for atomic number  47.
 Defaulting to unpruned grid for atomic number  47.
 Defaulting to unpruned grid for atomic number  47.
 Defaulting to unpruned grid for atomic number  47.
 Defaulting to unpruned grid for atomic number  47.
 Defaulting to unpruned grid for atomic number  47.
 Defaulting to unpruned grid for atomic number  47.
 Defaulting to unpruned grid for atomic number  47.
 E= -426.570695674815    
 DIIS: error= 4.54D-02 at cycle   1 NSaved=   1.
 NSaved= 1 IEnMin= 1 EnMin= -426.570695674815     IErMin= 1 ErrMin= 4.54D-02
 ErrMax= 4.54D-02  0.00D+00 EMaxC= 1.00D-01 BMatC= 6.90D-01 BMatP= 6.90D-01
 IDIUse=3 WtCom= 5.46D-01 WtEn= 4.54D-01
 Coeff-Com:  0.100D+01
 Coeff-En:   0.100D+01
 Coeff:      0.100D+01
 Gap=    -0.062 Goal=   None    Shift=    0.300
 Gap=     0.520 Goal=   None    Shift=    0.300
 GapD=   -0.062 DampG=0.250 DampE=0.250 DampFc=0.1250 IDamp=-1.
 Damping current iteration by 1.25D-01
 RMSDP=5.92D-03 MaxDP=3.58D-01              OVMax= 3.23D-01

 Cycle   2  Pass 1  IDiag  1:
 E= -426.616219551380     Delta-E=       -0.045523876565 Rises=F Damp=T
 DIIS: error= 3.54D-02 at cycle   2 NSaved=   2.
 NSaved= 2 IEnMin= 2 EnMin= -426.616219551380     IErMin= 2 ErrMin= 3.54D-02
 ErrMax= 3.54D-02  0.00D+00 EMaxC= 1.00D-01 BMatC= 4.31D-01 BMatP= 6.90D-01
 IDIUse=3 WtCom= 6.46D-01 WtEn= 3.54D-01
 Coeff-Com: -0.355D+01 0.455D+01
 Coeff-En:   0.000D+00 0.100D+01
 Coeff:     -0.229D+01 0.329D+01
 Gap=     0.073 Goal=   None    Shift=    0.300
 Gap=     0.082 Goal=   None    Shift=    0.300
 RMSDP=5.32D-03 MaxDP=3.68D-01 DE=-4.55D-02 OVMax= 1.25D-01

 Cycle   3  Pass 1  IDiag  1:
 E= -426.722641003748     Delta-E=       -0.106421452368 Rises=F Damp=F
 DIIS: error= 2.23D-02 at cycle   3 NSaved=   3.
 NSaved= 3 IEnMin= 3 EnMin= -426.722641003748     IErMin= 3 ErrMin= 2.23D-02
 ErrMax= 2.23D-02  0.00D+00 EMaxC= 1.00D-01 BMatC= 1.77D-01 BMatP= 4.31D-01
 IDIUse=3 WtCom= 7.77D-01 WtEn= 2.23D-01
 EnCoef did   100 forward-backward iterations
 Coeff-Com:  0.178D+00 0.176D+00 0.646D+00
 Coeff-En:   0.201D+00 0.104D-02 0.798D+00
 Coeff:      0.183D+00 0.137D+00 0.680D+00
 Gap=     0.066 Goal=   None    Shift=    0.300
 Gap=     0.185 Goal=   None    Shift=    0.300
 RMSDP=1.54D-03 MaxDP=7.86D-02 DE=-1.06D-01 OVMax= 4.07D-02

 Cycle   4  Pass 1  IDiag  1:
 E= -426.767111586976     Delta-E=       -0.044470583228 Rises=F Damp=F
 DIIS: error= 5.55D-03 at cycle   4 NSaved=   4.
 NSaved= 4 IEnMin= 4 EnMin= -426.767111586976     IErMin= 4 ErrMin= 5.55D-03
 ErrMax= 5.55D-03  0.00D+00 EMaxC= 1.00D-01 BMatC= 1.19D-02 BMatP= 1.77D-01
 IDIUse=3 WtCom= 9.45D-01 WtEn= 5.55D-02
 Coeff-Com: -0.127D+01 0.153D+01-0.416D+00 0.116D+01
 Coeff-En:   0.000D+00 0.000D+00 0.000D+00 0.100D+01
 Coeff:     -0.120D+01 0.145D+01-0.393D+00 0.115D+01
 Gap=     0.066 Goal=   None    Shift=    0.300
 Gap=     0.195 Goal=   None    Shift=    0.300
 RMSDP=7.06D-04 MaxDP=4.84D-02 DE=-4.45D-02 OVMax= 3.00D-02

 Cycle   5  Pass 1  IDiag  1:
 E= -426.771984619383     Delta-E=       -0.004873032407 Rises=F Damp=F
 DIIS: error= 2.48D-03 at cycle   5 NSaved=   5.
 NSaved= 5 IEnMin= 5 EnMin= -426.771984619383     IErMin= 5 ErrMin= 2.48D-03
 ErrMax= 2.48D-03  0.00D+00 EMaxC= 1.00D-01 BMatC= 2.53D-03 BMatP= 1.19D-02
 IDIUse=3 WtCom= 9.75D-01 WtEn= 2.48D-02
 Coeff-Com: -0.140D+00 0.149D+00-0.108D+00-0.340D+00 0.144D+01
 Coeff-En:   0.000D+00 0.000D+00 0.000D+00 0.000D+00 0.100D+01
 Coeff:     -0.136D+00 0.146D+00-0.106D+00-0.331D+00 0.143D+01
 Gap=     0.068 Goal=   None    Shift=    0.300
 Gap=     0.205 Goal=   None    Shift=    0.300
 RMSDP=4.77D-04 MaxDP=2.88D-02 DE=-4.87D-03 OVMax= 2.69D-02

 Cycle   6  Pass 1  IDiag  1:
 E= -426.773711993448     Delta-E=       -0.001727374064 Rises=F Damp=F
 DIIS: error= 1.17D-03 at cycle   6 NSaved=   6.
 NSaved= 6 IEnMin= 6 EnMin= -426.773711993448     IErMin= 6 ErrMin= 1.17D-03
 ErrMax= 1.17D-03  0.00D+00 EMaxC= 1.00D-01 BMatC= 5.42D-04 BMatP= 2.53D-03
 IDIUse=3 WtCom= 9.88D-01 WtEn= 1.17D-02
 Coeff-Com:  0.145D+00-0.182D+00 0.260D-01-0.402D+00 0.452D+00 0.960D+00
 Coeff-En:   0.000D+00 0.000D+00 0.000D+00 0.000D+00 0.000D+00 0.100D+01
 Coeff:      0.143D+00-0.180D+00 0.257D-01-0.397D+00 0.447D+00 0.961D+00
 Gap=     0.070 Goal=   None    Shift=    0.300
 Gap=     0.205 Goal=   None    Shift=    0.300
 RMSDP=3.01D-04 MaxDP=1.36D-02 DE=-1.73D-03 OVMax= 2.43D-02

 Cycle   7  Pass 1  IDiag  1:
 E= -426.774424870513     Delta-E=       -0.000712877065 Rises=F Damp=F
 DIIS: error= 1.06D-03 at cycle   7 NSaved=   7.
 NSaved= 7 IEnMin= 7 EnMin= -426.774424870513     IErMin= 7 ErrMin= 1.06D-03
 ErrMax= 1.06D-03  0.00D+00 EMaxC= 1.00D-01 BMatC= 2.02D-04 BMatP= 5.42D-04
 IDIUse=3 WtCom= 9.89D-01 WtEn= 1.06D-02
 Coeff-Com:  0.769D-01-0.941D-01 0.509D-01-0.190D-01-0.506D+00 0.482D-01
 Coeff-Com:  0.144D+01
 Coeff-En:   0.000D+00 0.000D+00 0.000D+00 0.000D+00 0.000D+00 0.000D+00
 Coeff-En:   0.100D+01
 Coeff:      0.761D-01-0.932D-01 0.504D-01-0.188D-01-0.501D+00 0.477D-01
 Coeff:      0.144D+01
 Gap=     0.071 Goal=   None    Shift=    0.300
 Gap=     0.206 Goal=   None    Shift=    0.300
 RMSDP=2.32D-04 MaxDP=1.03D-02 DE=-7.13D-04 OVMax= 2.25D-02

 Cycle   8  Pass 1  IDiag  1:
 E= -426.774863717518     Delta-E=       -0.000438847005 Rises=F Damp=F
 DIIS: error= 9.33D-04 at cycle   8 NSaved=   8.
 NSaved= 8 IEnMin= 8 EnMin= -426.774863717518     IErMin= 8 ErrMin= 9.33D-04
 ErrMax= 9.33D-04  0.00D+00 EMaxC= 1.00D-01 BMatC= 1.16D-04 BMatP= 2.02D-04
 IDIUse=3 WtCom= 9.91D-01 WtEn= 9.33D-03
 Coeff-Com:  0.969D-01-0.116D+00 0.339D-01 0.674D-01-0.299D+00-0.383D+00
 Coeff-Com:  0.195D-01 0.158D+01
 Coeff-En:   0.000D+00 0.000D+00 0.000D+00 0.000D+00 0.000D+00 0.000D+00
 Coeff-En:   0.000D+00 0.100D+01
 Coeff:      0.960D-01-0.115D+00 0.336D-01 0.668D-01-0.296D+00-0.380D+00
 Coeff:      0.193D-01 0.158D+01
 Gap=     0.071 Goal=   None    Shift=    0.300
 Gap=     0.208 Goal=   None    Shift=    0.300
 RMSDP=1.94D-04 MaxDP=8.45D-03 DE=-4.39D-04 OVMax= 1.96D-02

 Cycle   9  Pass 1  IDiag  1:
 E= -426.775155366657     Delta-E=       -0.000291649139 Rises=F Damp=F
 DIIS: error= 8.02D-04 at cycle   9 NSaved=   9.
 NSaved= 9 IEnMin= 9 EnMin= -426.775155366657     IErMin= 9 ErrMin= 8.02D-04
 ErrMax= 8.02D-04  0.00D+00 EMaxC= 1.00D-01 BMatC= 8.56D-05 BMatP= 1.16D-04
 IDIUse=3 WtCom= 9.92D-01 WtEn= 8.02D-03
 Coeff-Com:  0.104D+00-0.121D+00 0.178D-01 0.441D-01 0.116D+00-0.470D+00
 Coeff-Com: -0.946D+00 0.100D+01 0.125D+01
 Coeff-En:   0.000D+00 0.000D+00 0.000D+00 0.000D+00 0.000D+00 0.000D+00
 Coeff-En:   0.000D+00 0.000D+00 0.100D+01
 Coeff:      0.103D+00-0.120D+00 0.177D-01 0.438D-01 0.115D+00-0.466D+00
 Coeff:     -0.938D+00 0.995D+00 0.125D+01
 Gap=     0.070 Goal=   None    Shift=    0.300
 Gap=     0.209 Goal=   None    Shift=    0.300
 RMSDP=1.62D-04 MaxDP=6.90D-03 DE=-2.92D-04 OVMax= 1.71D-02

 Cycle  10  Pass 1  IDiag  1:
 E= -426.775352167422     Delta-E=       -0.000196800765 Rises=F Damp=F
 DIIS: error= 7.42D-04 at cycle  10 NSaved=  10.
 NSaved=10 IEnMin=10 EnMin= -426.775352167422     IErMin=10 ErrMin= 7.42D-04
 ErrMax= 7.42D-04  0.00D+00 EMaxC= 1.00D-01 BMatC= 7.20D-05 BMatP= 8.56D-05
 IDIUse=3 WtCom= 9.93D-01 WtEn= 7.42D-03
 Coeff-Com:  0.674D-01-0.818D-01 0.167D-01-0.636D-01 0.384D+00-0.159D+00
 Coeff-Com: -0.507D+00-0.449D+00-0.835D+00 0.263D+01
 Coeff-En:   0.000D+00 0.000D+00 0.000D+00 0.000D+00 0.000D+00 0.000D+00
 Coeff-En:   0.000D+00 0.000D+00 0.000D+00 0.100D+01
 Coeff:      0.669D-01-0.812D-01 0.166D-01-0.631D-01 0.382D+00-0.158D+00
 Coeff:     -0.503D+00-0.446D+00-0.829D+00 0.261D+01
 Gap=     0.070 Goal=   None    Shift=    0.300
 Gap=     0.206 Goal=   None    Shift=    0.300
 RMSDP=1.40D-04 MaxDP=5.54D-03 DE=-1.97D-04 OVMax= 1.52D-02

 Cycle  11  Pass 1  IDiag  1:
 E= -426.775487963196     Delta-E=       -0.000135795774 Rises=F Damp=F
 DIIS: error= 7.13D-04 at cycle  11 NSaved=  11.
 NSaved=11 IEnMin=11 EnMin= -426.775487963196     IErMin=11 ErrMin= 7.13D-04
 ErrMax= 7.13D-04  0.00D+00 EMaxC= 1.00D-01 BMatC= 7.84D-05 BMatP= 7.20D-05
 IDIUse=3 WtCom= 9.93D-01 WtEn= 7.13D-03
 Coeff-Com:  0.678D-01-0.824D-01 0.165D-01-0.701D-01 0.406D+00-0.165D+00
 Coeff-Com: -0.543D+00-0.477D+00-0.824D+00 0.282D+01-0.153D+00
 Coeff-En:   0.000D+00 0.000D+00 0.000D+00 0.000D+00 0.000D+00 0.000D+00
 Coeff-En:   0.000D+00 0.000D+00 0.000D+00 0.000D+00 0.100D+01
 Coeff:      0.673D-01-0.818D-01 0.164D-01-0.696D-01 0.403D+00-0.164D+00
 Coeff:     -0.539D+00-0.474D+00-0.818D+00 0.280D+01-0.145D+00
 Gap=     0.070 Goal=   None    Shift=    0.300
 Gap=     0.206 Goal=   None    Shift=    0.300
 RMSDP=1.03D-04 MaxDP=3.90D-03 DE=-1.36D-04 OVMax= 1.21D-02

 Cycle  12  Pass 1  IDiag  1:
 E= -426.775583612994     Delta-E=       -0.000095649798 Rises=F Damp=F
 DIIS: error= 5.99D-04 at cycle  12 NSaved=  12.
 NSaved=12 IEnMin=12 EnMin= -426.775583612994     IErMin=12 ErrMin= 5.99D-04
 ErrMax= 5.99D-04  0.00D+00 EMaxC= 1.00D-01 BMatC= 5.36D-05 BMatP= 7.20D-05
 IDIUse=3 WtCom= 9.94D-01 WtEn= 5.99D-03
 Coeff-Com:  0.442D-01-0.551D-01 0.836D-02-0.642D-01 0.194D+00 0.799D-01
 Coeff-Com: -0.188D+00-0.239D+00-0.362D+00 0.525D+00-0.244D+01 0.349D+01
 Coeff-En:   0.000D+00 0.000D+00 0.000D+00 0.000D+00 0.000D+00 0.000D+00
 Coeff-En:   0.000D+00 0.000D+00 0.000D+00 0.000D+00 0.000D+00 0.100D+01
 Coeff:      0.440D-01-0.548D-01 0.831D-02-0.638D-01 0.193D+00 0.795D-01
 Coeff:     -0.187D+00-0.237D+00-0.360D+00 0.522D+00-0.242D+01 0.348D+01
 Gap=     0.070 Goal=   None    Shift=    0.300
 Gap=     0.204 Goal=   None    Shift=    0.300
 RMSDP=1.02D-04 MaxDP=3.77D-03 DE=-9.56D-05 OVMax= 1.13D-02

 Cycle  13  Pass 1  IDiag  1:
 E= -426.775651096765     Delta-E=       -0.000067483771 Rises=F Damp=F
 DIIS: error= 5.80D-04 at cycle  13 NSaved=  13.
 NSaved=13 IEnMin=13 EnMin= -426.775651096765     IErMin=13 ErrMin= 5.80D-04
 ErrMax= 5.80D-04  0.00D+00 EMaxC= 1.00D-01 BMatC= 6.60D-05 BMatP= 5.36D-05
 IDIUse=3 WtCom= 9.94D-01 WtEn= 5.99D-03
 Coeff-Com:  0.326D-01-0.396D-01 0.599D-02-0.295D-01 0.410D-01 0.777D-01
 Coeff-Com: -0.168D-02 0.406D-01 0.953D-01 0.282D-01-0.422D+01 0.361D+01
 Coeff-Com:  0.136D+01
 Coeff-En:   0.000D+00 0.000D+00 0.000D+00 0.000D+00 0.000D+00 0.000D+00
 Coeff-En:   0.000D+00 0.000D+00 0.000D+00 0.000D+00 0.000D+00 0.000D+00
 Coeff-En:   0.100D+01
 Coeff:      0.324D-01-0.394D-01 0.595D-02-0.294D-01 0.407D-01 0.773D-01
 Coeff:     -0.167D-02 0.404D-01 0.947D-01 0.280D-01-0.419D+01 0.359D+01
 Coeff:      0.136D+01
 Gap=     0.069 Goal=   None    Shift=    0.300
 Gap=     0.203 Goal=   None    Shift=    0.300
 RMSDP=8.72D-05 MaxDP=3.20D-03 DE=-6.75D-05 OVMax= 9.98D-03

 Cycle  14  Pass 1  IDiag  1:
 E= -426.775703222947     Delta-E=       -0.000052126182 Rises=F Damp=F
 DIIS: error= 5.18D-04 at cycle  14 NSaved=  14.
 NSaved=14 IEnMin=14 EnMin= -426.775703222947     IErMin=14 ErrMin= 5.18D-04
 ErrMax= 5.18D-04  0.00D+00 EMaxC= 1.00D-01 BMatC= 6.01D-05 BMatP= 5.36D-05
 IDIUse=3 WtCom= 9.94D-01 WtEn= 5.99D-03
 Coeff-Com:  0.237D-01-0.289D-01 0.205D-02-0.283D-01 0.119D+00-0.384D-02
 Coeff-Com: -0.695D-01-0.682D-01 0.173D-01 0.977D+00-0.409D+01 0.261D+01
 Coeff-Com:  0.588D-01 0.148D+01
 Coeff-En:   0.000D+00 0.000D+00 0.000D+00 0.000D+00 0.000D+00 0.000D+00
 Coeff-En:   0.000D+00 0.000D+00 0.000D+00 0.000D+00 0.000D+00 0.000D+00
 Coeff-En:   0.000D+00 0.100D+01
 Coeff:      0.236D-01-0.287D-01 0.204D-02-0.281D-01 0.118D+00-0.382D-02
 Coeff:     -0.691D-01-0.678D-01 0.172D-01 0.972D+00-0.407D+01 0.260D+01
 Coeff:      0.585D-01 0.148D+01
 Gap=     0.069 Goal=   None    Shift=    0.300
 Gap=     0.203 Goal=   None    Shift=    0.300
 RMSDP=7.10D-05 MaxDP=2.45D-03 DE=-5.21D-05 OVMax= 8.39D-03

 Cycle  15  Pass 1  IDiag  1:
 E= -426.775742172892     Delta-E=       -0.000038949945 Rises=F Damp=F
 DIIS: error= 4.51D-04 at cycle  15 NSaved=  15.
 NSaved=15 IEnMin=15 EnMin= -426.775742172892     IErMin=15 ErrMin= 4.51D-04
 ErrMax= 4.51D-04  0.00D+00 EMaxC= 1.00D-01 BMatC= 4.69D-05 BMatP= 5.36D-05
 IDIUse=3 WtCom= 9.95D-01 WtEn= 4.51D-03
 Coeff-Com:  0.215D-01-0.268D-01 0.191D-02-0.348D-01 0.181D+00-0.462D-01
 Coeff-Com: -0.212D+00-0.127D+00-0.975D-01 0.128D+01-0.236D+01 0.145D+01
 Coeff-Com: -0.699D+00-0.383D+00 0.205D+01
 Coeff-En:   0.000D+00 0.000D+00 0.000D+00 0.000D+00 0.000D+00 0.000D+00
 Coeff-En:   0.000D+00 0.000D+00 0.000D+00 0.000D+00 0.000D+00 0.000D+00
 Coeff-En:   0.000D+00 0.000D+00 0.100D+01
 Coeff:      0.214D-01-0.267D-01 0.190D-02-0.347D-01 0.180D+00-0.459D-01
 Coeff:     -0.211D+00-0.127D+00-0.971D-01 0.128D+01-0.235D+01 0.144D+01
 Coeff:     -0.696D+00-0.381D+00 0.205D+01
 Gap=     0.069 Goal=   None    Shift=    0.300
 Gap=     0.203 Goal=   None    Shift=    0.300
 RMSDP=5.82D-05 MaxDP=1.92D-03 DE=-3.89D-05 OVMax= 6.98D-03

 Cycle  16  Pass 1  IDiag  1:
 E= -426.775770144201     Delta-E=       -0.000027971308 Rises=F Damp=F
 DIIS: error= 3.85D-04 at cycle  16 NSaved=  16.
 NSaved=16 IEnMin=16 EnMin= -426.775770144201     IErMin=16 ErrMin= 3.85D-04
 ErrMax= 3.85D-04  0.00D+00 EMaxC= 1.00D-01 BMatC= 3.47D-05 BMatP= 4.69D-05
 IDIUse=3 WtCom= 9.96D-01 WtEn= 3.85D-03
 Coeff-Com:  0.181D-01-0.228D-01 0.262D-02-0.371D-01 0.132D+00 0.230D-01
 Coeff-Com: -0.194D+00-0.119D+00-0.885D-01 0.697D+00-0.128D+01 0.113D+01
 Coeff-Com:  0.149D+00-0.148D+01-0.452D+00 0.252D+01
 Coeff-En:   0.000D+00 0.000D+00 0.000D+00 0.000D+00 0.000D+00 0.000D+00
 Coeff-En:   0.000D+00 0.000D+00 0.000D+00 0.000D+00 0.000D+00 0.000D+00
 Coeff-En:   0.000D+00 0.000D+00 0.000D+00 0.100D+01
 Coeff:      0.180D-01-0.227D-01 0.261D-02-0.369D-01 0.132D+00 0.229D-01
 Coeff:     -0.193D+00-0.119D+00-0.881D-01 0.694D+00-0.127D+01 0.112D+01
 Coeff:      0.148D+00-0.147D+01-0.450D+00 0.251D+01
 Gap=     0.069 Goal=   None    Shift=    0.300
 Gap=     0.202 Goal=   None    Shift=    0.300
 RMSDP=4.90D-05 MaxDP=1.56D-03 DE=-2.80D-05 OVMax= 5.89D-03

 Cycle  17  Pass 1  IDiag  1:
 E= -426.775789414723     Delta-E=       -0.000019270522 Rises=F Damp=F
 DIIS: error= 3.28D-04 at cycle  17 NSaved=  17.
 NSaved=17 IEnMin=17 EnMin= -426.775789414723     IErMin=17 ErrMin= 3.28D-04
 ErrMax= 3.28D-04  0.00D+00 EMaxC= 1.00D-01 BMatC= 2.66D-05 BMatP= 3.47D-05
 IDIUse=3 WtCom= 9.97D-01 WtEn= 3.28D-03
 Coeff-Com:  0.148D-01-0.183D-01 0.251D-02-0.264D-01 0.551D-01 0.471D-01
 Coeff-Com: -0.605D-01-0.679D-01-0.384D-02 0.247D+00-0.149D+01 0.138D+01
 Coeff-Com:  0.787D+00-0.437D+00-0.223D+01 0.320D+00 0.248D+01
 Coeff-En:   0.000D+00 0.000D+00 0.000D+00 0.000D+00 0.000D+00 0.000D+00
 Coeff-En:   0.000D+00 0.000D+00 0.000D+00 0.000D+00 0.000D+00 0.000D+00
 Coeff-En:   0.000D+00 0.000D+00 0.000D+00 0.000D+00 0.100D+01
 Coeff:      0.147D-01-0.182D-01 0.250D-02-0.263D-01 0.549D-01 0.469D-01
 Coeff:     -0.603D-01-0.676D-01-0.382D-02 0.246D+00-0.149D+01 0.138D+01
 Coeff:      0.785D+00-0.435D+00-0.222D+01 0.319D+00 0.247D+01
 Gap=     0.069 Goal=   None    Shift=    0.300
 Gap=     0.202 Goal=   None    Shift=    0.300
 RMSDP=4.14D-05 MaxDP=1.29D-03 DE=-1.93D-05 OVMax= 5.00D-03

 Cycle  18  Pass 1  IDiag  1:
 E= -426.775802943598     Delta-E=       -0.000013528875 Rises=F Damp=F
 DIIS: error= 2.81D-04 at cycle  18 NSaved=  18.
 NSaved=18 IEnMin=18 EnMin= -426.775802943598     IErMin=18 ErrMin= 2.81D-04
 ErrMax= 2.81D-04  0.00D+00 EMaxC= 1.00D-01 BMatC= 2.06D-05 BMatP= 2.66D-05
 IDIUse=3 WtCom= 9.97D-01 WtEn= 2.81D-03
 Coeff-Com:  0.124D-01-0.154D-01 0.150D-02-0.188D-01 0.566D-01 0.137D-01
 Coeff-Com: -0.383D-01-0.634D-01-0.291D-01 0.367D+00-0.151D+01 0.130D+01
 Coeff-Com:  0.379D+00-0.144D-01-0.118D+01-0.564D+00 0.900D+00 0.140D+01
 Coeff-En:   0.000D+00 0.000D+00 0.000D+00 0.000D+00 0.000D+00 0.000D+00
 Coeff-En:   0.000D+00 0.000D+00 0.000D+00 0.000D+00 0.000D+00 0.000D+00
 Coeff-En:   0.000D+00 0.000D+00 0.000D+00 0.000D+00 0.000D+00 0.100D+01
 Coeff:      0.124D-01-0.153D-01 0.150D-02-0.187D-01 0.565D-01 0.136D-01
 Coeff:     -0.382D-01-0.632D-01-0.290D-01 0.366D+00-0.150D+01 0.130D+01
 Coeff:      0.378D+00-0.143D-01-0.118D+01-0.562D+00 0.897D+00 0.140D+01
 Gap=     0.069 Goal=   None    Shift=    0.300
 Gap=     0.202 Goal=   None    Shift=    0.300
 RMSDP=3.33D-05 MaxDP=1.04D-03 DE=-1.35D-05 OVMax= 4.10D-03

 Cycle  19  Pass 1  IDiag  1:
 E= -426.775812913916     Delta-E=       -0.000009970318 Rises=F Damp=F
 DIIS: error= 2.34D-04 at cycle  19 NSaved=  19.
 NSaved=19 IEnMin=19 EnMin= -426.775812913916     IErMin=19 ErrMin= 2.34D-04
 ErrMax= 2.34D-04  0.00D+00 EMaxC= 1.00D-01 BMatC= 1.40D-05 BMatP= 2.06D-05
 IDIUse=3 WtCom= 9.98D-01 WtEn= 2.34D-03
 Coeff-Com:  0.645D-02-0.829D-02 0.181D-03-0.856D-02 0.548D-01-0.227D-01
 Coeff-Com: -0.694D-01-0.152D-01-0.233D-01 0.286D+00-0.332D+00 0.986D-01
 Coeff-Com: -0.290D+00 0.808D-01 0.988D+00 0.166D+00-0.146D+01-0.354D+01
 Coeff-Com:  0.509D+01
 Coeff-En:   0.000D+00 0.000D+00 0.000D+00 0.000D+00 0.000D+00 0.000D+00
 Coeff-En:   0.000D+00 0.000D+00 0.000D+00 0.000D+00 0.000D+00 0.000D+00
 Coeff-En:   0.000D+00 0.000D+00 0.000D+00 0.000D+00 0.000D+00 0.000D+00
 Coeff-En:   0.100D+01
 Coeff:      0.643D-02-0.827D-02 0.181D-03-0.854D-02 0.547D-01-0.226D-01
 Coeff:     -0.692D-01-0.152D-01-0.233D-01 0.285D+00-0.332D+00 0.983D-01
 Coeff:     -0.289D+00 0.807D-01 0.986D+00 0.166D+00-0.146D+01-0.353D+01
 Coeff:      0.508D+01
 Gap=     0.069 Goal=   None    Shift=    0.300
 Gap=     0.202 Goal=   None    Shift=    0.300
 RMSDP=2.88D-05 MaxDP=9.08D-04 DE=-9.97D-06 OVMax= 3.52D-03

 Cycle  20  Pass 1  IDiag  1:
 E= -426.775819460547     Delta-E=       -0.000006546631 Rises=F Damp=F
 DIIS: error= 1.99D-04 at cycle  20 NSaved=  20.
 NSaved=20 IEnMin=20 EnMin= -426.775819460547     IErMin=20 ErrMin= 1.99D-04
 ErrMax= 1.99D-04  0.00D+00 EMaxC= 1.00D-01 BMatC= 1.11D-05 BMatP= 1.40D-05
 IDIUse=3 WtCom= 9.98D-01 WtEn= 1.99D-03
 Coeff-Com:  0.770D-02-0.969D-02 0.119D-02-0.182D-01 0.592D-01 0.810D-02
 Coeff-Com: -0.113D+00-0.263D-01-0.150D-01 0.297D+00-0.299D+00 0.131D+00
 Coeff-Com:  0.857D-01-0.377D+00-0.506D-01 0.105D+01 0.582D+00-0.462D+01
 Coeff-Com:  0.177D+01 0.254D+01
 Coeff-En:   0.000D+00 0.000D+00 0.000D+00 0.000D+00 0.000D+00 0.000D+00
 Coeff-En:   0.000D+00 0.000D+00 0.000D+00 0.000D+00 0.000D+00 0.000D+00
 Coeff-En:   0.000D+00 0.000D+00 0.000D+00 0.000D+00 0.000D+00 0.000D+00
 Coeff-En:   0.000D+00 0.100D+01
 Coeff:      0.769D-02-0.967D-02 0.119D-02-0.181D-01 0.590D-01 0.808D-02
 Coeff:     -0.112D+00-0.263D-01-0.150D-01 0.296D+00-0.299D+00 0.131D+00
 Coeff:      0.855D-01-0.376D+00-0.505D-01 0.105D+01 0.581D+00-0.461D+01
 Coeff:      0.177D+01 0.253D+01
 Gap=     0.069 Goal=   None    Shift=    0.300
 Gap=     0.202 Goal=   None    Shift=    0.300
 RMSDP=2.33D-05 MaxDP=7.28D-04 DE=-6.55D-06 OVMax= 2.89D-03

 Cycle  21  Pass 1  IDiag  1:
 E= -426.775824260585     Delta-E=       -0.000004800039 Rises=F Damp=F
 DIIS: error= 1.67D-04 at cycle  21 NSaved=  20.
 NSaved=20 IEnMin=20 EnMin= -426.775824260585     IErMin=20 ErrMin= 1.67D-04
 ErrMax= 1.67D-04  0.00D+00 EMaxC= 1.00D-01 BMatC= 8.19D-06 BMatP= 1.11D-05
 IDIUse=3 WtCom= 9.98D-01 WtEn= 1.67D-03
 Coeff-Com: -0.431D-03-0.182D-03-0.142D-01 0.414D-01 0.225D-01-0.534D-01
 Coeff-Com: -0.674D-01-0.499D-01 0.264D+00-0.509D+00 0.486D+00 0.389D+00
 Coeff-Com: -0.529D+00-0.114D+01 0.820D+00 0.198D+01-0.156D+01-0.187D+01
 Coeff-Com:  0.656D-01 0.272D+01
 Coeff-En:   0.000D+00 0.000D+00 0.000D+00 0.000D+00 0.000D+00 0.000D+00
 Coeff-En:   0.000D+00 0.000D+00 0.000D+00 0.000D+00 0.000D+00 0.000D+00
 Coeff-En:   0.000D+00 0.000D+00 0.000D+00 0.000D+00 0.000D+00 0.000D+00
 Coeff-En:   0.000D+00 0.100D+01
 Coeff:     -0.430D-03-0.182D-03-0.142D-01 0.414D-01 0.225D-01-0.533D-01
 Coeff:     -0.673D-01-0.498D-01 0.263D+00-0.508D+00 0.485D+00 0.388D+00
 Coeff:     -0.528D+00-0.114D+01 0.819D+00 0.198D+01-0.156D+01-0.186D+01
 Coeff:      0.655D-01 0.272D+01
 Gap=     0.069 Goal=   None    Shift=    0.300
 Gap=     0.202 Goal=   None    Shift=    0.300
 RMSDP=1.91D-05 MaxDP=6.10D-04 DE=-4.80D-06 OVMax= 2.38D-03

 Cycle  22  Pass 1  IDiag  1:
 E= -426.775827756439     Delta-E=       -0.000003495853 Rises=F Damp=F
 DIIS: error= 1.38D-04 at cycle  22 NSaved=  20.
 NSaved=20 IEnMin=20 EnMin= -426.775827756439     IErMin=20 ErrMin= 1.38D-04
 ErrMax= 1.38D-04  0.00D+00 EMaxC= 1.00D-01 BMatC= 5.62D-06 BMatP= 8.19D-06
 IDIUse=3 WtCom= 9.99D-01 WtEn= 1.38D-03
 Coeff-Com: -0.215D-03-0.542D-02 0.204D-01 0.118D-01-0.716D-02-0.587D-01
 Coeff-Com: -0.440D-01 0.159D+00-0.466D+00 0.552D+00 0.285D+00-0.276D+00
 Coeff-Com: -0.116D+01 0.225D+00 0.155D+01 0.725D+00-0.243D+01-0.141D+01
 Coeff-Com:  0.181D+01 0.152D+01
 Coeff-En:   0.000D+00 0.000D+00 0.000D+00 0.000D+00 0.000D+00 0.000D+00
 Coeff-En:   0.000D+00 0.000D+00 0.000D+00 0.000D+00 0.000D+00 0.000D+00
 Coeff-En:   0.000D+00 0.000D+00 0.000D+00 0.000D+00 0.000D+00 0.000D+00
 Coeff-En:   0.000D+00 0.100D+01
 Coeff:     -0.215D-03-0.541D-02 0.204D-01 0.118D-01-0.715D-02-0.587D-01
 Coeff:     -0.440D-01 0.159D+00-0.465D+00 0.551D+00 0.285D+00-0.276D+00
 Coeff:     -0.116D+01 0.225D+00 0.154D+01 0.724D+00-0.242D+01-0.141D+01
 Coeff:      0.181D+01 0.152D+01
 Gap=     0.069 Goal=   None    Shift=    0.300
 Gap=     0.202 Goal=   None    Shift=    0.300
 RMSDP=1.58D-05 MaxDP=5.09D-04 DE=-3.50D-06 OVMax= 1.97D-03

 Cycle  23  Pass 1  IDiag  1:
 E= -426.775830236395     Delta-E=       -0.000002479956 Rises=F Damp=F
 DIIS: error= 1.13D-04 at cycle  23 NSaved=  20.
 NSaved=20 IEnMin=20 EnMin= -426.775830236395     IErMin=20 ErrMin= 1.13D-04
 ErrMax= 1.13D-04  0.00D+00 EMaxC= 1.00D-01 BMatC= 3.74D-06 BMatP= 5.62D-06
 IDIUse=3 WtCom= 9.99D-01 WtEn= 1.13D-03
 Coeff-Com:  0.333D-03-0.264D-02 0.965D-02 0.328D-01-0.380D-01-0.473D-01
 Coeff-Com: -0.230D-02-0.164D+00 0.359D+00 0.848D-01-0.322D-01-0.661D+00
 Coeff-Com: -0.114D+00 0.430D+00 0.143D+01-0.111D+01-0.137D+01-0.186D+00
 Coeff-Com:  0.200D+00 0.219D+01
 Coeff-En:   0.000D+00 0.000D+00 0.000D+00 0.000D+00 0.000D+00 0.000D+00
 Coeff-En:   0.000D+00 0.000D+00 0.000D+00 0.000D+00 0.000D+00 0.000D+00
 Coeff-En:   0.000D+00 0.000D+00 0.000D+00 0.000D+00 0.000D+00 0.000D+00
 Coeff-En:   0.000D+00 0.100D+01
 Coeff:      0.333D-03-0.263D-02 0.964D-02 0.328D-01-0.379D-01-0.472D-01
 Coeff:     -0.230D-02-0.164D+00 0.359D+00 0.847D-01-0.322D-01-0.661D+00
 Coeff:     -0.114D+00 0.429D+00 0.142D+01-0.111D+01-0.137D+01-0.186D+00
 Coeff:      0.200D+00 0.219D+01
 Gap=     0.069 Goal=   None    Shift=    0.300
 Gap=     0.202 Goal=   None    Shift=    0.300
 RMSDP=1.32D-05 MaxDP=4.28D-04 DE=-2.48D-06 OVMax= 1.64D-03

 Cycle  24  Pass 1  IDiag  1:
 E= -426.775831931021     Delta-E=       -0.000001694626 Rises=F Damp=F
 DIIS: error= 9.30D-05 at cycle  24 NSaved=  20.
 NSaved=20 IEnMin=20 EnMin= -426.775831931021     IErMin=20 ErrMin= 9.30D-05
 ErrMax= 9.30D-05  0.00D+00 EMaxC= 1.00D-01 BMatC= 2.62D-06 BMatP= 3.74D-06
 IDIUse=1 WtCom= 1.00D+00 WtEn= 0.00D+00
 Coeff-Com: -0.331D-02 0.108D-01 0.934D-02-0.284D-02-0.180D-01-0.402D-01
 Coeff-Com: -0.737D-01 0.129D+00 0.422D-01 0.624D-01-0.144D+00-0.405D-01
 Coeff-Com: -0.486D-01-0.331D+00 0.723D+00 0.420D+00-0.807D+00-0.229D+01
 Coeff-Com:  0.123D+01 0.217D+01
 Coeff:     -0.331D-02 0.108D-01 0.934D-02-0.284D-02-0.180D-01-0.402D-01
 Coeff:     -0.737D-01 0.129D+00 0.422D-01 0.624D-01-0.144D+00-0.405D-01
 Coeff:     -0.486D-01-0.331D+00 0.723D+00 0.420D+00-0.807D+00-0.229D+01
 Coeff:      0.123D+01 0.217D+01
 Gap=     0.069 Goal=   None    Shift=    0.300
 Gap=     0.202 Goal=   None    Shift=    0.300
 RMSDP=1.08D-05 MaxDP=3.54D-04 DE=-1.69D-06 OVMax= 1.33D-03

 Cycle  25  Pass 1  IDiag  1:
 E= -426.775833063377     Delta-E=       -0.000001132355 Rises=F Damp=F
 DIIS: error= 7.66D-05 at cycle  25 NSaved=  20.
 NSaved=20 IEnMin=20 EnMin= -426.775833063377     IErMin=20 ErrMin= 7.66D-05
 ErrMax= 7.66D-05  0.00D+00 EMaxC= 1.00D-01 BMatC= 1.87D-06 BMatP= 2.62D-06
 IDIUse=1 WtCom= 1.00D+00 WtEn= 0.00D+00
 Coeff-Com:  0.250D-02-0.207D-02 0.876D-02-0.853D-02 0.650D-02-0.806D-01
 Coeff-Com:  0.656D-01 0.407D-01 0.229D-01-0.397D-01-0.468D-01 0.356D-01
 Coeff-Com: -0.785D+00 0.785D+00 0.764D+00-0.267D+00-0.198D+01-0.215D-01
 Coeff-Com:  0.112D+01 0.138D+01
 Coeff:      0.250D-02-0.207D-02 0.876D-02-0.853D-02 0.650D-02-0.806D-01
 Coeff:      0.656D-01 0.407D-01 0.229D-01-0.397D-01-0.468D-01 0.356D-01
 Coeff:     -0.785D+00 0.785D+00 0.764D+00-0.267D+00-0.198D+01-0.215D-01
 Coeff:      0.112D+01 0.138D+01
 Gap=     0.069 Goal=   None    Shift=    0.300
 Gap=     0.202 Goal=   None    Shift=    0.300
 RMSDP=8.70D-06 MaxDP=2.88D-04 DE=-1.13D-06 OVMax= 1.08D-03

 Cycle  26  Pass 1  IDiag  1:
 E= -426.775833840765     Delta-E=       -0.000000777388 Rises=F Damp=F
 DIIS: error= 6.26D-05 at cycle  26 NSaved=  20.
 NSaved=20 IEnMin=20 EnMin= -426.775833840765     IErMin=20 ErrMin= 6.26D-05
 ErrMax= 6.26D-05  0.00D+00 EMaxC= 1.00D-01 BMatC= 1.27D-06 BMatP= 1.87D-06
 IDIUse=1 WtCom= 1.00D+00 WtEn= 0.00D+00
 Coeff-Com:  0.101D-01-0.480D-02-0.853D-02-0.496D-02-0.106D+00 0.166D+00
 Coeff-Com:  0.146D+00-0.120D+00-0.455D+00 0.603D-01 0.675D+00 0.232D+00
 Coeff-Com: -0.115D+01-0.191D+00 0.670D+00 0.960D+00-0.456D+00-0.600D+00
 Coeff-Com: -0.353D+01 0.471D+01
 Coeff:      0.101D-01-0.480D-02-0.853D-02-0.496D-02-0.106D+00 0.166D+00
 Coeff:      0.146D+00-0.120D+00-0.455D+00 0.603D-01 0.675D+00 0.232D+00
 Coeff:     -0.115D+01-0.191D+00 0.670D+00 0.960D+00-0.456D+00-0.600D+00
 Coeff:     -0.353D+01 0.471D+01
 Gap=     0.069 Goal=   None    Shift=    0.300
 Gap=     0.202 Goal=   None    Shift=    0.300
 RMSDP=7.04D-06 MaxDP=2.36D-04 DE=-7.77D-07 OVMax= 8.65D-04

 Cycle  27  Pass 1  IDiag  1:
 E= -426.775834369129     Delta-E=       -0.000000528364 Rises=F Damp=F
 DIIS: error= 5.06D-05 at cycle  27 NSaved=  20.
 NSaved=20 IEnMin=20 EnMin= -426.775834369129     IErMin=20 ErrMin= 5.06D-05
 ErrMax= 5.06D-05  0.00D+00 EMaxC= 1.00D-01 BMatC= 8.46D-07 BMatP= 1.27D-06
 IDIUse=1 WtCom= 1.00D+00 WtEn= 0.00D+00
 Coeff-Com:  0.343D-02 0.594D-03-0.264D-01-0.281D-01 0.100D+00 0.127D+00
 Coeff-Com: -0.152D+00-0.390D+00 0.158D+00 0.557D+00-0.773D-01-0.733D+00
 Coeff-Com:  0.184D-01 0.428D+00 0.510D+00-0.194D+00-0.297D+00-0.283D+01
 Coeff-Com:  0.285D+01 0.973D+00
 Coeff:      0.343D-02 0.594D-03-0.264D-01-0.281D-01 0.100D+00 0.127D+00
 Coeff:     -0.152D+00-0.390D+00 0.158D+00 0.557D+00-0.773D-01-0.733D+00
 Coeff:      0.184D-01 0.428D+00 0.510D+00-0.194D+00-0.297D+00-0.283D+01
 Coeff:      0.285D+01 0.973D+00
 Gap=     0.069 Goal=   None    Shift=    0.300
 Gap=     0.202 Goal=   None    Shift=    0.300
 RMSDP=5.66D-06 MaxDP=1.90D-04 DE=-5.28D-07 OVMax= 7.05D-04

 Cycle  28  Pass 1  IDiag  1:
 E= -426.775834708706     Delta-E=       -0.000000339577 Rises=F Damp=F
 DIIS: error= 4.10D-05 at cycle  28 NSaved=  20.
 NSaved=20 IEnMin=20 EnMin= -426.775834708706     IErMin=20 ErrMin= 4.10D-05
 ErrMax= 4.10D-05  0.00D+00 EMaxC= 1.00D-01 BMatC= 5.58D-07 BMatP= 8.46D-07
 IDIUse=1 WtCom= 1.00D+00 WtEn= 0.00D+00
 Coeff-Com: -0.416D-02-0.296D-01 0.889D-01-0.319D-01-0.296D-01-0.416D-02
 Coeff-Com:  0.838D-02 0.279D-01-0.147D+00-0.142D+00 0.465D+00 0.443D-01
 Coeff-Com: -0.369D+00-0.749D+00 0.740D+00 0.662D+00 0.591D+00-0.248D+01
 Coeff-Com: -0.103D+01 0.339D+01
 Coeff:     -0.416D-02-0.296D-01 0.889D-01-0.319D-01-0.296D-01-0.416D-02
 Coeff:      0.838D-02 0.279D-01-0.147D+00-0.142D+00 0.465D+00 0.443D-01
 Coeff:     -0.369D+00-0.749D+00 0.740D+00 0.662D+00 0.591D+00-0.248D+01
 Coeff:     -0.103D+01 0.339D+01
 Gap=     0.069 Goal=   None    Shift=    0.300
 Gap=     0.202 Goal=   None    Shift=    0.300
 RMSDP=4.66D-06 MaxDP=1.56D-04 DE=-3.40D-07 OVMax= 5.80D-04

 Cycle  29  Pass 1  IDiag  1:
 E= -426.775834925979     Delta-E=       -0.000000217273 Rises=F Damp=F
 DIIS: error= 3.36D-05 at cycle  29 NSaved=  20.
 NSaved=20 IEnMin=20 EnMin= -426.775834925979     IErMin=20 ErrMin= 3.36D-05
 ErrMax= 3.36D-05  0.00D+00 EMaxC= 1.00D-01 BMatC= 3.93D-07 BMatP= 5.58D-07
 IDIUse=1 WtCom= 1.00D+00 WtEn= 0.00D+00
 Coeff-Com:  0.837D-02 0.215D-01-0.445D-01-0.572D-01 0.462D-01 0.206D+00
 Coeff-Com: -0.672D-01-0.299D+00-0.397D+00 0.838D+00 0.262D+00-0.470D+00
 Coeff-Com: -0.847D+00 0.307D+00 0.646D+00 0.144D+01-0.181D+01-0.203D+01
 Coeff-Com:  0.828D+00 0.241D+01
 Coeff:      0.837D-02 0.215D-01-0.445D-01-0.572D-01 0.462D-01 0.206D+00
 Coeff:     -0.672D-01-0.299D+00-0.397D+00 0.838D+00 0.262D+00-0.470D+00
 Coeff:     -0.847D+00 0.307D+00 0.646D+00 0.144D+01-0.181D+01-0.203D+01
 Coeff:      0.828D+00 0.241D+01
 Gap=     0.069 Goal=   None    Shift=    0.300
 Gap=     0.202 Goal=   None    Shift=    0.300
 RMSDP=3.76D-06 MaxDP=1.26D-04 DE=-2.17D-07 OVMax= 4.70D-04

 Cycle  30  Pass 1  IDiag  1:
 E= -426.775835072094     Delta-E=       -0.000000146115 Rises=F Damp=F
 DIIS: error= 2.74D-05 at cycle  30 NSaved=  20.
 NSaved=20 IEnMin=20 EnMin= -426.775835072094     IErMin=20 ErrMin= 2.74D-05
 ErrMax= 2.74D-05  0.00D+00 EMaxC= 1.00D-01 BMatC= 2.65D-07 BMatP= 3.93D-07
 IDIUse=1 WtCom= 1.00D+00 WtEn= 0.00D+00
 Coeff-Com:  0.737D-02-0.352D-02 0.818D-02-0.144D-01-0.989D-02-0.107D-01
 Coeff-Com:  0.181D-01-0.169D+00 0.223D+00 0.665D-01-0.147D+00-0.172D+00
 Coeff-Com:  0.460D-01 0.188D+00 0.326D+00-0.287D+00-0.893D+00-0.772D-01
 Coeff-Com: -0.224D+00 0.212D+01
 Coeff:      0.737D-02-0.352D-02 0.818D-02-0.144D-01-0.989D-02-0.107D-01
 Coeff:      0.181D-01-0.169D+00 0.223D+00 0.665D-01-0.147D+00-0.172D+00
 Coeff:      0.460D-01 0.188D+00 0.326D+00-0.287D+00-0.893D+00-0.772D-01
 Coeff:     -0.224D+00 0.212D+01
 Gap=     0.069 Goal=   None    Shift=    0.300
 Gap=     0.202 Goal=   None    Shift=    0.300
 RMSDP=3.05D-06 MaxDP=1.02D-04 DE=-1.46D-07 OVMax= 3.83D-04

 Cycle  31  Pass 1  IDiag  1:
 E= -426.775835167810     Delta-E=       -0.000000095715 Rises=F Damp=F
 DIIS: error= 2.23D-05 at cycle  31 NSaved=  20.
 NSaved=20 IEnMin=20 EnMin= -426.775835167810     IErMin=20 ErrMin= 2.23D-05
 ErrMax= 2.23D-05  0.00D+00 EMaxC= 1.00D-01 BMatC= 1.79D-07 BMatP= 2.65D-07
 IDIUse=1 WtCom= 1.00D+00 WtEn= 0.00D+00
 Coeff-Com:  0.776D-02 0.249D-01-0.268D-01-0.802D-01 0.246D-01 0.121D+00
 Coeff-Com: -0.140D+00 0.591D-02 0.775D-01 0.130D-01-0.474D-01-0.612D-01
 Coeff-Com:  0.383D-01-0.888D-02 0.639D-01 0.128D+00-0.261D+00-0.154D+01
 Coeff-Com:  0.928D+00 0.173D+01
 Coeff:      0.776D-02 0.249D-01-0.268D-01-0.802D-01 0.246D-01 0.121D+00
 Coeff:     -0.140D+00 0.591D-02 0.775D-01 0.130D-01-0.474D-01-0.612D-01
 Coeff:      0.383D-01-0.888D-02 0.639D-01 0.128D+00-0.261D+00-0.154D+01
 Coeff:      0.928D+00 0.173D+01
 Gap=     0.069 Goal=   None    Shift=    0.300
 Gap=     0.202 Goal=   None    Shift=    0.300
 RMSDP=2.47D-06 MaxDP=8.20D-05 DE=-9.57D-08 OVMax= 3.11D-04

 Cycle  32  Pass 1  IDiag  1:
 E= -426.775835232169     Delta-E=       -0.000000064359 Rises=F Damp=F
 DIIS: error= 1.82D-05 at cycle  32 NSaved=  20.
 NSaved=20 IEnMin=20 EnMin= -426.775835232169     IErMin=20 ErrMin= 1.82D-05
 ErrMax= 1.82D-05  0.00D+00 EMaxC= 1.00D-01 BMatC= 1.19D-07 BMatP= 1.79D-07
 IDIUse=1 WtCom= 1.00D+00 WtEn= 0.00D+00
 Coeff-Com:  0.587D-02 0.115D-02-0.258D-01 0.308D-01 0.133D-01-0.165D+00
 Coeff-Com:  0.102D+00 0.982D-01 0.197D-01-0.149D+00 0.758D-02 0.762D-01
 Coeff-Com: -0.885D-01-0.221D+00 0.600D+00 0.148D+00-0.999D+00-0.116D+01
 Coeff-Com:  0.885D+00 0.182D+01
 Coeff:      0.587D-02 0.115D-02-0.258D-01 0.308D-01 0.133D-01-0.165D+00
 Coeff:      0.102D+00 0.982D-01 0.197D-01-0.149D+00 0.758D-02 0.762D-01
 Coeff:     -0.885D-01-0.221D+00 0.600D+00 0.148D+00-0.999D+00-0.116D+01
 Coeff:      0.885D+00 0.182D+01
 Gap=     0.069 Goal=   None    Shift=    0.300
 Gap=     0.202 Goal=   None    Shift=    0.300
 RMSDP=2.02D-06 MaxDP=6.69D-05 DE=-6.44D-08 OVMax= 2.54D-04

 Cycle  33  Pass 1  IDiag  1:
 E= -426.775835274102     Delta-E=       -0.000000041934 Rises=F Damp=F
 DIIS: error= 1.48D-05 at cycle  33 NSaved=  20.
 NSaved=20 IEnMin=20 EnMin= -426.775835274102     IErMin=20 ErrMin= 1.48D-05
 ErrMax= 1.48D-05  0.00D+00 EMaxC= 1.00D-01 BMatC= 7.95D-08 BMatP= 1.19D-07
 IDIUse=1 WtCom= 1.00D+00 WtEn= 0.00D+00
 Coeff-Com:  0.369D-02-0.101D-01 0.190D-01-0.259D-01-0.425D-01 0.767D-01
 Coeff-Com:  0.195D-01-0.225D-01-0.216D+00 0.124D+00 0.170D+00 0.128D+00
 Coeff-Com: -0.469D+00-0.225D-01 0.436D+00 0.409D+00-0.125D+01-0.466D+00
 Coeff-Com: -0.485D-01 0.219D+01
 Coeff:      0.369D-02-0.101D-01 0.190D-01-0.259D-01-0.425D-01 0.767D-01
 Coeff:      0.195D-01-0.225D-01-0.216D+00 0.124D+00 0.170D+00 0.128D+00
 Coeff:     -0.469D+00-0.225D-01 0.436D+00 0.409D+00-0.125D+01-0.466D+00
 Coeff:     -0.485D-01 0.219D+01
 Gap=     0.069 Goal=   None    Shift=    0.300
 Gap=     0.202 Goal=   None    Shift=    0.300
 RMSDP=1.62D-06 MaxDP=5.38D-05 DE=-4.19D-08 OVMax= 2.04D-04

 Cycle  34  Pass 1  IDiag  1:
 E= -426.775835302381     Delta-E=       -0.000000028279 Rises=F Damp=F
 DIIS: error= 1.20D-05 at cycle  34 NSaved=  20.
 NSaved=20 IEnMin=20 EnMin= -426.775835302381     IErMin=20 ErrMin= 1.20D-05
 ErrMax= 1.20D-05  0.00D+00 EMaxC= 1.00D-01 BMatC= 5.16D-08 BMatP= 7.95D-08
 IDIUse=1 WtCom= 1.00D+00 WtEn= 0.00D+00
 Coeff-Com:  0.235D-02-0.477D-02-0.211D-01 0.123D-01 0.402D-01-0.151D-01
 Coeff-Com: -0.338D-01-0.125D+00 0.891D-01 0.110D+00 0.146D+00-0.329D+00
 Coeff-Com: -0.215D+00 0.308D+00 0.461D+00-0.393D+00-0.566D+00-0.439D+00
 Coeff-Com:  0.266D-01 0.195D+01
 Coeff:      0.235D-02-0.477D-02-0.211D-01 0.123D-01 0.402D-01-0.151D-01
 Coeff:     -0.338D-01-0.125D+00 0.891D-01 0.110D+00 0.146D+00-0.329D+00
 Coeff:     -0.215D+00 0.308D+00 0.461D+00-0.393D+00-0.566D+00-0.439D+00
 Coeff:      0.266D-01 0.195D+01
 Gap=     0.069 Goal=   None    Shift=    0.300
 Gap=     0.202 Goal=   None    Shift=    0.300
 RMSDP=1.34D-06 MaxDP=4.41D-05 DE=-2.83D-08 OVMax= 1.68D-04

 Cycle  35  Pass 1  IDiag  1:
 E= -426.775835320430     Delta-E=       -0.000000018049 Rises=F Damp=F
 DIIS: error= 9.86D-06 at cycle  35 NSaved=  20.
 NSaved=20 IEnMin=20 EnMin= -426.775835320430     IErMin=20 ErrMin= 9.86D-06
 ErrMax= 9.86D-06  0.00D+00 EMaxC= 1.00D-01 BMatC= 3.56D-08 BMatP= 5.16D-08
 IDIUse=1 WtCom= 1.00D+00 WtEn= 0.00D+00
 Coeff-Com: -0.115D-02-0.126D-01-0.144D-01 0.547D-01 0.352D-02-0.443D-01
 Coeff-Com: -0.946D-01 0.696D-01 0.798D-01 0.109D+00-0.298D+00 0.615D-02
 Coeff-Com:  0.193D+00-0.553D-02-0.976D-01-0.145D+00-0.198D+00-0.570D+00
 Coeff-Com:  0.457D+00 0.151D+01
 Coeff:     -0.115D-02-0.126D-01-0.144D-01 0.547D-01 0.352D-02-0.443D-01
 Coeff:     -0.946D-01 0.696D-01 0.798D-01 0.109D+00-0.298D+00 0.615D-02
 Coeff:      0.193D+00-0.553D-02-0.976D-01-0.145D+00-0.198D+00-0.570D+00
 Coeff:      0.457D+00 0.151D+01
 Gap=     0.069 Goal=   None    Shift=    0.300
 Gap=     0.202 Goal=   None    Shift=    0.300
 RMSDP=1.09D-06 MaxDP=3.59D-05 DE=-1.80D-08 OVMax= 1.37D-04

 Cycle  36  Pass 1  IDiag  1:
 E= -426.775835332696     Delta-E=       -0.000000012266 Rises=F Damp=F
 DIIS: error= 8.06D-06 at cycle  36 NSaved=  20.
 NSaved=20 IEnMin=20 EnMin= -426.775835332696     IErMin=20 ErrMin= 8.06D-06
 ErrMax= 8.06D-06  0.00D+00 EMaxC= 1.00D-01 BMatC= 2.39D-08 BMatP= 3.56D-08
 IDIUse=1 WtCom= 1.00D+00 WtEn= 0.00D+00
 Coeff-Com: -0.586D-02-0.282D-01 0.543D-01 0.131D-01-0.371D-01-0.518D-01
 Coeff-Com:  0.223D-01 0.456D-01 0.799D-01-0.173D+00 0.602D-01-0.103D-02
 Coeff-Com: -0.168D+00 0.200D+00 0.146D+00-0.110D+00-0.561D+00-0.725D+00
 Coeff-Com:  0.318D+00 0.192D+01
 Coeff:     -0.586D-02-0.282D-01 0.543D-01 0.131D-01-0.371D-01-0.518D-01
 Coeff:      0.223D-01 0.456D-01 0.799D-01-0.173D+00 0.602D-01-0.103D-02
 Coeff:     -0.168D+00 0.200D+00 0.146D+00-0.110D+00-0.561D+00-0.725D+00
 Coeff:      0.318D+00 0.192D+01
 Gap=     0.069 Goal=   None    Shift=    0.300
 Gap=     0.202 Goal=   None    Shift=    0.300
 RMSDP=8.90D-07 MaxDP=2.93D-05 DE=-1.23D-08 OVMax= 1.12D-04

 Cycle  37  Pass 1  IDiag  1:
 E= -426.775835340761     Delta-E=       -0.000000008065 Rises=F Damp=F
 DIIS: error= 6.62D-06 at cycle  37 NSaved=  20.
 NSaved=20 IEnMin=20 EnMin= -426.775835340761     IErMin=20 ErrMin= 6.62D-06
 ErrMax= 6.62D-06  0.00D+00 EMaxC= 1.00D-01 BMatC= 1.64D-08 BMatP= 2.39D-08
 IDIUse=1 WtCom= 1.00D+00 WtEn= 0.00D+00
 Coeff-Com: -0.158D-01 0.260D-01 0.608D-02-0.120D-01-0.820D-01 0.490D-01
 Coeff-Com:  0.667D-01 0.709D-01-0.196D+00-0.364D-01 0.162D+00 0.144D+00
 Coeff-Com: -0.336D+00-0.129D+00-0.328D-01 0.518D+00 0.255D+00-0.988D+00
 Coeff-Com: -0.182D+01 0.335D+01
 Coeff:     -0.158D-01 0.260D-01 0.608D-02-0.120D-01-0.820D-01 0.490D-01
 Coeff:      0.667D-01 0.709D-01-0.196D+00-0.364D-01 0.162D+00 0.144D+00
 Coeff:     -0.336D+00-0.129D+00-0.328D-01 0.518D+00 0.255D+00-0.988D+00
 Coeff:     -0.182D+01 0.335D+01
 Gap=     0.069 Goal=   None    Shift=    0.300
 Gap=     0.202 Goal=   None    Shift=    0.300
 RMSDP=7.17D-07 MaxDP=2.38D-05 DE=-8.06D-09 OVMax= 9.04D-05

 Cycle  38  Pass 1  IDiag  1:
 E= -426.775835346258     Delta-E=       -0.000000005497 Rises=F Damp=F
 DIIS: error= 5.38D-06 at cycle  38 NSaved=  20.
 NSaved=20 IEnMin=20 EnMin= -426.775835346258     IErMin=20 ErrMin= 5.38D-06
 ErrMax= 5.38D-06  0.00D+00 EMaxC= 1.00D-01 BMatC= 1.08D-08 BMatP= 1.64D-08
 IDIUse=1 WtCom= 1.00D+00 WtEn= 0.00D+00
 Coeff-Com:  0.169D-02-0.225D-02 0.321D-02-0.578D-01 0.415D-01 0.436D-01
 Coeff-Com:  0.371D-01-0.153D+00-0.186D-01 0.181D+00 0.186D+00-0.446D+00
 Coeff-Com: -0.231D+00 0.632D-01 0.603D+00 0.509D+00-0.760D+00-0.203D+01
 Coeff-Com:  0.111D+01 0.191D+01
 Coeff:      0.169D-02-0.225D-02 0.321D-02-0.578D-01 0.415D-01 0.436D-01
 Coeff:      0.371D-01-0.153D+00-0.186D-01 0.181D+00 0.186D+00-0.446D+00
 Coeff:     -0.231D+00 0.632D-01 0.603D+00 0.509D+00-0.760D+00-0.203D+01
 Coeff:      0.111D+01 0.191D+01
 Gap=     0.069 Goal=   None    Shift=    0.300
 Gap=     0.202 Goal=   None    Shift=    0.300
 RMSDP=5.79D-07 MaxDP=1.93D-05 DE=-5.50D-09 OVMax= 7.31D-05

 Cycle  39  Pass 1  IDiag  1:
 E= -426.775835349924     Delta-E=       -0.000000003666 Rises=F Damp=F
 DIIS: error= 4.35D-06 at cycle  39 NSaved=  20.
 NSaved=20 IEnMin=20 EnMin= -426.775835349924     IErMin=20 ErrMin= 4.35D-06
 ErrMax= 4.35D-06  0.00D+00 EMaxC= 1.00D-01 BMatC= 7.08D-09 BMatP= 1.08D-08
 IDIUse=1 WtCom= 1.00D+00 WtEn= 0.00D+00
 Coeff-Com:  0.194D-02-0.346D-02-0.141D-01 0.860D-02 0.804D-02 0.305D-01
 Coeff-Com: -0.727D-01 0.189D-01 0.393D-01 0.277D-01-0.971D-01-0.699D-01
 Coeff-Com:  0.680D-01-0.729D-01 0.792D-01 0.161D+00 0.628D-01-0.165D+01
 Coeff-Com:  0.274D+00 0.220D+01
 Coeff:      0.194D-02-0.346D-02-0.141D-01 0.860D-02 0.804D-02 0.305D-01
 Coeff:     -0.727D-01 0.189D-01 0.393D-01 0.277D-01-0.971D-01-0.699D-01
 Coeff:      0.680D-01-0.729D-01 0.792D-01 0.161D+00 0.628D-01-0.165D+01
 Coeff:      0.274D+00 0.220D+01
 Gap=     0.069 Goal=   None    Shift=    0.300
 Gap=     0.202 Goal=   None    Shift=    0.300
 RMSDP=4.62D-07 MaxDP=1.55D-05 DE=-3.67D-09 OVMax= 5.84D-05

 Cycle  40  Pass 1  IDiag  1:
 E= -426.775835352374     Delta-E=       -0.000000002450 Rises=F Damp=F
 DIIS: error= 3.50D-06 at cycle  40 NSaved=  20.
 NSaved=20 IEnMin=20 EnMin= -426.775835352374     IErMin=20 ErrMin= 3.50D-06
 ErrMax= 3.50D-06  0.00D+00 EMaxC= 1.00D-01 BMatC= 4.44D-09 BMatP= 7.08D-09
 IDIUse=1 WtCom= 1.00D+00 WtEn= 0.00D+00
 Coeff-Com: -0.217D-03 0.174D-03-0.846D-02-0.123D-02 0.264D-01-0.607D-02
 Coeff-Com: -0.502D-01-0.104D-01 0.801D-01 0.131D-01-0.626D-01-0.344D-01
 Coeff-Com: -0.173D+00 0.820D-01 0.286D+00 0.153D+00-0.631D+00-0.688D+00
 Coeff-Com: -0.318D+00 0.234D+01
 Coeff:     -0.217D-03 0.174D-03-0.846D-02-0.123D-02 0.264D-01-0.607D-02
 Coeff:     -0.502D-01-0.104D-01 0.801D-01 0.131D-01-0.626D-01-0.344D-01
 Coeff:     -0.173D+00 0.820D-01 0.286D+00 0.153D+00-0.631D+00-0.688D+00
 Coeff:     -0.318D+00 0.234D+01
 Gap=     0.069 Goal=   None    Shift=    0.300
 Gap=     0.202 Goal=   None    Shift=    0.300
 RMSDP=3.69D-07 MaxDP=1.24D-05 DE=-2.45D-09 OVMax= 4.65D-05

 Cycle  41  Pass 1  IDiag  1:
 E= -426.775835353972     Delta-E=       -0.000000001599 Rises=F Damp=F
 DIIS: error= 2.79D-06 at cycle  41 NSaved=  20.
 NSaved=20 IEnMin=20 EnMin= -426.775835353972     IErMin=20 ErrMin= 2.79D-06
 ErrMax= 2.79D-06  0.00D+00 EMaxC= 1.00D-01 BMatC= 2.75D-09 BMatP= 4.44D-09
 IDIUse=1 WtCom= 1.00D+00 WtEn= 0.00D+00
 Coeff-Com: -0.177D-02-0.409D-02 0.145D-02 0.995D-02 0.669D-02-0.364D-01
 Coeff-Com: -0.110D-01 0.525D-01-0.963D-02-0.260D-01-0.263D-01 0.424D-02
 Coeff-Com: -0.126D-01-0.178D-01-0.273D+00 0.578D+00-0.393D+00-0.833D+00
 Coeff-Com:  0.139D+00 0.185D+01
 Coeff:     -0.177D-02-0.409D-02 0.145D-02 0.995D-02 0.669D-02-0.364D-01
 Coeff:     -0.110D-01 0.525D-01-0.963D-02-0.260D-01-0.263D-01 0.424D-02
 Coeff:     -0.126D-01-0.178D-01-0.273D+00 0.578D+00-0.393D+00-0.833D+00
 Coeff:      0.139D+00 0.185D+01
 Gap=     0.069 Goal=   None    Shift=    0.300
 Gap=     0.202 Goal=   None    Shift=    0.300
 RMSDP=2.98D-07 MaxDP=9.99D-06 DE=-1.60D-09 OVMax= 3.76D-05

 Cycle  42  Pass 1  IDiag  1:
 E= -426.775835354979     Delta-E=       -0.000000001007 Rises=F Damp=F
 DIIS: error= 2.25D-06 at cycle  42 NSaved=  20.
 NSaved=20 IEnMin=20 EnMin= -426.775835354979     IErMin=20 ErrMin= 2.25D-06
 ErrMax= 2.25D-06  0.00D+00 EMaxC= 1.00D-01 BMatC= 1.75D-09 BMatP= 2.75D-09
 IDIUse=1 WtCom= 1.00D+00 WtEn= 0.00D+00
 Coeff-Com: -0.146D-02-0.715D-04 0.117D-02-0.396D-03-0.317D-02-0.297D-02
 Coeff-Com:  0.173D-01-0.379D-01-0.139D-01 0.168D-01 0.684D-01-0.710D-01
 Coeff-Com: -0.956D-01-0.152D+00 0.272D+00 0.205D-01-0.854D-01-0.575D+00
 Coeff-Com: -0.572D+00 0.221D+01
 Coeff:     -0.146D-02-0.715D-04 0.117D-02-0.396D-03-0.317D-02-0.297D-02
 Coeff:      0.173D-01-0.379D-01-0.139D-01 0.168D-01 0.684D-01-0.710D-01
 Coeff:     -0.956D-01-0.152D+00 0.272D+00 0.205D-01-0.854D-01-0.575D+00
 Coeff:     -0.572D+00 0.221D+01
 Gap=     0.069 Goal=   None    Shift=    0.300
 Gap=     0.202 Goal=   None    Shift=    0.300
 RMSDP=2.41D-07 MaxDP=8.06D-06 DE=-1.01D-09 OVMax= 3.04D-05

 Cycle  43  Pass 1  IDiag  1:
 E= -426.775835355623     Delta-E=       -0.000000000644 Rises=F Damp=F
 DIIS: error= 1.81D-06 at cycle  43 NSaved=  20.
 NSaved=20 IEnMin=20 EnMin= -426.775835355623     IErMin=20 ErrMin= 1.81D-06
 ErrMax= 1.81D-06  0.00D+00 EMaxC= 1.00D-01 BMatC= 1.11D-09 BMatP= 1.75D-09
 IDIUse=1 WtCom= 1.00D+00 WtEn= 0.00D+00
 Coeff-Com: -0.139D-02 0.386D-02-0.122D-01 0.142D-01 0.285D-02 0.170D-02
 Coeff-Com: -0.337D-01-0.154D-01 0.548D-01-0.645D-01-0.124D-01 0.838D-01
 Coeff-Com:  0.147D+00-0.667D+00 0.200D+00 0.760D+00 0.319D+00-0.163D+01
 Coeff-Com: -0.177D+01 0.362D+01
 Coeff:     -0.139D-02 0.386D-02-0.122D-01 0.142D-01 0.285D-02 0.170D-02
 Coeff:     -0.337D-01-0.154D-01 0.548D-01-0.645D-01-0.124D-01 0.838D-01
 Coeff:      0.147D+00-0.667D+00 0.200D+00 0.760D+00 0.319D+00-0.163D+01
 Coeff:     -0.177D+01 0.362D+01
 Gap=     0.069 Goal=   None    Shift=    0.300
 Gap=     0.202 Goal=   None    Shift=    0.300
 RMSDP=1.95D-07 MaxDP=6.50D-06 DE=-6.44D-10 OVMax= 2.46D-05

 Cycle  44  Pass 1  IDiag  1:
 E= -426.775835356055     Delta-E=       -0.000000000431 Rises=F Damp=F
 DIIS: error= 1.46D-06 at cycle  44 NSaved=  20.
 NSaved=20 IEnMin=20 EnMin= -426.775835356055     IErMin=20 ErrMin= 1.46D-06
 ErrMax= 1.46D-06  0.00D+00 EMaxC= 1.00D-01 BMatC= 7.19D-10 BMatP= 1.11D-09
 IDIUse=1 WtCom= 1.00D+00 WtEn= 0.00D+00
 Coeff-Com:  0.656D-03-0.545D-02 0.102D-01-0.557D-02-0.307D-02-0.115D-01
 Coeff-Com: -0.400D-03 0.346D-01-0.546D-01-0.338D-01 0.512D-01 0.464D-01
 Coeff-Com: -0.267D+00 0.109D+00 0.365D+00 0.894D-01-0.611D+00-0.153D+01
 Coeff-Com:  0.139D+01 0.143D+01
 Coeff:      0.656D-03-0.545D-02 0.102D-01-0.557D-02-0.307D-02-0.115D-01
 Coeff:     -0.400D-03 0.346D-01-0.546D-01-0.338D-01 0.512D-01 0.464D-01
 Coeff:     -0.267D+00 0.109D+00 0.365D+00 0.894D-01-0.611D+00-0.153D+01
 Coeff:      0.139D+01 0.143D+01
 Gap=     0.069 Goal=   None    Shift=    0.300
 Gap=     0.202 Goal=   None    Shift=    0.300
 RMSDP=1.59D-07 MaxDP=5.27D-06 DE=-4.31D-10 OVMax= 2.01D-05

 Cycle  45  Pass 1  IDiag  1:
 E= -426.775835356330     Delta-E=       -0.000000000276 Rises=F Damp=F
 DIIS: error= 1.19D-06 at cycle  45 NSaved=  20.
 NSaved=20 IEnMin=20 EnMin= -426.775835356330     IErMin=20 ErrMin= 1.19D-06
 ErrMax= 1.19D-06  0.00D+00 EMaxC= 1.00D-01 BMatC= 4.69D-10 BMatP= 7.19D-10
 IDIUse=1 WtCom= 1.00D+00 WtEn= 0.00D+00
 Coeff-Com: -0.523D-02 0.155D-01-0.677D-02-0.150D-01-0.297D-02 0.125D-01
 Coeff-Com:  0.170D-01-0.357D-01-0.333D-01 0.420D-01-0.139D-01-0.949D-01
 Coeff-Com:  0.620D-01 0.169D+00-0.122D+00 0.314D+00-0.763D+00-0.868D+00
 Coeff-Com:  0.372D+00 0.196D+01
 Coeff:     -0.523D-02 0.155D-01-0.677D-02-0.150D-01-0.297D-02 0.125D-01
 Coeff:      0.170D-01-0.357D-01-0.333D-01 0.420D-01-0.139D-01-0.949D-01
 Coeff:      0.620D-01 0.169D+00-0.122D+00 0.314D+00-0.763D+00-0.868D+00
 Coeff:      0.372D+00 0.196D+01
 Gap=     0.069 Goal=   None    Shift=    0.300
 Gap=     0.202 Goal=   None    Shift=    0.300
 RMSDP=1.30D-07 MaxDP=4.30D-06 DE=-2.76D-10 OVMax= 1.64D-05

 Cycle  46  Pass 1  IDiag  1:
 E= -426.775835356510     Delta-E=       -0.000000000180 Rises=F Damp=F
 DIIS: error= 9.68D-07 at cycle  46 NSaved=  20.
 NSaved=20 IEnMin=20 EnMin= -426.775835356510     IErMin=20 ErrMin= 9.68D-07
 ErrMax= 9.68D-07  0.00D+00 EMaxC= 1.00D-01 BMatC= 3.12D-10 BMatP= 4.69D-10
 IDIUse=1 WtCom= 1.00D+00 WtEn= 0.00D+00
 Coeff-Com:  0.423D-02-0.669D-02-0.440D-02 0.152D-02 0.119D-01-0.250D-01
 Coeff-Com:  0.571D-01-0.388D-01-0.668D-01-0.106D+00 0.320D+00-0.823D-01
 Coeff-Com: -0.254D+00-0.397D+00 0.818D+00 0.121D+01-0.178D+01-0.192D+01
 Coeff-Com:  0.905D+00 0.235D+01
 Coeff:      0.423D-02-0.669D-02-0.440D-02 0.152D-02 0.119D-01-0.250D-01
 Coeff:      0.571D-01-0.388D-01-0.668D-01-0.106D+00 0.320D+00-0.823D-01
 Coeff:     -0.254D+00-0.397D+00 0.818D+00 0.121D+01-0.178D+01-0.192D+01
 Coeff:      0.905D+00 0.235D+01
 Gap=     0.069 Goal=   None    Shift=    0.300
 Gap=     0.202 Goal=   None    Shift=    0.300
 RMSDP=1.08D-07 MaxDP=3.52D-06 DE=-1.80D-10 OVMax= 1.36D-05

 Cycle  47  Pass 1  IDiag  1:
 E= -426.775835356628     Delta-E=       -0.000000000118 Rises=F Damp=F
 DIIS: error= 7.94D-07 at cycle  47 NSaved=  20.
 NSaved=20 IEnMin=20 EnMin= -426.775835356628     IErMin=20 ErrMin= 7.94D-07
 ErrMax= 7.94D-07  0.00D+00 EMaxC= 1.00D-01 BMatC= 2.13D-10 BMatP= 3.12D-10
 IDIUse=1 WtCom= 1.00D+00 WtEn= 0.00D+00
 Coeff-Com:  0.838D-03 0.843D-03-0.980D-02 0.361D-02-0.145D-01 0.759D-01
 Coeff-Com: -0.282D-01-0.111D+00-0.120D+00 0.332D+00-0.197D-01-0.180D+00
 Coeff-Com: -0.439D+00 0.153D+00 0.114D+01 0.453D-01-0.189D+01-0.469D+00
 Coeff-Com:  0.860D+00 0.167D+01
 Coeff:      0.838D-03 0.843D-03-0.980D-02 0.361D-02-0.145D-01 0.759D-01
 Coeff:     -0.282D-01-0.111D+00-0.120D+00 0.332D+00-0.197D-01-0.180D+00
 Coeff:     -0.439D+00 0.153D+00 0.114D+01 0.453D-01-0.189D+01-0.469D+00
 Coeff:      0.860D+00 0.167D+01
 Gap=     0.069 Goal=   None    Shift=    0.300
 Gap=     0.202 Goal=   None    Shift=    0.300
 RMSDP=8.87D-08 MaxDP=2.89D-06 DE=-1.18D-10 OVMax= 1.12D-05

 Cycle  48  Pass 1  IDiag  1:
 E= -426.775835356696     Delta-E=       -0.000000000068 Rises=F Damp=F
 DIIS: error= 6.54D-07 at cycle  48 NSaved=  20.
 NSaved=20 IEnMin=20 EnMin= -426.775835356696     IErMin=20 ErrMin= 6.54D-07
 ErrMax= 6.54D-07  0.00D+00 EMaxC= 1.00D-01 BMatC= 1.46D-10 BMatP= 2.13D-10
 IDIUse=1 WtCom= 1.00D+00 WtEn= 0.00D+00
 Large coefficients: NSaved= 20 BigCof=    0.00 CofMax=   10.00 Det=-3.78D-15
 Inversion failed.  Reducing to 19 matrices.
 Large coefficients: NSaved= 19 BigCof=    0.00 CofMax=   10.00 Det=-4.11D-15
 Inversion failed.  Reducing to 18 matrices.
 Large coefficients: NSaved= 18 BigCof=    0.00 CofMax=   10.00 Det=-4.29D-15
 Inversion failed.  Reducing to 17 matrices.
 Large coefficients: NSaved= 17 BigCof=    0.00 CofMax=   10.00 Det=-4.33D-15
 Inversion failed.  Reducing to 16 matrices.
 Large coefficients: NSaved= 16 BigCof=    0.00 CofMax=   10.00 Det=-5.29D-15
 Inversion failed.  Reducing to 15 matrices.
 Coeff-Com: -0.108D-01-0.137D-01 0.776D-02 0.641D-03 0.837D-02 0.159D-01
 Coeff-Com: -0.676D-01-0.388D-01-0.426D+00 0.521D+00 0.268D+00-0.854D-01
 Coeff-Com: -0.258D+00-0.213D+01 0.321D+01
 Coeff:     -0.108D-01-0.137D-01 0.776D-02 0.641D-03 0.837D-02 0.159D-01
 Coeff:     -0.676D-01-0.388D-01-0.426D+00 0.521D+00 0.268D+00-0.854D-01
 Coeff:     -0.258D+00-0.213D+01 0.321D+01
 Gap=     0.069 Goal=   None    Shift=    0.300
 Gap=     0.202 Goal=   None    Shift=    0.300
 RMSDP=7.28D-08 MaxDP=2.37D-06 DE=-6.76D-11 OVMax= 9.17D-06

 Cycle  49  Pass 1  IDiag  1:
 E= -426.775835356753     Delta-E=       -0.000000000057 Rises=F Damp=F
 DIIS: error= 5.38D-07 at cycle  49 NSaved=  16.
 NSaved=16 IEnMin=16 EnMin= -426.775835356753     IErMin=16 ErrMin= 5.38D-07
 ErrMax= 5.38D-07  0.00D+00 EMaxC= 1.00D-01 BMatC= 9.99D-11 BMatP= 1.46D-10
 IDIUse=1 WtCom= 1.00D+00 WtEn= 0.00D+00
 Large coefficients: NSaved= 16 BigCof=    0.00 CofMax=   10.00 Det=-1.53D-15
 Inversion failed.  Reducing to 15 matrices.
 Coeff-Com: -0.155D-01-0.339D-01 0.621D-01 0.180D-01-0.370D-01-0.121D+00
 Coeff-Com:  0.140D+00-0.159D+00-0.885D-01-0.930D-02 0.380D+00 0.303D+00
 Coeff-Com: -0.769D+00-0.172D+01 0.305D+01
 Coeff:     -0.155D-01-0.339D-01 0.621D-01 0.180D-01-0.370D-01-0.121D+00
 Coeff:      0.140D+00-0.159D+00-0.885D-01-0.930D-02 0.380D+00 0.303D+00
 Coeff:     -0.769D+00-0.172D+01 0.305D+01
 Gap=     0.069 Goal=   None    Shift=    0.300
 Gap=     0.202 Goal=   None    Shift=    0.300
 RMSDP=5.96D-08 MaxDP=1.95D-06 DE=-5.72D-11 OVMax= 7.50D-06

 Cycle  50  Pass 1  IDiag  1:
 E= -426.775835356784     Delta-E=       -0.000000000031 Rises=F Damp=F
 DIIS: error= 4.41D-07 at cycle  50 NSaved=  16.
 NSaved=16 IEnMin=16 EnMin= -426.775835356784     IErMin=16 ErrMin= 4.41D-07
 ErrMax= 4.41D-07  0.00D+00 EMaxC= 1.00D-01 BMatC= 6.74D-11 BMatP= 9.99D-11
 IDIUse=1 WtCom= 1.00D+00 WtEn= 0.00D+00
 Large coefficients: NSaved= 16 BigCof=    0.00 CofMax=   10.00 Det=-1.56D-15
 Inversion failed.  Reducing to 15 matrices.
 Coeff-Com: -0.267D-01 0.386D-01 0.106D-01-0.339D-01-0.723D-01 0.738D-01
 Coeff-Com:  0.495D-01-0.114D+00-0.453D+00 0.329D+00 0.517D+00 0.609D+00
 Coeff-Com: -0.317D+01 0.131D+01 0.193D+01
 Coeff:     -0.267D-01 0.386D-01 0.106D-01-0.339D-01-0.723D-01 0.738D-01
 Coeff:      0.495D-01-0.114D+00-0.453D+00 0.329D+00 0.517D+00 0.609D+00
 Coeff:     -0.317D+01 0.131D+01 0.193D+01
 Gap=     0.069 Goal=   None    Shift=    0.300
 Gap=     0.202 Goal=   None    Shift=    0.300
 RMSDP=4.88D-08 MaxDP=1.60D-06 DE=-3.12D-11 OVMax= 6.15D-06

 Cycle  51  Pass 1  IDiag  1:
 E= -426.775835356822     Delta-E=       -0.000000000038 Rises=F Damp=F
 DIIS: error= 3.61D-07 at cycle  51 NSaved=  16.
 NSaved=16 IEnMin=16 EnMin= -426.775835356822     IErMin=16 ErrMin= 3.61D-07
 ErrMax= 3.61D-07  0.00D+00 EMaxC= 1.00D-01 BMatC= 4.53D-11 BMatP= 6.74D-11
 IDIUse=1 WtCom= 1.00D+00 WtEn= 0.00D+00
 Large coefficients: NSaved= 16 BigCof=    0.00 CofMax=   10.00 Det=-1.27D-15
 Inversion failed.  Reducing to 15 matrices.
 Coeff-Com: -0.569D-03-0.737D-02 0.168D-01-0.262D-01-0.120D+00 0.109D+00
 Coeff-Com:  0.378D+00-0.728D+00-0.978D-01 0.261D+00 0.106D+01-0.725D+00
 Coeff-Com: -0.199D+01 0.811D+00 0.205D+01
 Coeff:     -0.569D-03-0.737D-02 0.168D-01-0.262D-01-0.120D+00 0.109D+00
 Coeff:      0.378D+00-0.728D+00-0.978D-01 0.261D+00 0.106D+01-0.725D+00
 Coeff:     -0.199D+01 0.811D+00 0.205D+01
 Gap=     0.069 Goal=   None    Shift=    0.300
 Gap=     0.202 Goal=   None    Shift=    0.300
 RMSDP=3.99D-08 MaxDP=1.31D-06 DE=-3.76D-11 OVMax= 5.03D-06

 Cycle  52  Pass 1  IDiag  1:
 E= -426.775835356827     Delta-E=       -0.000000000005 Rises=F Damp=F
 DIIS: error= 2.96D-07 at cycle  52 NSaved=  16.
 NSaved=16 IEnMin=16 EnMin= -426.775835356827     IErMin=16 ErrMin= 2.96D-07
 ErrMax= 2.96D-07  0.00D+00 EMaxC= 1.00D-01 BMatC= 3.04D-11 BMatP= 4.53D-11
 IDIUse=1 WtCom= 1.00D+00 WtEn= 0.00D+00
 Large coefficients: NSaved= 16 BigCof=    0.00 CofMax=   10.00 Det=-1.01D-15
 Inversion failed.  Reducing to 15 matrices.
 Coeff-Com: -0.110D-01 0.167D-01 0.276D-03-0.155D+00-0.847D-01 0.542D+00
 Coeff-Com: -0.215D+00-0.253D+00-0.174D+00 0.262D+00 0.999D+00-0.182D+01
 Coeff-Com: -0.506D+00 0.690D+00 0.171D+01
 Coeff:     -0.110D-01 0.167D-01 0.276D-03-0.155D+00-0.847D-01 0.542D+00
 Coeff:     -0.215D+00-0.253D+00-0.174D+00 0.262D+00 0.999D+00-0.182D+01
 Coeff:     -0.506D+00 0.690D+00 0.171D+01
 Gap=     0.069 Goal=   None    Shift=    0.300
 Gap=     0.202 Goal=   None    Shift=    0.300
 RMSDP=3.25D-08 MaxDP=1.07D-06 DE=-5.46D-12 OVMax= 4.10D-06

 Cycle  53  Pass 1  IDiag  1:
 E= -426.775835356843     Delta-E=       -0.000000000016 Rises=F Damp=F
 DIIS: error= 2.41D-07 at cycle  53 NSaved=  16.
 NSaved=16 IEnMin=16 EnMin= -426.775835356843     IErMin=16 ErrMin= 2.41D-07
 ErrMax= 2.41D-07  0.00D+00 EMaxC= 1.00D-01 BMatC= 2.03D-11 BMatP= 3.04D-11
 IDIUse=1 WtCom= 1.00D+00 WtEn= 0.00D+00
 Large coefficients: NSaved= 16 BigCof=    0.00 CofMax=   10.00 Det=-1.09D-15
 Inversion failed.  Reducing to 15 matrices.
 Coeff-Com:  0.933D-03 0.215D-01-0.284D-01-0.289D+00 0.199D+00 0.307D+00
 Coeff-Com: -0.177D-01-0.199D+00-0.709D+00 0.964D+00 0.238D+00-0.823D+00
 Coeff-Com: -0.952D+00 0.257D+00 0.203D+01
 Coeff:      0.933D-03 0.215D-01-0.284D-01-0.289D+00 0.199D+00 0.307D+00
 Coeff:     -0.177D-01-0.199D+00-0.709D+00 0.964D+00 0.238D+00-0.823D+00
 Coeff:     -0.952D+00 0.257D+00 0.203D+01
 Gap=     0.069 Goal=   None    Shift=    0.300
 Gap=     0.202 Goal=   None    Shift=    0.300
 RMSDP=2.66D-08 MaxDP=8.78D-07 DE=-1.57D-11 OVMax= 3.35D-06

 Cycle  54  Pass 1  IDiag  1:
 E= -426.775835356850     Delta-E=       -0.000000000007 Rises=F Damp=F
 DIIS: error= 1.98D-07 at cycle  54 NSaved=  16.
 NSaved=16 IEnMin=16 EnMin= -426.775835356850     IErMin=16 ErrMin= 1.98D-07
 ErrMax= 1.98D-07  0.00D+00 EMaxC= 1.00D-01 BMatC= 1.37D-11 BMatP= 2.03D-11
 IDIUse=1 WtCom= 1.00D+00 WtEn= 0.00D+00
 Large coefficients: NSaved= 16 BigCof=    0.00 CofMax=   10.00 Det=-7.31D-16
 Inversion failed.  Reducing to 15 matrices.
 Coeff-Com: -0.287D-01 0.104D+00-0.631D-01-0.257D+00 0.229D-01 0.273D+00
 Coeff-Com:  0.199D+00-0.104D+00-0.101D+01 0.124D+01 0.197D+00-0.770D+00
 Coeff-Com: -0.127D+01 0.512D+00 0.196D+01
 Coeff:     -0.287D-01 0.104D+00-0.631D-01-0.257D+00 0.229D-01 0.273D+00
 Coeff:      0.199D+00-0.104D+00-0.101D+01 0.124D+01 0.197D+00-0.770D+00
 Coeff:     -0.127D+01 0.512D+00 0.196D+01
 Gap=     0.069 Goal=   None    Shift=    0.300
 Gap=     0.202 Goal=   None    Shift=    0.300
 RMSDP=2.17D-08 MaxDP=7.18D-07 DE=-7.05D-12 OVMax= 2.73D-06

 Cycle  55  Pass 1  IDiag  1:
 E= -426.775835356861     Delta-E=       -0.000000000011 Rises=F Damp=F
 DIIS: error= 1.61D-07 at cycle  55 NSaved=  16.
 NSaved=16 IEnMin=16 EnMin= -426.775835356861     IErMin=16 ErrMin= 1.61D-07
 ErrMax= 1.61D-07  0.00D+00 EMaxC= 1.00D-01 BMatC= 9.19D-12 BMatP= 1.37D-11
 IDIUse=1 WtCom= 1.00D+00 WtEn= 0.00D+00
 Large coefficients: NSaved= 16 BigCof=    0.00 CofMax=   10.00 Det=-7.08D-16
 Inversion failed.  Reducing to 15 matrices.
 Coeff-Com: -0.754D-02 0.381D-01-0.708D-01-0.215D+00 0.144D+00 0.184D+00
 Coeff-Com:  0.317D+00-0.109D+01 0.644D+00 0.518D+00-0.133D+00-0.977D+00
 Coeff-Com: -0.352D+00 0.273D+00 0.172D+01
 Coeff:     -0.754D-02 0.381D-01-0.708D-01-0.215D+00 0.144D+00 0.184D+00
 Coeff:      0.317D+00-0.109D+01 0.644D+00 0.518D+00-0.133D+00-0.977D+00
 Coeff:     -0.352D+00 0.273D+00 0.172D+01
 Gap=     0.069 Goal=   None    Shift=    0.300
 Gap=     0.202 Goal=   None    Shift=    0.300
 RMSDP=1.77D-08 MaxDP=5.88D-07 DE=-1.09D-11 OVMax= 2.23D-06

 Cycle  56  Pass 1  IDiag  1:
 E= -426.775835356863     Delta-E=       -0.000000000002 Rises=F Damp=F
 DIIS: error= 1.32D-07 at cycle  56 NSaved=  16.
 NSaved=16 IEnMin=16 EnMin= -426.775835356863     IErMin=16 ErrMin= 1.32D-07
 ErrMax= 1.32D-07  0.00D+00 EMaxC= 1.00D-01 BMatC= 6.26D-12 BMatP= 9.19D-12
 IDIUse=1 WtCom= 1.00D+00 WtEn= 0.00D+00
 Large coefficients: NSaved= 16 BigCof=    0.00 CofMax=   10.00 Det=-7.86D-16
 Inversion failed.  Reducing to 15 matrices.
 Coeff-Com: -0.352D-02-0.200D-01-0.170D+00 0.114D+00 0.110D+00 0.320D+00
 Coeff-Com: -0.898D+00 0.352D+00 0.460D+00 0.181D+00-0.562D+00-0.371D+00
 Coeff-Com: -0.461D+00 0.467D+00 0.148D+01
 Coeff:     -0.352D-02-0.200D-01-0.170D+00 0.114D+00 0.110D+00 0.320D+00
 Coeff:     -0.898D+00 0.352D+00 0.460D+00 0.181D+00-0.562D+00-0.371D+00
 Coeff:     -0.461D+00 0.467D+00 0.148D+01
 Gap=     0.069 Goal=   None    Shift=    0.300
 Gap=     0.202 Goal=   None    Shift=    0.300
 RMSDP=1.45D-08 MaxDP=4.80D-07 DE=-2.27D-12 OVMax= 1.82D-06

 Cycle  57  Pass 1  IDiag  1:
 E= -426.775835356862     Delta-E=        0.000000000001 Rises=F Damp=F
 DIIS: error= 1.08D-07 at cycle  57 NSaved=  16.
 NSaved=16 IEnMin=15 EnMin= -426.775835356863     IErMin=16 ErrMin= 1.08D-07
 ErrMax= 1.08D-07  0.00D+00 EMaxC= 1.00D-01 BMatC= 4.24D-12 BMatP= 6.26D-12
 IDIUse=1 WtCom= 1.00D+00 WtEn= 0.00D+00
 Large coefficients: NSaved= 16 BigCof=    0.00 CofMax=   10.00 Det=-3.67D-16
 Inversion failed.  Reducing to 15 matrices.
 Coeff-Com: -0.125D-01-0.104D+00 0.432D-01 0.424D-01 0.271D+00-0.368D+00
 Coeff-Com: -0.162D+00 0.199D+00 0.238D+00-0.409D-01 0.647D-01-0.596D+00
 Coeff-Com: -0.518D+00 0.264D+00 0.168D+01
 Coeff:     -0.125D-01-0.104D+00 0.432D-01 0.424D-01 0.271D+00-0.368D+00
 Coeff:     -0.162D+00 0.199D+00 0.238D+00-0.409D-01 0.647D-01-0.596D+00
 Coeff:     -0.518D+00 0.264D+00 0.168D+01
 Gap=     0.069 Goal=   None    Shift=    0.300
 Gap=     0.202 Goal=   None    Shift=    0.300
 RMSDP=1.19D-08 MaxDP=3.92D-07 DE= 6.82D-13 OVMax= 1.49D-06

 Cycle  58  Pass 1  IDiag  1:
 E= -426.775835356863     Delta-E=       -0.000000000001 Rises=F Damp=F
 DIIS: error= 8.84D-08 at cycle  58 NSaved=  16.
 NSaved=16 IEnMin=16 EnMin= -426.775835356863     IErMin=16 ErrMin= 8.84D-08
 ErrMax= 8.84D-08  0.00D+00 EMaxC= 1.00D-01 BMatC= 2.89D-12 BMatP= 4.24D-12
 IDIUse=1 WtCom= 1.00D+00 WtEn= 0.00D+00
 Large coefficients: NSaved= 16 BigCof=    0.00 CofMax=   10.00 Det=-1.27D-16
 Inversion failed.  Reducing to 15 matrices.
 Coeff-Com: -0.989D-01 0.307D-01 0.561D-01 0.200D+00-0.319D+00-0.221D-01
 Coeff-Com:  0.123D+00 0.529D-01-0.142D+00 0.257D+00-0.101D+00-0.417D+00
 Coeff-Com: -0.429D+00 0.138D+00 0.167D+01
 Coeff:     -0.989D-01 0.307D-01 0.561D-01 0.200D+00-0.319D+00-0.221D-01
 Coeff:      0.123D+00 0.529D-01-0.142D+00 0.257D+00-0.101D+00-0.417D+00
 Coeff:     -0.429D+00 0.138D+00 0.167D+01
 Gap=     0.069 Goal=   None    Shift=    0.300
 Gap=     0.202 Goal=   None    Shift=    0.300
 RMSDP=9.68D-09 MaxDP=3.20D-07 DE=-1.02D-12 OVMax= 1.22D-06

 SCF Done:  E(UPBE1PBE) =  -426.775835357     A.U. after   58 cycles
            NFock= 58  Conv=0.97D-08     -V/T= 2.2795
 <Sx>= 0.0000 <Sy>= 0.0000 <Sz>= 0.5000 <S**2>= 0.7537 S= 0.5018
 <L.S>= 0.000000000000E+00
 KE= 3.335510502089D+02 PE=-1.632718623314D+03 EE= 5.399210163058D+02
 Annihilation of the first spin contaminant:
 S**2 before annihilation     0.7537,   after     0.7500
 Leave Link  502 at Sat Sep 12 02:22:38 2026, MaxMem=  6442450944 cpu:             234.0 elap:             234.2
 (Enter C:\G16W\l508.exe)
 QCSCF skips out because SCF is already converged.
 Leave Link  508 at Sat Sep 12 02:22:39 2026, MaxMem=  6442450944 cpu:               0.0 elap:               0.1
 (Enter C:\G16W\l601.exe)
 Copying SCF densities to generalized density rwf, IOpCl= 1 IROHF=0.

 **********************************************************************

            Population analysis using the SCF Density.

 **********************************************************************

 Alpha  occ. eigenvalues --  -14.45544 -14.42807 -14.42805 -10.34437 -10.34427
 Alpha  occ. eigenvalues --  -10.34354  -3.75266  -2.33272  -2.33252  -2.33101
 Alpha  occ. eigenvalues --   -1.07742  -0.95667  -0.94339  -0.74000  -0.72009
 Alpha  occ. eigenvalues --   -0.59657  -0.59269  -0.50056  -0.47939  -0.47337
 Alpha  occ. eigenvalues --   -0.43161  -0.37800  -0.37704  -0.34629  -0.32728
 Alpha  occ. eigenvalues --   -0.32622  -0.32574  -0.32023  -0.29795  -0.29737
 Alpha  occ. eigenvalues --   -0.15899
 Alpha virt. eigenvalues --   -0.09035  -0.06356  -0.00233  -0.00139   0.03644
 Alpha virt. eigenvalues --    0.08548   0.09688   0.10769   0.12939   0.13113
 Alpha virt. eigenvalues --    0.19896   0.21592   0.24464   0.28398   0.29977
 Alpha virt. eigenvalues --    0.31970   0.33071   0.34857   0.35464   0.40362
 Alpha virt. eigenvalues --    0.42110   0.42938   0.45424   0.46577   0.48277
 Alpha virt. eigenvalues --    0.51177   0.51902   0.53846   0.54465   0.54956
 Alpha virt. eigenvalues --    0.60846   0.62643   0.63855   0.64635   0.68715
 Alpha virt. eigenvalues --    0.70047   0.73426   0.81726   0.82864   0.84592
 Alpha virt. eigenvalues --    0.87810   0.92530   0.93745   0.95372   1.06723
 Alpha virt. eigenvalues --    1.08450   1.09247   1.13935   1.15514   1.24672
 Alpha virt. eigenvalues --    1.27771   1.29733   1.30804   1.32704   1.34523
 Alpha virt. eigenvalues --    1.61701   1.63052   1.65612   1.68457   1.69964
 Alpha virt. eigenvalues --    1.71030   1.80429   1.80760   1.85816   1.90435
 Alpha virt. eigenvalues --    1.97604   1.97875   2.03321   2.03906   2.09204
 Alpha virt. eigenvalues --    2.25855   2.28124   2.33682   2.41038   2.43886
 Alpha virt. eigenvalues --    2.44566   2.55186   2.59694   2.60434   2.61970
 Alpha virt. eigenvalues --    2.62278   2.62306   2.62396   2.62404   2.63577
 Alpha virt. eigenvalues --    2.63952   2.65343   2.67606   2.81947   2.85691
 Alpha virt. eigenvalues --    2.92496   2.95025   2.96726   3.00406   3.18692
 Alpha virt. eigenvalues --    3.22887   3.37111   3.62415  53.81934
  Beta  occ. eigenvalues --  -14.45418 -14.42853 -14.42851 -10.34349 -10.34340
  Beta  occ. eigenvalues --  -10.34210  -3.75145  -2.33227  -2.33180  -2.33059
  Beta  occ. eigenvalues --   -1.07648  -0.95641  -0.94219  -0.73759  -0.71886
  Beta  occ. eigenvalues --   -0.59579  -0.59129  -0.49803  -0.47778  -0.47269
  Beta  occ. eigenvalues --   -0.42837  -0.37659  -0.37334  -0.34252  -0.32199
  Beta  occ. eigenvalues --   -0.32131  -0.32045  -0.31454  -0.29788  -0.29048
  Beta virt. eigenvalues --   -0.08867  -0.06619  -0.06077   0.02135   0.02352
  Beta virt. eigenvalues --    0.05468   0.09240   0.10312   0.11433   0.13383
  Beta virt. eigenvalues --    0.14474   0.20287   0.21810   0.24940   0.28652
  Beta virt. eigenvalues --    0.30698   0.32284   0.35348   0.36090   0.38006
  Beta virt. eigenvalues --    0.41645   0.43114   0.43380   0.46799   0.48084
  Beta virt. eigenvalues --    0.49227   0.52151   0.52334   0.54524   0.54706
  Beta virt. eigenvalues --    0.56037   0.61396   0.62988   0.64026   0.64984
  Beta virt. eigenvalues --    0.69314   0.71064   0.73546   0.81746   0.82809
  Beta virt. eigenvalues --    0.84707   0.88018   0.92644   0.93817   0.95470
  Beta virt. eigenvalues --    1.06872   1.08496   1.09306   1.14156   1.15546
  Beta virt. eigenvalues --    1.24733   1.28007   1.29856   1.30972   1.32911
  Beta virt. eigenvalues --    1.34715   1.61914   1.63086   1.65808   1.68593
  Beta virt. eigenvalues --    1.70163   1.71044   1.80661   1.80872   1.86173
  Beta virt. eigenvalues --    1.90638   1.97765   1.98177   2.03605   2.04308
  Beta virt. eigenvalues --    2.10170   2.26003   2.28144   2.33745   2.41051
  Beta virt. eigenvalues --    2.44090   2.44656   2.55320   2.59755   2.60538
  Beta virt. eigenvalues --    2.62079   2.62272   2.62305   2.62415   2.62447
  Beta virt. eigenvalues --    2.63682   2.64041   2.65424   2.67747   2.82041
  Beta virt. eigenvalues --    2.85666   2.92606   2.95196   2.96776   3.00489
  Beta virt. eigenvalues --    3.18753   3.22958   3.37199   3.62506  53.82073
          Condensed to atoms (all electrons):
               1          2          3          4          5          6
     1  C    4.608498   0.401369  -0.042606  -0.025966  -0.064782   0.535021
     2  N    0.401369   6.714062   0.401369  -0.053543  -0.030890  -0.053543
     3  C   -0.042606   0.401369   4.608495   0.535022  -0.064783  -0.025965
     4  N   -0.025966  -0.053543   0.535022   6.388283   0.491325  -0.068364
     5  C   -0.064782  -0.030890  -0.064783   0.491325   4.591037   0.491328
     6  N    0.535021  -0.053543  -0.025965  -0.068364   0.491328   6.388276
     7  H    0.422813  -0.058236   0.006759  -0.000716   0.005220  -0.045764
     8  H    0.006759  -0.058236   0.422813  -0.045764   0.005220  -0.000716
     9  H    0.005026  -0.000447   0.005026  -0.046662   0.423471  -0.046661
    10  Ag  -0.021647   0.056003  -0.021646   0.002040   0.001041   0.002040
               7          8          9         10
     1  C    0.422813   0.006759   0.005026  -0.021647
     2  N   -0.058236  -0.058236  -0.000447   0.056003
     3  C    0.006759   0.422813   0.005026  -0.021646
     4  N   -0.000716  -0.045764  -0.046662   0.002040
     5  C    0.005220   0.005220   0.423471   0.001041
     6  N   -0.045764  -0.000716  -0.046661   0.002040
     7  H    0.598211  -0.000142  -0.000236  -0.000033
     8  H   -0.000142   0.598212  -0.000236  -0.000033
     9  H   -0.000236  -0.000236   0.595608   0.000199
    10  Ag  -0.000033  -0.000033   0.000199  19.024817
          Atomic-Atomic Spin Densities.
               1          2          3          4          5          6
     1  C    0.060298  -0.006259   0.005274  -0.001107  -0.006661   0.003141
     2  N   -0.006259   0.089831  -0.006258   0.000960   0.000452   0.000960
     3  C    0.005274  -0.006258   0.060293   0.003141  -0.006661  -0.001107
     4  N   -0.001107   0.000960   0.003141  -0.019499  -0.005162   0.000949
     5  C   -0.006661   0.000452  -0.006661  -0.005162   0.103489  -0.005162
     6  N    0.003141   0.000960  -0.001107   0.000949  -0.005162  -0.019500
     7  H   -0.000499  -0.002262   0.000239  -0.000086  -0.000057  -0.000789
     8  H    0.000239  -0.002262  -0.000500  -0.000789  -0.000057  -0.000086
     9  H   -0.000054   0.000003  -0.000054  -0.000115   0.001217  -0.000115
    10  Ag  -0.011651  -0.065165  -0.011650  -0.002463   0.001634  -0.002463
               7          8          9         10
     1  C   -0.000499   0.000239  -0.000054  -0.011651
     2  N   -0.002262  -0.002262   0.000003  -0.065165
     3  C    0.000239  -0.000500  -0.000054  -0.011650
     4  N   -0.000086  -0.000789  -0.000115  -0.002463
     5  C   -0.000057  -0.000057   0.001217   0.001634
     6  N   -0.000789  -0.000086  -0.000115  -0.002463
     7  H   -0.001453   0.000031   0.000000   0.005287
     8  H    0.000031  -0.001452   0.000000   0.005287
     9  H    0.000000   0.000000  -0.005555  -0.000015
    10  Ag   0.005287   0.005287  -0.000015   0.954938
 Mulliken charges and spin densities:
               1          2
     1  C    0.175515   0.042721
     2  N   -0.317908   0.010000
     3  C    0.175517   0.042718
     4  N   -0.175656  -0.024171
     5  C    0.151813   0.083032
     6  N   -0.175653  -0.024173
     7  H    0.072123   0.000410
     8  H    0.072122   0.000411
     9  H    0.064910  -0.004687
    10  Ag  -0.042782   0.873739
 Sum of Mulliken charges =   0.00000   1.00000
 Mulliken charges and spin densities with hydrogens summed into heavy atoms:
               1          2
     1  C    0.247637   0.043131
     2  N   -0.317908   0.010000
     3  C    0.247639   0.043129
     4  N   -0.175656  -0.024171
     5  C    0.216723   0.078345
     6  N   -0.175653  -0.024173
    10  Ag  -0.042782   0.873739
 Electronic spatial extent (au):  <R**2>=           1303.1466
 Charge=              0.0000 electrons
 Dipole moment (field-independent basis, Debye):
    X=             -0.2222    Y=              1.8417    Z=              0.8384  Tot=              2.0357
 Quadrupole moment (field-independent basis, Debye-Ang):
   XX=            -54.9907   YY=            -64.2015   ZZ=            -55.2504
   XY=              1.0822   XZ=              0.3331   YZ=             -3.6606
 Traceless Quadrupole moment (field-independent basis, Debye-Ang):
   XX=              3.1569   YY=             -6.0540   ZZ=              2.8971
   XY=              1.0822   XZ=              0.3331   YZ=             -3.6606
 Octapole moment (field-independent basis, Debye-Ang**2):
  XXX=            -19.2784  YYY=            283.4146  ZZZ=             29.6035  XYY=            -15.1382
  XXY=             61.9954  XXZ=             14.1969  XZZ=             -6.8829  YZZ=             80.2811
  YYZ=             20.6761  XYZ=             -2.2266
 Hexadecapole moment (field-independent basis, Debye-Ang**3):
 XXXX=           -275.7111 YYYY=          -2035.9363 ZZZZ=           -122.6454 XXXY=             74.0862
 XXXZ=              2.8725 YYYX=             95.2289 YYYZ=           -162.4783 ZZZX=              2.2305
 ZZZY=           -102.6989 XXYY=           -354.4710 XXZZ=            -66.8764 YYZZ=           -342.4457
 XXYZ=            -36.0525 YYXZ=              6.8438 ZZXY=             25.6118
 N-N= 3.324707214424D+02 E-N=-1.632718620308D+03  KE= 3.335510502089D+02
                          Isotropic Fermi Contact Couplings
        Atom                 a.u.       MegaHertz       Gauss      10(-4) cm-1
     1  C(13)              0.00873       9.81230       3.50127       3.27303
     2  N(14)              0.14518      46.90718      16.73765      15.64655
     3  C(13)              0.00873       9.81091       3.50078       3.27257
     4  N(14)             -0.00881      -2.84604      -1.01554      -0.94934
     5  C(13)              0.02074      23.31020       8.31766       7.77544
     6  N(14)             -0.00881      -2.84617      -1.01558      -0.94938
     7  H(1)              -0.00085      -3.81501      -1.36129      -1.27255
     8  H(1)              -0.00085      -3.81472      -1.36119      -1.27245
     9  H(1)              -0.00145      -6.50226      -2.32017      -2.16892
    10  Ag(107             0.00027      -0.04903      -0.01749      -0.01635
 --------------------------------------------------------
       Center         ----  Spin Dipole Couplings  ----
                      3XX-RR        3YY-RR        3ZZ-RR
 --------------------------------------------------------
     1   Atom       -0.017132     -0.025071      0.042202
     2   Atom       -0.026091      0.032718     -0.006627
     3   Atom       -0.027734     -0.023232      0.050966
     4   Atom        0.020499      0.029248     -0.049747
     5   Atom       -0.049044     -0.035750      0.084794
     6   Atom        0.013775      0.031773     -0.045548
     7   Atom        0.001940     -0.000156     -0.001784
     8   Atom        0.002544      0.000033     -0.002577
     9   Atom       -0.006798      0.005970      0.000828
    10   Atom        0.019451     -0.020035      0.000584
 --------------------------------------------------------
                        XY            XZ            YZ
 --------------------------------------------------------
     1   Atom       -0.007050     -0.032626      0.016779
     2   Atom        0.006926      0.009237     -0.133298
     3   Atom        0.003842      0.017357      0.021853
     4   Atom       -0.008242     -0.005846     -0.006828
     5   Atom       -0.003938     -0.014317      0.031443
     6   Atom        0.007050      0.018028     -0.003517
     7   Atom       -0.000523      0.002545      0.001500
     8   Atom        0.000664     -0.001993      0.001231
     9   Atom       -0.000793     -0.000437     -0.002891
    10   Atom        0.005594      0.003882     -0.026793
 --------------------------------------------------------


 ---------------------------------------------------------------------------------
              Anisotropic Spin Dipole Couplings in Principal Axis System
 ---------------------------------------------------------------------------------

       Atom             a.u.   MegaHertz   Gauss  10(-4) cm-1        Axes

              Baa    -0.0316    -4.241    -1.513    -1.415  0.8974 -0.1212  0.4243
     1 C(13)  Bbb    -0.0289    -3.878    -1.384    -1.294  0.1967  0.9706 -0.1388
              Bcc     0.0605     8.119     2.897     2.708 -0.3950  0.2080  0.8948
 
              Baa    -0.1231    -4.746    -1.694    -1.583 -0.1179  0.6486  0.7519
     2 N(14)  Bbb    -0.0247    -0.954    -0.340    -0.318  0.9930  0.0805  0.0863
              Bcc     0.1478     5.700     2.034     1.901 -0.0046  0.7568 -0.6536
 
              Baa    -0.0316    -4.241    -1.513    -1.415  0.9257  0.2691 -0.2658
     3 C(13)  Bbb    -0.0289    -3.878    -1.384    -1.293 -0.3227  0.9285 -0.1839
              Bcc     0.0605     8.118     2.897     2.708  0.1973  0.2560  0.9463
 
              Baa    -0.0509    -1.964    -0.701    -0.655  0.0920  0.0939  0.9913
     4 N(14)  Bbb     0.0166     0.641     0.229     0.214  0.8604  0.4936 -0.1266
              Bcc     0.0343     1.323     0.472     0.441 -0.5012  0.8646 -0.0354
 
              Baa    -0.0506    -6.791    -2.423    -2.265  0.9930  0.0805  0.0863
     5 C(13)  Bbb    -0.0434    -5.829    -2.080    -1.944 -0.0573  0.9681 -0.2438
              Bcc     0.0940    12.620     4.503     4.209 -0.1032  0.2371  0.9660
 
              Baa    -0.0509    -1.965    -0.701    -0.655 -0.2743  0.0642  0.9595
     6 N(14)  Bbb     0.0166     0.641     0.229     0.214  0.8937 -0.3513  0.2790
              Bcc     0.0343     1.323     0.472     0.441  0.3550  0.9341  0.0390
 
              Baa    -0.0038    -2.008    -0.717    -0.670 -0.4038 -0.4006  0.8225
     7 H(1)   Bbb     0.0005     0.276     0.099     0.092 -0.2449  0.9135  0.3247
              Bcc     0.0032     1.732     0.618     0.578  0.8815  0.0703  0.4670
 
              Baa    -0.0038    -2.008    -0.717    -0.670  0.3156 -0.3422  0.8850
     8 H(1)   Bbb     0.0005     0.276     0.099     0.092  0.0364  0.9364  0.3491
              Bcc     0.0032     1.732     0.618     0.578  0.9482  0.0780 -0.3080
 
              Baa    -0.0069    -3.682    -1.314    -1.228  0.9930  0.0805  0.0863
     9 H(1)   Bbb    -0.0004    -0.207    -0.074    -0.069 -0.1115  0.3998  0.9098
              Bcc     0.0073     3.889     1.388     1.297 -0.0388  0.9131 -0.4060
 
              Baa    -0.0392     0.851     0.304     0.284 -0.1153  0.8188  0.5624
    10 Ag(107 Bbb     0.0190    -0.412    -0.147    -0.137 -0.0263 -0.5684  0.8223
              Bcc     0.0202    -0.439    -0.157    -0.146  0.9930  0.0800  0.0870
 

 ---------------------------------------------------------------------------------

 No NMR shielding tensors so no spin-rotation constants.
 Leave Link  601 at Sat Sep 12 02:22:42 2026, MaxMem=  6442450944 cpu:               3.0 elap:               3.1
 (Enter C:\G16W\l9999.exe)
 Unable to Open any file for archive entry.
 1|1|UNPC-DESKTOP-2JKEGCA|SP|UPBE1PBE|def2SVP|C3H3Ag1N3(2)|JHKIM|12-Sep
 -2026|0||#P PBE1PBE/Def2SVP EmpiricalDispersion=GD3BJ SP SCF=(XQC,MaxC
 ycle=128,VShift=300) NoSymm||triazine t=0.000 dz=+0.00 class=site2site
 ||0,2|C,0,1.163725,-0.53933,0.336926|N,0,0.080119,-1.384869,0.417988|C
 ,0,-1.094636,-0.722492,0.140658|N,0,-1.204901,0.517564,-0.217739|C,0,-
 0.067942,1.219881,-0.309152|N,0,1.133995,0.707257,-0.014477|H,0,2.1225
 2,-0.960126,0.623375|H,0,-2.008502,-1.29517,0.264357|H,0,-0.124779,2.2
 50539,-0.617015|Ag,0,0.334218,-3.510499,-0.522268||Version=EM64W-G16Re
 vC.01|HF=-426.7758354|S2=0.753662|S2-1=0.|S2A=0.750011|RMSD=9.685e-009
 |Dipole=-0.0874167,0.7245798,0.329861|Quadrupole=2.3470411,-4.500972,2
 .1539309,0.804594,0.2476794,-2.7215579|PG=C01 [X(C3H3Ag1N3)]||@
 The archive entry for this job was punched.


 I WISH TO HAVE NO CONNECTION WITH ANY SHIP THAT DOES NOT SAIL FAST,
 FOR I INTEND TO GO IN HARM'S WAY.
     -- JOHN PAUL JONES, USN 1747-1792
 Job cpu time:       0 days  0 hours  4 minutes  7.0 seconds.
 Elapsed time:       0 days  0 hours  4 minutes  5.8 seconds.
 File lengths (MBytes):  RWF=     17 Int=      0 D2E=      0 Chk=      2 Scr=      1
 Normal termination of Gaussian 16 at Sat Sep 12 02:22:42 2026.
