%Chk=thiophene.chk
%NProcShared=8
%Mem=48GB
#P PBE1PBE/Def2SVP EmpiricalDispersion=GD3BJ SP SCF=(XQC,MaxCycle=128) NoSymm Guess=Read

thiophene t=1.000 dz=+0.20 class=dimer

0 2
 C      0.57542500    -0.73324700     0.28245000
 C     -0.81019200    -0.52531900     0.12717000
 C     -1.10887900     0.73711600    -0.28341800
 S      0.30754200     1.69927000    -0.46889600
 C      1.30882200     0.37431000    -0.01247900
 H      1.01060700    -1.66547500     0.59466800
 H     -1.55378600    -1.28065900     0.30728900
 H     -2.07003400     1.17888200    -0.45714100
 H      2.37053900     0.51252400     0.04049600
 C      0.70539904     6.04053773    -4.61867327
 C      2.09101939     5.83175363    -4.46457639
 C      2.38783439     5.04780805    -3.39272344
 S      0.96953034     4.56696659    -2.54207899
 C     -0.02987245     5.41210461    -3.66160251
 H      0.27156811     6.62742687    -5.40814421
 H      2.83596731     6.24102689    -5.12295424
 H      3.34843695     4.74724560    -3.02385933
 H     -1.09214679     5.41634988    -3.51770101
 Ag     0.97764804     2.49205643    -5.40957260

