82
 energy: -133.194518478739 gnorm: 0.000125630450 xtb: 6.7.1 (edcfbbe)
C            1.17552501591430       -4.76787719861459       -3.74039483440720
C            2.08226378240247       -5.25573167429990       -2.81514715831997
C            2.89696659530323       -4.38689325066418       -2.11212131444318
C            2.80609792531816       -3.01885190553004       -2.34298502981316
N            3.62981034888061       -2.13347098933317       -1.62555620873228
C            3.23916065545341       -0.98409685496479       -0.99555913910396
C            1.89407693514703       -0.49943301582506       -0.80892329285493
C            1.76862279500101        0.89904551539236       -0.62944152118713
C            0.60832167066625        1.42608704690996        0.00038545929712
C            0.77295074774939        2.71583722644172        0.60573002122665
N            1.98359338006769        3.10259065558383        1.05145269588491
C            1.80179595352136        4.30435973702355        1.67185011848328
C            2.72428761621592        5.14095436687720        2.29146396843858
C            2.26263106078674        6.33400571986583        2.81167270835854
C            0.92241488899994        6.69881940851328        2.71319803189286
C           -0.01229305748592        5.87447894070804        2.10670633201083
C            0.43850474993972        4.66644328700983        1.60355961614244
N           -0.19504560959941        3.63655583769058        0.93350607984564
C           -1.54784154004644        3.61017356694163        0.57166224444252
C           -2.52166474165075        3.95343688653776        1.50563029708043
C           -3.85403854175973        3.96338606855999        1.13935690980301
C           -4.22902997588364        3.61487174805542       -0.14726014465007
C           -3.26087551115199        3.25795882867862       -1.07308041725287
C           -1.92505755112389        3.26290899537599       -0.72419490635970
C           -0.49860894288642        0.60327188245158        0.16750190854123
C           -0.43449554830934       -0.74978070314155       -0.18550252653400
C           -1.55579531607553       -1.65309424388801       -0.12167273572461
N           -1.56836689003369       -2.76819745712637       -0.81827747008128
C           -2.78368425083580       -3.34452206773832       -0.60876924485678
C           -3.31138503935648       -4.53546742428485       -1.09843502292604
C           -4.58422960154467       -4.88559278252584       -0.69937090360587
C           -5.32298565170037       -4.08673657001338        0.17382959811203
C           -4.81926871853965       -2.89865551042345        0.67082004291097
C           -3.55085402566416       -2.53011197647390        0.25815725081779
N           -2.74725577778831       -1.45045257943922        0.56275010021165
C           -3.08038554140525       -0.48281531749944        1.52075661698142
C           -4.28428671035536        0.20588420042715        1.41334589382922
C           -4.64626968443564        1.11727418562353        2.38771188680272
C           -3.80823828438953        1.36003993614152        3.46249171183667
C           -2.60268994962260        0.68469910679903        3.56346397384820
C           -2.24046608053490       -0.24295695411147        2.60598489397216
C            0.79157329756032       -1.30601549763323       -0.60421255047622
N            4.27810289729918       -0.34795783828169       -0.43979968305644
C            5.38455252155292       -1.09992478234086       -0.72242106456708
C            6.72070399326220       -0.89530087671460       -0.39583264655519
C            7.63946036860329       -1.82385208580456       -0.84246895336424
C            7.25170475468185       -2.92632731960448       -1.60214534207428
C            5.92649661889927       -3.14970642009421       -1.93340212742558
C            4.99708539476973       -2.23151980543596       -1.47360416828920
C            1.90270015801447       -2.52779299783790       -3.28013378270216
C            1.08717833258523       -3.40403519599582       -3.96893692362744
H            0.53530556396813       -5.44889731759238       -4.27990331404635
H            2.15016514640495       -6.31739195830427       -2.62974921005349
H            3.58652505496520       -4.75979775851261       -1.36947934218456
H            2.46072492174771        1.57526516989190       -1.13256568196325
H            3.76499051774781        4.85690885051675        2.34904373818025
H            2.95467882980523        7.00540883518665        3.29822659444600
H            0.60258411473113        7.64737637359999        3.11747236887379
H           -1.04503541774564        6.17457721569148        2.02093666519172
H           -2.23070481153383        4.19073095736180        2.51737514122671
H           -4.60299028529314        4.24057221905684        1.86590154391409
H           -5.27114252340450        3.61917185213832       -0.42825287249849
H           -3.54771547975569        2.98413611579670       -2.07730577638387
H           -1.16655843636145        2.99824513093842       -1.44515411339711
H           -1.39916218062426        1.00641752579972        0.60129450266334
H           -2.73000892252107       -5.15572409529676       -1.76172708671172
H           -5.02247013383192       -5.80406340791387       -1.06231086547861
H           -6.31142757034016       -4.40531907293986        0.47084674659756
H           -5.39065238219214       -2.29174124031180        1.35789748887195
H           -4.92383898506321        0.02794123536550        0.56191837999920
H           -5.58745004578524        1.63958084146905        2.30448428302884
H           -4.09333126580201        2.07326839749242        4.22109818066553
H           -1.94588599776032        0.87126052060398        4.40021785653250
H           -1.30798163261327       -0.78246858770525        2.68373114932200
H            0.83965818394546       -2.37647664723261       -0.71637326511002
H            7.01632617045245       -0.03261042037034        0.18263214414171
H            8.68498578041415       -1.69333881087316       -0.60566818563179
H            8.00387130666946       -3.62236258740647       -1.94156751366892
H            5.63306710647627       -3.99794205257350       -2.53222831131906
H            1.83965831330635       -1.46419019828626       -3.45210980491546
H            0.37972049031660       -3.02068538413207       -4.68787521421466
Ag           3.68033665313082        1.51908944655126        0.84370452629188
