%NProcShared=4
%Mem=32GB
#P PBE1PBE/Def2SVP EmpiricalDispersion=GD3BJ SP SCF=(XQC,MaxCycle=128,VShift=300) Pop=(NBO,Hirshfeld) NoSymm

benzene Ag1 charges, Def2SVP, package G geometry

0 2
 C      1.14113800    -0.78307700     0.03822000
 C      1.24946800     0.59631700    -0.01283000
 C      0.10828600     1.37934400    -0.05093200
 C     -1.14115500     0.78309000    -0.03798000
 C     -1.24942900    -0.59631200     0.01305900
 C     -0.10831600    -1.37938000     0.05110900
 H      2.03181000    -1.39415100     0.06761400
 H      2.22461200     1.06162800    -0.02301600
 H      0.19281800     2.45582400    -0.09074000
 H     -2.03179600     1.39416500    -0.06777700
 H     -2.22462200    -1.06161100     0.02285500
 H     -0.19281600    -2.45583600     0.09041700
 Ag     0.02994700    -0.10449100    -3.11295300

