%Chk=F4TCNQ.chk
%NProcShared=8
%Mem=48GB
#P PBE1PBE/Def2SVP EmpiricalDispersion=GD3BJ SP SCF=(XQC,MaxCycle=128) NoSymm Guess=Read

F4TCNQ t=0.750 dz=-0.20 class=dimer

0 2
 N      3.83179500     2.64037000    -1.28925000
 C      3.31943600     1.68398900    -0.91988800
 C      2.77364900     0.46597900    -0.45645300
 C      3.77737000    -0.49182700    -0.18939600
 N      4.64344600    -1.21677600     0.00506900
 C      1.42010800     0.23866300    -0.28494000
 C      0.90301600    -1.01558300     0.18890600
 F      1.76466800    -1.99087900     0.47169500
 C     -0.42837200    -1.23927000     0.35738000
 F     -0.83463700    -2.42758300     0.80063700
 C     -1.42008900    -0.23852400     0.07444600
 C     -2.77366200    -0.46603700     0.24544700
 C     -3.77743900     0.49163200    -0.02193300
 N     -4.64359200     1.21653500    -0.21648800
 C     -3.31942700    -1.68418200     0.70852300
 N     -3.83176500    -2.64084800     1.07702500
 C     -0.90298100     1.01580400    -0.39916700
 F     -1.76461800     1.99116400    -0.68177900
 C      0.42840700     1.23949100    -0.56764200
 F      0.83468700     2.42788200    -1.01067800
 N      6.20666257     2.31104627    -3.25433267
 C      6.04927150     1.62330712    -4.15757548
 C      5.76850222     0.81226492    -5.27988692
 C      4.46859067     1.04297454    -5.78304759
 N      3.40450548     1.28184535    -6.13535253
 C      6.65873415    -0.09776240    -5.82071950
 C      6.33570634    -0.90586470    -6.96425389
 F      5.13284357    -0.76818192    -7.51903374
 C      7.21126129    -1.80116872    -7.49608810
 F      6.84222261    -2.51609166    -8.55736631
 C      8.52651513    -2.00768793    -6.95525175
 C      9.41653794    -2.91811019    -7.49576455
 C     10.71633586    -3.14909920    -6.99241609
 N     11.78042975    -3.38809169    -6.64007560
 C      9.13559118    -3.72939904    -8.61784092
 N      8.97782301    -4.41772736    -9.52050759
 C      8.84963215    -1.19940936    -5.81186650
 F     10.05256169    -1.33695544    -5.25719848
 C      7.97407700    -0.30410585    -5.28003146
 F      8.34320056     0.41098428    -4.21889462
 Ag     6.29752626     4.07390371    -2.21735928

