%Chk=F4TCNQ.chk
%NProcShared=8
%Mem=48GB
#P PBE1PBE/Def2SVP EmpiricalDispersion=GD3BJ SP SCF=(XQC,MaxCycle=128) NoSymm Guess=Read

F4TCNQ t=0.000 dz=+0.20 class=site2site

0 2
 N      3.83179500     2.64037000    -1.28925000
 C      3.31943600     1.68398900    -0.91988800
 C      2.77364900     0.46597900    -0.45645300
 C      3.77737000    -0.49182700    -0.18939600
 N      4.64344600    -1.21677600     0.00506900
 C      1.42010800     0.23866300    -0.28494000
 C      0.90301600    -1.01558300     0.18890600
 F      1.76466800    -1.99087900     0.47169500
 C     -0.42837200    -1.23927000     0.35738000
 F     -0.83463700    -2.42758300     0.80063700
 C     -1.42008900    -0.23852400     0.07444600
 C     -2.77366200    -0.46603700     0.24544700
 C     -3.77743900     0.49163200    -0.02193300
 N     -4.64359200     1.21653500    -0.21648800
 C     -3.31942700    -1.68418200     0.70852300
 N     -3.83176500    -2.64084800     1.07702500
 C     -0.90298100     1.01580400    -0.39916700
 F     -1.76461800     1.99116400    -0.68177900
 C      0.42840700     1.23949100    -0.56764200
 F      0.83468700     2.42788200    -1.01067800
 Ag     4.94938307     4.72648635    -2.09492502

