14
 energy: -24.916955827891 gnorm: 0.000205280608 xtb: 6.7.1 (edcfbbe)
N            3.93170164577363        0.14418612888878        0.27528483767404
C            2.78951442105219        0.10233354354243        0.19526717656242
C            1.37857017550551        0.05055665462799        0.09662694258483
C            0.73920180827152       -1.18115919985712       -0.06022053601532
C           -0.63553131961292       -1.23158360801953       -0.15648400863405
C           -1.37858463325451       -0.05057375281069       -0.09644407893932
C           -2.78947360215930       -0.10226046853269       -0.19590175392060
N           -3.93168288156804       -0.14418518361104       -0.27540647840528
C           -0.73921754351591        1.18113870870766        0.06043388069934
C            0.63551477185203        1.23156253995055        0.15669723283719
H            1.32644191099644       -2.08613880740404       -0.10510234305462
H           -1.14325426063561       -2.17672123285648       -0.27807994905255
H           -1.32644776961499        2.08613107508468        0.10517575590739
H            1.14324727690997        2.17671260228950        0.27815332175656
