%Chk=triazine.chk
%NProcShared=16
%Mem=32GB
#P PBE1PBE/Def2SVP EmpiricalDispersion=GD3BJ SP SCF=(XQC,MaxCycle=128,VShift=300) NoSymm Guess=Read

triazine t=0.750 dz=+0.00 class=site2site

0 2
 C      1.16372500    -0.53933000     0.33692600
 N      0.08011900    -1.38486900     0.41798800
 C     -1.09463600    -0.72249200     0.14065800
 N     -1.20490100     0.51756400    -0.21773900
 C     -0.06794200     1.21988100    -0.30915200
 N      1.13399500     0.70725700    -0.01447700
 H      2.12252000    -0.96012600     0.62337500
 H     -2.00850200    -1.29517000     0.26435700
 H     -0.12477900     2.25053900    -0.61701500
 Ag     1.71073956    -0.14156121     2.67924858

