%Chk=triazine.chk
%NProcShared=8
%Mem=48GB
#P PBE1PBE/Def2SVP EmpiricalDispersion=GD3BJ SP SCF=(XQC,MaxCycle=128) NoSymm Guess=Read

triazine t=0.500 dz=-0.20 class=dimer

0 2
 C      1.16367900    -0.53926100     0.33702300
 N      0.08013400    -1.38497400     0.41791700
 C     -1.09461800    -0.72241900     0.14075700
 N     -1.20489800     0.51755300    -0.21777700
 C     -0.06794200     1.21988100    -0.30915200
 N      1.13400000     0.70724700    -0.01451400
 H      2.12252400    -0.96013400     0.62334900
 H     -2.00850100    -1.29517700     0.26433300
 H     -0.12477900     2.25053900    -0.61701500
 C     -1.36413892    -1.26156934     3.75918549
 N     -0.14761866    -1.84086397     3.47574189
 C      0.89421631    -1.07903542     3.95536278
 N      0.78695893     0.01219642     4.64525249
 C     -0.45578992     0.44358014     4.89777249
 N     -1.55199898    -0.17685556     4.44208074
 H     -2.23779563    -1.75360276     3.34309960
 H      1.89333544    -1.41969637     3.70195405
 H     -0.57892533     1.34156706     5.47977175
 Ag     0.17850865    -3.88747190     1.62352606

