%NProcShared=32
%Mem=24GB
#P PBEPBE/Def2SVP EmpiricalDispersion=GD3BJ SP SCF=(XQC,MaxCycle=128) NoSymm

pyridine t=0.000 dz=+0.00 class=toface

0 2
 C     -0.31023600     1.14447400     0.06085300
 C      1.02506900     0.77372400     0.05743200
 C      1.33054500    -0.57746800    -0.01521600
 N      0.41407100    -1.52752500    -0.08122100
 C     -0.85758600    -1.16729700    -0.07755400
 C     -1.27637400     0.15335100    -0.00813800
 H     -0.59265100     2.18631500     0.11625000
 H      1.80928500     1.51333500     0.10975700
 H      2.35778700    -0.91886200    -0.02102800
 H     -1.57244700    -1.97828800    -0.13302000
 H     -2.32746200     0.39824100    -0.00811600
 Ag     1.01503200    -3.74449400    -0.19910100

