%NProcShared=32
%Mem=24GB
#P PBEPBE/Def2SVP EmpiricalDispersion=GD3BJ SP SCF=(XQC,MaxCycle=128) NoSymm

LiF32 t=0.667 dz=+0.00 class=site2site

0 2
 Li     0.00000000     0.00000000     0.00000000
 F      0.00000000     0.00000000     2.01300000
 F      0.00000000     2.01300000     0.00000000
 Li     0.00000000     2.01300000     2.01300000
 Li     0.00000000     4.02600000     0.00000000
 F      0.00000000     4.02600000     2.01300000
 F      0.00000000     6.03900000     0.00000000
 Li     0.00000000     6.03900000     2.01300000
 F      2.01300000     0.00000000     0.00000000
 Li     2.01300000     0.00000000     2.01300000
 Li     2.01300000     2.01300000     0.00000000
 F      2.01300000     2.01300000     2.01300000
 F      2.01300000     4.02600000     0.00000000
 Li     2.01300000     4.02600000     2.01300000
 Li     2.01300000     6.03900000     0.00000000
 F      2.01300000     6.03900000     2.01300000
 Li     4.02600000     0.00000000     0.00000000
 F      4.02600000     0.00000000     2.01300000
 F      4.02600000     2.01300000     0.00000000
 Li     4.02600000     2.01300000     2.01300000
 Li     4.02600000     4.02600000     0.00000000
 F      4.02600000     4.02600000     2.01300000
 F      4.02600000     6.03900000     0.00000000
 Li     4.02600000     6.03900000     2.01300000
 F      6.03900000     0.00000000     0.00000000
 Li     6.03900000     0.00000000     2.01300000
 Li     6.03900000     2.01300000     0.00000000
 F      6.03900000     2.01300000     2.01300000
 F      6.03900000     4.02600000     0.00000000
 Li     6.03900000     4.02600000     2.01300000
 Li     6.03900000     6.03900000     0.00000000
 F      6.03900000     6.03900000     2.01300000
 Ag     0.67100000     0.67100000     4.51300000

