32
 energy: -48.114651541209 gnorm: 0.000070674714 xtb: 6.7.1 (edcfbbe)
C            4.31868080624048       -0.42455334239622        0.26400115967486
C            3.62657386624377        0.36557857316262        1.16669535884193
C            2.25400656540016        0.49860114377527        1.06857584926116
C            1.56317361944448       -0.15368264431951        0.05122890256269
N            0.17225068808775       -0.01693997576746       -0.05618460949184
C           -0.73442522763718       -1.05127109184260       -0.17885384090097
C           -0.51847502643686       -2.42199435147360       -0.17641304320622
C           -1.61947975465019       -3.24891818745986       -0.29042856196495
C           -2.90947410496555       -2.73333265962920       -0.39566239273048
C           -3.13306110678007       -1.37140529161910       -0.37292744781713
C           -2.04217071319344       -0.51967085576032       -0.25915095399257
C           -1.90755323458275        0.90796747776812       -0.18486702017784
C           -2.81727598680944        1.95638726409742       -0.22560123623458
C           -2.34036042165359        3.24944662274792       -0.14876884596605
C           -0.97424924766033        3.50390383762681       -0.04886964240582
C           -0.04988392746174        2.47786067466380       -0.00646154498768
C           -0.52492937885080        1.17507077287861       -0.05738513103784
C            2.26117870454143       -0.94249623640653       -0.85887178671048
C            3.63218109715844       -1.07917070872645       -0.74514004278901
H            5.38988593290331       -0.52986952428800        0.34673082607818
H            4.15720516779378        0.87482041962097        1.95763607161100
H            1.70833790821123        1.09490311771473        1.78455259439603
H            0.47519393242685       -2.83241178752686       -0.07700685997585
H           -1.47684402857379       -4.31960392103631       -0.29446168111536
H           -3.74356635403652       -3.41322268685725       -0.48653231693783
H           -4.13379675750114       -0.97148009036626       -0.43784672491120
H           -3.87450858755244        1.75878600784750       -0.31961948204069
H           -3.03097421310372        4.07923417312583       -0.17565120281959
H           -0.62933331079418        4.52665706671032       -0.00718075108955
H            1.00777561818654        2.68660704342065        0.05255739840504
H            1.72574249068217       -1.43251733109670       -1.65833524563672
H            4.16817298492338       -1.69328350858874       -1.45369779589028
