%NProcShared=8
%Mem=48GB
#P PBE1PBE/Def2SVP EmpiricalDispersion=GD3BJ SP SCF=(XQC,MaxCycle=128,VShift=300) NoSymm

Mo3O9 bare molecule at its geometry in the complex

0 1
 Mo     2.00000000     0.00000000     0.00000000
 O      3.02000000     0.00000000     1.36000000
 O      3.02000000     0.00000000    -1.36000000
 O      1.15000000     1.99185800     0.00000000
 Mo    -1.00000000     1.73205100     0.00000000
 O     -1.51000000     2.61539700     1.36000000
 O     -1.51000000     2.61539700    -1.36000000
 O     -2.30000000     0.00000000     0.00000000
 Mo    -1.00000000    -1.73205100     0.00000000
 O     -1.51000000    -2.61539700     1.36000000
 O     -1.51000000    -2.61539700    -1.36000000
 O      1.15000000    -1.99185800     0.00000000

