14
 energy: -27.827864940519 gnorm: 0.000358688750 xtb: 6.7.1 (edcfbbe)
C           -1.40002278176054        0.71901092843124        0.07961418642029
C           -1.39414090293989       -0.67223331368945        0.12658925963330
C           -0.19865850965117       -1.37337094809813        0.06154608594496
C            0.98394321924717       -0.66115553464550       -0.05075027419480
N            2.24459278297388       -1.19123930977488       -0.12661465212600
S            3.33076222471198        0.13762959883062       -0.25253878744401
N            2.20699001185159        1.30405457454429       -0.20855876799160
C            0.98647769162968        0.76323625100454       -0.09941156032460
C           -0.23231525099746        1.44806524574072       -0.03207214197325
H           -2.34429141826935        1.24055593122104        0.13208953931179
H           -2.32581260401811       -1.21032540859064        0.21425076863415
H           -0.16429520745502       -2.47147614645267        0.09640678349165
H           -0.23809672954167        2.52495632836380       -0.06830909818000
Ag           2.43323947421880       -3.27247319688508       -0.06863134120183
