%Chk=DMABN.chk
%NProcShared=8
%Mem=48GB
#P PBE1PBE/Def2SVP EmpiricalDispersion=GD3BJ SP SCF=(XQC,MaxCycle=128) NoSymm Guess=Read

DMABN t=0.333 dz=+0.60 class=dimer

0 2
 N      5.14367300    -0.35031600     0.21822000
 C      3.99887100    -0.27223100     0.17032600
 C      2.59631100    -0.17776500     0.11153200
 C      1.86161700    -1.00913700    -0.73685500
 C      0.49137200    -0.91610800    -0.79559900
 C     -0.21206000     0.01391600    -0.00846100
 N     -1.57232700     0.10784000    -0.06770500
 C     -2.27612100     1.06727700     0.74702400
 C     -2.32798800    -0.75130900    -0.94546700
 C      0.54151600     0.84347500     0.84200500
 C      1.91172500     0.74971500     0.90007600
 H      2.37954900    -1.73116700    -1.35156700
 H     -0.03684700    -1.57609200    -1.46321500
 H     -3.34411800     0.99069300     0.55826800
 H     -1.96261900     2.08988200     0.51411000
 H     -2.10536700     0.88316600     1.81253100
 H     -2.03938200    -0.60155400    -1.99071300
 H     -3.38734800    -0.52503300    -0.85235200
 H     -2.18204900    -1.80570500    -0.68989100
 H      0.05287400     1.57223600     1.46685900
 H      2.46871700     1.39821500     1.56087300
 N      5.02565237     1.70170140     6.38468542
 C      3.88085042     1.77978613     6.33678977
 C      2.47844349     1.87664184     6.27823301
 C      1.79525294     2.80472518     7.06730029
 C      0.42494878     2.89862407     7.01138855
 C     -0.33015258     2.06808398     6.16323022
 N     -1.69076858     2.15974648     6.10864126
 C     -2.44792028     1.29995793     5.23279100
 C     -2.39333649     3.11835863     6.92539566
 C      0.37209832     1.13922567     5.37367133
 C      1.74241007     1.04605972     5.43025487
 H      2.35335702     3.45336071     7.72703017
 H     -0.06259579     3.62789146     7.63650828
 H     -3.50764077     1.52166969     5.33253017
 H     -2.29638457     0.24563356     5.48516068
 H     -2.16579540     1.45317889     4.18623099
 H     -2.21560477     2.93679558     7.99015173
 H     -3.46214700     3.03724128     6.74324488
 H     -2.08508370     4.14177503     6.68882158
 H     -0.15715760     0.47989364     4.70623176
 H      2.25935124     0.32430868     4.81438777
 Ag     7.99509316     0.13651628     2.39464856

