%NProcShared=4
%Mem=32GB
#P PBE1PBE/Def2SVP EmpiricalDispersion=GD3BJ SP SCF=(XQC,MaxCycle=128,VShift=300) Pop=(NBO,Hirshfeld) NoSymm

benzene Ag3 charges, Def2SVP, package G geometry

0 2
 C      1.14094900    -0.78299600     0.03835200
 C      1.24963300     0.59582000    -0.01276200
 C      0.10968800     1.37921100    -0.05136900
 C     -1.14108200     0.78332700    -0.03803300
 C     -1.24970800    -0.59604900     0.01304700
 C     -0.10824400    -1.37949600     0.05099500
 H      2.03174500    -1.39424500     0.06764800
 H      2.22446000     1.06194500    -0.02309200
 H      0.19183600     2.45590900    -0.09043800
 H     -2.03186400     1.39406800    -0.06771200
 H     -2.22459900    -1.06165900     0.02289200
 H     -0.19281600    -2.45583400     0.09047100
 Ag    -0.83789300    -1.04936100    -2.44164100
 Ag     0.40161900    -1.30745600    -4.77942900
 Ag    -2.47148200    -1.29811500    -4.52642300

