%Chk=TPA.chk
%NProcShared=16
%Mem=96GB
#P PBE1PBE/Def2SVP EmpiricalDispersion=GD3BJ SP SCF=(XQC,MaxCycle=128) NoSymm Guess=Read

TPA t=1.000 dz=-0.20 class=dimer

0 2
 C     -2.89223500    -2.90224300     0.85612500
 C     -1.55041000    -3.24430700     0.81789900
 C     -0.59282600    -2.29273600     0.53485100
 C     -0.96659700    -0.97035300     0.28643800
 N     -0.00127800     0.00201500     0.00251600
 C      1.23724600    -0.03085900     0.65285300
 C      1.31986900    -0.40383300     1.99459500
 C      2.54385500    -0.43667000     2.63367800
 C      3.70079500    -0.09323100     1.95357300
 C      3.62393700     0.28043300     0.62187000
 C      2.40754700     0.31162600    -0.02774000
 C     -0.27064700     1.00121500    -0.93929000
 C      0.19631900     2.30093400    -0.74210700
 C     -0.06993300     3.28495400    -1.67401800
 C     -0.80859600     2.99552700    -2.80962800
 C     -1.27689900     1.70713700    -3.00890100
 C     -1.01241400     0.71542100    -2.08742900
 C     -2.31899600    -0.63061300     0.32881800
 C     -3.26981800    -1.59270800     0.60802700
 H     -3.63809900    -3.65067100     1.07692400
 H     -1.24671000    -4.26392200     1.00504600
 H      0.45263300    -2.55917100     0.49086500
 H      0.41802000    -0.66263300     2.53001400
 H      2.59312600    -0.72432200     3.67371700
 H      4.65515800    -0.11725800     2.45737900
 H      4.52124600     0.54508900     0.08180700
 H      2.34614200     0.58924500    -1.06940500
 H      0.76419000     2.53161900     0.14743900
 H      0.29502800     4.28789000    -1.50735700
 H     -1.01713200     3.76803200    -3.53416800
 H     -1.84946000     1.47067600    -3.89384900
 H     -1.36441700    -0.29285600    -2.24672400
 H     -2.61535100     0.39189800     0.14543300
 H     -4.31329200    -1.31532300     0.64075300
 C      6.64701385    -2.52259556    -7.83953808
 C      5.44661288    -1.86300823    -7.63230530
 C      5.22695792    -1.15779099    -6.46740573
 C      6.21617179    -1.09839001    -5.48351651
 N      6.00307661    -0.38187532    -4.30066016
 C      5.28454160     0.81847089    -4.32959174
 C      5.42916712     1.70166019    -5.39976363
 C      4.71769817     2.88519349    -5.42637044
 C      3.85940027     3.21226167    -4.38937747
 C      3.71418077     2.33999230    -3.32306501
 C      4.41573072     1.15288741    -3.28870727
 C      6.49966012    -0.87093640    -3.08732471
 C      7.00222994     0.00613325    -2.12587775
 C      7.49057123    -0.47925490    -0.92856211
 C      7.49403936    -1.84047743    -0.67153626
 C      6.99859076    -2.71588943    -1.62398086
 C      6.50357597    -2.24175577    -2.82094420
 C      7.42424739    -1.76216296    -5.69836813
 C      7.63139550    -2.46975446    -6.86629400
 H      6.81385263    -3.07418710    -8.75229290
 H      4.67112686    -1.90264079    -8.38325345
 H      4.28718894    -0.65406220    -6.29711638
 H      6.10526662     1.45361047    -6.20496135
 H      4.84149580     3.56141683    -6.25958625
 H      3.30736412     4.13958745    -4.41238850
 H      3.04344015     2.58402453    -2.51224470
 H      4.29426572     0.46469118    -2.46557845
 H      7.00976369     1.06733917    -2.32779452
 H      7.87963768     0.21074129    -0.19413336
 H      7.87931467    -2.21616972     0.26421354
 H      6.99248996    -3.77863203    -1.43055439
 H      6.10416743    -2.92053775    -3.55961284
 H      8.19730014    -1.71439865    -4.94531228
 H      8.57269099    -2.97654926    -7.02112697
 Ag     3.24546793    -1.89005537    -3.71892929

