%Chk=Mo3O8_bridgeO_perp.chk
%NProcShared=8
%Mem=48GB
#P PBE1PBE/Def2SVP EmpiricalDispersion=GD3BJ Opt=(MaxCycles=80) SCF=(XQC,MaxCycle=128,VShift=300) NoSymm

Mo3O8 Ag at atop bridging O2, above the ring plane

0 2
 Mo -1     1.92378600     0.00000000     0.00000100
 O  -1     2.84707700     0.00000000    -1.34860700
 O  -1     0.80720100     1.39811300    -0.00000200
 Mo -1    -0.96189400     1.66604900     0.00000100
 O  -1    -1.42353900     2.46564300     1.34860800
 O  -1    -1.42353800     2.46564200    -1.34860800
 O  -1    -1.61440200     0.00000000    -0.00000100
 Mo -1    -0.96189400    -1.66604900     0.00000100
 O  -1    -1.42353900    -2.46564300     1.34860800
 O  -1    -1.42353800    -2.46564200    -1.34860800
 O  -1     0.80720100    -1.39811300    -0.00000200
 Ag  0     1.40406338     1.39811300     2.42770377

