31
 energy: -73.927178058909 gnorm: 0.000203234461 xtb: 6.7.1 (edcfbbe)
N           -2.46737294989600        5.52520800916339       -0.38711194250651
C           -2.19743647776215        4.40681021755665       -0.55515318332106
C           -1.48134981085082        3.21752999733621       -0.66694135731894
N           -1.92311079103704        2.00217419086964       -0.41935356099686
C           -1.02186274891729        1.04450850382176       -0.25918509053227
C           -1.46995889579729       -0.30179853291464       -0.00315393007631
N           -2.77626808143820       -0.56143056453216       -0.01607092206073
C           -3.16735721839677       -1.79873831214838        0.21390880641140
C           -4.55804983647775       -2.08939975094036        0.21084246435962
N           -5.66974336975949       -2.36015204844651        0.21710644421636
C           -2.22178018984624       -2.83522045949541        0.45762411086261
C           -2.66395853932240       -4.16577378464004        0.67975901733284
N           -3.06192656424270       -5.22436834188237        0.85499402428141
N           -0.92728001860113       -2.57835940003533        0.47957768791821
C           -0.53115403012354       -1.33032642278535        0.25925454078787
C            0.88384577010531       -1.02761694168684        0.28556561484588
N            1.74614788204640       -2.00085303475050        0.55451767903013
C            3.03238172014304       -1.70542903587861        0.57963893458672
C            3.97019349956737       -2.73388956632039        0.85884671800852
N            4.75879553542637       -3.53342098909821        1.07927444986276
C            3.48065018696683       -0.37588327680644        0.33639390186541
C            4.86692591479892       -0.07012558763607        0.39337121431518
N            5.99066054531308        0.13830339308958        0.44836919511853
N            2.62759462993124        0.58983239114865        0.05973572743335
C            1.33017996038761        0.29094990717344        0.02078244740853
C            0.38162420084594        1.33194824920185       -0.28810513251574
N            0.83124183879084        2.52926088493794       -0.63350895929722
C           -0.06089819582454        3.46311942684960       -0.88921151198226
C            0.15442289799969        4.66366173370913       -1.56164077330103
N           -0.00836739132757        5.61289360757937       -2.21300897520043
Zn          -1.55692447268910        7.08888253755530       -1.65644963953115
