%Chk=Mo3O9.chk
%NProcShared=8
%Mem=48GB
#P PBE1PBE/Def2SVP EmpiricalDispersion=GD3BJ SP SCF=(XQC,MaxCycle=128) NoSymm Guess=Read

Mo3O9 t=0.167 dz=+0.60 class=dimer

0 2
 Mo     2.00000000     0.00000000     0.00000000
 O      3.02000000     0.00000000     1.36000000
 O      3.02000000     0.00000000    -1.36000000
 O      1.15000000     1.99185800     0.00000000
 Mo    -1.00000000     1.73205100     0.00000000
 O     -1.51000000     2.61539700     1.36000000
 O     -1.51000000     2.61539700    -1.36000000
 O     -2.30000000     0.00000000     0.00000000
 Mo    -1.00000000    -1.73205100     0.00000000
 O     -1.51000000    -2.61539700     1.36000000
 O     -1.51000000    -2.61539700    -1.36000000
 O      1.15000000    -1.99185800     0.00000000
 Mo     6.82947534    -0.00000000     4.19954378
 O      5.34101463    -0.00000000     3.37827359
 O      8.03466372    -0.00000000     3.00057714
 O      6.94750548    -1.99185800     5.04130911
 Mo     7.24605231    -1.73205100     7.17048027
 O      5.97004585    -2.61539700     7.86438769
 O      8.66369493    -2.61539700     7.48669125
 O      7.42656899    -0.00000000     8.45788608
 Mo     7.24605231     1.73205100     7.17048027
 O      5.97004585     2.61539700     7.86438769
 O      8.66369493     2.61539700     7.48669125
 O      6.94750548     1.99185800     5.04130911
 Ag     0.41120533    -0.00000000     3.45268728

