14
 energy: -24.915536231850 gnorm: 0.000086066572 xtb: 6.7.1 (edcfbbe)
N            3.35959666555568       -1.01611497705504       -0.03551937635117
C            2.24488175175226       -0.75326751108625       -0.01602436497143
C            0.86123539538937       -0.45615867510040        0.01112707732184
C           -0.06931469382216       -1.48235886593839        0.15621371454111
C           -1.42075872035081       -1.18905500980887        0.18244380312580
C           -1.85640181286118        0.12349652903497        0.06492351781099
C           -0.94396909412854        1.15289235550104       -0.07974118501877
C            0.42014718120358        0.87279559444268       -0.10786954892144
C            1.35623211193834        1.92416226028881       -0.25574358852804
N            2.09631204610312        2.79008388338994       -0.37632791117652
H            0.27779315155353       -2.50083111176143        0.24702871736575
H           -2.13850083331446       -1.98723949093992        0.29504087794545
H           -2.91255226828511        0.34490597397720        0.08623389241150
H           -1.27470088073363        2.17669004505566       -0.17178362555506
