13
 energy: -13.395706189155 gnorm: 0.000540968144 xtb: 6.7.1 (edcfbbe)
Al          -0.00012891320997       -0.00003856691835       -0.00008167263849
Al          -0.00035953511767       -1.35877509340135       -2.19886423835706
Al          -1.35905245363778       -2.19885880520692       -0.00033600740619
Al          -2.19856786821444       -0.00027599199606       -1.35901190254213
Al           0.00011058406645       -1.35946253056925        2.19928884253502
Al          -1.35937203716622        2.19922210475966       -0.00004993972279
Al           2.19910081108284        0.00013444012452       -1.35960639087608
Al          -0.00004767991968        1.35871622450440       -2.19922183911396
Al           1.35895874576108       -2.19951698066245        0.00001317414110
Al          -2.19954210185998       -0.00004339750812        1.35893885219815
Al           0.00013702576210        1.35941016600092        2.19936888631326
Al           1.35931367945580        2.19940262285985        0.00001884544032
Al           2.19944974299747        0.00008580801316        1.35954339002886
