8
 energy: -31.165144843780 gnorm: 0.000003160040 xtb: 6.7.1 (edcfbbe)
Cu           0.23556135375815        0.23556139644189        0.23556139787807
Cu           2.38443855799843        2.38443860045392        0.23556140418492
Cu           2.38443855737159        0.23556140325366        2.38443860150789
Cu           0.23556137380811        2.38443858657100        2.38443858812462
I            2.79765467969332       -0.17765477167807       -0.17765477318170
I           -0.17765462580326        2.79765453409029       -0.17765455345936
I           -0.17765462632368       -0.17765455260377        2.79765453310376
I            2.79765472949734        2.79765480347108        2.79765480184180
