72
 energy: -114.896082604923 gnorm: 0.000139167126 xtb: 6.7.1 (edcfbbe)
C           -7.42230028796474        4.59781507810604        0.15332505477508
C           -7.92626278714483        3.38943499948240       -0.30170755447036
C           -7.12582533723223        2.26465942827892       -0.31313313718981
C           -5.80259200401112        2.33139802422466        0.12511279501988
C           -4.98883843593441        1.10932795294302        0.08921084401567
C           -3.58028236202760        1.14234675822195        0.08904458222873
C           -2.87248224986591       -0.03656384467041        0.05769859291684
C           -1.39272812330117       -0.02188586854861        0.05055954108155
C           -0.68404242085833       -0.00896417466858        1.24593794866897
C            0.69825887070036        0.01059557947593        1.23801529309476
C            1.39321910652955        0.02185573161588        0.03458764622430
C            2.87295942664652        0.03654348651190        0.02476696295437
C            3.58108340678253       -1.14235831272940        0.04807053842676
C            4.98954989586213       -1.10932189223687        0.03219567035411
C            5.80367318288087       -2.33137869973003        0.05899489542904
C            5.31487855021659       -3.54750244573821        0.53164854917657
C            6.12185530414778       -4.67047479517442        0.53566495598985
C            7.42362577045450       -4.59777266137482        0.06912215414551
C            7.92235450542167       -3.38946260673015       -0.39182456089932
C            7.12182499766911       -2.26469703312429       -0.39431304598963
N            5.65428095718534        0.02768822228927       -0.02865822670274
C            4.99471733676245        1.18303519622504       -0.05470672189868
C            3.58143634420541        1.25821307983467       -0.01783991602026
C            2.93284786726023        2.52356325180927       -0.03277960439981
C            3.65069854974765        3.67077640871076       -0.08581797008509
C            5.07227156468061        3.64301972437460       -0.13471043277721
C            5.84867978612852        4.81232560824226       -0.19772659504992
C            7.21644689942197        4.70913845427752       -0.24668469710336
C            7.78649035810131        3.42949408455428       -0.23313051978051
N            7.09123809040188        2.32404726876144       -0.17362012230686
C            5.75746081735277        2.40403727610357       -0.12262602264367
C            0.68441069443436        0.01065838109283       -1.16087528582992
C           -0.69764466802929       -0.01235289789077       -1.15295154197057
C           -3.58141254987549       -1.25822929515823        0.02329288837448
C           -2.93305279698957       -2.52359060023873        0.00112365541850
C           -3.65147728355757       -3.67080247980400       -0.04350957350168
C           -5.07351671571541       -3.64303473707040       -0.07611857682990
C           -5.85061031161385       -4.81234074611533       -0.13002603614126
C           -7.21884790625724       -4.70914330389128       -0.16330635230048
C           -7.78868344592226       -3.42948888434502       -0.14343267998300
N           -7.09278141140481       -2.32404151718881       -0.09208713804737
C           -5.75850798830648       -2.40404115978487       -0.05638059818117
C           -4.99502236494168       -1.18303894518336        0.00261334767249
N           -5.65423248563893       -0.02768100055319        0.03605922651923
C           -5.30843021159132        3.54759398163560        0.59196405417543
C           -6.11529672936000        4.67057727800852        0.60499020253942
H           -8.04715699055524        5.47896893242620        0.16240255068790
H           -8.94777116365547        3.32720673236232       -0.64745717835334
H           -7.50092147063870        1.31275949009090       -0.65460189435819
H           -3.04947344389205        2.08211700227849        0.09176143098558
H           -1.22171127713344       -0.01748678568695        2.18324491596824
H            1.24661927127828        0.02037025082992        2.16909560831488
H            3.05035331204093       -2.08213562718477        0.05690445968901
H            4.30984304161855       -3.62021832629545        0.92027604656589
H            5.73376635768916       -5.60757595548327        0.90844789193566
H            8.04855745923639       -5.47891757423980        0.07122645434852
H            8.93985625987087       -3.32728050192891       -0.74920110239313
H            7.49299420434497       -1.31284887831462       -0.74018882295540
H            1.85266916131962        2.54623475550098        0.00027498290570
H            3.15774393679942        4.63292192407684       -0.09449275091849
H            5.35770811307360        5.77622685521185       -0.20761304891742
H            7.84437225155278        5.58557848217112       -0.29573858006087
H            8.86144778893788        3.30638682235299       -0.27319677122112
H            1.22212153965029        0.02034807832745       -2.09810652461960
H           -1.24604564642380       -0.02329530523643       -2.08395439621303
H           -1.85256729601771       -2.54627311855820        0.02183890504125
H           -3.15866575006319       -4.63295633620314       -0.05766172592475
H           -5.35979575783257       -5.77625049363892       -0.14537599027654
H           -7.84730502535589       -5.58558324616101       -0.20499979137284
H           -8.86402834146804       -3.30637376144144       -0.17118544690044
H           -4.29902860500387        3.62036512717973        0.96909492841315
H           -5.72297333482351        5.60773610473392        0.97316736053067
