34
 energy: -49.100164090288 gnorm: 0.000060914388 xtb: 6.7.1 (edcfbbe)
C           -2.89223529598831       -2.90224297383257        0.85612546951270
C           -1.55032785215967       -3.24413600949868        0.81875487712378
C           -0.59248825587304       -2.29102272264614        0.53280910597287
C           -0.96682478253998       -0.97020915268243        0.28615389162099
N            0.00002532058699       -0.00003586793493       -0.00004728447419
C            1.23714820499105       -0.03119690955513        0.65302348007109
C            1.31985311028377       -0.40369923933728        1.99463325868737
C            2.54385526462300       -0.43667014232386        2.63367802891980
C            3.70079452879290       -0.09323054766315        1.95357290354590
C            3.62383820260265        0.28127401566680        0.62209740557536
C            2.40561209959536        0.30979650783086       -0.02810123745500
C           -0.27027921228106        1.00134426180936       -0.93925892595979
C            0.19620089985426        2.30096551172292       -0.74203889476025
C           -0.06993292456641        3.28495409517319       -1.67401846674900
C           -0.80859638287254        2.99552658902030       -2.80962849035530
C           -1.27764490078412        1.70732875441059       -3.00848211444972
C           -1.01014059477186        0.71447144185898       -2.08635288072178
C           -2.31898508400249       -0.63058403614354        0.32895517706740
C           -3.26981755929881       -1.59270835223928        0.60802689365223
H           -3.63809858820287       -3.65067116162452        1.07692382962796
H           -1.24671030856086       -4.26392241660841        1.00504641471120
H            0.45246020694633       -2.56234676016190        0.49473279191632
H            0.41801953248763       -0.66263298055416        2.53001441483182
H            2.59312595003887       -0.72432178306479        3.67371731163630
H            4.65515845545609       -0.11725821518762        2.45737930225659
H            4.52124555732700        0.54508898661648        0.08180664295404
H            2.34960201252086        0.59284964467484       -1.06912364101928
H            0.76419031688631        2.53161859021189        0.14743885275642
H            0.29502837603914        4.28788969738449       -1.50735655952837
H           -1.01713193853419        3.76803160288602       -3.53416809765113
H           -1.84946009992832        1.47067618894471       -3.89384947175224
H           -1.36883826602932       -0.29150088359216       -2.24864718592928
H           -2.61535087528299        0.39189842619394        0.14543273709380
H           -4.31329211735539       -1.31532315975482        0.64075346127159
