%Chk=benzene.chk
%NProcShared=8
%Mem=48GB
#P PBE1PBE/Def2SVP EmpiricalDispersion=GD3BJ SP SCF=(XQC,MaxCycle=128) NoSymm Guess=Read

benzene t=0.250 dz=-0.20 class=dimer

0 2
 C      1.14112300    -0.78307800     0.03817600
 C      1.24945800     0.59631900    -0.01286200
 C      0.10830000     1.37936500    -0.05090200
 C     -1.14115500     0.78308900    -0.03800500
 C     -1.24942900    -0.59631300     0.01303300
 C     -0.10830500    -1.37940200     0.05115300
 H      2.03181000    -1.39415000     0.06762200
 H      2.22461200     1.06162800    -0.02301000
 H      0.19281800     2.45582500    -0.09071800
 H     -2.03179600     1.39416500    -0.06777700
 H     -2.22462200    -1.06161100     0.02285500
 H     -0.19281600    -2.45583500     0.09043400
 C     -1.63893089    -5.84362929    -2.08836191
 C     -1.70467728    -6.80867413    -3.07904011
 C     -0.54216983    -7.38400758    -3.56320695
 C      0.68605533    -6.99428039    -3.05682285
 C      0.75174076    -6.02923021    -2.06614551
 C     -0.41073963    -5.45392131    -1.58188885
 H     -2.54626120    -5.39448304    -1.71071295
 H     -2.66325812    -7.11273992    -3.47427110
 H     -0.59345335    -8.13712338    -4.33630547
 H      1.59336287    -7.44320467    -3.43471392
 H      1.71038378    -5.72494992    -1.67115545
 H     -0.35942462    -4.70045801    -0.80919684
 Ag    -0.06218484    -1.21371055    -3.33459082

