15
 energy: -28.814384716991 gnorm: 0.000474380065 xtb: 6.7.1 (edcfbbe)
N            3.36115684700852        0.67505748822087        0.26101247389120
C            2.28222470101279        0.20106113196663        0.22321524484954
C            0.94838388808662       -0.07316462218050        0.11702817079930
C            0.29839615976256       -1.27176286923660        0.46446631661867
C           -1.06569589613790       -1.35185282684791        0.47848918004700
C           -1.85719508682963       -0.22652275939322        0.15403780173728
C           -1.27414132144084        0.94434867128977       -0.24243183457681
C            0.12512284525228        1.06330245747360       -0.32419335044945
C            0.83493960164716        2.10058674059635       -0.85936150717697
N            1.64958850463990        2.83503648626663       -1.29169259360162
H            0.90757864661576       -2.11966986956868        0.74167395741098
H           -1.55108179021898       -2.27540045158964        0.75421287539044
H           -2.93208734036056       -0.30578171890955        0.20674038956545
H           -1.87546745309198        1.79708086726045       -0.52243279245904
Ag           3.73061469406686        2.53647327464993       -0.77921333204785
