%NProcShared=4
%Mem=32GB
#P PBE1PBE/Def2SVP EmpiricalDispersion=GD3BJ SP SCF=(XQC,MaxCycle=128,VShift=300) Pop=(NBO,Hirshfeld) NoSymm

Mo3O9 Ag3 charges, Def2SVP, package G geometry

0 2
 Mo     1.99996400    -0.00001500     0.00001100
 O      3.02000400     0.00000200     1.35999700
 O      3.02001300     0.00000600    -1.35999000
 O      1.15001700     1.99188800    -0.00004400
 Mo    -0.99999500     1.73201200     0.00007300
 O     -1.51000200     2.61541600     1.35998700
 O     -1.51000000     2.61539600    -1.36000100
 O     -2.30000000     0.00000000    -0.00002400
 Mo    -1.00000000    -1.73205100     0.00000000
 O     -1.51000000    -2.61539700     1.36000000
 O     -1.51000000    -2.61539700    -1.36000000
 O      1.15000000    -1.99185800    -0.00001000
 Ag     2.13960000     3.44683700     1.33019700
 Ag     3.82116600     1.72388200     2.62332900
 Ag     3.77668100     4.31991000     3.26818000

