%NProcShared=8
%Mem=48GB
#P PBE1PBE/Def2SVP EmpiricalDispersion=GD3BJ SP SCF=(XQC,MaxCycle=128,VShift=300) NoSymm

Liq bare molecule at its geometry in the complex

0 1
 Li    -0.11114600     2.91977800    -1.28729100
 O     -1.58728800     2.25594000    -0.85235600
 C     -1.38118600     1.08552500    -0.35178200
 C     -2.41239300     0.26517900     0.10985400
 C     -2.16466500    -0.99258600     0.64571300
 C     -0.88981300    -1.49723600     0.75003800
 C      0.19553600    -0.72759900     0.30527700
 C      1.53551800    -1.15965600     0.37116800
 C      2.53467200    -0.34372900    -0.08697000
 C      2.19719100     0.91048400    -0.61312500
 N      0.96173200     1.35017500    -0.69157000
 C     -0.03981900     0.56472700    -0.24705500
 H     -3.42297000     0.63861500     0.03867200
 H     -3.00139700    -1.58569800     0.98816700
 H     -0.70774300    -2.47576000     1.16853600
 H      1.75548100    -2.13452300     0.78529100
 H      3.56980200    -0.64686000    -0.04994600
 H      2.96848800     1.57322500    -0.98261900

