%Chk=Bphen.chk
%NProcShared=16
%Mem=96GB
#P PBE1PBE/Def2SVP EmpiricalDispersion=GD3BJ SP SCF=(XQC,MaxCycle=128) NoSymm Guess=Read

Bphen t=0.333 dz=+0.20 class=dimer

0 2
 C     -5.07510400     2.59605700    -0.84858200
 C     -4.71571600     2.43416300     0.47885700
 C     -3.98564800     1.32625400     0.87075400
 C     -3.60881400     0.37048200    -0.06520000
 C     -2.84989300    -0.82781600     0.35639200
 C     -3.51290300    -1.97087000     0.74920000
 C     -2.76400800    -3.08483600     1.14144000
 N     -1.45742800    -3.11297000     1.16005400
 C     -0.78703100    -2.01864300     0.78421300
 C     -1.43729800    -0.83218200     0.36743400
 C     -0.66728700     0.30029800    -0.02101800
 C      0.68582400     0.26342600     0.00090800
 C      1.38005500    -0.90894900     0.41310100
 C      2.79040800    -0.98148200     0.44787000
 C      3.62669400     0.17332600     0.05206600
 C      4.02532800     1.10750000     1.00070700
 C      4.82691800     2.17366100     0.63355500
 C      5.23657100     2.31502900    -0.68161100
 C      4.84107900     1.38739700    -1.63058400
 C      4.03948600     0.32006200    -1.26686800
 C      3.37713500    -2.15854800     0.86105500
 C      2.55639600    -3.22974500     1.22785100
 N      1.25030700    -3.18672200     1.20402400
 C      0.65300400    -2.05787400     0.80757300
 C     -3.97094100     0.53789100    -1.39649600
 C     -4.70102000     1.64700000    -1.78496600
 H     -5.64659900     3.46042300    -1.15284400
 H     -5.00581700     3.17228700     1.21221300
 H     -3.70334100     1.19590800     1.90579800
 H     -4.59224300    -2.00367300     0.75332400
 H     -3.25874200    -3.99548300     1.45463800
 H     -1.19165500     1.19194300    -0.33447900
 H      1.26783200     1.12492600    -0.29461700
 H      3.70361400     0.99327400     2.02611200
 H      5.13349300     2.89518000     1.37666900
 H      5.86382500     3.14671300    -0.96650600
 H      5.15874500     1.49424000    -2.65745800
 H      3.72879300    -0.40634000    -2.00430500
 H      4.45238900    -2.25004100     0.90015300
 H      2.99041800    -4.16568900     1.55613100
 H     -3.67719800    -0.20533800    -2.12404600
 H     -4.97962600     1.76976200    -2.82135600
 C     14.02413409   -11.08993037     4.03734165
 C     13.36648703   -11.29895957     2.83681225
 C     12.03919607   -10.93377352     2.69903436
 C     11.35914194   -10.35509444     3.76400890
 C      9.93246684    -9.98723387     3.62654710
 C      8.94447705   -10.89740877     3.93624156
 C      7.60653341   -10.51599990     3.79464248
 N      7.22651397    -9.33556962     3.38177582
 C      8.16280721    -8.43177231     3.07396813
 C      9.54820123    -8.70400906     3.17794967
 C     10.49664518    -7.69937107     2.83519696
 C     10.09521145    -6.47896697     2.40833111
 C      8.71236440    -6.16297388     2.28914509
 C      8.25913529    -4.90013520     1.84711868
 C      9.21255284    -3.82921849     1.48140161
 C      9.66208192    -3.70859347     0.17186616
 C     10.53498224    -2.69231212    -0.17347954
 C     10.96492547    -1.78953507     0.78443722
 C     10.52062718    -1.90628945     2.09074203
 C      9.64772914    -2.92139771     2.43952405
 C      6.90038015    -4.68318470     1.76243262
 C      6.02810716    -5.71746412     2.11601532
 N      6.42319876    -6.89342863     2.52747284
 C      7.73558618    -7.13297790     2.61965453
 C     12.02375196   -10.14632722     4.96659801
 C     13.35107090   -10.51269214     5.10094167
 H     15.05970310   -11.37716113     4.14413959
 H     13.88814650   -11.74911107     2.00492784
 H     11.52210374   -11.09541304     1.76389181
 H      9.20121517   -11.88761616     4.28213568
 H      6.81041350   -11.21069445     4.03070442
 H     11.54738680    -7.93640331     2.92468533
 H     10.81772002    -5.71813416     2.14878269
 H      9.32383141    -4.41511756    -0.57272312
 H     10.87927994    -2.60438786    -1.19354068
 H     11.64485914    -0.99556442     0.51312225
 H     10.85368361    -1.20387608     2.84073283
 H      9.29830620    -3.01593410     3.45784119
 H      6.51790621    -3.73013130     1.42855584
 H      4.95644920    -5.57450179     2.05905020
 H     11.49465443    -9.69579160     5.79429165
 H     13.86068028   -10.34817197     6.03903945
 Ag     1.44065786    -6.32994894     2.29786970

