%NProcShared=8
%Mem=48GB
#P PBE1PBE/Def2SVP EmpiricalDispersion=GD3BJ SP SCF=(XQC,MaxCycle=128,VShift=300) NoSymm

thiophene bare molecule at its geometry in the complex

0 1
 C      0.57542500    -0.73324700     0.28245000
 C     -0.81019200    -0.52531900     0.12717000
 C     -1.10887900     0.73711600    -0.28341800
 S      0.30754200     1.69927000    -0.46889600
 C      1.30882200     0.37431000    -0.01247900
 H      1.01060700    -1.66547500     0.59466800
 H     -1.55378600    -1.28065900     0.30728900
 H     -2.07003400     1.17888200    -0.45714100
 H      2.37053900     0.51252400     0.04049600

