12
 energy: -15.879640657421 gnorm: 0.000006229084 xtb: 6.7.1 (edcfbbe)
C            1.14122543219223       -0.78309193667900        0.03803334859142
C            1.24952883936961        0.59631107560564       -0.01288766904868
C            0.10830323740885        1.37940320168585       -0.05092101447128
C           -1.14122577376618        0.78309196684919       -0.03803335356265
C           -1.24952885169632       -0.59631120285612        0.01288769824763
C           -0.10830324429473       -1.37940298221486        0.05092104404028
H            2.03178646882937       -1.39418132862713        0.06771209422568
H            2.22460449240602        1.06164556062803       -0.02294546494010
H            0.19281804240609        2.45582692032556       -0.09065770516944
H           -2.03178645167936        1.39418164683078       -0.06771243585214
H           -2.22460480691453       -1.06164512029341        0.02294510395084
H           -0.19281838426105       -2.45582680125452        0.09065735398843
