20
 energy: -52.630952093943 gnorm: 0.000577105646 xtb: 6.7.1 (edcfbbe)
O           -0.14725250658203       -1.24326045940225        1.69309091941284
O           -0.59905492157873        0.66462519399031       -0.37582928246677
O            1.26672682088868       -1.22833116098517       -0.82674680696300
Al           0.57956806601601        0.13787862741760       -1.73470934650599
Al           0.00059203662164        0.50802054599031        1.42615315364731
O           -0.94945305034550        1.69546454546996        2.09697433540049
O            1.71838136006681        0.73204341801302        1.18307972366513
Al          -0.16449074016454       -1.87084274939497        0.01034759270152
Al          -2.29621935361885       -0.06340149745887       -0.41589649711957
O            1.35566006254691        1.66981105087414       -1.60061607283616
Al           2.63708167160038       -0.68639941570088        0.46003672138951
Al          -2.27694261729911        2.35173115933966        1.22503797534567
O           -1.66675007926071       -1.76147706580876       -0.85706232709832
O            2.51093386593508       -1.99617100695515        1.53554741814460
O           -3.14419747709187        1.07592283145434        0.43844098546062
Al           2.44448975417983        1.75571443667141       -0.18320749500828
Al          -0.11050264185528        2.56564049223260       -0.53270290609514
Al          -1.82291740266771       -1.22141694342987       -2.63797198169596
Al           1.02990791022889       -2.63073129122889        2.08316418393711
O           -0.36555575761991       -0.45481671108849       -2.98712829331559
