31
Lattice="15.0 0.0 0.0 -7.5 12.990381056766578 0.0 0.0 0.0 22.0" Properties=species:S:1:pos:R:3 pbc="T T T"
N       -5.69917697       2.19855085      10.99943274
C       -4.55362253       2.01264444      10.99963314
C       -3.13508950       1.81362893      10.99989821
N       -2.71122315       0.52135175      10.99991418
C       -1.37669370       0.26224275      10.99999234
C       -0.92216635      -1.05533250      10.99998512
N       -1.81307995      -2.08215902      11.00009088
C       -1.34996589      -3.36089089      11.00009629
C       -2.34406257      -4.39219308      11.00034914
N       -3.13133177      -5.24487017      11.00052020
C       -0.00310115      -3.62187831      10.99998612
C        0.53383076      -4.94986209      10.99998491
N        0.94560709      -6.03489491      10.99992074
N        0.90411867      -2.60867290      10.99988234
C        0.46122699      -1.32339033      10.99990075
C        1.37500295      -0.27095126      10.99991417
N        2.70972010      -0.52907576      10.99975506
C        3.58559575       0.51134555      10.99983485
C        4.97579380       0.16610272      10.99958628
N        6.10787800      -0.08931747      10.99937235
C        3.13818213       1.80825016      11.00014492
C        4.01980544       2.93720749      11.00040175
N        4.75360835       3.83631118      11.00060651
N        1.80711193       2.08733072      11.00025801
C        0.91546413       1.06113454      11.00010387
C       -0.45284960       1.32626404      11.00008229
N       -0.89666448       2.61122802      11.00014061
C       -2.23563905       2.84954434      11.00003908
C       -2.63174690       4.22610549      11.00004538
N       -2.97653254       5.33424574      11.00012775
Ag      -3.49577759      -3.53652787      12.40000000
