%NProcShared=4
%Mem=32GB
#P PBE1PBE/Def2TZVP EmpiricalDispersion=GD3BJ SP SCF=(XQC,MaxCycle=128,VShift=300) Pop=(NBO,Hirshfeld) NoSymm

HATCN Ag2 charges, Def2TZVP, package G geometry

0 1
 N     -2.61113100     5.40028600    -1.15558200
 C     -1.91043300     4.49872600    -0.94742000
 C     -1.02053300     3.40455200    -0.69637000
 N     -1.60285000     2.19322700    -0.49823800
 C     -0.81632500     1.11049800    -0.25391700
 C     -1.39334700    -0.14088000    -0.05362300
 N     -2.74420800    -0.28491300    -0.10011900
 C     -3.28927700    -1.51360200     0.09520000
 C     -4.71795400    -1.58933100     0.03037400
 N     -5.87422800    -1.67540200    -0.01937800
 C     -2.49408600    -2.60347600     0.34564000
 C     -3.01919500    -3.91859500     0.56141300
 N     -3.46773400    -4.97503500     0.73346900
 N     -1.14053900    -2.48239400     0.39936900
 C     -0.57676600    -1.26097100     0.20342300
 C      0.80853000    -1.11610800     0.25422400
 N      1.59673000    -2.19598500     0.50060700
 C      2.94631800    -2.03432000     0.54655600
 C      3.71472200    -3.21402400     0.81055800
 N      4.35815500    -4.15618900     1.02309800
 C      3.51485000    -0.80162800     0.34810600
 C      4.92951900    -0.58015300     0.38637900
 N      6.07908500    -0.42499200     0.42211800
 N      2.74370400     0.29089000     0.10037200
 C      1.39248600     0.15003900     0.05051900
 C      0.58477200     1.25754000    -0.20170000
 N      1.14769200     2.47923400    -0.39839800
 C      0.34270800     3.54794700    -0.64235200
 C      1.00321200     4.80344100    -0.84058300
 N      1.51612400     5.83162000    -1.00374300
 Ag    -3.79606000     1.81318600     0.37346700
 Ag    -4.94401900     2.69631200     2.55258700

