%Chk=BTD.chk
%NProcShared=8
%Mem=48GB
#P PBE1PBE/Def2SVP EmpiricalDispersion=GD3BJ SP SCF=(XQC,MaxCycle=128) NoSymm Guess=Read

BTD t=1.000 dz=+0.60 class=site2site

0 2
 C     -1.40002300     0.71901100     0.07961400
 C     -1.39414100    -0.67223300     0.12658900
 C     -0.19865900    -1.37337100     0.06154600
 C      0.98394300    -0.66115600    -0.05075000
 N      2.24459300    -1.19123900    -0.12661500
 S      3.33076200     0.13763000    -0.25253900
 N      2.20699000     1.30405500    -0.20855900
 C      0.98647800     0.76323600    -0.09941200
 C     -0.23231500     1.44806500    -0.03207200
 H     -2.34429100     1.24055600     0.13209000
 H     -2.32581300    -1.21032500     0.21425100
 H     -0.16429500    -2.47147600     0.09640700
 H     -0.23809700     2.52495600    -0.06830900
 Ag     1.32889463     2.08332851     2.70432067

