35
 energy: -52.792420644500 gnorm: 0.000074172887 xtb: 6.7.1 (edcfbbe)
O            0.15720274420439       -0.10049241796991        2.62699071875757
P            0.06960745325313       -0.04449265867323        1.16330421946679
C            1.16679245450845       -1.23652623853447        0.32724656924684
C            1.69195610272376       -1.03474060074820       -0.94187581062544
C            2.50639185255369       -1.99994477188565       -1.50715044305340
C            2.79566880320809       -3.16254714786162       -0.81059882196241
C            2.27647434712896       -3.36136697874279        0.45855146853478
C            1.46344640263714       -2.39779583594995        1.02711183569173
C           -1.60108396780683       -0.39814847529757        0.52497644678252
C           -1.84252656528130       -0.94712868739870       -0.72702799293687
C           -3.14505136462166       -1.16990005408582       -1.13722634196016
C           -4.20325309816661       -0.84585497031681       -0.30313063869273
C           -3.96220628680466       -0.30354431664696        0.94892238287634
C           -2.66138056901524       -0.08119062334973        1.36263404773857
C            0.51364142100801        1.58393833511629        0.47424700444056
C            0.00744533273803        2.07344249164423       -0.72213705103146
C            0.40988889285222        3.31619037386071       -1.17829274390126
C            1.31431373598799        4.06804607107841       -0.44533181096963
C            1.81498624392061        3.58219986057985        0.75179493047310
C            1.41344137647345        2.34112257203512        1.21139760893117
H            1.47376454518540       -0.12193263308292       -1.47861796743757
H            2.91945594113314       -1.84434151088290       -2.49342427257607
H            3.43235506209498       -3.91231912518008       -1.25706895325146
H            2.50746748675860       -4.26537385864877        1.00273562564881
H            1.05567043614447       -2.52175174072214        2.02023368691367
H           -1.01486499743954       -1.20930228821775       -1.37135731858888
H           -3.33617012672364       -1.60022510443915       -2.10977942167183
H           -5.21794917281785       -1.02242848665506       -0.62882196249056
H           -4.78771408496708       -0.05688528376820        1.60039592110052
H           -2.44480745778248        0.32876480400482        2.33883258845645
H           -0.70646224522083        1.48968492337927       -1.28648241852266
H            0.01511923342108        3.70145114988795       -2.10743451344673
H            1.62449165231145        5.03770228838041       -0.80646643774453
H            2.51535066933679        4.17178085250864        1.32504206708175
H            1.77854074706349        1.94391108658259        2.14780779872169
