9
 energy: -16.697646902552 gnorm: 0.000065397142 xtb: 6.7.1 (edcfbbe)
C            1.16278681645334       -0.54815659050806        0.08522278695084
N            0.11976845070031       -1.34485824634068       -0.07559636288295
C           -1.04917604690770       -0.72755380356738       -0.10702355283772
N           -1.22581323699877        0.57786848368944        0.00767404543359
C           -0.11361030938997        1.27571088831965        0.16421263484658
N            1.10604520436941        0.76699018195752        0.21033468082312
H            2.14192444170567       -1.00973750384716        0.11700685560815
H           -1.93264774891514       -1.34020042794124       -0.23709863455206
H           -0.20927657101715        2.34993801823790        0.26250654661045
