%Chk=Me3PO.chk
%NProcShared=16
%Mem=32GB
#P PBE1PBE/Def2SVP EmpiricalDispersion=GD3BJ SP SCF=(XQC,MaxCycle=128,VShift=300) NoSymm Guess=Read

Me3P=O t=0.250 dz=+0.00 class=toface

0 2
 O      0.24166900    -0.10267900    -2.00717000
 P      0.06578900    -0.02795200    -0.54640200
 C      1.44776300    -0.79679400     0.37455600
 C     -0.05153200     1.69236100     0.06670000
 C     -1.45286700    -0.87150300     0.02913300
 H      1.51996900    -1.83906200     0.06968100
 H      1.30423100    -0.73408000     1.44858800
 H      2.36764300    -0.28817100     0.09240400
 H     -0.89547900     2.17110700    -0.42629300
 H      0.85912400     2.21629900    -0.21734500
 H     -0.18078800     1.73137200     1.14366300
 H     -2.30543600    -0.40853100    -0.46409000
 H     -1.39850700    -1.91423100    -0.27786800
 H     -1.56877900    -0.80807900     1.10645400
 Ag     0.50878512    -0.21617050    -4.22567290

