15
benzene Ag3, package G, PBE0-D3/def2-SVP
C 1.140949 -0.782996 0.038352
C 1.249633 0.595820 -0.012762
C 0.109688 1.379211 -0.051369
C -1.141082 0.783327 -0.038033
C -1.249708 -0.596049 0.013047
C -0.108244 -1.379496 0.050995
H 2.031745 -1.394245 0.067648
H 2.224460 1.061945 -0.023092
H 0.191836 2.455909 -0.090438
H -2.031864 1.394068 -0.067712
H -2.224599 -1.061659 0.022892
H -0.192816 -2.455834 0.090471
Ag -0.837893 -1.049361 -2.441641
Ag 0.401619 -1.307456 -4.779429
Ag -2.471482 -1.298115 -4.526423
