32
HATCN Ag2, package G, PBE0-D3/def2-SVP
N -2.611131 5.400286 -1.155582
C -1.910433 4.498726 -0.947420
C -1.020533 3.404552 -0.696370
N -1.602850 2.193227 -0.498238
C -0.816325 1.110498 -0.253917
C -1.393347 -0.140880 -0.053623
N -2.744208 -0.284913 -0.100119
C -3.289277 -1.513602 0.095200
C -4.717954 -1.589331 0.030374
N -5.874228 -1.675402 -0.019378
C -2.494086 -2.603476 0.345640
C -3.019195 -3.918595 0.561413
N -3.467734 -4.975035 0.733469
N -1.140539 -2.482394 0.399369
C -0.576766 -1.260971 0.203423
C 0.808530 -1.116108 0.254224
N 1.596730 -2.195985 0.500607
C 2.946318 -2.034320 0.546556
C 3.714722 -3.214024 0.810558
N 4.358155 -4.156189 1.023098
C 3.514850 -0.801628 0.348106
C 4.929519 -0.580153 0.386379
N 6.079085 -0.424992 0.422118
N 2.743704 0.290890 0.100372
C 1.392486 0.150039 0.050519
C 0.584772 1.257540 -0.201700
N 1.147692 2.479234 -0.398398
C 0.342708 3.547947 -0.642352
C 1.003212 4.803441 -0.840583
N 1.516124 5.831620 -1.003743
Ag -3.796060 1.813186 0.373467
Ag -4.944019 2.696312 2.552587
