15
Mo3O9 Ag3, package G, PBE0-D3/def2-SVP
Mo 1.999964 -0.000015 0.000011
O 3.020004 0.000002 1.359997
O 3.020013 0.000006 -1.359990
O 1.150017 1.991888 -0.000044
Mo -0.999995 1.732012 0.000073
O -1.510002 2.615416 1.359987
O -1.510000 2.615396 -1.360001
O -2.300000 0.000000 -0.000024
Mo -1.000000 -1.732051 0.000000
O -1.510000 -2.615397 1.360000
O -1.510000 -2.615397 -1.360000
O 1.150000 -1.991858 -0.000010
Ag 2.139600 3.446837 1.330197
Ag 3.821166 1.723882 2.623329
Ag 3.776681 4.319910 3.268180
