21
Al2O3+Ag
O -0.147253 -1.243260 1.693091
O -0.599055 0.664625 -0.375829
O 1.266727 -1.228331 -0.826747
Al 0.579568 0.137879 -1.734709
Al 0.000592 0.508021 1.426153
O -0.949453 1.695465 2.096974
O 1.718381 0.732043 1.183080
Al -0.164491 -1.870843 0.010348
Al -2.296219 -0.063401 -0.415896
O 1.355660 1.669811 -1.600616
Al 2.637082 -0.686399 0.460037
Al -2.276943 2.351731 1.225038
O -1.666750 -1.761477 -0.857062
O 2.510934 -1.996171 1.535547
O -3.144197 1.075923 0.438441
Al 2.444490 1.755714 -0.183207
Al -0.110503 2.565640 -0.532703
Al -1.822917 -1.221417 -2.637972
Al 1.029908 -2.630731 2.083164
O -0.365556 -0.454817 -2.987128
Ag -1.680080 3.000165 3.710647
