43

C -5.075104 2.596057 -0.848582
C -4.715716 2.434163 0.478857
C -3.985648 1.326254 0.870754
C -3.608814 0.370482 -0.065200
C -2.849893 -0.827816 0.356392
C -3.512903 -1.970870 0.749200
C -2.764008 -3.084836 1.141440
N -1.457428 -3.112970 1.160054
C -0.787031 -2.018643 0.784213
C -1.437298 -0.832182 0.367434
C -0.667287 0.300298 -0.021018
C 0.685824 0.263426 0.000908
C 1.380055 -0.908949 0.413101
C 2.790408 -0.981482 0.447870
C 3.626694 0.173326 0.052066
C 4.025328 1.107500 1.000707
C 4.826918 2.173661 0.633555
C 5.236571 2.315029 -0.681611
C 4.841079 1.387397 -1.630584
C 4.039486 0.320062 -1.266868
C 3.377135 -2.158548 0.861055
C 2.556396 -3.229745 1.227851
N 1.250307 -3.186722 1.204024
C 0.653004 -2.057874 0.807573
C -3.970941 0.537891 -1.396496
C -4.701020 1.647000 -1.784966
H -5.646599 3.460423 -1.152844
H -5.005817 3.172287 1.212213
H -3.703341 1.195908 1.905798
H -4.592243 -2.003673 0.753324
H -3.258742 -3.995483 1.454638
H -1.191655 1.191943 -0.334479
H 1.267832 1.124926 -0.294617
H 3.703614 0.993274 2.026112
H 5.133493 2.895180 1.376669
H 5.863825 3.146713 -0.966506
H 5.158745 1.494240 -2.657458
H 3.728793 -0.406340 -2.004305
H 4.452389 -2.250041 0.900153
H 2.990418 -4.165689 1.556131
H -3.677198 -0.205338 -2.124046
H -4.979626 1.769762 -2.821356
Ag -0.162542 -4.943780 1.805193
