42

C -5.164856 2.588011 -0.846319
C -4.798841 2.429199 0.488885
C -4.049434 1.317872 0.880533
C -3.655061 0.353321 -0.059465
C -2.866450 -0.818457 0.353109
C -3.554910 -1.967000 0.747692
C -2.826317 -3.065575 1.134427
N -1.481842 -3.094183 1.153406
C -0.771037 -2.001226 0.778290
C -1.443459 -0.824457 0.364750
C -0.684687 0.293629 -0.018782
C 0.702729 0.255822 0.003679
C 1.386694 -0.901580 0.410568
C 2.807531 -0.973077 0.444964
C 3.671710 0.153653 0.059132
C 4.087492 1.096083 1.012248
C 4.908601 2.164586 0.646014
C 5.325657 2.302075 -0.676528
C 4.923820 1.372290 -1.633595
C 4.102714 0.303570 -1.267986
C 3.419309 -2.157050 0.860611
C 2.619855 -3.213981 1.222615
N 1.275908 -3.169329 1.198062
C 0.638173 -2.039626 0.801107
C -4.034175 0.525297 -1.399680
C -4.783587 1.636839 -1.790704
H -5.748780 3.452853 -1.150838
H -5.097006 3.169757 1.226571
H -3.770185 1.206215 1.926453
H -4.639447 -2.002195 0.752642
H -3.312673 -3.983667 1.450267
H -1.165946 1.214886 -0.342233
H 1.243645 1.149225 -0.303219
H 3.768943 1.000701 2.048503
H 5.222707 2.888421 1.393617
H 5.965381 3.133547 -0.961243
H 5.249804 1.477761 -2.665162
H 3.796140 -0.415235 -2.025442
H 4.499592 -2.251237 0.900608
H 3.045029 -4.156909 1.553225
H -3.742908 -0.209820 -2.147455
H -5.069832 1.758992 -2.832172
