14
BTD Ag relaxed PBE0-D3/def2-SVP, substrate frozen, E=-884.76489236
C -1.400023 0.719011 0.079614
C -1.394141 -0.672233 0.126589
C -0.198548 -1.373321 0.063035
C 0.984437 -0.659557 -0.053707
N 2.245071 -1.193838 -0.125833
S 3.329625 0.138555 -0.252587
N 2.207056 1.304085 -0.207672
C 0.986467 0.763231 -0.099565
C -0.232315 1.448065 -0.032072
H -2.344291 1.240556 0.132090
H -2.325813 -1.210325 0.214251
H -0.164295 -2.471476 0.096407
H -0.238097 2.524956 -0.068309
Ag 2.686021 -3.105127 -1.260427
