20
F4TCNQ
N 3.730970 2.707277 -1.306267
C 3.286179 1.705788 -0.925473
C 2.761124 0.463797 -0.455087
C 3.755285 -0.523225 -0.177749
N 4.576887 -1.312196 0.042066
C 1.428495 0.240103 -0.285871
C 0.901888 -1.050042 0.201419
F 1.757239 -2.049728 0.493581
C -0.413226 -1.270995 0.367818
F -0.803619 -2.479981 0.817600
C -1.428455 -0.239896 0.075613
C -2.761165 -0.464008 0.243636
C -3.755382 0.522726 -0.034526
N -4.577035 1.311437 -0.255087
C -3.286274 -1.706283 0.713210
N -3.731114 -2.708028 1.093272
C -0.901798 1.050506 -0.410939
F -1.757086 2.050518 -0.702172
C 0.413316 1.271460 -0.577337
F 0.803772 2.480770 -1.026192
