24
HAT-H6 from HATCN by substitution, planar core kept
C -1.020781 3.405143 -0.693573
N -1.603150 2.191496 -0.499794
C -0.815750 1.110993 -0.253581
C -1.393339 -0.141391 -0.052273
N -2.744445 -0.283235 -0.102199
C -3.289096 -1.513430 0.096812
C -2.494073 -2.603514 0.345437
N -1.140539 -2.482394 0.399369
C -0.576747 -1.261039 0.203066
C 0.808530 -1.116108 0.254224
N 1.596730 -2.195985 0.500607
C 2.946318 -2.034320 0.546556
C 3.514850 -0.801628 0.348106
N 2.743704 0.290890 0.100372
C 1.392486 0.150039 0.050519
C 0.584785 1.257497 -0.201933
N 1.147692 2.479234 -0.398398
C 0.342769 3.547761 -0.643340
H -1.695189 4.234249 -0.886322
H -4.372386 -1.571021 0.046188
H -2.892197 -3.600550 0.509180
H 3.528887 -2.928718 0.746710
H 4.587398 -0.633714 0.377123
H 0.843489 4.499765 -0.792881
