31
HATCN Ag1 at its deepest site (aza pocket, ring N chelate), PBE0-D3/def2-SVP, substrate frozen, E=-1487.26603225, E_b=1.631 eV
N -2.611348 5.399985 -1.155538
C -1.910317 4.498719 -0.947854
C -1.020688 3.405119 -0.693442
N -1.602384 2.192647 -0.500007
C -0.816250 1.110618 -0.253624
C -1.393382 -0.140832 -0.052695
N -2.744871 -0.284506 -0.101712
C -3.288976 -1.513501 0.096699
C -4.717938 -1.589386 0.030072
N -5.874228 -1.675402 -0.019378
C -2.494074 -2.603510 0.345456
C -3.019195 -3.918595 0.561413
N -3.467734 -4.975035 0.733469
N -1.140539 -2.482394 0.399369
C -0.576753 -1.261019 0.203173
C 0.808530 -1.116108 0.254224
N 1.596730 -2.195985 0.500607
C 2.946318 -2.034320 0.546556
C 3.714722 -3.214024 0.810558
N 4.358155 -4.156189 1.023098
C 3.514850 -0.801628 0.348106
C 4.929519 -0.580153 0.386379
N 6.079085 -0.424992 0.422118
N 2.743704 0.290890 0.100372
C 1.392486 0.150039 0.050519
C 0.584781 1.257510 -0.201865
N 1.147692 2.479234 -0.398398
C 0.342769 3.547760 -0.643347
C 1.003212 4.803441 -0.840583
N 1.516124 5.831620 -1.003743
Ag -3.808611 1.673060 -0.528493
