31
HATCN+Ag face
N -2.611348 5.399985 -1.155538
C -1.910320 4.498728 -0.947808
C -1.020781 3.405143 -0.693573
N -1.603150 2.191496 -0.499794
C -0.815750 1.110993 -0.253581
C -1.393339 -0.141391 -0.052273
N -2.744445 -0.283235 -0.102199
C -3.289096 -1.513430 0.096812
C -4.717936 -1.589392 0.030040
N -5.874228 -1.675402 -0.019378
C -2.494073 -2.603514 0.345437
C -3.019195 -3.918595 0.561413
N -3.467734 -4.975035 0.733469
N -1.140539 -2.482394 0.399369
C -0.576747 -1.261039 0.203066
C 0.808530 -1.116108 0.254224
N 1.596730 -2.195985 0.500607
C 2.946318 -2.034320 0.546556
C 3.714722 -3.214024 0.810558
N 4.358155 -4.156189 1.023098
C 3.514850 -0.801628 0.348106
C 4.929519 -0.580153 0.386379
N 6.079085 -0.424992 0.422118
N 2.743704 0.290890 0.100372
C 1.392486 0.150039 0.050519
C 0.584785 1.257497 -0.201933
N 1.147692 2.479234 -0.398398
C 0.342769 3.547761 -0.643340
C 1.003212 4.803441 -0.840583
N 1.516124 5.831620 -1.003743
Ag 0.144074 -0.476762 -2.551857
