18
Liq
Li 0.000000 0.000000 0.000000
O -1.390056 2.728218 -0.403373
C -1.304936 1.362706 -0.164724
C -2.403480 0.558745 0.044924
C -2.241880 -0.811019 0.279729
C -0.960153 -1.348791 0.298583
C 0.165101 -0.550689 0.088374
C 1.427665 -1.108343 0.111930
C 2.540210 -0.310111 -0.097540
C 2.290109 1.034332 -0.322498
N 1.049187 1.553851 -0.340548
C -0.045436 0.806084 -0.141166
H -3.380640 1.016029 0.022103
H -3.130419 -1.379231 0.434655
H -0.850078 -2.409284 0.481270
H 1.563752 -2.185481 0.296029
H 3.553092 -0.693117 -0.090136
H 3.117961 1.736101 -0.497611
