19

Li -0.111146 2.919778 -1.287291
O -1.587288 2.255940 -0.852356
C -1.381186 1.085525 -0.351782
C -2.412393 0.265179 0.109854
C -2.164665 -0.992586 0.645713
C -0.889813 -1.497236 0.750038
C 0.195536 -0.727599 0.305277
C 1.535518 -1.159656 0.371168
C 2.534672 -0.343729 -0.086970
C 2.197191 0.910484 -0.613125
N 0.961732 1.350175 -0.691570
C -0.039819 0.564727 -0.247055
H -3.422970 0.638615 0.038672
H -3.001397 -1.585698 0.988167
H -0.707743 -2.475760 1.168536
H 1.755481 -2.134523 0.785291
H 3.569802 -0.646860 -0.049946
H 2.968488 1.573225 -0.982619
Ag -0.627738 3.618692 -1.549311
