48
 energy: -138.166101075905 gnorm: 0.000182356899 xtb: 6.7.1 (edcfbbe)
N           -1.06799540250328       -3.43935227392635       -0.11674586336869
C           -0.48156190072425       -2.45967130923531       -0.01992636731368
C            0.13624258336802       -1.18992459895274        0.07368503329595
C           -0.68349127612672       -0.12240299204620       -0.03714363365963
C           -0.94094575936990        1.27023757461231       -0.21785105654900
C           -0.52010148226498        2.54717574099781       -0.31016072595618
C           -1.48527044630704        3.57718782730361       -0.43547216612410
N           -2.26659486922865        4.40516222809809       -0.55381611949340
C            0.89474896717169        2.92544171886574       -0.29573507062073
C            1.84986913031122        2.15985010684650       -0.97201491249226
F            1.46032404362827        1.08769688924233       -1.68101150986131
C            3.19626452270744        2.48673381504744       -0.94219676925867
F            4.07096480649186        1.69601350482352       -1.56837121514401
C            3.64107528328918        3.60991803652629       -0.24141193455086
C            5.02108570996088        3.93575438109375       -0.20174361806011
N            6.13456526035178        4.19208898677812       -0.17831727015508
C            2.69248411805410        4.39716707650632        0.41919860415805
F            3.08400790901577        5.47239782302203        1.08983966803729
C            1.34393131122453        4.06039960636540        0.38872692169011
F            0.47282571895855        4.81097959716607        1.05663805613319
C           -2.02230079631313        0.34042999032123       -0.20657322031074
C           -3.33210182332918        0.05337771691002       -0.33257862987397
C           -4.25590096219821        1.07933493729432       -0.64518978933040
N           -5.00741165582939        1.90757353961015       -0.88995662261618
C           -3.84795035192903       -1.30748511267888       -0.13851604474792
C           -3.42243442012866       -2.08144320283502        0.94555935567328
F           -2.55438867587684       -1.55834810037024        1.81980371210126
C           -3.91304849449698       -3.36208803449742        1.15732451812842
F           -3.50114564672470       -4.05844889041833        2.20927656791595
C           -4.84138286811275       -3.91590767615630        0.27149553176532
C           -5.33977327163636       -5.22861983982552        0.47277431519058
N           -5.74740387204765       -6.28390646137249        0.63675839726961
C           -5.27449956593610       -3.14891564494481       -0.81501868628827
F           -6.15534486822395       -3.65622240199325       -1.67034186043898
C           -4.79321445228380       -1.86068749450822       -1.00748220894500
F           -5.20556214003029       -1.15523520451789       -2.06043787780736
C            1.58410859533859       -1.09852145852956        0.23635256759409
C            2.16450639548479       -0.07247365947266        0.98985166878190
F            1.37919590656368        0.81172150324382        1.62417052658612
C            3.53989928099724        0.05036120601764        1.10929384876658
F            4.04243071958273        1.07485161751982        1.80142353990311
C            4.39451988242897       -0.86385980897011        0.48899524476096
C            5.80215071267609       -0.72662992261744        0.59662820595742
N            6.93547567992278       -0.61182858799372        0.68892641501018
C            3.82545405522935       -1.91115607889391       -0.24287823456367
F            4.61027409305408       -2.79943345132269       -0.83842514199691
C            2.44586500616086       -2.02528108594182       -0.36267567423065
F            1.93755730970516       -3.01401013209607       -1.09473147495391
