72
pbPPhenB
C -7.392971 4.674598 0.134423
C -7.885788 3.494691 -0.412223
C -7.091446 2.343980 -0.422731
C -5.785475 2.340712 0.105254
C -4.965045 1.108769 0.073807
C -3.581345 1.112070 0.064061
C -2.883869 -0.101279 0.034432
C -1.413358 -0.052332 0.025800
C -0.691586 -0.024496 1.227453
C 0.705602 0.024771 1.219447
C 1.413568 0.052282 0.009600
C 2.884081 0.101249 0.001383
C 3.581871 -1.112084 0.023264
C 4.965593 -1.108759 0.017183
C 5.786349 -2.340686 0.039465
C 5.325954 -3.546699 0.601697
C 6.118371 -4.700718 0.605404
C 7.394097 -4.674556 0.050636
C 7.880623 -3.494730 -0.501792
C 7.086201 -2.344027 -0.503406
N 5.654312 0.053866 -0.025446
C 5.024576 1.252992 -0.049588
C 3.611611 1.318603 -0.032881
C 2.980708 2.578504 -0.053844
C 3.723861 3.749600 -0.092921
C 5.116228 3.686327 -0.113494
C 5.872598 4.866614 -0.155305
C 7.257674 4.804325 -0.176579
C 7.841147 3.557258 -0.155919
N 7.141018 2.404364 -0.116454
C 5.782808 2.438869 -0.092977
C 0.691781 0.024156 -1.192043
C -0.705376 -0.024541 -1.184037
C -3.611762 -1.318628 0.008733
C -2.981161 -2.578545 -0.019183
C -3.724732 -3.749635 -0.049534
C -5.117242 -3.686339 -0.054216
C -5.874062 -4.866618 -0.087157
C -7.259289 -4.804305 -0.092628
C -7.842467 -3.557222 -0.065552
N -7.141912 -2.404335 -0.034306
C -5.783523 -2.438864 -0.026333
C -5.024824 -1.252994 0.008163
N -5.654225 -0.053852 0.039272
C -5.318674 3.546808 0.661995
C -6.110987 4.700835 0.674573
H -8.010238 5.568679 0.146845
H -8.889261 3.460539 -0.827956
H -7.502382 1.429050 -0.850248
H -3.028921 2.046403 0.061234
H -1.216768 -0.044024 2.180828
H 1.241666 0.044554 2.166740
H 3.029466 -2.046425 0.026935
H 4.345330 -3.604066 1.067229
H 5.739152 -5.617301 1.049747
H 8.011473 -5.568631 0.056141
H 8.879273 -3.460640 -0.928981
H 7.492217 -1.429161 -0.935737
H 1.895490 2.661165 -0.040312
H 3.206100 4.706105 -0.108498
H 5.387141 5.839454 -0.171432
H 7.863136 5.702408 -0.208398
H 8.920740 3.439164 -0.170633
H 1.216983 0.042554 -2.145491
H -1.241461 -0.043201 -2.131403
H -1.895861 -2.661225 -0.018029
H -3.207199 -4.706153 -0.070830
H -5.388837 -5.839470 -0.108635
H -7.865090 -5.702382 -0.117358
H -8.922154 -3.439109 -0.067965
H -4.332799 3.604233 1.116294
H -5.726709 5.617483 1.114411
