35
Ph3PO
O 0.154991 -0.099051 2.590046
P 0.064233 -0.041030 1.073435
C 1.177969 -1.242033 0.317168
C 1.864149 -0.989333 -0.879663
C 2.704217 -1.957896 -1.432987
C 2.868695 -3.187170 -0.797535
C 2.196426 -3.450386 0.393604
C 1.357189 -2.483655 0.947637
C -1.612591 -0.405007 0.516180
C -1.880998 -1.119344 -0.660592
C -3.197620 -1.362840 -1.057090
C -4.258958 -0.897132 -0.283357
C -4.007177 -0.189566 0.889670
C -2.692453 0.054098 1.287131
C 0.512353 1.597413 0.465622
C -0.113592 2.192248 -0.639576
C 0.279728 3.457434 -1.080708
C 1.300250 4.141767 -0.423297
C 1.928116 3.564757 0.678011
C 1.536014 2.301119 1.119957
H 1.755670 -0.037589 -1.393445
H 3.234693 -1.751600 -2.359413
H 3.525613 -3.938726 -1.227911
H 2.328140 -4.406110 0.894594
H 0.839724 -2.692067 1.883324
H -1.071273 -1.496133 -1.280223
H -3.395853 -1.920539 -1.969175
H -5.283222 -1.090456 -0.591757
H -4.833377 0.169177 1.498309
H -2.501346 0.601515 2.209368
H -0.914276 1.681025 -1.167884
H -0.213737 3.911974 -1.936343
H 1.602882 5.127959 -0.765989
H 2.720028 4.099354 1.196498
H 2.025396 1.857824 1.986391
