36
Ph3PO_Ag
O 0.157203 -0.100492 2.626991
P 0.069607 -0.044493 1.163304
C 1.166792 -1.236526 0.327247
C 1.691956 -1.034741 -0.941876
C 2.506392 -1.999945 -1.507150
C 2.795669 -3.162547 -0.810599
C 2.276474 -3.361367 0.458551
C 1.463446 -2.397796 1.027112
C -1.601084 -0.398148 0.524976
C -1.842527 -0.947129 -0.727028
C -3.145051 -1.169900 -1.137226
C -4.203253 -0.845855 -0.303131
C -3.962206 -0.303544 0.948922
C -2.661381 -0.081191 1.362634
C 0.513641 1.583938 0.474247
C 0.007445 2.073442 -0.722137
C 0.409889 3.316190 -1.178293
C 1.314314 4.068046 -0.445332
C 1.814986 3.582200 0.751795
C 1.413441 2.341123 1.211398
H 1.473765 -0.121933 -1.478618
H 2.919456 -1.844342 -2.493424
H 3.432355 -3.912319 -1.257069
H 2.507467 -4.265374 1.002736
H 1.055670 -2.521752 2.020234
H -1.014865 -1.209302 -1.371357
H -3.336170 -1.600225 -2.109779
H -5.217949 -1.022428 -0.628822
H -4.787714 -0.056885 1.600396
H -2.444807 0.328765 2.338833
H -0.706462 1.489685 -1.286482
H 0.015119 3.701451 -2.107435
H 1.624492 5.037702 -0.806466
H 2.515351 4.171781 1.325042
H 1.778541 1.943911 2.147808
Ag 0.288532 -0.184452 4.821462
