33

C 4.318681 -0.424553 0.264001
C 3.626574 0.365579 1.166695
C 2.254007 0.498601 1.068576
C 1.563174 -0.153683 0.051229
N 0.172251 -0.016940 -0.056185
C -0.734425 -1.051271 -0.178854
C -0.518475 -2.421994 -0.176413
C -1.619480 -3.248918 -0.290429
C -2.909474 -2.733333 -0.395662
C -3.133061 -1.371405 -0.372927
C -2.042171 -0.519671 -0.259151
C -1.907553 0.907967 -0.184867
C -2.817276 1.956387 -0.225601
C -2.340360 3.249447 -0.148769
C -0.974249 3.503904 -0.048870
C -0.049884 2.477861 -0.006462
C -0.524929 1.175071 -0.057385
C 2.261179 -0.942496 -0.858872
C 3.632181 -1.079171 -0.745140
H 5.389886 -0.529870 0.346731
H 4.157205 0.874820 1.957636
H 1.708338 1.094903 1.784553
H 0.475194 -2.832412 -0.077007
H -1.476844 -4.319604 -0.294462
H -3.743566 -3.413223 -0.486532
H -4.133797 -0.971480 -0.437847
H -3.874509 1.758786 -0.319619
H -3.030974 4.079234 -0.175651
H -0.629333 4.526657 -0.007181
H 1.007776 2.686607 0.052557
H 1.725742 -1.432517 -1.658335
H 4.168173 -1.693284 -1.453698
Ag 0.425076 0.213555 -3.036613
