20
TCNQ, built from F4TCNQ by F->H (scripts/45)
N 3.730970 2.707277 -1.306267
C 3.286179 1.705788 -0.925473
C 2.761124 0.463797 -0.455087
C 3.755285 -0.523225 -0.177749
N 4.576887 -1.312196 0.042066
C 1.428495 0.240103 -0.285871
C 0.901888 -1.050042 0.201419
H 1.587325 -1.851142 0.435544
C -0.413226 -1.270995 0.367818
H -0.726068 -2.239818 0.728251
C -1.428455 -0.239896 0.075613
C -2.761165 -0.464008 0.243636
C -3.755382 0.522726 -0.034526
N -4.577035 1.311437 -0.255087
C -3.286274 -1.706283 0.713210
N -3.731114 -2.708028 1.093272
C -0.901798 1.050506 -0.410939
H -1.587184 1.851867 -0.644319
C 0.413316 1.271460 -0.577337
H 0.726209 2.240542 -0.937028
