49
TCPSi
N 1.383126 5.540950 -4.547193
C 1.167075 4.658651 -3.824972
C 0.898936 3.569032 -2.933290
C 1.859816 2.579327 -2.722908
C 1.599645 1.514188 -1.851675
C 0.372065 1.411361 -1.169928
C -0.583823 2.425108 -1.397276
C -0.324325 3.489770 -2.267659
Si 0.000047 0.000057 0.000032
C -0.844571 0.706684 1.512078
C -1.955630 0.081209 2.109259
C -2.575217 0.626612 3.240585
C -2.099635 1.812045 3.802397
C -2.735257 2.369043 4.959983
N -3.248969 2.820441 5.897573
C -1.001185 2.451127 3.227343
C -0.382351 1.905602 2.096919
C 1.584024 -0.865223 0.491252
C 2.207971 -1.773761 -0.390984
C 3.392442 -2.432157 -0.041761
C 3.983907 -2.199723 1.199949
C 5.196832 -2.873132 1.559950
N 6.179200 -3.418404 1.850402
C 3.384265 -1.307049 2.089124
C 2.198866 -0.648553 1.739176
C -1.111385 -1.252649 -0.833314
C -1.842840 -0.946796 -1.996810
C -2.668920 -1.898964 -2.606910
C -2.783267 -3.181439 -2.069092
C -3.628831 -4.154806 -2.695067
N -4.313658 -4.943372 -3.200942
C -2.066882 -3.508670 -0.917823
C -1.241653 -2.556757 -0.308504
H 2.820934 2.627319 -3.232878
H 2.385772 0.771821 -1.719546
H -1.553302 2.403166 -0.896731
H -1.085182 4.254100 -2.418191
H -2.369972 -0.842802 1.707898
H -3.433219 0.116121 3.675730
H -0.617644 3.377985 3.651128
H 0.473055 2.439110 1.679113
H 1.779157 -1.986134 -1.371762
H 3.845302 -3.126861 -0.747497
H 3.831694 -1.115879 3.063487
H 1.769937 0.033775 2.471993
H -1.785705 0.037249 -2.460447
H -3.219541 -1.627731 -3.506561
H -2.142420 -4.505143 -0.485277
H -0.698687 -2.855850 0.589629
