34
TPA
C -2.945746 -2.956020 0.871910
C -1.605039 -3.317641 0.764766
C -0.639391 -2.348591 0.479484
C -0.997833 -1.001266 0.295391
N -0.000035 0.000057 0.000060
C 1.276757 -0.032128 0.674039
C 1.365371 -0.340875 2.043159
C 2.600889 -0.371557 2.695448
C 3.769318 -0.095021 1.989724
C 3.704310 0.212634 0.632937
C 2.468708 0.244300 -0.019136
C -0.278996 1.033497 -0.969314
C 0.128014 2.361532 -0.749495
C -0.142338 3.361675 -1.687340
C -0.823506 3.050960 -2.861737
C -1.235248 1.741914 -3.099665
C -0.965780 0.741954 -2.161369
C -2.357017 -0.658203 0.407503
C -3.322530 -1.627092 0.693779
H -3.696705 -3.709619 1.094158
H -1.307650 -4.354266 0.899174
H 0.399445 -2.655452 0.382809
H 0.463856 -0.542688 2.616948
H 2.647216 -0.608141 3.755157
H 4.730247 -0.119268 2.496944
H 4.614243 0.425073 0.077967
H 2.442261 0.469493 -1.082754
H 0.645591 2.629216 0.168737
H 0.177030 4.382757 -1.496302
H -1.033408 3.828722 -3.591307
H -1.763518 1.494825 -4.016715
H -1.280657 -0.276809 -2.375067
H -2.670641 0.376408 0.289556
H -4.367215 -1.340379 0.780554
