43
 energy: -65.593112134598 gnorm: 0.000157576250 xtb: 6.7.1 (edcfbbe)
C           -5.23772131771731        2.55144083803073       -0.75594955050052
C           -4.26748663389654        2.60711606020091        0.23293136169259
C           -3.48303986724849        1.50379499858230        0.50417916906912
C           -3.65483829796867        0.31492115334065       -0.20868163243100
C           -2.86173573265827       -0.87436297301035        0.09829835448942
C           -3.49223688400966       -2.08947484270660        0.29085451906341
C           -2.75510280055661       -3.19464331691109        0.68632051451978
N           -1.44008660001559       -3.16882035438410        0.90746568764202
C           -0.78268380791195       -2.02444727003667        0.68009972605261
C           -1.43398491913699       -0.83730573043151        0.23530589775930
C           -0.67558343626179        0.29588748331061       -0.07980686660658
C            0.69478140174306        0.29658373147933        0.05232565204336
C            1.37873820916161       -0.83051256004269        0.52191296938121
C            2.80469357068790       -0.85989491464155        0.67844403192480
C            3.67265441927402        0.21403169893909        0.19788180826221
C            4.68272242208968        0.72303467351120        1.01684636231325
C            5.52977689499426        1.71412044258927        0.56144304058212
C            5.39484186910798        2.21158114206318       -0.72474108868143
C            4.40683390876448        1.70302657540687       -1.55379723102427
C            3.55377874071038        0.71686194592644       -1.09984140345854
C            3.35888296001172       -1.96799394202912        1.29185400597862
C            2.54972827718019       -3.03312024642633        1.65484043627935
N            1.23364372422080       -3.07125749795064        1.44172477152676
C            0.64958778498558       -1.99635521589898        0.89682987270660
C           -4.64664202876599        0.26711396365370       -1.19056551455891
C           -5.42460488000533        1.37501814088520       -1.46383416416976
H           -5.84593155489505        3.41799322607496       -0.97041888849217
H           -4.12529186388711        3.51760416126659        0.79810618902647
H           -2.74624966965464        1.54528798089551        1.29356950707499
H           -4.56478559387548       -2.16961370544358        0.18290881225944
H           -3.25125905591081       -4.14667989160342        0.85458421069731
H           -1.17411809219955        1.17636614764612       -0.45517045938253
H            1.25177752803753        1.18898538693450       -0.18851821152148
H            4.78335174768022        0.34832974730782        2.02587530240671
H            6.29905292504173        2.10442091686205        1.21301830372014
H            6.05706176541668        2.98740867403675       -1.08031727590026
H            4.30493510844840        2.07676870405302       -2.56296719673625
H            2.80281562306301        0.30625466019009       -1.75954830936833
H            4.42727157438796       -2.02853702163248        1.44456017394255
H            2.98560639998997       -3.91159983883476        2.12296987355461
H           -4.78766859173770       -0.64414873961474       -1.75498378593395
H           -6.18037912431102        1.32365316221113       -2.23513037334873
Cs          -0.18468810237155       -5.52679255380403        2.02344639814350
