81
 energy: -129.294223434156 gnorm: 0.000199185980 xtb: 6.7.1 (edcfbbe)
C            1.45764490286364       -5.16655854457832       -0.30332759921846
C            1.76552393053646       -4.09359065388962        0.51720925108380
C            2.47444255128331       -3.01663186757086        0.02028287683245
C            2.86761172603840       -3.00686989293712       -1.31484249863978
N            3.56340336578203       -1.90205534264625       -1.83131313192779
C            3.23162888967127       -0.56774446275455       -1.70036124421044
C            1.98424390458573       -0.12436086391291       -1.09271204067402
C            1.97439544141451        1.03344478199166       -0.32206802607173
C            0.79497464996731        1.46451962084756        0.27931924801005
C            0.82533104631712        2.66889886482104        1.09518470830251
N            1.88646400116391        3.05506790730875        1.74955734266866
C            1.52512163370638        4.17718058123745        2.43977376676978
C            2.26884463342496        4.99617162111310        3.28313569225268
C            1.63489294676065        6.08752823593960        3.83649694132471
C            0.29595026694149        6.37598221396469        3.56130378516847
C           -0.46155475462556        5.57680176426393        2.72896091164527
C            0.16446038940422        4.46799884600396        2.18262058474332
N           -0.26574182622695        3.48761443951429        1.31682313066832
C           -1.53733580464997        3.43035843324080        0.72308676986843
C           -2.67361767680475        3.44519874137986        1.52427359411109
C           -3.92549208249925        3.38962268838033        0.93866905891231
C           -4.04941773051423        3.30973589919772       -0.43786790544497
C           -2.91594277343009        3.29740839920186       -1.23501480987715
C           -1.66057591842512        3.36713630737800       -0.66200102421677
C           -0.36660551905550        0.71058426667990        0.13956202526918
C           -0.36437727898251       -0.44269077917260       -0.63781571398362
C           -1.55948567972857       -1.24536520209597       -0.84304627719722
N           -1.75893248841206       -1.95023851739382       -1.92422634423059
C           -2.99165291036596       -2.52254052807522       -1.78723999293182
C           -3.69206510972280       -3.37127394070823       -2.63815772614974
C           -4.93141524915909       -3.81031090567509       -2.22511202786088
C           -5.47199368089519       -3.43029948226130       -0.99434376066585
C           -4.79534066374356       -2.58888214070237       -0.13432598241752
C           -3.55604422116146       -2.13024423084245       -0.55058498340109
N           -2.61860894981255       -1.31301587886643        0.04055614661455
C           -2.70481000857912       -0.79041777579795        1.34173867521037
C           -3.80132979259206       -0.01865712565578        1.70766100489030
C           -3.88267611324099        0.48898567600914        2.99199822156781
C           -2.87502814940408        0.23802133284245        3.90745718617016
C           -1.78432549062202       -0.53495776580765        3.54198722347270
C           -1.69922413529329       -1.05864052786422        2.26637345053159
C            0.80591286699716       -0.83993998330566       -1.27790105068326
N            4.12789021297929        0.23101408874641       -2.20774469336552
C            5.11376932793043       -0.57384606413924       -2.70871389059290
C            6.30327263300950       -0.24797780559480       -3.35134016657043
C            7.12542905666738       -1.28407215777964       -3.73914599345692
C            6.79121458083939       -2.61784159175695       -3.49299199113287
C            5.61587493729145       -2.96512399178967       -2.85802013135794
C            4.77555934431165       -1.92966773338665       -2.48180419979766
C            2.56705845958499       -4.08648905668127       -2.13722406186167
C            1.86454305497379       -5.16291161568662       -1.62658498537773
H            0.90202884227858       -6.00486356205086        0.08885226546702
H            1.45764962351814       -4.09871680279161        1.55249363519749
H            2.72418217613495       -2.17941482589852        0.65543340122144
H            2.88068062677684        1.60091212283802       -0.18787334782880
H            3.30511930149877        4.77631731671052        3.48182946288002
H            2.18343705388659        6.74476612041965        4.49485579698276
H           -0.15588983074867        7.24845709311559        4.00953376233273
H           -1.49271276602505        5.80971566747793        2.50798010645549
H           -2.56794883192558        3.48314037414289        2.59833615251551
H           -4.80705740898234        3.40417663367203        1.56191128609465
H           -5.02817934001497        3.25940278785745       -0.89058355910915
H           -3.00943401086369        3.23937876254564       -2.30877433024131
H           -0.77242305122538        3.36287000813860       -1.27600407276947
H           -1.27247945931241        1.02570525591943        0.63046010010639
H           -3.26619168256834       -3.66982778380543       -3.58231045124033
H           -5.50197032933802       -4.46984796157188       -2.86219442232653
H           -6.44319566963917       -3.80653229305233       -0.70899751271869
H           -5.21087155853653       -2.30547721547187        0.82138847276252
H           -4.57144105834954        0.19188707442279        0.98062198770527
H           -4.73540007099647        1.08708297051625        3.27614148760652
H           -2.93903096332913        0.64223501387261        4.90635517468338
H           -0.99941252508302       -0.73544312908726        4.25540557457660
H           -0.85569968669649       -1.66542778537454        1.97146243699141
H            0.76409929532713       -1.70696438091173       -1.91718617773410
H            6.56257775384777        0.78314933919660       -3.52871307742310
H            8.05644842699541       -1.06554979616795       -4.24107938731975
H            7.47133333789066       -3.39598844937403       -3.80655461484986
H            5.36564518010756       -3.99659679438672       -2.65862548045755
H            2.86788616231891       -4.06677378696753       -3.17409280996998
H            1.62638571649171       -5.99782925466939       -2.26827120242054
