%Chk=benzene_2hollow.chk
%NProcShared=8
%Mem=48GB
#P PBE1PBE/Def2SVP EmpiricalDispersion=GD3BJ Opt=(MaxCycles=80) SCF=(XQC,MaxCycle=128,VShift=300) NoSymm

benzene Ag at the hollow site nearest C1, substrate frozen

0 2
 C  -1     1.14112300    -0.78307800     0.03817600
 C  -1     1.24945800     0.59631900    -0.01286200
 C  -1     0.10830000     1.37936500    -0.05090200
 C  -1    -1.14115500     0.78308900    -0.03800500
 C  -1    -1.24942900    -0.59631300     0.01303300
 C  -1    -0.10830500    -1.37940200     0.05115300
 H  -1     2.03181000    -1.39415000     0.06762200
 H  -1     2.22461200     1.06162800    -0.02301000
 H  -1     0.19281800     2.45582500    -0.09071800
 H  -1    -2.03179600     1.39416500    -0.06777700
 H  -1    -2.22462200    -1.06161100     0.02285500
 H  -1    -0.19281600    -2.45583500     0.09043400
 Ag  0     0.03610641    -0.06398756    -1.79840117

