10
 energy: -20.547537155628 gnorm: 0.000095500218 xtb: 6.7.1 (edcfbbe)
C            1.16372473329546       -0.53932993882880        0.33692616644391
N            0.08011870651916       -1.38486910452675        0.41798757569446
C           -1.09463605694566       -0.72249183352976        0.14065817655690
N           -1.20490081133594        0.51756382424278       -0.21773873099527
C           -0.06794215013354        1.21988083685390       -0.30915236339369
N            1.13399524529210        0.70725723832042       -0.01447651500719
H            2.12251993426758       -0.96012608806893        0.62337516751937
H           -2.00850191465544       -1.29517044655212        0.26435660985341
H           -0.12477886185554        2.25053929880599       -0.61701502167089
Ag           0.32335017555206       -3.41958778671692       -0.48205406500167
