18
 energy: -29.647111765506 gnorm: 0.000475688989 xtb: 6.7.1 (edcfbbe)
Li          -0.11114641706586        2.91977770353113       -1.28729054451107
O           -1.58728836064648        2.25594013775384       -0.85235624181578
C           -1.38118627826440        1.08552470888684       -0.35178237990480
C           -2.41239316181514        0.26517885073624        0.10985367465998
C           -2.16466460071546       -0.99258594888291        0.64571273254983
C           -0.88981296769763       -1.49723606893514        0.75003765848687
C            0.19553592319008       -0.72759886653098        0.30527718498530
C            1.53551765500017       -1.15965580225249        0.37116817816446
C            2.53467204819179       -0.34372948444074       -0.08696969752248
C            2.19719093826432        0.91048402212546       -0.61312510785117
N            0.96173197195237        1.35017472814605       -0.69156984549821
C           -0.03981867802969        0.56472698249636       -0.24705540676272
H           -3.42297022223712        0.63861535905616        0.03867159158875
H           -3.00139708391836       -1.58569823208191        0.98816671816095
H           -0.70774252325768       -2.47576007990911        1.16853633688255
H            1.75548098472480       -2.13452328397662        0.78529106693341
H            3.56980210025714       -0.64685976852100       -0.04994629055540
H            2.96848767206737        1.57322504279945       -0.98261862799028
