32
 energy: -77.159360853682 gnorm: 0.000228301097 xtb: 6.7.1 (edcfbbe)
N           -2.82968273293845        5.34481120458223       -1.18946724735764
C           -2.40980525582383        4.29202220762833       -0.95887943408874
C           -1.59044217267022        3.19126502024555       -0.68792697348173
N           -2.00648761937737        1.96529599756491       -0.48569831257968
C           -1.10982994195746        1.01358060792499       -0.24736610024878
C           -1.55245707857348       -0.33319775324851       -0.01943514601192
N           -2.85989374356767       -0.60042871271169       -0.04465221314774
C           -3.24309141612140       -1.84186790690017        0.16840050594179
C           -4.63094056545077       -2.14482026911475        0.14046839031271
N           -5.74053679406173       -2.42349689726801        0.12512518787025
C           -2.29238793075664       -2.87326744206700        0.42541363774019
C           -2.73012752578795       -4.20154012874282        0.66431477173639
N           -3.12401957426934       -5.25976256656293        0.85157849102047
N           -0.99822922232447       -2.61165825538983        0.44509122212568
C           -0.60653882844170       -1.36254988555940        0.22464341244235
C            0.80682496714886       -1.05675911701598        0.23579228383997
N            1.67746580120123       -2.03566353707070        0.45068839710914
C            2.96364593033334       -1.73686185099964        0.45966391166157
C            3.90983243434809       -2.77045830009188        0.68198867139625
N            4.70529210396081       -3.57450077505268        0.85754258914043
C            3.40475895022501       -0.39727062093614        0.24872012627363
C            4.79254533393012       -0.09345712106670        0.26900561006304
N            5.91722943051095        0.11543419425174        0.29107521350436
N            2.54534319675663        0.57615772339774        0.03114664909787
C            1.24523325197623        0.27496610876336        0.01718371437634
C            0.28880478559704        1.31897623220323       -0.22189441352955
N            0.71432927935213        2.56291056855554       -0.41547568304350
C           -0.16713933546427        3.50603690371015       -0.64142274580182
C            0.12712942450440        4.85615838014007       -0.85660271281294
N            0.08075519382819        5.99349170476640       -1.06225480431481
Zn          -1.69817390370963        7.18788447374320       -1.43496548885218
S           -2.16576844238229        9.25305481231809       -1.82738951038249
