12
 energy: -36.596600325534 gnorm: 0.000126443972 xtb: 6.7.1 (edcfbbe)
Cu           0.12900676378351        0.45976281712410       -1.47154212824242
S            2.09084913723919       -0.65777333813056       -1.44529751935685
C            2.88113732810620        0.55179909005212       -0.58376090914801
N            3.46044381633001        1.36386858966278       -0.01886332349964
Cu          -1.42741125139021       -0.05856039739651        0.52177505332516
S           -1.94356168627221        1.30874459402933       -1.18498322096194
C           -1.38712099534115        2.63295263020203       -0.30933862156348
N           -1.04556583674956        3.56107158329706        0.27041204724294
Cu           0.87961058327416       -1.18314873472082        0.37249435409545
S           -0.60251059352161       -1.50563563893941        2.02871974642673
C           -1.28200677181771       -2.78862395929895        1.18015232199266
N           -1.75287049370251       -3.68445723594744        0.64023219969247
