42
 energy: -65.383372156155 gnorm: 0.000079300492 xtb: 6.7.1 (edcfbbe)
C           -5.07510368843533        2.59605724735639       -0.84858204054853
C           -4.71571610421955        2.43416319343466        0.47885674825257
C           -3.98564771927651        1.32625382881190        0.87075436018564
C           -3.60881436134584        0.37048205800738       -0.06520006388456
C           -2.84989254007007       -0.82781554356957        0.35639154841171
C           -3.51290257235168       -1.97087044029394        0.74920030374741
C           -2.76400798160223       -3.08483622839957        1.14144008999050
N           -1.45742802361275       -3.11296985597371        1.16005358657248
C           -0.78703099797088       -2.01864280489176        0.78421294964752
C           -1.43729767504252       -0.83218237432639        0.36743449051285
C           -0.66728682886798        0.30029756354837       -0.02101846471064
C            0.68582378176491        0.26342612083165        0.00090792173804
C            1.38005466237644       -0.90894896097336        0.41310120007597
C            2.79040754492746       -0.98148222528592        0.44786995318076
C            3.62669426794549        0.17332621226569        0.05206587109006
C            4.02532759421995        1.10750029897803        1.00070706496766
C            4.82691793715533        2.17366137546525        0.63355457324949
C            5.23657057027578        2.31502925739942       -0.68161145484305
C            4.84107934614574        1.38739714581060       -1.63058376565653
C            4.03948597637539        0.32006157555084       -1.26686791355910
C            3.37713511306375       -2.15854833563219        0.86105478331433
C            2.55639640470325       -3.22974544097665        1.22785148267376
N            1.25030670531241       -3.18672169467830        1.20402373760901
C            0.65300433527127       -2.05787420587301        0.80757283712400
C           -3.97094090448357        0.53789142087107       -1.39649612672356
C           -4.70102026294270        1.64700037489219       -1.78496591653988
H           -5.64659942696589        3.46042288964042       -1.15284402710685
H           -5.00581661035045        3.17228697774636        1.21221331198013
H           -3.70334097454188        1.19590785725362        1.90579843923546
H           -4.59224339736238       -2.00367311666282        0.75332363463963
H           -3.25874243360603       -3.99548273977755        1.45463846508732
H           -1.19165459655670        1.19194275957324       -0.33447942053703
H            1.26783197424895        1.12492592898391       -0.29461709894457
H            3.70361388067990        0.99327362550954        2.02611210112352
H            5.13349309169672        2.89518016273492        1.37666890083664
H            5.86382456487259        3.14671332309263       -0.96650606616613
H            5.15874505529353        1.49424039935281       -2.65745767373597
H            3.72879307963460       -0.40634025174398       -2.00430518455477
H            4.45238857747196       -2.25004138690025        0.90015259320744
H            2.99041761210096       -4.16568905919380        1.55613125412840
H           -3.67719818105054       -0.20533790142314       -2.12404562098121
H           -4.97962579488099        1.76976196946526       -2.82135636408990
