21
 energy: -30.171177135131 gnorm: 0.000453306934 xtb: 6.7.1 (edcfbbe)
N            5.14367320052374       -0.35031633742672        0.21822046576389
C            3.99887128659078       -0.27223146791987        0.17032595874230
C            2.59631149441981       -0.17776506269628        0.11153227055788
C            1.86161683825861       -1.00913746475202       -0.73685486710250
C            0.49137209185303       -0.91610773947209       -0.79559868527988
C           -0.21206045077281        0.01391590935204       -0.00846149055299
N           -1.57232675915720        0.10783952567096       -0.06770515625765
C           -2.27612093053082        1.06727735448626        0.74702362274494
C           -2.32798817312498       -0.75130857143666       -0.94546668919005
C            0.54151553677675        0.84347503704074        0.84200504597867
C            1.91172455631235        0.74971483031320        0.90007616952326
H            2.37954937306462       -1.73116658859902       -1.35156672006864
H           -0.03684663041468       -1.57609189427342       -1.46321505875331
H           -3.34411811570115        0.99069298889450        0.55826788713401
H           -1.96261921753208        2.08988241978868        0.51410995175144
H           -2.10536663434502        0.88316607058867        1.81253126342985
H           -2.03938203666832       -0.60155391572855       -1.99071314588075
H           -3.38734834906312       -0.52503301068510       -0.85235213659652
H           -2.18204938146258       -1.80570479232995       -0.68989138568495
H            0.05287411451025        1.57223620456855        1.46685936625803
H            2.46871718646278        1.39821450461597        1.56087333348312
