%Chk=Mo3O8.chk
%NProcShared=8
%Mem=48GB
#P PBE1PBE/Def2SVP EmpiricalDispersion=GD3BJ SP SCF=(XQC,MaxCycle=128) NoSymm Guess=Read

Mo3O8 t=0.833 dz=+0.60 class=dimer

0 2
 Mo     1.52706000    -0.00003000    -0.31474700
 O      2.65451200     0.00012800    -1.48184900
 O      0.93047600     1.49302500     0.25224400
 Mo    -0.91680700     1.55028200    -0.05109000
 O     -1.45905800     1.91408300     1.44576700
 O     -1.21034200     2.70691000    -1.16790800
 O     -1.71702000    -0.00000200    -0.50989800
 Mo    -0.91684900    -1.55029200    -0.05112600
 O     -1.45894500    -1.91397500     1.44581900
 O     -1.21055800    -2.70697100    -1.16784300
 O      0.93045200    -1.49315900     0.25202300
 Mo     6.72548783    -0.00014909    -3.87372832
 O      5.22958130    -0.00030709    -3.24480962
 O      7.46988846    -1.49320409    -4.22481090
 Mo     7.85532493    -1.55046109    -6.05672376
 O      9.44696733    -1.91426209    -6.02078668
 O      6.92031942    -2.70708909    -6.73437406
 O      7.71705304    -0.00017709    -6.96871417
 Mo     7.85530656     1.55011291    -6.05677593
 O      9.44697494     1.91379591    -6.02066252
 O      6.92045815     2.70679191    -6.73455192
 O      7.46969110     1.49297991    -4.22491322
 Ag     7.77980333    -0.00012925    -0.47506395

