%Chk=Mo3O8.chk
%NProcShared=16
%Mem=32GB
#P PBE1PBE/Def2SVP EmpiricalDispersion=GD3BJ SP SCF=(XQC,MaxCycle=128,VShift=300) NoSymm Guess=Read

Mo3O8 t=0.667 dz=+0.40 class=site2site

0 2
 Mo     1.52706000    -0.00003000    -0.31474700
 O      2.65451200     0.00012800    -1.48184900
 O      0.93047600     1.49302500     0.25224400
 Mo    -0.91680700     1.55028200    -0.05109000
 O     -1.45905800     1.91408300     1.44576700
 O     -1.21034200     2.70691000    -1.16790800
 O     -1.71702000    -0.00000200    -0.50989800
 Mo    -0.91684900    -1.55029200    -0.05112600
 O     -1.45894500    -1.91397500     1.44581900
 O     -1.21055800    -2.70697100    -1.16784300
 O      0.93045200    -1.49315900     0.25202300
 Ag     1.81853547     1.03351133     2.66652515

